<?xml version="1.0"?>
<VTKFile type="UnstructuredGrid" version="0.1" byte_order="LittleEndian">
<UnstructuredGrid>
<Piece NumberOfPoints="31364" NumberOfCells="10963">
<Points>
<DataArray type="Float64" NumberOfComponents="3" format="ascii">
-0.5 -0.5 0 -0.47923561459112152 -0.44443574669253838 0 -0.5 -0.40184768675683319 0 -0.5 -0.5 0 -0.46012471450501102 -0.46780108282305249 0 -0.47923561459112152 -0.44443574669253838 0 -0.5 -0.5 0 -0.44174741682060992 -0.48083562005243102 0 -0.40748061551896958 -0.5 0 -0.5 -0.5 0 -0.44174741682060992 -0.48083562005243102 0 -0.46012471450501102 -0.46780108282305249 0 -0.44174741682060992 -0.48083562005243102 0 -0.46012471450501102 -0.46780108282305249 0 -0.43236737799726033 -0.45966166965137317 0 -0.44826723710970118 -0.45199458572407242 0 -0.46119552876922271 -0.44018491488949402 0 -0.4364097597143915 -0.43618808862509217 0 -0.44826723710970118 -0.45199458572407242 0 -0.4364097597143915 -0.43618808862509217 0 -0.43236737799726033 -0.45966166965137317 0 -0.44826723710970118 -0.45199458572407242 0 -0.4364097597143915 -0.43618808862509217 0 -0.44826723710970118 -0.45199458572407242 0 -0.46012471450501102 -0.46780108282305249 0 -0.43236737799726033 -0.45966166965137317 0 -0.44826723710970118 -0.45199458572407242 0 -0.46012471450501102 -0.46780108282305249 0 -0.44826723710970118 -0.45199458572407242 0 -0.46012471450501102 -0.46780108282305249 0 -0.46119552876922271 -0.44018491488949402 0 -0.46012471450501102 -0.46780108282305249 0 -0.46119552876922271 -0.44018491488949402 0 -0.47923561459112152 -0.44443574669253838 0 -0.47923561459112152 -0.44443574669253838 0 -0.4734472738674676 -0.41189007714261022 0 -0.5 -0.40184768675683319 0 -0.46119552876922271 -0.44018491488949402 0 -0.47923561459112152 -0.44443574669253838 0 -0.4734472738674676 -0.41189007714261022 0 -0.48518733011659848 -0.38506416976922292 0 -0.5 -0.40184768675683319 0 -0.48407733713093642 -0.36224817451159441 0 -0.4734472738674676 -0.41189007714261022 0 -0.5 -0.40184768675683319 0 -0.49196603094400598 -0.39974107140136972 0 -0.48518733011659848 -0.38506416976922292 0 -0.5 -0.40184768675683319 0 -0.49196603094400598 -0.39974107140136972 0 -0.48518733011659848 -0.38506416976922292 0 -0.49196603094400598 -0.39974107140136972 0 -0.47685174507506672 -0.39765484536907908 0 -0.4734472738674676 -0.41189007714261022 0 -0.49196603094400598 -0.39974107140136972 0 -0.47685174507506672 -0.39765484536907908 0 -0.4734472738674676 -0.41189007714261022 0 -0.49196603094400598 -0.39974107140136972 0 -0.4734472738674676 -0.41189007714261022 0 -0.47685174507506672 -0.39765484536907908 0 -0.45844589060966062 -0.40086057772148542 0 -0.48518733011659848 -0.38506416976922292 0 -0.46920744949757692 -0.38740384469278488 0 -0.46750842263902792 -0.37228425141029542 0 -0.48518733011659848 -0.38506416976922292 0 -0.47685174507506672 -0.39765484536907908 0 -0.46920744949757692 -0.38740384469278488 0 -0.46920744949757692 -0.38740384469278488 0 -0.45470384220908622 -0.3815417340125149 0 -0.45844589060966062 -0.40086057772148542 0 -0.46920744949757692 -0.38740384469278488 0 -0.45470384220908622 -0.3815417340125149 0 -0.46750842263902792 -0.37228425141029542 0 -0.47685174507506672 -0.39765484536907908 0 -0.46920744949757692 -0.38740384469278488 0 -0.45844589060966062 -0.40086057772148542 0 -0.45470384220908622 -0.3815417340125149 0 -0.45844589060966062 -0.40086057772148542 0 -0.44007732661823112 -0.39111384719816639 0 -0.45844589060966062 -0.40086057772148542 0 -0.44007732661823112 -0.39111384719816639 0 -0.43951315129474572 -0.41118031471198407 0 -0.45470384220908622 -0.3815417340125149 0 -0.44007732661823112 -0.39111384719816639 0 -0.4379103329822206 -0.37308902279941408 0 -0.46119552876922271 -0.44018491488949402 0 -0.4734472738674676 -0.41189007714261022 0 -0.45492851679092922 -0.42403908288385062 0 -0.4734472738674676 -0.41189007714261022 0 -0.45844589060966062 -0.40086057772148542 0 -0.45492851679092922 -0.42403908288385062 0 -0.4734472738674676 -0.41189007714261022 0 -0.45492851679092922 -0.42403908288385062 0 -0.45844589060966062 -0.40086057772148542 0 -0.45492851679092922 -0.42403908288385062 0 -0.43951315129474572 -0.41118031471198407 0 -0.46119552876922271 -0.44018491488949402 0 -0.45492851679092922 -0.42403908288385062 0 -0.4364097597143915 -0.43618808862509217 0 -0.45492851679092922 -0.42403908288385062 0 -0.4364097597143915 -0.43618808862509217 0 -0.45492851679092922 -0.42403908288385062 0 -0.43951315129474572 -0.41118031471198407 0 -0.4364097597143915 -0.43618808862509217 0 -0.4364097597143915 -0.43618808862509217 0 -0.41902722362035227 -0.41301646474731651 0 -0.41973426710848538 -0.43059808026916357 0 -0.4364097597143915 -0.43618808862509217 0 -0.41902722362035227 -0.41301646474731651 0 -0.43951315129474572 -0.41118031471198407 0 -0.41902722362035227 -0.41301646474731651 0 -0.42688961785318807 -0.39799734463124692 0 -0.43951315129474572 -0.41118031471198407 0 -0.4364097597143915 -0.43618808862509217 0 -0.41902722362035227 -0.41301646474731651 0 -0.41902722362035227 -0.41301646474731651 0 -0.39931438752054038 -0.40356587878924738 0 -0.40322753768877378 -0.4134355993345547 0 -0.41902722362035227 -0.41301646474731651 0 -0.41110160916373939 -0.42271259208851952 0 -0.40322753768877378 -0.4134355993345547 0 -0.41110160916373939 -0.42271259208851952 0 -0.41053167651649131 -0.43436760493744669 0 -0.40054609476145547 -0.42214176313073309 0 -0.41110160916373939 -0.42271259208851952 0 -0.41053167651649131 -0.43436760493744669 0 -0.41973426710848538 -0.43059808026916357 0 -0.41053167651649131 -0.43436760493744669 0 -0.41973426710848538 -0.43059808026916357 0 -0.42038044346588288 -0.44670392693575173 0 -0.41902722362035227 -0.41301646474731651 0 -0.41110160916373939 -0.42271259208851952 0 -0.41973426710848538 -0.43059808026916357 0 -0.44007732661823112 -0.39111384719816639 0 -0.42190409334729168 -0.38180158975939521 0 -0.4379103329822206 -0.37308902279941408 0 -0.44007732661823112 -0.39111384719816639 0 -0.42190409334729168 -0.38180158975939521 0 -0.42688961785318807 -0.39799734463124692 0 -0.44007732661823112 -0.39111384719816639 0 -0.43951315129474572 -0.41118031471198407 0 -0.42688961785318807 -0.39799734463124692 0 -0.41902722362035227 -0.41301646474731651 0 -0.40164468752631333 -0.3898448408695408 0 -0.41902722362035227 -0.41301646474731651 0 -0.42688961785318807 -0.39799734463124692 0 -0.41588964973809889 -0.393022640911173 0 -0.42190409334729168 -0.38180158975939521 0 -0.42688961785318807 -0.39799734463124692 0 -0.41588964973809889 -0.393022640911173 0 -0.41902722362035227 -0.41301646474731651 0 -0.40164468752631333 -0.3898448408695408 0 -0.39931438752054038 -0.40356587878924738 0 -0.41902722362035227 -0.41301646474731651 0 -0.41588964973809889 -0.393022640911173 0 -0.40164468752631333 -0.3898448408695408 0 -0.42190409334729168 -0.38180158975939521 0 -0.41588964973809889 -0.393022640911173 0 -0.40905564308123771 -0.38256147179756722 0 -0.41588964973809889 -0.393022640911173 0 -0.40905564308123771 -0.38256147179756722 0 -0.40164468752631333 -0.3898448408695408 0 -0.42190409334729168 -0.38180158975939521 0 -0.40905564308123771 -0.38256147179756722 0 -0.40708191026735863 -0.37005123040099891 0 -0.39875787452712569 -0.37808705704672813 0 -0.38920413716619873 -0.38567415539685779 0 -0.38587601133240879 -0.36241209401787738 0 -0.40905564308123771 -0.38256147179756722 0 -0.39875787452712569 -0.37808705704672813 0 -0.40708191026735863 -0.37005123040099891 0 -0.40905564308123771 -0.38256147179756722 0 -0.39875787452712569 -0.37808705704672813 0 -0.40164468752631333 -0.3898448408695408 0 -0.39875787452712569 -0.37808705704672813 0 -0.40164468752631333 -0.3898448408695408 0 -0.38920413716619873 -0.38567415539685779 0 -0.39931438752054038 -0.40356587878924738 0 -0.38920413716619873 -0.38567415539685779 0 -0.39253226299999161 -0.40893621677583791 0 -0.40164468752631333 -0.3898448408695408 0 -0.39931438752054038 -0.40356587878924738 0 -0.38920413716619873 -0.38567415539685779 0 -0.38920413716619873 -0.38567415539685779 0 -0.39253226299999161 -0.40893621677583791 0 -0.38314814314964168 -0.40378743179418708 0 -0.37734110255115211 -0.39748869041215379 0 -0.38920413716619873 -0.38567415539685779 0 -0.38314814314964168 -0.40378743179418708 0 -0.38920413716619873 -0.38567415539685779 0 -0.39253226299999161 -0.40893621677583791 0 -0.38314814314964168 -0.40378743179418708 0 -0.37734110255115211 -0.39748869041215379 0 -0.37270150913827438 -0.40629795572893979 0 -0.37658995856295657 -0.38657385581986459 0 -0.38587601133240879 -0.36241209401787738 0 -0.36581332631384972 -0.37995636686610401 0 -0.38920413716619873 -0.38567415539685779 0 -0.37658995856295657 -0.38657385581986459 0 -0.38587601133240879 -0.36241209401787738 0 -0.37734110255115211 -0.39748869041215379 0 -0.38920413716619873 -0.38567415539685779 0 -0.37658995856295657 -0.38657385581986459 0 -0.39348358264628303 -0.42601102118616252 0 -0.39739403950095109 -0.43501083691664061 0 -0.40054609476145547 -0.42214176313073309 0 -0.39348358264628303 -0.42601102118616252 0 -0.40054609476145547 -0.42214176313073309 0 -0.3944916053609237 -0.41880146558125181 0 -0.39348358264628303 -0.42601102118616252 0 -0.39739403950095109 -0.43501083691664061 0 -0.38671421965396019 -0.43255210866021482 0 -0.41053167651649131 -0.43436760493744669 0 -0.39739403950095109 -0.43501083691664061 0 -0.40054609476145547 -0.42214176313073309 0 -0.40054609476145547 -0.42214176313073309 0 -0.40322753768877378 -0.4134355993345547 0 -0.39759071182071271 -0.41502243956528728 0 -0.41110160916373939 -0.42271259208851952 0 -0.40054609476145547 -0.42214176313073309 0 -0.40322753768877378 -0.4134355993345547 0 -0.39931438752054038 -0.40356587878924738 0 -0.40322753768877378 -0.4134355993345547 0 -0.39692366940308182 -0.41017286207349157 0 -0.40322753768877378 -0.4134355993345547 0 -0.39692366940308182 -0.41017286207349157 0 -0.39759071182071271 -0.41502243956528728 0 -0.39276465188932819 -0.41056050770640551 0 -0.39253226299999161 -0.40893621677583791 0 -0.38845621677183251 -0.42033944141239538 0 -0.39931438752054038 -0.40356587878924738 0 -0.39253226299999161 -0.40893621677583791 0 -0.39931438752054038 -0.40356587878924738 0 -0.39692366940308182 -0.41017286207349157 0 -0.39253226299999161 -0.40893621677583791 0 -0.39692366940308182 -0.41017286207349157 0 -0.39276465188932819 -0.41056050770640551 0 -0.39759071182071271 -0.41502243956528728 0 -0.39692366940308182 -0.41017286207349157 0 -0.39276465188932819 -0.41056050770640551 0 -0.39253226299999161 -0.40893621677583791 0 -0.39276465188932819 -0.41056050770640551 0 -0.39253226299999161 -0.40893621677583791 0 -0.39276465188932819 -0.41056050770640551 0 -0.39759071182071271 -0.41502243956528728 0 -0.3944916053609237 -0.41880146558125181 0 -0.39276465188932819 -0.41056050770640551 0 -0.3944916053609237 -0.41880146558125181 0 -0.38845621677183251 -0.42033944141239538 0 -0.40054609476145547 -0.42214176313073309 0 -0.39759071182071271 -0.41502243956528728 0 -0.3944916053609237 -0.41880146558125181 0 -0.39348358264628303 -0.42601102118616252 0 -0.3944916053609237 -0.41880146558125181 0 -0.38845621677183251 -0.42033944141239538 0 -0.39253226299999161 -0.40893621677583791 0 -0.38845621677183251 -0.42033944141239538 0 -0.37259581749562137 -0.42472263448099368 0 -0.39253226299999161 -0.40893621677583791 0 -0.37259581749562137 -0.42472263448099368 0 -0.39253226299999161 -0.40893621677583791 0 -0.37790358185114742 -0.41187606795758031 0 -0.37259581749562137 -0.42472263448099368 0 -0.38314814314964168 -0.40378743179418708 0 -0.39253226299999161 -0.40893621677583791 0 -0.37790358185114742 -0.41187606795758031 0 -0.38314814314964168 -0.40378743179418708 0 -0.37790358185114742 -0.41187606795758031 0 -0.37270150913827438 -0.40629795572893979 0 -0.38845621677183251 -0.42033944141239538 0 -0.38671421965396019 -0.43255210866021482 0 -0.37259581749562137 -0.42472263448099368 0 -0.39348358264628303 -0.42601102118616252 0 -0.38845621677183251 -0.42033944141239538 0 -0.38671421965396019 -0.43255210866021482 0 -0.38671421965396019 -0.43255210866021482 0 -0.37802410117383278 -0.44029102242635232 0 -0.37259581749562137 -0.42472263448099368 0 -0.38671421965396019 -0.43255210866021482 0 -0.37802410117383278 -0.44029102242635232 0 -0.39033156033524102 -0.44893769553874469 0 -0.38759267533556718 -0.47559526880853242 0 -0.40748061551896958 -0.5 0 -0.34098199040941901 -0.5 0 -0.37802410117383278 -0.44029102242635232 0 -0.39033156033524102 -0.44893769553874469 0 -0.37513886376503969 -0.454883812589926 0 -0.39739403950095109 -0.43501083691664061 0 -0.39033156033524102 -0.44893769553874469 0 -0.40459776940718828 -0.4444479659149993 0 -0.39739403950095109 -0.43501083691664061 0 -0.38671421965396019 -0.43255210866021482 0 -0.39033156033524102 -0.44893769553874469 0 -0.39033156033524102 -0.44893769553874469 0 -0.40459776940718828 -0.4444479659149993 0 -0.40435112721737509 -0.45721976524641239 0 -0.41053167651649131 -0.43436760493744669 0 -0.39739403950095109 -0.43501083691664061 0 -0.40459776940718828 -0.4444479659149993 0 -0.39033156033524102 -0.44893769553874469 0 -0.40435112721737509 -0.45721976524641239 0 -0.38759267533556718 -0.47559526880853242 0 -0.39033156033524102 -0.44893769553874469 0 -0.37513886376503969 -0.454883812589926 0 -0.38759267533556718 -0.47559526880853242 0 -0.38759267533556718 -0.47559526880853242 0 -0.41470784257795651 -0.47466246475174978 0 -0.40748061551896958 -0.5 0 -0.40435112721737509 -0.45721976524641239 0 -0.38759267533556718 -0.47559526880853242 0 -0.41470784257795651 -0.47466246475174978 0 -0.44174741682060992 -0.48083562005243102 0 -0.41470784257795651 -0.47466246475174978 0 -0.40748061551896958 -0.5 0 -0.44174741682060992 -0.48083562005243102 0 -0.41470784257795651 -0.47466246475174978 0 -0.43236737799726033 -0.45966166965137317 0 -0.4364097597143915 -0.43618808862509217 0 -0.43236737799726033 -0.45966166965137317 0 -0.42038044346588288 -0.44670392693575173 0 -0.4364097597143915 -0.43618808862509217 0 -0.41973426710848538 -0.43059808026916357 0 -0.42038044346588288 -0.44670392693575173 0 -0.4364097597143915 -0.43618808862509217 0 -0.42038044346588288 -0.44670392693575173 0 -0.40459776940718828 -0.4444479659149993 0 -0.40435112721737509 -0.45721976524641239 0 -0.42038044346588288 -0.44670392693575173 0 -0.40435112721737509 -0.45721976524641239 0 -0.42038044346588288 -0.44670392693575173 0 -0.41053167651649131 -0.43436760493744669 0 -0.40459776940718828 -0.4444479659149993 0 -0.42038044346588288 -0.44670392693575173 0 -0.40435112721737509 -0.45721976524641239 0 -0.43236737799726033 -0.45966166965137317 0 -0.42038044346588288 -0.44670392693575173 0 -0.40435112721737509 -0.45721976524641239 0 -0.41470784257795651 -0.47466246475174978 0 -0.43236737799726033 -0.45966166965137317 0 -0.44919654988559637 -0.26231446499954891 0 -0.42882862824786411 -0.25215583988111961 0 -0.45645277741734702 -0.2411318597008231 0 -0.44919654988559637 -0.26231446499954891 0 -0.45646980406034082 -0.28006410516255742 0 -0.4327043970020254 -0.27535023003423592 0 -0.45646980406034082 -0.28006410516255742 0 -0.47024296673703608 -0.26214578800260963 0 -0.47574550089000178 -0.28730500482323551 0 -0.44919654988559637 -0.26231446499954891 0 -0.45646980406034082 -0.28006410516255742 0 -0.47024296673703608 -0.26214578800260963 0 -0.44919654988559637 -0.26231446499954891 0 -0.47024296673703608 -0.26214578800260963 0 -0.45645277741734702 -0.2411318597008231 0 -0.47024296673703608 -0.26214578800260963 0 -0.5 -0.27385615966996801 0 -0.47514940566521352 -0.23326952014714999 0 -0.47024296673703608 -0.26214578800260963 0 -0.5 -0.27385615966996801 0 -0.47574550089000178 -0.28730500482323551 0 -0.5 -0.27385615966996801 0 -0.49155390927168918 -0.30153753991075571 0 -0.5 -0.30810319010446852 0 -0.5 -0.27385615966996801 0 -0.47574550089000178 -0.28730500482323551 0 -0.49155390927168918 -0.30153753991075571 0 -0.5 -0.30810319010446852 0 -0.47134800769380769 -0.30850957961881409 0 -0.48326515779251089 -0.32077123544154651 0 -0.5 -0.30810319010446852 0 -0.47134800769380769 -0.30850957961881409 0 -0.49155390927168918 -0.30153753991075571 0 -0.5 -0.30810319010446852 0 -0.47134800769380769 -0.30850957961881409 0 -0.49155390927168918 -0.30153753991075571 0 -0.47134800769380769 -0.30850957961881409 0 -0.47574550089000178 -0.28730500482323551 0 -0.49155390927168918 -0.30153753991075571 0 -0.47134800769380769 -0.30850957961881409 0 -0.47134800769380769 -0.30850957961881409 0 -0.44410245992548142 -0.30890533805811188 0 -0.47134800769380769 -0.30850957961881409 0 -0.44410245992548142 -0.30890533805811188 0 -0.44914797714501098 -0.31616969287383578 0 -0.47134800769380769 -0.30850957961881409 0 -0.45842731532698672 -0.29555583937867053 0 -0.44410245992548142 -0.30890533805811188 0 -0.47574550089000178 -0.28730500482323551 0 -0.47134800769380769 -0.30850957961881409 0 -0.45842731532698672 -0.29555583937867053 0 -0.47134800769380769 -0.30850957961881409 0 -0.44914797714501098 -0.31616969287383578 0 -0.45646980406034082 -0.28006410516255742 0 -0.47574550089000178 -0.28730500482323551 0 -0.45842731532698672 -0.29555583937867053 0 -0.45646980406034082 -0.28006410516255742 0 -0.45842731532698672 -0.29555583937867053 0 -0.44447080406530182 -0.29299516923063368 0 -0.45646980406034082 -0.28006410516255742 0 -0.44447080406530182 -0.29299516923063368 0 -0.4327043970020254 -0.27535023003423592 0 -0.44447080406530182 -0.29299516923063368 0 -0.44410245992548142 -0.30890533805811188 0 -0.4332501760214057 -0.30087153143357381 0 -0.45842731532698672 -0.29555583937867053 0 -0.44447080406530182 -0.29299516923063368 0 -0.44410245992548142 -0.30890533805811188 0 -0.5 -0.40184768675683319 0 -0.5 -0.32845345739505039 0 -0.48407733713093642 -0.36224817451159441 0 -0.44410245992548142 -0.30890533805811188 0 -0.44914797714501098 -0.31616969287383578 0 -0.4269479465962136 -0.32382980612885598 0 -0.44914797714501098 -0.31616969287383578 0 -0.4269479465962136 -0.32382980612885598 0 -0.44914797714501098 -0.31616969287383578 0 -0.440434673554296 -0.3295571925662576 0 -0.45665078417540439 -0.33022523871135728 0 -0.44914797714501098 -0.31616969287383578 0 -0.440434673554296 -0.3295571925662576 0 -0.4269479465962136 -0.32382980612885598 0 -0.44366949960342977 -0.34088416873678229 0 -0.440434673554296 -0.3295571925662576 0 -0.45665078417540439 -0.33022523871135728 0 -0.44366949960342977 -0.34088416873678229 0 -0.45665078417540439 -0.33022523871135728 0 -0.46019187667193001 -0.35155790459510372 0 -0.45665078417540439 -0.33022523871135728 0 -0.47564287011294298 -0.33535989505504898 0 -0.46019187667193001 -0.35155790459510372 0 -0.45665078417540439 -0.33022523871135728 0 -0.47000947120506409 -0.32343005503435041 0 -0.47564287011294298 -0.33535989505504898 0 -0.47134800769380769 -0.30850957961881409 0 -0.44914797714501098 -0.31616969287383578 0 -0.46178906005482168 -0.31958364155958929 0 -0.45665078417540439 -0.33022523871135728 0 -0.46178906005482168 -0.31958364155958929 0 -0.47000947120506409 -0.32343005503435041 0 -0.44914797714501098 -0.31616969287383578 0 -0.45665078417540439 -0.33022523871135728 0 -0.46178906005482168 -0.31958364155958929 0 -0.47134800769380769 -0.30850957961881409 0 -0.46178906005482168 -0.31958364155958929 0 -0.47000947120506409 -0.32343005503435041 0 -0.5 -0.32845345739505039 0 -0.47564287011294298 -0.33535989505504898 0 -0.48407733713093642 -0.36224817451159441 0 -0.47134800769380769 -0.30850957961881409 0 -0.47000947120506409 -0.32343005503435041 0 -0.48326515779251089 -0.32077123544154651 0 -0.47000947120506409 -0.32343005503435041 0 -0.48326515779251089 -0.32077123544154651 0 -0.47564287011294298 -0.33535989505504898 0 -0.5 -0.30810319010446852 0 -0.48326515779251089 -0.32077123544154651 0 -0.5 -0.32845345739505039 0 -0.48326515779251089 -0.32077123544154651 0 -0.5 -0.32845345739505039 0 -0.47564287011294298 -0.33535989505504898 0 -0.47564287011294298 -0.33535989505504898 0 -0.48407733713093642 -0.36224817451159441 0 -0.46019187667193001 -0.35155790459510372 0 -0.48407733713093642 -0.36224817451159441 0 -0.46750842263902792 -0.37228425141029542 0 -0.46019187667193001 -0.35155790459510372 0 -0.48518733011659848 -0.38506416976922292 0 -0.48407733713093642 -0.36224817451159441 0 -0.46750842263902792 -0.37228425141029542 0 -0.45470384220908622 -0.3815417340125149 0 -0.46750842263902792 -0.37228425141029542 0 -0.45168270020803991 -0.36588968088055202 0 -0.46750842263902792 -0.37228425141029542 0 -0.46019187667193001 -0.35155790459510372 0 -0.45168270020803991 -0.36588968088055202 0 -0.44366949960342977 -0.34088416873678229 0 -0.46019187667193001 -0.35155790459510372 0 -0.43872059213396919 -0.3554047434877039 0 -0.46019187667193001 -0.35155790459510372 0 -0.43872059213396919 -0.3554047434877039 0 -0.45168270020803991 -0.36588968088055202 0 -0.45470384220908622 -0.3815417340125149 0 -0.4379103329822206 -0.37308902279941408 0 -0.45168270020803991 -0.36588968088055202 0 -0.43872059213396919 -0.3554047434877039 0 -0.4379103329822206 -0.37308902279941408 0 -0.45168270020803991 -0.36588968088055202 0 -0.43872059213396919 -0.3554047434877039 0 -0.4379103329822206 -0.37308902279941408 0 -0.42216570575384849 -0.36262434959359291 0 -0.42190409334729168 -0.38180158975939521 0 -0.4379103329822206 -0.37308902279941408 0 -0.42216570575384849 -0.36262434959359291 0 -0.44366949960342977 -0.34088416873678229 0 -0.43872059213396919 -0.3554047434877039 0 -0.42570126035492051 -0.34179591915936808 0 -0.43872059213396919 -0.3554047434877039 0 -0.42216570575384849 -0.36262434959359291 0 -0.42570126035492051 -0.34179591915936808 0 -0.42216570575384849 -0.36262434959359291 0 -0.40434917853282909 -0.35157736358343078 0 -0.42570126035492051 -0.34179591915936808 0 -0.42190409334729168 -0.38180158975939521 0 -0.42216570575384849 -0.36262434959359291 0 -0.40708191026735863 -0.37005123040099891 0 -0.42216570575384849 -0.36262434959359291 0 -0.40708191026735863 -0.37005123040099891 0 -0.40434917853282909 -0.35157736358343078 0 -0.39875787452712569 -0.37808705704672813 0 -0.40708191026735863 -0.37005123040099891 0 -0.38587601133240879 -0.36241209401787738 0 -0.40708191026735863 -0.37005123040099891 0 -0.38587601133240879 -0.36241209401787738 0 -0.40434917853282909 -0.35157736358343078 0 -0.38920413716619873 -0.38567415539685779 0 -0.38587601133240879 -0.36241209401787738 0 -0.38587601133240879 -0.36241209401787738 0 -0.38254788549861879 -0.33915003263889681 0 -0.37126441836838858 -0.35831088099670722 0 -0.38587601133240879 -0.36241209401787738 0 -0.38254788549861879 -0.33915003263889681 0 -0.38587601133240879 -0.36241209401787738 0 -0.40434917853282909 -0.35157736358343078 0 -0.38254788549861879 -0.33915003263889681 0 -0.40474791604741611 -0.33148991938387629 0 -0.38254788549861879 -0.33915003263889681 0 -0.40474791604741611 -0.33148991938387629 0 -0.38254788549861879 -0.33915003263889681 0 -0.39237192854864161 -0.32319861932332061 0 -0.40434917853282909 -0.35157736358343078 0 -0.40474791604741611 -0.33148991938387629 0 -0.38254788549861879 -0.33915003263889681 0 -0.38254788549861879 -0.33915003263889681 0 -0.37955177908716492 -0.31820863356870771 0 -0.38254788549861879 -0.33915003263889681 0 -0.37955177908716492 -0.31820863356870771 0 -0.39237192854864161 -0.32319861932332061 0 -0.37955177908716492 -0.31820863356870771 0 -0.38961136438882871 -0.30969685493671062 0 -0.36236581662050238 -0.31009261337601002 0 -0.38254788549861879 -0.33915003263889681 0 -0.37955177908716492 -0.31820863356870771 0 -0.36641377361202621 -0.32593256985010838 0 -0.37955177908716492 -0.31820863356870771 0 -0.39237192854864161 -0.32319861932332061 0 -0.38961136438882871 -0.30969685493671062 0 -0.39237192854864161 -0.32319861932332061 0 -0.40610721354765111 -0.319503259254035 0 -0.38961136438882871 -0.30969685493671062 0 -0.40610721354765111 -0.319503259254035 0 -0.41685691215715509 -0.30930109649741128 0 -0.38961136438882871 -0.30969685493671062 0 -0.40474791604741611 -0.33148991938387629 0 -0.39237192854864161 -0.32319861932332061 0 -0.40610721354765111 -0.319503259254035 0 -0.40474791604741611 -0.33148991938387629 0 -0.4269479465962136 -0.32382980612885598 0 -0.40474791604741611 -0.33148991938387629 0 -0.40610721354765111 -0.319503259254035 0 -0.4269479465962136 -0.32382980612885598 0 -0.40610721354765111 -0.319503259254035 0 -0.4269479465962136 -0.32382980612885598 0 -0.41685691215715509 -0.30930109649741128 0 -0.40434917853282909 -0.35157736358343078 0 -0.40474791604741611 -0.33148991938387629 0 -0.42570126035492051 -0.34179591915936808 0 -0.40474791604741611 -0.33148991938387629 0 -0.42570126035492051 -0.34179591915936808 0 -0.4269479465962136 -0.32382980612885598 0 -0.44366949960342977 -0.34088416873678229 0 -0.440434673554296 -0.3295571925662576 0 -0.42570126035492051 -0.34179591915936808 0 -0.440434673554296 -0.3295571925662576 0 -0.42570126035492051 -0.34179591915936808 0 -0.4269479465962136 -0.32382980612885598 0 -0.44410245992548142 -0.30890533805811188 0 -0.4269479465962136 -0.32382980612885598 0 -0.41685691215715509 -0.30930109649741128 0 -0.44410245992548142 -0.30890533805811188 0 -0.41685691215715509 -0.30930109649741128 0 -0.44410245992548142 -0.30890533805811188 0 -0.4332501760214057 -0.30087153143357381 0 -0.41685691215715509 -0.30930109649741128 0 -0.4332501760214057 -0.30087153143357381 0 -0.42757052793768469 -0.29228452194813848 0 -0.41685691215715509 -0.30930109649741128 0 -0.42757052793768469 -0.29228452194813848 0 -0.4178961798388654 -0.28298229200717562 0 -0.4327043970020254 -0.27535023003423592 0 -0.44447080406530182 -0.29299516923063368 0 -0.4332501760214057 -0.30087153143357381 0 -0.42757052793768469 -0.29228452194813848 0 -0.44447080406530182 -0.29299516923063368 0 -0.42757052793768469 -0.29228452194813848 0 -0.4327043970020254 -0.27535023003423592 0 -0.42757052793768469 -0.29228452194813848 0 -0.41419815221053669 -0.29381049012426219 0 -0.4178961798388654 -0.28298229200717562 0 -0.41419815221053669 -0.29381049012426219 0 -0.4178961798388654 -0.28298229200717562 0 -0.40422095645208378 -0.28639001424183402 0 -0.41419815221053669 -0.29381049012426219 0 -0.40326216481768179 -0.29887417181451648 0 -0.40422095645208378 -0.28639001424183402 0 -0.41419815221053669 -0.29381049012426219 0 -0.41685691215715509 -0.30930109649741128 0 -0.40326216481768179 -0.29887417181451648 0 -0.42757052793768469 -0.29228452194813848 0 -0.41419815221053669 -0.29381049012426219 0 -0.41685691215715509 -0.30930109649741128 0 -0.41685691215715509 -0.30930109649741128 0 -0.40326216481768179 -0.29887417181451648 0 -0.38961136438882871 -0.30969685493671062 0 -0.41685691215715509 -0.30930109649741128 0 -0.38961136438882871 -0.30969685493671062 0 -0.40326216481768179 -0.29887417181451648 0 -0.38961136438882871 -0.30969685493671062 0 -0.3899742320834817 -0.29426019742795068 0 -0.38961136438882871 -0.30969685493671062 0 -0.37601421243779298 -0.29880438855279179 0 -0.36236581662050238 -0.31009261337601002 0 -0.38961136438882871 -0.30969685493671062 0 -0.36236581662050238 -0.31009261337601002 0 -0.38961136438882871 -0.30969685493671062 0 -0.37601421243779298 -0.29880438855279179 0 -0.3899742320834817 -0.29426019742795068 0 -0.37601421243779298 -0.29880438855279179 0 -0.37561185424272958 -0.28395874694458728 0 -0.3899742320834817 -0.29426019742795068 0 -0.37561185424272958 -0.28395874694458728 0 -0.3899742320834817 -0.29426019742795068 0 -0.39067471267408982 -0.27943615650090597 0 -0.3899742320834817 -0.29426019742795068 0 -0.40422095645208378 -0.28639001424183402 0 -0.39067471267408982 -0.27943615650090597 0 -0.40326216481768179 -0.29887417181451648 0 -0.3899742320834817 -0.29426019742795068 0 -0.40422095645208378 -0.28639001424183402 0 -0.39067471267408982 -0.27943615650090597 0 -0.38796331349011443 -0.26301535694688227 0 -0.4107868655919964 -0.26707620368740748 0 -0.40422095645208378 -0.28639001424183402 0 -0.39067471267408982 -0.27943615650090597 0 -0.4107868655919964 -0.26707620368740748 0 -0.37561185424272958 -0.28395874694458728 0 -0.39067471267408982 -0.27943615650090597 0 -0.38796331349011443 -0.26301535694688227 0 -0.37561185424272958 -0.28395874694458728 0 -0.38796331349011443 -0.26301535694688227 0 -0.36732279919872213 -0.2654413245954525 0 -0.38796331349011443 -0.26301535694688227 0 -0.36732279919872213 -0.2654413245954525 0 -0.37841784177742749 -0.23980971929564329 0 -0.38796331349011443 -0.26301535694688227 0 -0.4107868655919964 -0.26707620368740748 0 -0.40532124195949121 -0.24504659159658509 0 -0.4107868655919964 -0.26707620368740748 0 -0.42882862824786411 -0.25215583988111961 0 -0.40532124195949121 -0.24504659159658509 0 -0.4178961798388654 -0.28298229200717562 0 -0.4107868655919964 -0.26707620368740748 0 -0.4327043970020254 -0.27535023003423592 0 -0.4178961798388654 -0.28298229200717562 0 -0.40422095645208378 -0.28639001424183402 0 -0.4107868655919964 -0.26707620368740748 0 -0.4107868655919964 -0.26707620368740748 0 -0.4327043970020254 -0.27535023003423592 0 -0.42882862824786411 -0.25215583988111961 0 -0.44919654988559637 -0.26231446499954891 0 -0.4327043970020254 -0.27535023003423592 0 -0.42882862824786411 -0.25215583988111961 0 -0.33388220215066899 -0.26938809641676248 0 -0.32984033196924661 -0.25079586296346412 0 -0.31218064994829509 -0.26915533526918489 0 -0.32984033196924661 -0.25079586296346412 0 -0.31218064994829509 -0.26915533526918489 0 -0.30719362811525203 -0.24701180601075259 0 -0.33388220215066899 -0.26938809641676248 0 -0.32112075870607748 -0.28475026382318519 0 -0.31218064994829509 -0.26915533526918489 0 -0.33388220215066899 -0.26938809641676248 0 -0.35057898406518961 -0.27052893686032198 0 -0.34054397082749721 -0.28382160779524851 0 -0.33388220215066899 -0.26938809641676248 0 -0.34054397082749721 -0.28382160779524851 0 -0.32112075870607748 -0.28475026382318519 0 -0.33388220215066899 -0.26938809641676248 0 -0.32984033196924661 -0.25079586296346412 0 -0.35074909256490078 -0.2544265487002364 0 -0.35074909256490078 -0.2544265487002364 0 -0.36732279919872213 -0.2654413245954525 0 -0.35057898406518961 -0.27052893686032198 0 -0.33388220215066899 -0.26938809641676248 0 -0.35074909256490078 -0.2544265487002364 0 -0.35057898406518961 -0.27052893686032198 0 -0.35074909256490078 -0.2544265487002364 0 -0.36732279919872213 -0.2654413245954525 0 -0.37841784177742749 -0.23980971929564329 0 -0.37561185424272958 -0.28395874694458728 0 -0.36732279919872213 -0.2654413245954525 0 -0.35929186609741992 -0.28193151482998391 0 -0.36732279919872213 -0.2654413245954525 0 -0.35057898406518961 -0.27052893686032198 0 -0.35929186609741992 -0.28193151482998391 0 -0.35057898406518961 -0.27052893686032198 0 -0.35929186609741992 -0.28193151482998391 0 -0.34054397082749721 -0.28382160779524851 0 -0.34903458605534948 -0.29616185398948891 0 -0.35929186609741992 -0.28193151482998391 0 -0.34054397082749721 -0.28382160779524851 0 -0.34903458605534948 -0.29616185398948891 0 -0.35929186609741992 -0.28193151482998391 0 -0.36310522101906723 -0.2955013232492244 0 -0.37561185424272958 -0.28395874694458728 0 -0.35929186609741992 -0.28193151482998391 0 -0.36310522101906723 -0.2955013232492244 0 -0.37601421243779298 -0.29880438855279179 0 -0.37561185424272958 -0.28395874694458728 0 -0.36310522101906723 -0.2955013232492244 0 -0.37601421243779298 -0.29880438855279179 0 -0.36310522101906723 -0.2955013232492244 0 -0.36236581662050238 -0.31009261337601002 0 -0.34903458605534948 -0.29616185398948891 0 -0.36236581662050238 -0.31009261337601002 0 -0.33512026885217611 -0.31048837181530942 0 -0.36236581662050238 -0.31009261337601002 0 -0.34769919406273581 -0.31143936243172371 0 -0.33512026885217611 -0.31048837181530942 0 -0.36236581662050238 -0.31009261337601002 0 -0.33512026885217611 -0.31048837181530942 0 -0.34903458605534948 -0.29616185398948891 0 -0.36310522101906723 -0.2955013232492244 0 -0.36236581662050238 -0.31009261337601002 0 -0.34903458605534948 -0.29616185398948891 0 -0.33512026885217611 -0.31048837181530942 0 -0.33232400177456378 -0.29561073047331288 0 -0.33232400177456378 -0.29561073047331288 0 -0.34054397082749721 -0.28382160779524851 0 -0.32112075870607748 -0.28475026382318519 0 -0.34903458605534948 -0.29616185398948891 0 -0.33232400177456378 -0.29561073047331288 0 -0.34054397082749721 -0.28382160779524851 0 -0.33232400177456378 -0.29561073047331288 0 -0.32112075870607748 -0.28475026382318519 0 -0.30787472108384972 -0.31088413025460881 0 -0.33512026885217611 -0.31048837181530942 0 -0.30787472108384972 -0.31088413025460881 0 -0.33512026885217611 -0.31048837181530942 0 -0.33232400177456378 -0.29561073047331288 0 -0.30787472108384972 -0.31088413025460881 0 -0.33512026885217611 -0.31048837181530942 0 -0.32163636198306178 -0.32024639559854812 0 -0.30787472108384972 -0.31088413025460881 0 -0.32163636198306178 -0.32024639559854812 0 -0.31355728913290831 -0.33603886095343888 0 -0.30787472108384972 -0.31088413025460881 0 -0.32163636198306178 -0.32024639559854812 0 -0.3217915825688924 -0.33028857235237691 0 -0.33148268432408778 -0.32127107221978018 0 -0.31355728913290831 -0.33603886095343888 0 -0.33116601415357277 -0.33389265890094261 0 -0.3146328342444098 -0.3563459553701615 0 -0.31355728913290831 -0.33603886095343888 0 -0.3217915825688924 -0.33028857235237691 0 -0.33116601415357277 -0.33389265890094261 0 -0.32163636198306178 -0.32024639559854812 0 -0.31355728913290831 -0.33603886095343888 0 -0.3217915825688924 -0.33028857235237691 0 -0.3217915825688924 -0.33028857235237691 0 -0.33116601415357277 -0.33389265890094261 0 -0.33148268432408778 -0.32127107221978018 0 -0.33116601415357277 -0.33389265890094261 0 -0.33788176694242672 -0.33783194617508178 0 -0.3297568272425534 -0.35103994892808282 0 -0.33788176694242672 -0.33783194617508178 0 -0.34375779874313928 -0.33308924293559911 0 -0.34935892082742248 -0.34060338741810448 0 -0.33788176694242672 -0.33783194617508178 0 -0.34935892082742248 -0.34060338741810448 0 -0.34317087225446768 -0.35273705813562339 0 -0.33116601415357277 -0.33389265890094261 0 -0.33788176694242672 -0.33783194617508178 0 -0.34375779874313928 -0.33308924293559911 0 -0.33116601415357277 -0.33389265890094261 0 -0.34657827200387681 -0.32553674475895789 0 -0.34375779874313928 -0.33308924293559911 0 -0.34769919406273581 -0.31143936243172371 0 -0.33512026885217611 -0.31048837181530942 0 -0.33148268432408778 -0.32127107221978018 0 -0.34769919406273581 -0.31143936243172371 0 -0.33116601415357277 -0.33389265890094261 0 -0.34657827200387681 -0.32553674475895789 0 -0.34769919406273581 -0.31143936243172371 0 -0.33116601415357277 -0.33389265890094261 0 -0.33148268432408778 -0.32127107221978018 0 -0.34769919406273581 -0.31143936243172371 0 -0.33116601415357277 -0.33389265890094261 0 -0.33512026885217611 -0.31048837181530942 0 -0.32163636198306178 -0.32024639559854812 0 -0.33148268432408778 -0.32127107221978018 0 -0.34769919406273581 -0.31143936243172371 0 -0.34657827200387681 -0.32553674475895789 0 -0.35556912750832392 -0.3201030008425767 0 -0.34657827200387681 -0.32553674475895789 0 -0.35556912750832392 -0.3201030008425767 0 -0.35460986986074522 -0.33080520357181142 0 -0.35556912750832392 -0.3201030008425767 0 -0.36641377361202621 -0.32593256985010838 0 -0.35460986986074522 -0.33080520357181142 0 -0.36236581662050238 -0.31009261337601002 0 -0.34769919406273581 -0.31143936243172371 0 -0.35556912750832392 -0.3201030008425767 0 -0.37955177908716492 -0.31820863356870771 0 -0.36236581662050238 -0.31009261337601002 0 -0.36641377361202621 -0.32593256985010838 0 -0.36236581662050238 -0.31009261337601002 0 -0.35556912750832392 -0.3201030008425767 0 -0.36641377361202621 -0.32593256985010838 0 -0.36641377361202621 -0.32593256985010838 0 -0.35460986986074522 -0.33080520357181142 0 -0.36285937887654318 -0.34594354538726002 0 -0.38254788549861879 -0.33915003263889681 0 -0.36285937887654318 -0.34594354538726002 0 -0.38254788549861879 -0.33915003263889681 0 -0.36641377361202621 -0.32593256985010838 0 -0.36285937887654318 -0.34594354538726002 0 -0.35460986986074522 -0.33080520357181142 0 -0.34935892082742248 -0.34060338741810448 0 -0.36285937887654318 -0.34594354538726002 0 -0.35460986986074522 -0.33080520357181142 0 -0.34375779874313928 -0.33308924293559911 0 -0.34935892082742248 -0.34060338741810448 0 -0.34657827200387681 -0.32553674475895789 0 -0.35460986986074522 -0.33080520357181142 0 -0.34375779874313928 -0.33308924293559911 0 -0.36285937887654318 -0.34594354538726002 0 -0.35922548982052238 -0.36409236607339762 0 -0.35103083868427831 -0.35945179300877728 0 -0.36285937887654318 -0.34594354538726002 0 -0.34317087225446768 -0.35273705813562339 0 -0.34935892082742248 -0.34060338741810448 0 -0.36285937887654318 -0.34594354538726002 0 -0.34317087225446768 -0.35273705813562339 0 -0.36285937887654318 -0.34594354538726002 0 -0.35103083868427831 -0.35945179300877728 0 -0.34317087225446768 -0.35273705813562339 0 -0.35103083868427831 -0.35945179300877728 0 -0.3392415273444972 -0.36319295202807 0 -0.34317087225446768 -0.35273705813562339 0 -0.38254788549861879 -0.33915003263889681 0 -0.36285937887654318 -0.34594354538726002 0 -0.37126441836838858 -0.35831088099670722 0 -0.36285937887654318 -0.34594354538726002 0 -0.37126441836838858 -0.35831088099670722 0 -0.35922548982052238 -0.36409236607339762 0 -0.37126441836838858 -0.35831088099670722 0 -0.35922548982052238 -0.36409236607339762 0 -0.36581332631384972 -0.37995636686610401 0 -0.38587601133240879 -0.36241209401787738 0 -0.37126441836838858 -0.35831088099670722 0 -0.36581332631384972 -0.37995636686610401 0 -0.35922548982052238 -0.36409236607339762 0 -0.35065692512536112 -0.3712930434195354 0 -0.36581332631384972 -0.37995636686610401 0 -0.35922548982052238 -0.36409236607339762 0 -0.35103083868427831 -0.35945179300877728 0 -0.35065692512536112 -0.3712930434195354 0 -0.35103083868427831 -0.35945179300877728 0 -0.35065692512536112 -0.3712930434195354 0 -0.3392415273444972 -0.36319295202807 0 -0.35065692512536112 -0.3712930434195354 0 -0.3392415273444972 -0.36319295202807 0 -0.34060128774656773 -0.38855395788105829 0 -0.3392415273444972 -0.36319295202807 0 -0.3263621833259317 -0.36216242319537972 0 -0.32181754447226668 -0.3780708364552049 0 -0.33788176694242672 -0.33783194617508178 0 -0.3392415273444972 -0.36319295202807 0 -0.33788176694242672 -0.33783194617508178 0 -0.3392415273444972 -0.36319295202807 0 -0.3297568272425534 -0.35103994892808282 0 -0.33788176694242672 -0.33783194617508178 0 -0.3392415273444972 -0.36319295202807 0 -0.34317087225446768 -0.35273705813562339 0 -0.3392415273444972 -0.36319295202807 0 -0.3297568272425534 -0.35103994892808282 0 -0.3263621833259317 -0.36216242319537972 0 -0.3297568272425534 -0.35103994892808282 0 -0.3146328342444098 -0.3563459553701615 0 -0.3263621833259317 -0.36216242319537972 0 -0.33116601415357277 -0.33389265890094261 0 -0.3146328342444098 -0.3563459553701615 0 -0.33116601415357277 -0.33389265890094261 0 -0.3297568272425534 -0.35103994892808282 0 -0.3146328342444098 -0.3563459553701615 0 -0.3146328342444098 -0.3563459553701615 0 -0.3263621833259317 -0.36216242319537972 0 -0.32181754447226668 -0.3780708364552049 0 -0.3146328342444098 -0.3563459553701615 0 -0.29607839423882271 -0.3545489812385032 0 -0.29809965433524688 -0.3787992518393804 0 -0.3146328342444098 -0.3563459553701615 0 -0.29809965433524688 -0.3787992518393804 0 -0.3146328342444098 -0.3563459553701615 0 -0.32181754447226668 -0.3780708364552049 0 -0.29809965433524688 -0.3787992518393804 0 -0.31355728913290831 -0.33603886095343888 0 -0.3146328342444098 -0.3563459553701615 0 -0.29607839423882271 -0.3545489812385032 0 -0.29607839423882271 -0.3545489812385032 0 -0.28155525099076062 -0.36358541887296453 0 -0.28079857886493342 -0.34637354705590762 0 -0.29607839423882271 -0.3545489812385032 0 -0.28079857886493342 -0.34637354705590762 0 -0.29357876790270931 -0.33126777857739992 0 -0.28155525099076062 -0.36358541887296453 0 -0.29809965433524688 -0.3787992518393804 0 -0.27383786267576338 -0.37723989406079328 0 -0.29607839423882271 -0.3545489812385032 0 -0.28155525099076062 -0.36358541887296453 0 -0.29809965433524688 -0.3787992518393804 0 -0.28155525099076062 -0.36358541887296453 0 -0.26749330375595309 -0.36574792493667641 0 -0.27383786267576338 -0.37723989406079328 0 -0.28155525099076062 -0.36358541887296453 0 -0.26749330375595309 -0.36574792493667641 0 -0.27136251501539588 -0.35516938163789369 0 -0.26749330375595309 -0.36574792493667641 0 -0.25956752822520718 -0.35768893958524112 0 -0.27136251501539588 -0.35516938163789369 0 -0.26749330375595309 -0.36574792493667641 0 -0.27383786267576338 -0.37723989406079328 0 -0.26087154130867102 -0.37528427971471501 0 -0.26749330375595309 -0.36574792493667641 0 -0.25678206908687751 -0.36504934985239412 0 -0.26087154130867102 -0.37528427971471501 0 -0.26749330375595309 -0.36574792493667641 0 -0.25678206908687751 -0.36504934985239412 0 -0.25956752822520718 -0.35768893958524112 0 -0.25678206908687751 -0.36504934985239412 0 -0.25026491295981063 -0.3591533028701196 0 -0.24729727552769459 -0.36636066369430792 0 -0.25678206908687751 -0.36504934985239412 0 -0.25026491295981063 -0.3591533028701196 0 -0.25956752822520718 -0.35768893958524112 0 -0.25678206908687751 -0.36504934985239412 0 -0.26087154130867102 -0.37528427971471501 0 -0.24729727552769459 -0.36636066369430792 0 -0.25956752822520718 -0.35768893958524112 0 -0.26457490749728863 -0.34281434295660618 0 -0.24892009194236051 -0.34920057363171508 0 -0.25026491295981063 -0.3591533028701196 0 -0.25956752822520718 -0.35768893958524112 0 -0.24892009194236051 -0.34920057363171508 0 -0.25956752822520718 -0.35768893958524112 0 -0.27136251501539588 -0.35516938163789369 0 -0.26457490749728863 -0.34281434295660618 0 -0.28155525099076062 -0.36358541887296453 0 -0.28079857886493342 -0.34637354705590762 0 -0.27136251501539588 -0.35516938163789369 0 -0.28079857886493342 -0.34637354705590762 0 -0.27136251501539588 -0.35516938163789369 0 -0.26457490749728863 -0.34281434295660618 0 -0.27764163754462362 -0.33085537905207829 0 -0.26457490749728863 -0.34281434295660618 0 -0.26166413941430922 -0.32692630432673292 0 -0.28079857886493342 -0.34637354705590762 0 -0.27764163754462362 -0.33085537905207829 0 -0.26457490749728863 -0.34281434295660618 0 -0.26457490749728863 -0.34281434295660618 0 -0.26166413941430922 -0.32692630432673292 0 -0.2478142613430229 -0.33633621555486087 0 -0.26166413941430922 -0.32692630432673292 0 -0.2478142613430229 -0.33633621555486087 0 -0.24142044924060299 -0.32458422323193992 0 -0.26457490749728863 -0.34281434295660618 0 -0.24892009194236051 -0.34920057363171508 0 -0.2478142613430229 -0.33633621555486087 0 -0.26166413941430922 -0.32692630432673292 0 -0.25338362554719701 -0.31167564713320761 0 -0.24142044924060299 -0.32458422323193992 0 -0.26166413941430922 -0.32692630432673292 0 -0.28062917331552328 -0.31127988869390821 0 -0.25338362554719701 -0.31167564713320761 0 -0.27764163754462362 -0.33085537905207829 0 -0.26166413941430922 -0.32692630432673292 0 -0.28062917331552328 -0.31127988869390821 0 -0.29357876790270931 -0.33126777857739992 0 -0.30787472108384972 -0.31088413025460881 0 -0.28062917331552328 -0.31127988869390821 0 -0.27764163754462362 -0.33085537905207829 0 -0.29357876790270931 -0.33126777857739992 0 -0.28062917331552328 -0.31127988869390821 0 -0.28079857886493342 -0.34637354705590762 0 -0.27764163754462362 -0.33085537905207829 0 -0.29357876790270931 -0.33126777857739992 0 -0.31355728913290831 -0.33603886095343888 0 -0.29607839423882271 -0.3545489812385032 0 -0.29357876790270931 -0.33126777857739992 0 -0.31355728913290831 -0.33603886095343888 0 -0.29357876790270931 -0.33126777857739992 0 -0.30787472108384972 -0.31088413025460881 0 -0.32112075870607748 -0.28475026382318519 0 -0.30787472108384972 -0.31088413025460881 0 -0.29898647704673642 -0.28936424762456497 0 -0.29898647704673642 -0.28936424762456497 0 -0.28062917331552328 -0.31127988869390821 0 -0.27796384121231688 -0.28253747763899267 0 -0.30787472108384972 -0.31088413025460881 0 -0.28062917331552328 -0.31127988869390821 0 -0.30787472108384972 -0.31088413025460881 0 -0.29898647704673642 -0.28936424762456497 0 -0.28062917331552328 -0.31127988869390821 0 -0.28062917331552328 -0.31127988869390821 0 -0.25338362554719701 -0.31167564713320761 0 -0.28062917331552328 -0.31127988869390821 0 -0.25338362554719701 -0.31167564713320761 0 -0.26439216560968543 -0.29665932923510169 0 -0.25338362554719701 -0.31167564713320761 0 -0.26439216560968543 -0.29665932923510169 0 -0.2434535477117922 -0.29604589628799077 0 -0.26439216560968543 -0.29665932923510169 0 -0.25360365773395499 -0.27985881362419779 0 -0.2434535477117922 -0.29604589628799077 0 -0.26439216560968543 -0.29665932923510169 0 -0.27796384121231688 -0.28253747763899267 0 -0.25360365773395499 -0.27985881362419779 0 -0.28062917331552328 -0.31127988869390821 0 -0.26439216560968543 -0.29665932923510169 0 -0.27796384121231688 -0.28253747763899267 0 -0.27796384121231688 -0.28253747763899267 0 -0.2684958022756625 -0.26238831904624688 0 -0.29029076740386378 -0.26554591655984211 0 -0.27796384121231688 -0.28253747763899267 0 -0.25360365773395499 -0.27985881362419779 0 -0.2684958022756625 -0.26238831904624688 0 -0.25360365773395499 -0.27985881362419779 0 -0.2524625491404241 -0.26148940870638571 0 -0.2684958022756625 -0.26238831904624688 0 -0.2524625491404241 -0.26148940870638571 0 -0.2684958022756625 -0.26238831904624688 0 -0.25723666982714699 -0.23820841720532429 0 -0.2524625491404241 -0.26148940870638571 0 -0.24130044097179529 -0.25564058872725781 0 -0.25723666982714699 -0.23820841720532429 0 -0.2684958022756625 -0.26238831904624688 0 -0.29029076740386378 -0.26554591655984211 0 -0.28246916049422771 -0.24363196748454599 0 -0.29029076740386378 -0.26554591655984211 0 -0.30719362811525203 -0.24701180601075259 0 -0.28246916049422771 -0.24363196748454599 0 -0.29898647704673642 -0.28936424762456497 0 -0.27796384121231688 -0.28253747763899267 0 -0.29029076740386378 -0.26554591655984211 0 -0.32112075870607748 -0.28475026382318519 0 -0.29898647704673642 -0.28936424762456497 0 -0.31218064994829509 -0.26915533526918489 0 -0.29898647704673642 -0.28936424762456497 0 -0.29029076740386378 -0.26554591655984211 0 -0.31218064994829509 -0.26915533526918489 0 -0.29029076740386378 -0.26554591655984211 0 -0.31218064994829509 -0.26915533526918489 0 -0.30719362811525203 -0.24701180601075259 0 -0.3360496584152256 -0.46609633961326868 0 -0.34466838681126372 -0.47729461484920249 0 -0.34866387940125732 -0.45890183351767561 0 -0.33847577795391359 -0.45174014852098099 0 -0.32639545128290848 -0.44518076140751339 0 -0.32429218391657699 -0.46297124485581381 0 -0.33847577795391359 -0.45174014852098099 0 -0.32429218391657699 -0.46297124485581381 0 -0.3360496584152256 -0.46609633961326868 0 -0.33847577795391359 -0.45174014852098099 0 -0.32429218391657699 -0.46297124485581381 0 -0.3360496584152256 -0.46609633961326868 0 -0.33847577795391359 -0.45174014852098099 0 -0.34866387940125732 -0.45890183351767561 0 -0.33847577795391359 -0.45174014852098099 0 -0.33883933262238752 -0.43916582003835247 0 -0.35265937199125041 -0.44050905218614861 0 -0.33883933262238752 -0.43916582003835247 0 -0.32639545128290848 -0.44518076140751339 0 -0.3316925784917612 -0.4299361554316431 0 -0.33847577795391359 -0.45174014852098099 0 -0.33883933262238752 -0.43916582003835247 0 -0.32639545128290848 -0.44518076140751339 0 -0.32639545128290848 -0.44518076140751339 0 -0.31219063069865949 -0.43024503353025367 0 -0.30919822363189808 -0.45152240856312681 0 -0.32639545128290848 -0.44518076140751339 0 -0.32429218391657699 -0.46297124485581381 0 -0.30919822363189808 -0.45152240856312681 0 -0.32429218391657699 -0.46297124485581381 0 -0.30919822363189808 -0.45152240856312681 0 -0.30468036048384167 -0.47262618343166463 0 -0.32414806399311608 -0.47957385632267069 0 -0.34098199040941901 -0.5 0 -0.29318389804380351 -0.5 0 -0.32429218391657699 -0.46297124485581381 0 -0.32414806399311608 -0.47957385632267069 0 -0.30468036048384167 -0.47262618343166463 0 -0.32414806399311608 -0.47957385632267069 0 -0.34098199040941901 -0.5 0 -0.34466838681126372 -0.47729461484920249 0 -0.3360496584152256 -0.46609633961326868 0 -0.32414806399311608 -0.47957385632267069 0 -0.34466838681126372 -0.47729461484920249 0 -0.3360496584152256 -0.46609633961326868 0 -0.32429218391657699 -0.46297124485581381 0 -0.32414806399311608 -0.47957385632267069 0 -0.34466838681126372 -0.47729461484920249 0 -0.36213163233952028 -0.47093163540063759 0 -0.34866387940125732 -0.45890183351767561 0 -0.34098199040941901 -0.5 0 -0.34466838681126372 -0.47729461484920249 0 -0.36213163233952028 -0.47093163540063759 0 -0.38759267533556718 -0.47559526880853242 0 -0.34098199040941901 -0.5 0 -0.36213163233952028 -0.47093163540063759 0 -0.37513886376503969 -0.454883812589926 0 -0.36213163233952028 -0.47093163540063759 0 -0.36090849313365653 -0.45293890079502708 0 -0.37513886376503969 -0.454883812589926 0 -0.38759267533556718 -0.47559526880853242 0 -0.36213163233952028 -0.47093163540063759 0 -0.36213163233952028 -0.47093163540063759 0 -0.34866387940125732 -0.45890183351767561 0 -0.36090849313365653 -0.45293890079502708 0 -0.34466838681126372 -0.47729461484920249 0 -0.34866387940125732 -0.45890183351767561 0 -0.34866387940125732 -0.45890183351767561 0 -0.35265937199125041 -0.44050905218614861 0 -0.34866387940125732 -0.45890183351767561 0 -0.35265937199125041 -0.44050905218614861 0 -0.36090849313365653 -0.45293890079502708 0 -0.33847577795391359 -0.45174014852098099 0 -0.34866387940125732 -0.45890183351767561 0 -0.35265937199125041 -0.44050905218614861 0 -0.33847577795391359 -0.45174014852098099 0 -0.35265937199125041 -0.44050905218614861 0 -0.35265937199125041 -0.44050905218614861 0 -0.36090849313365653 -0.45293890079502708 0 -0.36731772627169001 -0.44175453757713468 0 -0.37802410117383278 -0.44029102242635232 0 -0.37513886376503969 -0.454883812589926 0 -0.36731772627169001 -0.44175453757713468 0 -0.37513886376503969 -0.454883812589926 0 -0.36090849313365653 -0.45293890079502708 0 -0.36731772627169001 -0.44175453757713468 0 -0.37802410117383278 -0.44029102242635232 0 -0.36731772627169001 -0.44175453757713468 0 -0.37259581749562137 -0.42472263448099368 0 -0.35265937199125041 -0.44050905218614861 0 -0.37259581749562137 -0.42472263448099368 0 -0.35704402343211711 -0.42032482374613378 0 -0.35265937199125041 -0.44050905218614861 0 -0.36731772627169001 -0.44175453757713468 0 -0.37259581749562137 -0.42472263448099368 0 -0.35265937199125041 -0.44050905218614861 0 -0.37259581749562137 -0.42472263448099368 0 -0.37790358185114742 -0.41187606795758031 0 -0.37259581749562137 -0.42472263448099368 0 -0.36755312332697798 -0.41352947444553873 0 -0.36755312332697798 -0.41352947444553873 0 -0.35704402343211711 -0.42032482374613378 0 -0.36142867487298341 -0.40014059530611878 0 -0.37790358185114742 -0.41187606795758031 0 -0.37270150913827438 -0.40629795572893979 0 -0.36755312332697798 -0.41352947444553873 0 -0.37270150913827438 -0.40629795572893979 0 -0.36755312332697798 -0.41352947444553873 0 -0.36142867487298341 -0.40014059530611878 0 -0.37259581749562137 -0.42472263448099368 0 -0.36755312332697798 -0.41352947444553873 0 -0.35704402343211711 -0.42032482374613378 0 -0.35704402343211711 -0.42032482374613378 0 -0.36142867487298341 -0.40014059530611878 0 -0.3419610481486382 -0.41391496373404651 0 -0.35704402343211711 -0.42032482374613378 0 -0.36142867487298341 -0.40014059530611878 0 -0.35704402343211711 -0.42032482374613378 0 -0.34497348339210349 -0.42846298264547611 0 -0.3419610481486382 -0.41391496373404651 0 -0.35265937199125041 -0.44050905218614861 0 -0.35704402343211711 -0.42032482374613378 0 -0.34497348339210349 -0.42846298264547611 0 -0.35265937199125041 -0.44050905218614861 0 -0.35704402343211711 -0.42032482374613378 0 -0.33883933262238752 -0.43916582003835247 0 -0.35265937199125041 -0.44050905218614861 0 -0.34497348339210349 -0.42846298264547611 0 -0.36581332631384972 -0.37995636686610401 0 -0.36142867487298341 -0.40014059530611878 0 -0.37658995856295657 -0.38657385581986459 0 -0.36581332631384972 -0.37995636686610401 0 -0.36142867487298341 -0.40014059530611878 0 -0.37734110255115211 -0.39748869041215379 0 -0.37658995856295657 -0.38657385581986459 0 -0.36142867487298341 -0.40014059530611878 0 -0.37734110255115211 -0.39748869041215379 0 -0.37270150913827438 -0.40629795572893979 0 -0.36142867487298341 -0.40014059530611878 0 -0.36142867487298341 -0.40014059530611878 0 -0.34060128774656773 -0.38855395788105829 0 -0.3419610481486382 -0.41391496373404651 0 -0.35065692512536112 -0.3712930434195354 0 -0.36581332631384972 -0.37995636686610401 0 -0.34060128774656773 -0.38855395788105829 0 -0.36581332631384972 -0.37995636686610401 0 -0.36142867487298341 -0.40014059530611878 0 -0.34060128774656773 -0.38855395788105829 0 -0.3392415273444972 -0.36319295202807 0 -0.34060128774656773 -0.38855395788105829 0 -0.34060128774656773 -0.38855395788105829 0 -0.33145686060527141 -0.40307904428564723 0 -0.32181754447226668 -0.3780708364552049 0 -0.3392415273444972 -0.36319295202807 0 -0.34060128774656773 -0.38855395788105829 0 -0.32181754447226668 -0.3780708364552049 0 -0.34060128774656773 -0.38855395788105829 0 -0.3419610481486382 -0.41391496373404651 0 -0.34060128774656773 -0.38855395788105829 0 -0.33145686060527141 -0.40307904428564723 0 -0.3419610481486382 -0.41391496373404651 0 -0.33145686060527141 -0.40307904428564723 0 -0.31637389431742879 -0.40256989381845759 0 -0.32181754447226668 -0.3780708364552049 0 -0.31637389431742879 -0.40256989381845759 0 -0.32181754447226668 -0.3780708364552049 0 -0.29975986692871948 -0.39643262120846567 0 -0.34497348339210349 -0.42846298264547611 0 -0.3316925784917612 -0.4299361554316431 0 -0.3419610481486382 -0.41391496373404651 0 -0.33883933262238752 -0.43916582003835247 0 -0.34497348339210349 -0.42846298264547611 0 -0.3316925784917612 -0.4299361554316431 0 -0.33145686060527141 -0.40307904428564723 0 -0.3419610481486382 -0.41391496373404651 0 -0.3247124036686253 -0.41639931136354003 0 -0.3316925784917612 -0.4299361554316431 0 -0.3419610481486382 -0.41391496373404651 0 -0.3247124036686253 -0.41639931136354003 0 -0.33145686060527141 -0.40307904428564723 0 -0.31637389431742879 -0.40256989381845759 0 -0.3247124036686253 -0.41639931136354003 0 -0.31637389431742879 -0.40256989381845759 0 -0.3247124036686253 -0.41639931136354003 0 -0.31052480311807762 -0.41496050068559659 0 -0.3247124036686253 -0.41639931136354003 0 -0.31219063069865949 -0.43024503353025367 0 -0.31052480311807762 -0.41496050068559659 0 -0.32639545128290848 -0.44518076140751339 0 -0.3316925784917612 -0.4299361554316431 0 -0.31219063069865949 -0.43024503353025367 0 -0.3316925784917612 -0.4299361554316431 0 -0.3247124036686253 -0.41639931136354003 0 -0.31219063069865949 -0.43024503353025367 0 -0.31219063069865949 -0.43024503353025367 0 -0.29303660088812938 -0.41567663997153809 0 -0.29399508199164609 -0.43906628826587718 0 -0.31052480311807762 -0.41496050068559659 0 -0.29303660088812938 -0.41567663997153809 0 -0.29975986692871948 -0.39643262120846567 0 -0.31219063069865949 -0.43024503353025367 0 -0.31052480311807762 -0.41496050068559659 0 -0.29303660088812938 -0.41567663997153809 0 -0.29303660088812938 -0.41567663997153809 0 -0.27823815338127478 -0.4306671931060877 0 -0.29399508199164609 -0.43906628826587718 0 -0.32181754447226668 -0.3780708364552049 0 -0.29809965433524688 -0.3787992518393804 0 -0.29975986692871948 -0.39643262120846567 0 -0.31637389431742879 -0.40256989381845759 0 -0.31052480311807762 -0.41496050068559659 0 -0.29975986692871948 -0.39643262120846567 0 -0.29303660088812938 -0.41567663997153809 0 -0.29975986692871948 -0.39643262120846567 0 -0.27757273357882162 -0.39352423687199051 0 -0.29809965433524688 -0.3787992518393804 0 -0.29975986692871948 -0.39643262120846567 0 -0.27757273357882162 -0.39352423687199051 0 -0.29809965433524688 -0.3787992518393804 0 -0.27383786267576338 -0.37723989406079328 0 -0.27757273357882162 -0.39352423687199051 0 -0.27383786267576338 -0.37723989406079328 0 -0.27757273357882162 -0.39352423687199051 0 -0.25449735385820349 -0.38372889264791998 0 -0.27757273357882162 -0.39352423687199051 0 -0.25449735385820349 -0.38372889264791998 0 -0.27757273357882162 -0.39352423687199051 0 -0.27185334156219793 -0.41507660983590938 0 -0.25430814362330401 -0.40911952683226133 0 -0.27757273357882162 -0.39352423687199051 0 -0.25120937307449159 -0.39573472274994997 0 -0.25430814362330401 -0.40911952683226133 0 -0.27757273357882162 -0.39352423687199051 0 -0.25120937307449159 -0.39573472274994997 0 -0.25449735385820349 -0.38372889264791998 0 -0.27383786267576338 -0.37723989406079328 0 -0.25449735385820349 -0.38372889264791998 0 -0.26087154130867102 -0.37528427971471501 0 -0.27823815338127478 -0.4306671931060877 0 -0.25611107633945979 -0.42639545239766968 0 -0.27298784726515368 -0.44815848930390251 0 -0.27823815338127478 -0.4306671931060877 0 -0.25611107633945979 -0.42639545239766968 0 -0.27823815338127478 -0.4306671931060877 0 -0.27185334156219793 -0.41507660983590938 0 -0.25611107633945979 -0.42639545239766968 0 -0.29303660088812938 -0.41567663997153809 0 -0.27757273357882162 -0.39352423687199051 0 -0.27185334156219793 -0.41507660983590938 0 -0.29303660088812938 -0.41567663997153809 0 -0.27823815338127478 -0.4306671931060877 0 -0.27185334156219793 -0.41507660983590938 0 -0.27185334156219793 -0.41507660983590938 0 -0.25430814362330401 -0.40911952683226133 0 -0.25611107633945979 -0.42639545239766968 0 -0.26050370710005849 -0.46308578193529998 0 -0.27298784726515368 -0.44815848930390251 0 -0.24655895640252171 -0.44608312833632618 0 -0.25611107633945979 -0.42639545239766968 0 -0.27298784726515368 -0.44815848930390251 0 -0.24655895640252171 -0.44608312833632618 0 -0.26050370710005849 -0.46308578193529998 0 -0.27298784726515368 -0.44815848930390251 0 -0.27772552916503429 -0.47524520285804561 0 -0.27823815338127478 -0.4306671931060877 0 -0.27298784726515368 -0.44815848930390251 0 -0.29399508199164609 -0.43906628826587718 0 -0.27298784726515368 -0.44815848930390251 0 -0.29399508199164609 -0.43906628826587718 0 -0.29363563341775578 -0.45904493988763773 0 -0.27298784726515368 -0.44815848930390251 0 -0.29363563341775578 -0.45904493988763773 0 -0.27772552916503429 -0.47524520285804561 0 -0.29363563341775578 -0.45904493988763773 0 -0.30919822363189808 -0.45152240856312681 0 -0.30468036048384167 -0.47262618343166463 0 -0.31219063069865949 -0.43024503353025367 0 -0.29399508199164609 -0.43906628826587718 0 -0.30919822363189808 -0.45152240856312681 0 -0.29399508199164609 -0.43906628826587718 0 -0.29363563341775578 -0.45904493988763773 0 -0.30919822363189808 -0.45152240856312681 0 -0.32414806399311608 -0.47957385632267069 0 -0.30468036048384167 -0.47262618343166463 0 -0.29318389804380351 -0.5 0 -0.29363563341775578 -0.45904493988763773 0 -0.30468036048384167 -0.47262618343166463 0 -0.27772552916503429 -0.47524520285804561 0 -0.30468036048384167 -0.47262618343166463 0 -0.29318389804380351 -0.5 0 -0.27772552916503429 -0.47524520285804561 0 -0.29318389804380351 -0.5 0 -0.27772552916503429 -0.47524520285804561 0 -0.25882561554991551 -0.5 0 -0.26050370710005849 -0.46308578193529998 0 -0.27772552916503429 -0.47524520285804561 0 -0.25378798349788151 -0.48023301639570842 0 -0.26050370710005849 -0.46308578193529998 0 -0.25378798349788151 -0.48023301639570842 0 -0.2375601964997095 -0.47036315076924351 0 -0.27772552916503429 -0.47524520285804561 0 -0.25378798349788151 -0.48023301639570842 0 -0.25882561554991551 -0.5 0 -0.25882561554991551 -0.5 0 -0.23286891464354079 -0.5 0 -0.23432486917469 -0.49247094641595268 0 -0.25378798349788151 -0.48023301639570842 0 -0.25882561554991551 -0.5 0 -0.23432486917469 -0.49247094641595268 0 -0.25882561554991551 -0.5 0 -0.23432486917469 -0.49247094641595268 0 -0.25378798349788151 -0.48023301639570842 0 -0.2375601964997095 -0.47036315076924351 0 -0.23432486917469 -0.49247094641595268 0 -0.2375601964997095 -0.47036315076924351 0 -0.2129328262352585 -0.46352025284240211 0 -0.20982412279946461 -0.48494189283190531 0 -0.2375601964997095 -0.47036315076924351 0 -0.23432486917469 -0.49247094641595268 0 -0.20982412279946461 -0.48494189283190531 0 -0.23432486917469 -0.49247094641595268 0 -0.20982412279946461 -0.48494189283190531 0 -0.23286891464354079 -0.5 0 -0.23432486917469 -0.49247094641595268 0 -0.20982412279946461 -0.48494189283190531 0 -0.2375601964997095 -0.47036315076924351 0 -0.24655895640252171 -0.44608312833632618 0 -0.23141223475870479 -0.45483723961351891 0 -0.26050370710005849 -0.46308578193529998 0 -0.2375601964997095 -0.47036315076924351 0 -0.24655895640252171 -0.44608312833632618 0 -0.2375601964997095 -0.47036315076924351 0 -0.23141223475870479 -0.45483723961351891 0 -0.2129328262352585 -0.46352025284240211 0 -0.24655895640252171 -0.44608312833632618 0 -0.23141223475870479 -0.45483723961351891 0 -0.22288989310954821 -0.43929297992095367 0 -0.23141223475870479 -0.45483723961351891 0 -0.22288989310954821 -0.43929297992095367 0 -0.2129328262352585 -0.46352025284240211 0 -0.22288989310954821 -0.43929297992095367 0 -0.2129328262352585 -0.46352025284240211 0 -0.2030124069786316 -0.43770559373650741 0 -0.2129328262352585 -0.46352025284240211 0 -0.19416789170143481 -0.45755921649218229 0 -0.2030124069786316 -0.43770559373650741 0 -0.2129328262352585 -0.46352025284240211 0 -0.19416789170143481 -0.45755921649218229 0 -0.18532337642423921 -0.47741283924785771 0 -0.19416789170143481 -0.45755921649218229 0 -0.18532337642423921 -0.47741283924785771 0 -0.19416789170143481 -0.45755921649218229 0 -0.2030124069786316 -0.43770559373650741 0 -0.17768692149640239 -0.43846214753236129 0 -0.19416789170143481 -0.45755921649218229 0 -0.2030124069786316 -0.43770559373650741 0 -0.23286891464354079 -0.5 0 -0.20982412279946461 -0.48494189283190531 0 -0.2069122137371662 -0.50000000000000211 0 -0.20982412279946461 -0.48494189283190531 0 -0.1808515328719367 -0.48745095802850752 0 -0.18532337642423921 -0.47741283924785771 0 -0.20982412279946461 -0.48494189283190531 0 -0.18532337642423921 -0.47741283924785771 0 -0.2129328262352585 -0.46352025284240211 0 -0.20982412279946461 -0.48494189283190531 0 -0.18532337642423921 -0.47741283924785771 0 -0.20982412279946461 -0.48494189283190531 0 -0.2069122137371662 -0.50000000000000211 0 -0.1808515328719367 -0.48745095802850752 0 -0.2069122137371662 -0.50000000000000211 0 -0.19108666069280339 -0.5 0 -0.1808515328719367 -0.48745095802850752 0 -0.2069122137371662 -0.50000000000000211 0 -0.1808515328719367 -0.48745095802850752 0 -0.19108666069280339 -0.5 0 -0.1808515328719367 -0.48745095802850752 0 -0.17526110764844061 -0.50000000000000366 0 -0.1808515328719367 -0.48745095802850752 0 -0.17526110764844061 -0.50000000000000366 0 -0.1808515328719367 -0.48745095802850752 0 -0.17526110764844061 -0.50000000000000366 0 -0.16567779141247579 -0.49134063859783861 0 -0.17526110764844061 -0.50000000000000366 0 -0.16567779141247579 -0.49134063859783861 0 -0.1551343834230656 -0.49999999999999689 0 -0.1808515328719367 -0.48745095802850752 0 -0.16567779141247579 -0.49134063859783861 0 -0.16424314294032191 -0.47945349305786289 0 -0.16567779141247579 -0.49134063859783861 0 -0.16424314294032191 -0.47945349305786289 0 -0.1552030103868699 -0.48582255634916099 0 -0.16567779141247579 -0.49134063859783861 0 -0.1551343834230656 -0.49999999999999689 0 -0.1552030103868699 -0.48582255634916099 0 -0.16716270666720501 -0.47183208453823139 0 -0.1490020369101708 -0.46625132982860501 0 -0.16424314294032191 -0.47945349305786289 0 -0.16716270666720501 -0.47183208453823139 0 -0.14763475300870679 -0.47145602808721898 0 -0.16424314294032191 -0.47945349305786289 0 -0.16716270666720501 -0.47183208453823139 0 -0.1746562736699073 -0.47907258429009908 0 -0.16716270666720501 -0.47183208453823139 0 -0.1746562736699073 -0.47907258429009908 0 -0.18532337642423921 -0.47741283924785771 0 -0.16716270666720501 -0.47183208453823139 0 -0.18532337642423921 -0.47741283924785771 0 -0.17716636074153619 -0.46064321481433712 0 -0.1808515328719367 -0.48745095802850752 0 -0.16424314294032191 -0.47945349305786289 0 -0.1808515328719367 -0.48745095802850752 0 -0.16424314294032191 -0.47945349305786289 0 -0.1746562736699073 -0.47907258429009908 0 -0.16716270666720501 -0.47183208453823139 0 -0.18532337642423921 -0.47741283924785771 0 -0.1808515328719367 -0.48745095802850752 0 -0.18532337642423921 -0.47741283924785771 0 -0.1808515328719367 -0.48745095802850752 0 -0.1746562736699073 -0.47907258429009908 0 -0.18532337642423921 -0.47741283924785771 0 -0.19416789170143481 -0.45755921649218229 0 -0.18532337642423921 -0.47741283924785771 0 -0.17716636074153619 -0.46064321481433712 0 -0.17716636074153619 -0.46064321481433712 0 -0.17768692149640239 -0.43846214753236129 0 -0.1643670374547235 -0.45579052835019862 0 -0.19416789170143481 -0.45755921649218229 0 -0.17716636074153619 -0.46064321481433712 0 -0.17768692149640239 -0.43846214753236129 0 -0.17768692149640239 -0.43846214753236129 0 -0.1643670374547235 -0.45579052835019862 0 -0.15656942153094891 -0.43744534921574912 0 -0.1643670374547235 -0.45579052835019862 0 -0.1490020369101708 -0.46625132982860501 0 -0.15656942153094891 -0.43744534921574912 0 -0.16716270666720501 -0.47183208453823139 0 -0.1643670374547235 -0.45579052835019862 0 -0.1490020369101708 -0.46625132982860501 0 -0.16716270666720501 -0.47183208453823139 0 -0.17716636074153619 -0.46064321481433712 0 -0.1643670374547235 -0.45579052835019862 0 -0.1490020369101708 -0.46625132982860501 0 -0.1444321259694156 -0.46484700100448151 0 -0.13863583712557359 -0.45100965005262039 0 -0.1490020369101708 -0.46625132982860501 0 -0.1444321259694156 -0.46484700100448151 0 -0.1490020369101708 -0.46625132982860501 0 -0.1444321259694156 -0.46484700100448151 0 -0.14763475300870679 -0.47145602808721898 0 -0.13863583712557359 -0.45100965005262039 0 -0.13597205919020769 -0.43317169848901388 0 -0.15656942153094891 -0.43744534921574912 0 -0.1490020369101708 -0.46625132982860501 0 -0.15656942153094891 -0.43744534921574912 0 -0.1490020369101708 -0.46625132982860501 0 -0.13863583712557359 -0.45100965005262039 0 -0.15656942153094891 -0.43744534921574912 0 -0.13863583712557359 -0.45100965005262039 0 -0.13597205919020769 -0.43317169848901388 0 -0.1209273657791242 -0.44176315549154482 0 -0.13863583712557359 -0.45100965005262039 0 -0.12267335500042589 -0.45943632557472242 0 -0.1209273657791242 -0.44176315549154482 0 -0.1444321259694156 -0.46484700100448151 0 -0.14763475300870679 -0.47145602808721898 0 -0.12267335500042589 -0.45943632557472242 0 -0.1444321259694156 -0.46484700100448151 0 -0.13863583712557359 -0.45100965005262039 0 -0.12267335500042589 -0.45943632557472242 0 -0.14763475300870679 -0.47145602808721898 0 -0.12267335500042589 -0.45943632557472242 0 -0.13220195266968959 -0.47624020067167439 0 -0.14763475300870679 -0.47145602808721898 0 -0.12267335500042589 -0.45943632557472242 0 -0.13220195266968959 -0.47624020067167439 0 -0.132049685895923 -0.49061749654175812 0 -0.14380502702649939 -0.48603425001254003 0 -0.132049685895923 -0.49061749654175812 0 -0.12521349417258831 -0.5 0 -0.1551343834230656 -0.49999999999999689 0 -0.132049685895923 -0.49061749654175812 0 -0.14380502702649939 -0.48603425001254003 0 -0.1551343834230656 -0.49999999999999689 0 -0.132049685895923 -0.49061749654175812 0 -0.1551343834230656 -0.49999999999999689 0 -0.14380502702649939 -0.48603425001254003 0 -0.1551343834230656 -0.49999999999999689 0 -0.1552030103868699 -0.48582255634916099 0 -0.16424314294032191 -0.47945349305786289 0 -0.1552030103868699 -0.48582255634916099 0 -0.14763475300870679 -0.47145602808721898 0 -0.16716270666720501 -0.47183208453823139 0 -0.1490020369101708 -0.46625132982860501 0 -0.14763475300870679 -0.47145602808721898 0 -0.16424314294032191 -0.47945349305786289 0 -0.14763475300870679 -0.47145602808721898 0 -0.14380502702649939 -0.48603425001254003 0 -0.1552030103868699 -0.48582255634916099 0 -0.14763475300870679 -0.47145602808721898 0 -0.1490020369101708 -0.46625132982860501 0 -0.14763475300870679 -0.47145602808721898 0 -0.13220195266968959 -0.47624020067167439 0 -0.14380502702649939 -0.48603425001254003 0 -0.14763475300870679 -0.47145602808721898 0 -0.14380502702649939 -0.48603425001254003 0 -0.14763475300870679 -0.47145602808721898 0 -0.1478566347697238 -0.40549640169853751 0 -0.13157646338772311 -0.40235343479418412 0 -0.1433795595138814 -0.4088446964869718 0 -0.1478566347697238 -0.40549640169853751 0 -0.16413680615172441 -0.40863936860289241 0 -0.1563041080976531 -0.40041677887246108 0 -0.14094318667963651 -0.39702679905488719 0 -0.1487514623514366 -0.39684104476334497 0 -0.14454190130698741 -0.38824429098035751 0 -0.14094318667963651 -0.39702679905488719 0 -0.1478566347697238 -0.40549640169853751 0 -0.1487514623514366 -0.39684104476334497 0 -0.1478566347697238 -0.40549640169853751 0 -0.1487514623514366 -0.39684104476334497 0 -0.1563041080976531 -0.40041677887246108 0 -0.15468326663986309 -0.39108982713781049 0 -0.1487514623514366 -0.39684104476334497 0 -0.14454190130698741 -0.38824429098035751 0 -0.15468326663986309 -0.39108982713781049 0 -0.1487514623514366 -0.39684104476334497 0 -0.1563041080976531 -0.40041677887246108 0 -0.15468326663986309 -0.39108982713781049 0 -0.1542241429844993 -0.37603136075650478 0 -0.14454190130698741 -0.38824429098035751 0 -0.1542241429844993 -0.37603136075650478 0 -0.14454190130698741 -0.38824429098035751 0 -0.13461971533546691 -0.37204108600685931 0 -0.13092027878879889 -0.38880123511953929 0 -0.13461971533546691 -0.37204108600685931 0 -0.12108740855967071 -0.38114056776092681 0 -0.14454190130698741 -0.38824429098035751 0 -0.13092027878879889 -0.38880123511953929 0 -0.13461971533546691 -0.37204108600685931 0 -0.13092027878879889 -0.38880123511953929 0 -0.13157646338772311 -0.40235343479418412 0 -0.1127529974633094 -0.3920012321200208 0 -0.1478566347697238 -0.40549640169853751 0 -0.13157646338772311 -0.40235343479418412 0 -0.14094318667963651 -0.39702679905488719 0 -0.1478566347697238 -0.40549640169853751 0 -0.13157646338772311 -0.40235343479418412 0 -0.14094318667963651 -0.39702679905488719 0 -0.14454190130698741 -0.38824429098035751 0 -0.13092027878879889 -0.38880123511953929 0 -0.14094318667963651 -0.39702679905488719 0 -0.13092027878879889 -0.38880123511953929 0 -0.13157646338772311 -0.40235343479418412 0 -0.13157646338772311 -0.40235343479418412 0 -0.1433795595138814 -0.4088446964869718 0 -0.1307621202024957 -0.41939643977350932 0 -0.13422061498826829 -0.41082833263137691 0 -0.120923414606757 -0.4101805087101501 0 -0.13157646338772311 -0.40235343479418412 0 -0.13422061498826829 -0.41082833263137691 0 -0.120923414606757 -0.4101805087101501 0 -0.1307621202024957 -0.41939643977350932 0 -0.140321810202479 -0.41912945357891618 0 -0.13422061498826829 -0.41082833263137691 0 -0.13157646338772311 -0.40235343479418412 0 -0.13422061498826829 -0.41082833263137691 0 -0.1433795595138814 -0.4088446964869718 0 -0.140321810202479 -0.41912945357891618 0 -0.13422061498826829 -0.41082833263137691 0 -0.1433795595138814 -0.4088446964869718 0 -0.13597205919020769 -0.43317169848901388 0 -0.1209273657791242 -0.44176315549154482 0 -0.1216473709369055 -0.42684453866736272 0 -0.1307621202024957 -0.41939643977350932 0 -0.13597205919020769 -0.43317169848901388 0 -0.1216473709369055 -0.42684453866736272 0 -0.1307621202024957 -0.41939643977350932 0 -0.140321810202479 -0.41912945357891618 0 -0.13597205919020769 -0.43317169848901388 0 -0.14627201156164599 -0.42604562485589248 0 -0.15132449575837489 -0.416489929236733 0 -0.15656942153094891 -0.43744534921574912 0 -0.13597205919020769 -0.43317169848901388 0 -0.14627201156164599 -0.42604562485589248 0 -0.15656942153094891 -0.43744534921574912 0 -0.140321810202479 -0.41912945357891618 0 -0.13597205919020769 -0.43317169848901388 0 -0.14627201156164599 -0.42604562485589248 0 -0.1478566347697238 -0.40549640169853751 0 -0.15132449575837489 -0.416489929236733 0 -0.16413680615172441 -0.40863936860289241 0 -0.1478566347697238 -0.40549640169853751 0 -0.16413680615172441 -0.40863936860289241 0 -0.1478566347697238 -0.40549640169853751 0 -0.1433795595138814 -0.4088446964869718 0 -0.15132449575837489 -0.416489929236733 0 -0.140321810202479 -0.41912945357891618 0 -0.14627201156164599 -0.42604562485589248 0 -0.15132449575837489 -0.416489929236733 0 -0.140321810202479 -0.41912945357891618 0 -0.1433795595138814 -0.4088446964869718 0 -0.15132449575837489 -0.416489929236733 0 -0.15132449575837489 -0.416489929236733 0 -0.16413680615172441 -0.40863936860289241 0 -0.15656942153094891 -0.43744534921574912 0 -0.17768692149640239 -0.43846214753236129 0 -0.16413680615172441 -0.40863936860289241 0 -0.15656942153094891 -0.43744534921574912 0 -0.16413680615172441 -0.40863936860289241 0 -0.15656942153094891 -0.43744534921574912 0 -0.17768692149640239 -0.43846214753236129 0 -0.16413680615172441 -0.40863936860289241 0 -0.18799686420377729 -0.41324566979186261 0 -0.16413680615172441 -0.40863936860289241 0 -0.17719685395536389 -0.40129308706876238 0 -0.18799686420377729 -0.41324566979186261 0 -0.16413680615172441 -0.40863936860289241 0 -0.18799686420377729 -0.41324566979186261 0 -0.17719685395536389 -0.40129308706876238 0 -0.1688369421115844 -0.39074784701090032 0 -0.18781680335436921 -0.39253946286939467 0 -0.17719685395536389 -0.40129308706876238 0 -0.18781680335436921 -0.39253946286939467 0 -0.18799686420377729 -0.41324566979186261 0 -0.16413680615172441 -0.40863936860289241 0 -0.1688369421115844 -0.39074784701090032 0 -0.16413680615172441 -0.40863936860289241 0 -0.17719685395536389 -0.40129308706876238 0 -0.1688369421115844 -0.39074784701090032 0 -0.16413680615172441 -0.40863936860289241 0 -0.1688369421115844 -0.39074784701090032 0 -0.1563041080976531 -0.40041677887246108 0 -0.15468326663986309 -0.39108982713781049 0 -0.1688369421115844 -0.39074784701090032 0 -0.1563041080976531 -0.40041677887246108 0 -0.1542241429844993 -0.37603136075650478 0 -0.1688369421115844 -0.39074784701090032 0 -0.16964814287113791 -0.36576944870152212 0 -0.15468326663986309 -0.39108982713781049 0 -0.1542241429844993 -0.37603136075650478 0 -0.1688369421115844 -0.39074784701090032 0 -0.1688369421115844 -0.39074784701090032 0 -0.1846014351435715 -0.37967625263478461 0 -0.16964814287113791 -0.36576944870152212 0 -0.1688369421115844 -0.39074784701090032 0 -0.1846014351435715 -0.37967625263478461 0 -0.18781680335436921 -0.39253946286939467 0 -0.1846014351435715 -0.37967625263478461 0 -0.19741662461353829 -0.38292485144060923 0 -0.19784770285517531 -0.36871073407885041 0 -0.19741662461353829 -0.38292485144060923 0 -0.21077770697236481 -0.38139659757009342 0 -0.19784770285517531 -0.36871073407885041 0 -0.1846014351435715 -0.37967625263478461 0 -0.19741662461353829 -0.38292485144060923 0 -0.18781680335436921 -0.39253946286939467 0 -0.18781680335436921 -0.39253946286939467 0 -0.20315755491810619 -0.39692337190463001 0 -0.18799686420377729 -0.41324566979186261 0 -0.19741662461353829 -0.38292485144060923 0 -0.18781680335436921 -0.39253946286939467 0 -0.20315755491810619 -0.39692337190463001 0 -0.20315755491810619 -0.39692337190463001 0 -0.21185692225583019 -0.41785197098083338 0 -0.221639448196707 -0.39589275970234111 0 -0.20315755491810619 -0.39692337190463001 0 -0.21077770697236481 -0.38139659757009342 0 -0.221639448196707 -0.39589275970234111 0 -0.19741662461353829 -0.38292485144060923 0 -0.20315755491810619 -0.39692337190463001 0 -0.21077770697236481 -0.38139659757009342 0 -0.2030124069786316 -0.43770559373650741 0 -0.18799686420377729 -0.41324566979186261 0 -0.21185692225583019 -0.41785197098083338 0 -0.2030124069786316 -0.43770559373650741 0 -0.17768692149640239 -0.43846214753236129 0 -0.18799686420377729 -0.41324566979186261 0 -0.18799686420377729 -0.41324566979186261 0 -0.21185692225583019 -0.41785197098083338 0 -0.20315755491810619 -0.39692337190463001 0 -0.18799686420377729 -0.41324566979186261 0 -0.21185692225583019 -0.41785197098083338 0 -0.21185692225583019 -0.41785197098083338 0 -0.221639448196707 -0.39589275970234111 0 -0.22288989310954821 -0.43929297992095367 0 -0.2030124069786316 -0.43770559373650741 0 -0.21185692225583019 -0.41785197098083338 0 -0.2030124069786316 -0.43770559373650741 0 -0.21185692225583019 -0.41785197098083338 0 -0.22288989310954821 -0.43929297992095367 0 -0.21185692225583019 -0.41785197098083338 0 -0.23398399929764499 -0.42212371168925178 0 -0.21185692225583019 -0.41785197098083338 0 -0.23398399929764499 -0.42212371168925178 0 -0.21185692225583019 -0.41785197098083338 0 -0.23398399929764499 -0.42212371168925178 0 -0.23555355501619241 -0.40527805062250549 0 -0.21185692225583019 -0.41785197098083338 0 -0.221639448196707 -0.39589275970234111 0 -0.23555355501619241 -0.40527805062250549 0 -0.25430814362330401 -0.40911952683226133 0 -0.23398399929764499 -0.42212371168925178 0 -0.23555355501619241 -0.40527805062250549 0 -0.25430814362330401 -0.40911952683226133 0 -0.25611107633945979 -0.42639545239766968 0 -0.23398399929764499 -0.42212371168925178 0 -0.25611107633945979 -0.42639545239766968 0 -0.23398399929764499 -0.42212371168925178 0 -0.25611107633945979 -0.42639545239766968 0 -0.24655895640252171 -0.44608312833632618 0 -0.23398399929764499 -0.42212371168925178 0 -0.24655895640252171 -0.44608312833632618 0 -0.22288989310954821 -0.43929297992095367 0 -0.23398399929764499 -0.42212371168925178 0 -0.221639448196707 -0.39589275970234111 0 -0.2314219741375855 -0.37393354842384963 0 -0.2260472628392127 -0.37165201945617943 0 -0.221639448196707 -0.39589275970234111 0 -0.23817577370313339 -0.39010086890843798 0 -0.2314219741375855 -0.37393354842384963 0 -0.221639448196707 -0.39589275970234111 0 -0.2314219741375855 -0.37393354842384963 0 -0.21077770697236481 -0.38139659757009342 0 -0.221639448196707 -0.39589275970234111 0 -0.2260472628392127 -0.37165201945617943 0 -0.221639448196707 -0.39589275970234111 0 -0.23555355501619241 -0.40527805062250549 0 -0.23817577370313339 -0.39010086890843798 0 -0.25120937307449159 -0.39573472274994997 0 -0.25430814362330401 -0.40911952683226133 0 -0.23555355501619241 -0.40527805062250549 0 -0.25120937307449159 -0.39573472274994997 0 -0.23555355501619241 -0.40527805062250549 0 -0.23817577370313339 -0.39010086890843798 0 -0.25449735385820349 -0.38372889264791998 0 -0.2314219741375855 -0.37393354842384963 0 -0.25120937307449159 -0.39573472274994997 0 -0.25449735385820349 -0.38372889264791998 0 -0.23817577370313339 -0.39010086890843798 0 -0.25449735385820349 -0.38372889264791998 0 -0.26087154130867102 -0.37528427971471501 0 -0.23215458505188391 -0.3722890285984814 0 -0.25449735385820349 -0.38372889264791998 0 -0.23215458505188391 -0.3722890285984814 0 -0.2314219741375855 -0.37393354842384963 0 -0.25449735385820349 -0.38372889264791998 0 -0.23817577370313339 -0.39010086890843798 0 -0.2314219741375855 -0.37393354842384963 0 -0.26087154130867102 -0.37528427971471501 0 -0.24729727552769459 -0.36636066369430792 0 -0.23215458505188391 -0.3722890285984814 0 -0.26087154130867102 -0.37528427971471501 0 -0.23215458505188391 -0.3722890285984814 0 -0.25026491295981063 -0.3591533028701196 0 -0.24729727552769459 -0.36636066369430792 0 -0.23875760001691329 -0.35746698758693979 0 -0.24729727552769459 -0.36636066369430792 0 -0.23215458505188391 -0.3722890285984814 0 -0.23875760001691329 -0.35746698758693979 0 -0.23215458505188391 -0.3722890285984814 0 -0.23875760001691329 -0.35746698758693979 0 -0.23215458505188391 -0.3722890285984814 0 -0.23009002731834971 -0.36248750000429603 0 -0.2260472628392127 -0.37165201945617943 0 -0.23215458505188391 -0.3722890285984814 0 -0.2314219741375855 -0.37393354842384963 0 -0.2314219741375855 -0.37393354842384963 0 -0.2260472628392127 -0.37165201945617943 0 -0.23215458505188391 -0.3722890285984814 0 -0.2260472628392127 -0.37165201945617943 0 -0.23215458505188391 -0.3722890285984814 0 -0.2314219741375855 -0.37393354842384963 0 -0.2260472628392127 -0.37165201945617943 0 -0.23215458505188391 -0.3722890285984814 0 -0.23009002731834971 -0.36248750000429603 0 -0.23875760001691329 -0.35746698758693979 0 -0.23009002731834971 -0.36248750000429603 0 -0.22189652138608959 -0.36194330225738081 0 -0.2260472628392127 -0.37165201945617943 0 -0.22189652138608959 -0.36194330225738081 0 -0.2260472628392127 -0.37165201945617943 0 -0.21118747086081091 -0.36534413723327269 0 -0.2272958312366698 -0.35308790848971527 0 -0.23875760001691329 -0.35746698758693979 0 -0.2334221158110274 -0.34044489689627988 0 -0.22052129445612181 -0.3452729178084033 0 -0.2272958312366698 -0.35308790848971527 0 -0.21590494073851299 -0.3542932969088054 0 -0.22189652138608959 -0.36194330225738081 0 -0.2272958312366698 -0.35308790848971527 0 -0.21590494073851299 -0.3542932969088054 0 -0.23009002731834971 -0.36248750000429603 0 -0.22189652138608959 -0.36194330225738081 0 -0.2272958312366698 -0.35308790848971527 0 -0.23009002731834971 -0.36248750000429603 0 -0.2272958312366698 -0.35308790848971527 0 -0.23875760001691329 -0.35746698758693979 0 -0.22052129445612181 -0.3452729178084033 0 -0.2272958312366698 -0.35308790848971527 0 -0.2334221158110274 -0.34044489689627988 0 -0.23875760001691329 -0.35746698758693979 0 -0.24892009194236051 -0.34920057363171508 0 -0.2334221158110274 -0.34044489689627988 0 -0.25026491295981063 -0.3591533028701196 0 -0.23875760001691329 -0.35746698758693979 0 -0.24892009194236051 -0.34920057363171508 0 -0.2478142613430229 -0.33633621555486087 0 -0.24142044924060299 -0.32458422323193992 0 -0.2334221158110274 -0.34044489689627988 0 -0.24892009194236051 -0.34920057363171508 0 -0.2478142613430229 -0.33633621555486087 0 -0.2334221158110274 -0.34044489689627988 0 -0.25338362554719701 -0.31167564713320761 0 -0.24142044924060299 -0.32458422323193992 0 -0.2261380777788706 -0.3120714055725069 0 -0.24142044924060299 -0.32458422323193992 0 -0.2264325986603935 -0.32691366561395158 0 -0.2261380777788706 -0.3120714055725069 0 -0.2264325986603935 -0.32691366561395158 0 -0.2174091742914942 -0.33434505632747652 0 -0.2157723417121577 -0.32302212128029162 0 -0.2264325986603935 -0.32691366561395158 0 -0.2157723417121577 -0.32302212128029162 0 -0.2261380777788706 -0.3120714055725069 0 -0.2264325986603935 -0.32691366561395158 0 -0.2261380777788706 -0.3120714055725069 0 -0.2264325986603935 -0.32691366561395158 0 -0.2334221158110274 -0.34044489689627988 0 -0.2174091742914942 -0.33434505632747652 0 -0.24142044924060299 -0.32458422323193992 0 -0.2264325986603935 -0.32691366561395158 0 -0.2334221158110274 -0.34044489689627988 0 -0.22052129445612181 -0.3452729178084033 0 -0.2334221158110274 -0.34044489689627988 0 -0.2174091742914942 -0.33434505632747652 0 -0.22052129445612181 -0.3452729178084033 0 -0.2174091742914942 -0.33434505632747652 0 -0.20786751273301221 -0.34476109497790802 0 -0.2174091742914942 -0.33434505632747652 0 -0.2055306299046975 -0.32937808022171239 0 -0.2157723417121577 -0.32302212128029162 0 -0.2174091742914942 -0.33434505632747652 0 -0.2055306299046975 -0.32937808022171239 0 -0.20786751273301221 -0.34476109497790802 0 -0.2055306299046975 -0.32937808022171239 0 -0.19762893861058581 -0.33649284913727318 0 -0.20786751273301221 -0.34476109497790802 0 -0.2055306299046975 -0.32937808022171239 0 -0.2157723417121577 -0.32302212128029162 0 -0.20335122792533269 -0.31240239866581038 0 -0.2157723417121577 -0.32302212128029162 0 -0.2261380777788706 -0.3120714055725069 0 -0.20335122792533269 -0.31240239866581038 0 -0.20335122792533269 -0.31240239866581038 0 -0.18056437807179471 -0.31273339175911608 0 -0.2055306299046975 -0.32937808022171239 0 -0.19210987536820581 -0.32303714766519631 0 -0.20335122792533269 -0.31240239866581038 0 -0.19210987536820581 -0.32303714766519631 0 -0.20335122792533269 -0.31240239866581038 0 -0.18056437807179471 -0.31273339175911608 0 -0.19762893861058581 -0.33649284913727318 0 -0.19795442871519339 -0.34867520074893321 0 -0.20786751273301221 -0.34476109497790802 0 -0.2055306299046975 -0.32937808022171239 0 -0.19210987536820581 -0.32303714766519631 0 -0.19762893861058581 -0.33649284913727318 0 -0.19210987536820581 -0.32303714766519631 0 -0.19762893861058581 -0.33649284913727318 0 -0.18468224633181979 -0.33661272207261611 0 -0.19795442871519339 -0.34867520074893321 0 -0.18468224633181979 -0.33661272207261611 0 -0.19762893861058581 -0.33649284913727318 0 -0.19795442871519339 -0.34867520074893321 0 -0.18468224633181979 -0.33661272207261611 0 -0.19795442871519339 -0.34867520074893321 0 -0.18350175373784311 -0.35053542487413641 0 -0.18468224633181979 -0.33661272207261611 0 -0.19795442871519339 -0.34867520074893321 0 -0.19632767888240929 -0.35903625501036529 0 -0.20666101375837409 -0.35535042068615241 0 -0.19795442871519339 -0.34867520074893321 0 -0.19632767888240929 -0.35903625501036529 0 -0.18350175373784311 -0.35053542487413641 0 -0.19632767888240929 -0.35903625501036529 0 -0.19784770285517531 -0.36871073407885041 0 -0.16964814287113791 -0.36576944870152212 0 -0.19632767888240929 -0.35903625501036529 0 -0.19784770285517531 -0.36871073407885041 0 -0.21118747086081091 -0.36534413723327269 0 -0.19632767888240929 -0.35903625501036529 0 -0.21118747086081091 -0.36534413723327269 0 -0.20666101375837409 -0.35535042068615241 0 -0.2260472628392127 -0.37165201945617943 0 -0.19784770285517531 -0.36871073407885041 0 -0.2260472628392127 -0.37165201945617943 0 -0.19784770285517531 -0.36871073407885041 0 -0.21118747086081091 -0.36534413723327269 0 -0.21077770697236481 -0.38139659757009342 0 -0.2260472628392127 -0.37165201945617943 0 -0.19784770285517531 -0.36871073407885041 0 -0.19632767888240929 -0.35903625501036529 0 -0.21118747086081091 -0.36534413723327269 0 -0.2260472628392127 -0.37165201945617943 0 -0.21118747086081091 -0.36534413723327269 0 -0.22189652138608959 -0.36194330225738081 0 -0.21118747086081091 -0.36534413723327269 0 -0.21590494073851299 -0.3542932969088054 0 -0.21118747086081091 -0.36534413723327269 0 -0.21590494073851299 -0.3542932969088054 0 -0.20666101375837409 -0.35535042068615241 0 -0.22052129445612181 -0.3452729178084033 0 -0.21590494073851299 -0.3542932969088054 0 -0.20786751273301221 -0.34476109497790802 0 -0.19795442871519339 -0.34867520074893321 0 -0.20786751273301221 -0.34476109497790802 0 -0.20666101375837409 -0.35535042068615241 0 -0.21590494073851299 -0.3542932969088054 0 -0.20786751273301221 -0.34476109497790802 0 -0.20666101375837409 -0.35535042068615241 0 -0.24130044097179529 -0.25564058872725781 0 -0.22536421211644339 -0.27307276024919092 0 -0.22495585243800931 -0.25249364033624638 0 -0.22536421211644339 -0.27307276024919092 0 -0.2168984341667701 -0.26134027676316163 0 -0.22495585243800931 -0.25249364033624638 0 -0.22536421211644339 -0.27307276024919092 0 -0.22495585243800931 -0.25249364033624638 0 -0.24130044097179529 -0.25564058872725781 0 -0.22536421211644339 -0.27307276024919092 0 -0.2524625491404241 -0.26148940870638571 0 -0.24130044097179529 -0.25564058872725781 0 -0.2416761748935608 -0.27135090492890168 0 -0.24130044097179529 -0.25564058872725781 0 -0.2416761748935608 -0.27135090492890168 0 -0.22536421211644339 -0.27307276024919092 0 -0.2416761748935608 -0.27135090492890168 0 -0.22536421211644339 -0.27307276024919092 0 -0.23654277635611731 -0.28330444759124268 0 -0.25360365773395499 -0.27985881362419779 0 -0.2524625491404241 -0.26148940870638571 0 -0.2416761748935608 -0.27135090492890168 0 -0.25360365773395499 -0.27985881362419779 0 -0.2416761748935608 -0.27135090492890168 0 -0.23654277635611731 -0.28330444759124268 0 -0.22536421211644339 -0.27307276024919092 0 -0.21468482669385339 -0.27093265799678151 0 -0.2168984341667701 -0.26134027676316163 0 -0.22536421211644339 -0.27307276024919092 0 -0.21765267980075531 -0.28150817839260389 0 -0.22536421211644339 -0.27307276024919092 0 -0.21765267980075531 -0.28150817839260389 0 -0.21468482669385339 -0.27093265799678151 0 -0.22536421211644339 -0.27307276024919092 0 -0.22575114494765611 -0.29257208291084891 0 -0.23654277635611731 -0.28330444759124268 0 -0.22536421211644339 -0.27307276024919092 0 -0.22575114494765611 -0.29257208291084891 0 -0.22536421211644339 -0.27307276024919092 0 -0.22575114494765611 -0.29257208291084891 0 -0.21765267980075531 -0.28150817839260389 0 -0.22575114494765611 -0.29257208291084891 0 -0.21575516930932381 -0.29106612113637281 0 -0.21765267980075531 -0.28150817839260389 0 -0.22575114494765611 -0.29257208291084891 0 -0.2153147881826305 -0.30091529405850659 0 -0.21575516930932381 -0.29106612113637281 0 -0.22575114494765611 -0.29257208291084891 0 -0.23654277635611731 -0.28330444759124268 0 -0.2434535477117922 -0.29604589628799077 0 -0.25360365773395499 -0.27985881362419779 0 -0.23654277635611731 -0.28330444759124268 0 -0.2434535477117922 -0.29604589628799077 0 -0.25338362554719701 -0.31167564713320761 0 -0.2434535477117922 -0.29604589628799077 0 -0.2261380777788706 -0.3120714055725069 0 -0.25338362554719701 -0.31167564713320761 0 -0.2261380777788706 -0.3120714055725069 0 -0.22575114494765611 -0.29257208291084891 0 -0.2434535477117922 -0.29604589628799077 0 -0.2261380777788706 -0.3120714055725069 0 -0.22575114494765611 -0.29257208291084891 0 -0.2261380777788706 -0.3120714055725069 0 -0.22575114494765611 -0.29257208291084891 0 -0.2261380777788706 -0.3120714055725069 0 -0.2153147881826305 -0.30091529405850659 0 -0.2261380777788706 -0.3120714055725069 0 -0.20335122792533269 -0.31240239866581038 0 -0.2153147881826305 -0.30091529405850659 0 -0.2261380777788706 -0.3120714055725069 0 -0.20335122792533269 -0.31240239866581038 0 -0.20335122792533269 -0.31240239866581038 0 -0.2153147881826305 -0.30091529405850659 0 -0.20475317708372409 -0.29674158675242968 0 -0.20335122792533269 -0.31240239866581038 0 -0.19567690993347181 -0.30524871152301902 0 -0.20475317708372409 -0.29674158675242968 0 -0.20335122792533269 -0.31240239866581038 0 -0.19567690993347181 -0.30524871152301902 0 -0.18056437807179471 -0.31273339175911608 0 -0.19567690993347181 -0.30524871152301902 0 -0.18648732952796851 -0.30508774647442638 0 -0.18056437807179471 -0.31273339175911608 0 -0.19567690993347181 -0.30524871152301902 0 -0.19361541523649159 -0.29658224819161949 0 -0.18648732952796851 -0.30508774647442638 0 -0.19361541523649159 -0.29658224819161949 0 -0.18269415154630281 -0.29269486040466852 0 -0.18648732952796851 -0.30508774647442638 0 -0.19567690993347181 -0.30524871152301902 0 -0.19361541523649159 -0.29658224819161949 0 -0.20475317708372409 -0.29674158675242968 0 -0.1959405138748733 -0.28464479075428423 0 -0.20810880200075549 -0.28600999134767102 0 -0.20475317708372409 -0.29674158675242968 0 -0.19361541523649159 -0.29658224819161949 0 -0.1959405138748733 -0.28464479075428423 0 -0.20475317708372409 -0.29674158675242968 0 -0.19361541523649159 -0.29658224819161949 0 -0.1959405138748733 -0.28464479075428423 0 -0.18269415154630281 -0.29269486040466852 0 -0.20810880200075549 -0.28600999134767102 0 -0.21765267980075531 -0.28150817839260389 0 -0.20561732606685579 -0.2763664044480999 0 -0.1959405138748733 -0.28464479075428423 0 -0.20810880200075549 -0.28600999134767102 0 -0.20561732606685579 -0.2763664044480999 0 -0.20810880200075549 -0.28600999134767102 0 -0.20475317708372409 -0.29674158675242968 0 -0.21575516930932381 -0.29106612113637281 0 -0.2153147881826305 -0.30091529405850659 0 -0.20475317708372409 -0.29674158675242968 0 -0.21575516930932381 -0.29106612113637281 0 -0.20810880200075549 -0.28600999134767102 0 -0.21575516930932381 -0.29106612113637281 0 -0.21765267980075531 -0.28150817839260389 0 -0.21765267980075531 -0.28150817839260389 0 -0.21468482669385339 -0.27093265799678151 0 -0.20561732606685579 -0.2763664044480999 0 -0.21468482669385339 -0.27093265799678151 0 -0.20561732606685579 -0.2763664044480999 0 -0.20673933226126451 -0.26185429963573698 0 -0.1959405138748733 -0.28464479075428423 0 -0.19497574585899591 -0.2683619248040946 0 -0.18130108778456661 -0.28008820365302611 0 -0.1959405138748733 -0.28464479075428423 0 -0.20561732606685579 -0.2763664044480999 0 -0.19497574585899591 -0.2683619248040946 0 -0.20561732606685579 -0.2763664044480999 0 -0.19497574585899591 -0.2683619248040946 0 -0.20673933226126451 -0.26185429963573698 0 -0.19497574585899591 -0.2683619248040946 0 -0.20673933226126451 -0.26185429963573698 0 -0.19816737708826421 -0.24332479085234021 0 -0.19497574585899591 -0.2683619248040946 0 -0.18208883807815079 -0.26389305948108049 0 -0.19816737708826421 -0.24332479085234021 0 -0.18208883807815079 -0.26389305948108049 0 -0.19816737708826421 -0.24332479085234021 0 -0.20673933226126451 -0.26185429963573698 0 -0.21274794732428029 -0.24834802559785249 0 -0.19816737708826421 -0.24332479085234021 0 -0.21468482669385339 -0.27093265799678151 0 -0.20673933226126451 -0.26185429963573698 0 -0.2168984341667701 -0.26134027676316163 0 -0.22495585243800931 -0.25249364033624638 0 -0.2168984341667701 -0.26134027676316163 0 -0.21274794732428029 -0.24834802559785249 0 -0.20673933226126451 -0.26185429963573698 0 -0.2168984341667701 -0.26134027676316163 0 -0.21274794732428029 -0.24834802559785249 0 -0.16930196674816639 -0.25208280460960758 0 -0.16613823227874569 -0.27011249995767478 0 -0.1788834735570495 -0.2492280067697098 0 -0.15732989424637961 -0.25741631051579289 0 -0.16930196674816639 -0.25208280460960758 0 -0.16040631888775031 -0.27012053781948098 0 -0.16930196674816639 -0.25208280460960758 0 -0.16613823227874569 -0.27011249995767478 0 -0.16040631888775031 -0.27012053781948098 0 -0.16930196674816639 -0.25208280460960758 0 -0.16040631888775031 -0.27012053781948098 0 -0.15732989424637961 -0.25741631051579289 0 -0.16930196674816639 -0.25208280460960758 0 -0.16050787258751101 -0.24526753645713731 0 -0.18208883807815079 -0.26389305948108049 0 -0.1788834735570495 -0.2492280067697098 0 -0.19816737708826421 -0.24332479085234021 0 -0.18208883807815079 -0.26389305948108049 0 -0.16613823227874569 -0.27011249995767478 0 -0.1788834735570495 -0.2492280067697098 0 -0.16613823227874569 -0.27011249995767478 0 -0.1788834735570495 -0.2492280067697098 0 -0.19497574585899591 -0.2683619248040946 0 -0.18208883807815079 -0.26389305948108049 0 -0.18130108778456661 -0.28008820365302611 0 -0.18208883807815079 -0.26389305948108049 0 -0.1660102990680373 -0.28446132810982111 0 -0.18208883807815079 -0.26389305948108049 0 -0.18130108778456661 -0.28008820365302611 0 -0.1660102990680373 -0.28446132810982111 0 -0.18208883807815079 -0.26389305948108049 0 -0.16613823227874569 -0.27011249995767478 0 -0.1660102990680373 -0.28446132810982111 0 -0.16613823227874569 -0.27011249995767478 0 -0.16040631888775031 -0.27012053781948098 0 -0.1660102990680373 -0.28446132810982111 0 -0.16040631888775031 -0.27012053781948098 0 -0.15292286249425741 -0.28552334458930639 0 -0.16040631888775031 -0.27012053781948098 0 -0.1660102990680373 -0.28446132810982111 0 -0.15292286249425741 -0.28552334458930639 0 -0.1660102990680373 -0.28446132810982111 0 -0.14993176005792411 -0.30502959673856178 0 -0.15292286249425741 -0.28552334458930639 0 -0.16397604875809271 -0.29633403910475692 0 -0.1660102990680373 -0.28446132810982111 0 -0.14993176005792411 -0.30502959673856178 0 -0.1660102990680373 -0.28446132810982111 0 -0.14993176005792411 -0.30502959673856178 0 -0.16397604875809271 -0.29633403910475692 0 -0.1660102990680373 -0.28446132810982111 0 -0.17312999634793991 -0.29041644091361352 0 -0.16397604875809271 -0.29633403910475692 0 -0.17312999634793991 -0.29041644091361352 0 -0.1697196881073548 -0.29919091242670959 0 -0.18130108778456661 -0.28008820365302611 0 -0.18269415154630281 -0.29269486040466852 0 -0.17312999634793991 -0.29041644091361352 0 -0.18130108778456661 -0.28008820365302611 0 -0.1660102990680373 -0.28446132810982111 0 -0.17312999634793991 -0.29041644091361352 0 -0.1959405138748733 -0.28464479075428423 0 -0.18130108778456661 -0.28008820365302611 0 -0.18269415154630281 -0.29269486040466852 0 -0.18269415154630281 -0.29269486040466852 0 -0.17312999634793991 -0.29041644091361352 0 -0.1697196881073548 -0.29919091242670959 0 -0.18269415154630281 -0.29269486040466852 0 -0.17564444540554969 -0.30455141462702828 0 -0.1697196881073548 -0.29919091242670959 0 -0.18269415154630281 -0.29269486040466852 0 -0.17564444540554969 -0.30455141462702828 0 -0.18648732952796851 -0.30508774647442638 0 -0.17564444540554969 -0.30455141462702828 0 -0.18648732952796851 -0.30508774647442638 0 -0.18056437807179471 -0.31273339175911608 0 -0.18648732952796851 -0.30508774647442638 0 -0.18056437807179471 -0.31273339175911608 0 -0.17564444540554969 -0.30455141462702828 0 -0.1697196881073548 -0.29919091242670959 0 -0.15875667977432731 -0.31305016207021658 0 -0.17564444540554969 -0.30455141462702828 0 -0.18056437807179471 -0.31273339175911608 0 -0.15875667977432731 -0.31305016207021658 0 -0.16397604875809271 -0.29633403910475692 0 -0.1697196881073548 -0.29919091242670959 0 -0.16068251969351061 -0.30271507132068581 0 -0.16397604875809271 -0.29633403910475692 0 -0.16068251969351061 -0.30271507132068581 0 -0.14993176005792411 -0.30502959673856178 0 -0.1697196881073548 -0.29919091242670959 0 -0.16068251969351061 -0.30271507132068581 0 -0.15875667977432731 -0.31305016207021658 0 -0.16068251969351061 -0.30271507132068581 0 -0.14993176005792411 -0.30502959673856178 0 -0.15875667977432731 -0.31305016207021658 0 -0.14993176005792411 -0.30502959673856178 0 -0.14539036585597279 -0.30090213155315482 0 -0.15292286249425741 -0.28552334458930639 0 -0.14993176005792411 -0.30502959673856178 0 -0.15875667977432731 -0.31305016207021658 0 -0.14348859032101341 -0.31327194051654661 0 -0.14993176005792411 -0.30502959673856178 0 -0.15875667977432731 -0.31305016207021658 0 -0.14539036585597279 -0.30090213155315482 0 -0.14340177704526319 -0.29909479426435709 0 -0.13930187325613569 -0.31333275517240677 0 -0.14993176005792411 -0.30502959673856178 0 -0.14539036585597279 -0.30090213155315482 0 -0.14539036585597279 -0.30090213155315482 0 -0.14340177704526319 -0.29909479426435709 0 -0.14993176005792411 -0.30502959673856178 0 -0.14348859032101341 -0.31327194051654661 0 -0.14993176005792411 -0.30502959673856178 0 -0.14539036585597279 -0.30090213155315482 0 -0.14348859032101341 -0.31327194051654661 0 -0.14539036585597279 -0.30090213155315482 0 -0.14348859032101341 -0.31327194051654661 0 -0.13930187325613569 -0.31333275517240677 0 -0.14539036585597279 -0.30090213155315482 0 -0.13930187325613569 -0.31333275517240677 0 -0.14340177704526319 -0.29909479426435709 0 -0.13500914363655589 -0.31339510972621809 0 -0.13930187325613569 -0.31333275517240677 0 -0.14340177704526319 -0.29909479426435709 0 -0.13500914363655589 -0.31339510972621809 0 -0.14340177704526319 -0.29909479426435709 0 -0.13359691879421179 -0.30628179769647929 0 -0.13500914363655589 -0.31339510972621809 0 -0.13359691879421179 -0.30628179769647929 0 -0.13500914363655589 -0.31339510972621809 0 -0.13181940247648161 -0.31344144269019902 0 -0.13359691879421179 -0.30628179769647929 0 -0.1285367533768986 -0.30925998762068679 0 -0.13181940247648161 -0.31344144269019902 0 -0.13359691879421179 -0.30628179769647929 0 -0.1285367533768986 -0.30925998762068679 0 -0.12806223591387 -0.30264482312176189 0 -0.1285367533768986 -0.30925998762068679 0 -0.12806223591387 -0.30264482312176189 0 -0.1233218650564137 -0.30959565741799261 0 -0.1285367533768986 -0.30925998762068679 0 -0.12427237808688971 -0.31613607221539308 0 -0.1233218650564137 -0.30959565741799261 0 -0.12806223591387 -0.30264482312176189 0 -0.13498695156104731 -0.29932406808048079 0 -0.13116901690637869 -0.29450876044175961 0 -0.12806223591387 -0.30264482312176189 0 -0.13116901690637869 -0.29450876044175961 0 -0.1235437429290084 -0.29547536832135329 0 -0.13359691879421179 -0.30628179769647929 0 -0.12806223591387 -0.30264482312176189 0 -0.13498695156104731 -0.29932406808048079 0 -0.14340177704526319 -0.29909479426435709 0 -0.13359691879421179 -0.30628179769647929 0 -0.13498695156104731 -0.29932406808048079 0 -0.14340177704526319 -0.29909479426435709 0 -0.13498695156104731 -0.29932406808048079 0 -0.13812225437746589 -0.2942964779240686 0 -0.13812225437746589 -0.2942964779240686 0 -0.1349431533500374 -0.28749729490881037 0 -0.14204901995842409 -0.28774078963451472 0 -0.13812225437746589 -0.2942964779240686 0 -0.13116901690637869 -0.29450876044175961 0 -0.1349431533500374 -0.28749729490881037 0 -0.13498695156104731 -0.29932406808048079 0 -0.13812225437746589 -0.2942964779240686 0 -0.13116901690637869 -0.29450876044175961 0 -0.13116901690637869 -0.29450876044175961 0 -0.12740540384098351 -0.2871823888050643 0 -0.1235437429290084 -0.29547536832135329 0 -0.13116901690637869 -0.29450876044175961 0 -0.12740540384098351 -0.2871823888050643 0 -0.1349431533500374 -0.28749729490881037 0 -0.12740540384098351 -0.2871823888050643 0 -0.13106247381214839 -0.28120797859879088 0 -0.12445474201649299 -0.27837977644627282 0 -0.12740540384098351 -0.2871823888050643 0 -0.1349431533500374 -0.28749729490881037 0 -0.13106247381214839 -0.28120797859879088 0 -0.1349431533500374 -0.28749729490881037 0 -0.13829334519471381 -0.28061092781721109 0 -0.13106247381214839 -0.28120797859879088 0 -0.1349431533500374 -0.28749729490881037 0 -0.14204901995842409 -0.28774078963451472 0 -0.13829334519471381 -0.28061092781721109 0 -0.14204901995842409 -0.28774078963451472 0 -0.15292286249425741 -0.28552334458930639 0 -0.1455416699255247 -0.28010690325474957 0 -0.14204901995842409 -0.28774078963451472 0 -0.1455416699255247 -0.28010690325474957 0 -0.13829334519471381 -0.28061092781721109 0 -0.14340177704526319 -0.29909479426435709 0 -0.14204901995842409 -0.28774078963451472 0 -0.15292286249425741 -0.28552334458930639 0 -0.14340177704526319 -0.29909479426435709 0 -0.13812225437746589 -0.2942964779240686 0 -0.14204901995842409 -0.28774078963451472 0 -0.14539036585597279 -0.30090213155315482 0 -0.14340177704526319 -0.29909479426435709 0 -0.15292286249425741 -0.28552334458930639 0 -0.14340177704526319 -0.29909479426435709 0 -0.15292286249425741 -0.28552334458930639 0 -0.14340177704526319 -0.29909479426435709 0 -0.13812225437746589 -0.2942964779240686 0 -0.14539036585597279 -0.30090213155315482 0 -0.15292286249425741 -0.28552334458930639 0 -0.15292286249425741 -0.28552334458930639 0 -0.1500854059211594 -0.27484023072700448 0 -0.1455416699255247 -0.28010690325474957 0 -0.16040631888775031 -0.27012053781948098 0 -0.15292286249425741 -0.28552334458930639 0 -0.1500854059211594 -0.27484023072700448 0 -0.16040631888775031 -0.27012053781948098 0 -0.1500854059211594 -0.27484023072700448 0 -0.14912045287247369 -0.26618002498548821 0 -0.14912045287247369 -0.26618002498548821 0 -0.14340549970874911 -0.27316200172740751 0 -0.13712288968441599 -0.26668608479075551 0 -0.1500854059211594 -0.27484023072700448 0 -0.14912045287247369 -0.26618002498548821 0 -0.14340549970874911 -0.27316200172740751 0 -0.1500854059211594 -0.27484023072700448 0 -0.14340549970874911 -0.27316200172740751 0 -0.1455416699255247 -0.28010690325474957 0 -0.14340549970874911 -0.27316200172740751 0 -0.1455416699255247 -0.28010690325474957 0 -0.13829334519471381 -0.28061092781721109 0 -0.14340549970874911 -0.27316200172740751 0 -0.13829334519471381 -0.28061092781721109 0 -0.13208915290303441 -0.27418856690167742 0 -0.13829334519471381 -0.28061092781721109 0 -0.13106247381214839 -0.28120797859879088 0 -0.13208915290303441 -0.27418856690167742 0 -0.13106247381214839 -0.28120797859879088 0 -0.13208915290303441 -0.27418856690167742 0 -0.12445474201649299 -0.27837977644627282 0 -0.13208915290303441 -0.27418856690167742 0 -0.1257252129849713 -0.26760651690292381 0 -0.13712288968441599 -0.26668608479075551 0 -0.13208915290303441 -0.27418856690167742 0 -0.1257252129849713 -0.26760651690292381 0 -0.12445474201649299 -0.27837977644627282 0 -0.14340549970874911 -0.27316200172740751 0 -0.13208915290303441 -0.27418856690167742 0 -0.13712288968441599 -0.26668608479075551 0 -0.13712288968441599 -0.26668608479075551 0 -0.13398995876330039 -0.25751920465692651 0 -0.14318294807515911 -0.26018553671137279 0 -0.1257252129849713 -0.26760651690292381 0 -0.13712288968441599 -0.26668608479075551 0 -0.13398995876330039 -0.25751920465692651 0 -0.1257252129849713 -0.26760651690292381 0 -0.13398995876330039 -0.25751920465692651 0 -0.1223083114857455 -0.25613110687167828 0 -0.13398995876330039 -0.25751920465692651 0 -0.1223083114857455 -0.25613110687167828 0 -0.13178625741313191 -0.24563913469824819 0 -0.13398995876330039 -0.25751920465692651 0 -0.14555956547881591 -0.25165122890814712 0 -0.13178625741313191 -0.24563913469824819 0 -0.14555956547881591 -0.25165122890814712 0 -0.14318294807515911 -0.26018553671137279 0 -0.14917640328494489 -0.25886766526172778 0 -0.13398995876330039 -0.25751920465692651 0 -0.14555956547881591 -0.25165122890814712 0 -0.14318294807515911 -0.26018553671137279 0 -0.14912045287247369 -0.26618002498548821 0 -0.13712288968441599 -0.26668608479075551 0 -0.14318294807515911 -0.26018553671137279 0 -0.14912045287247369 -0.26618002498548821 0 -0.14318294807515911 -0.26018553671137279 0 -0.14917640328494489 -0.25886766526172778 0 -0.15732989424637961 -0.25741631051579289 0 -0.14912045287247369 -0.26618002498548821 0 -0.14917640328494489 -0.25886766526172778 0 -0.15732989424637961 -0.25741631051579289 0 -0.16040631888775031 -0.27012053781948098 0 -0.14912045287247369 -0.26618002498548821 0 -0.15732989424637961 -0.25741631051579289 0 -0.14555956547881591 -0.25165122890814712 0 -0.14917640328494489 -0.25886766526172778 0 -0.15732989424637961 -0.25741631051579289 0 -0.14555956547881591 -0.25165122890814712 0 -0.15114094217610249 -0.24408778668063341 0 -0.1714356629012159 -0.34441864277437773 0 -0.16964814287113791 -0.36576944870152212 0 -0.15301488964195609 -0.34829566470157958 0 -0.1542241429844993 -0.37603136075650478 0 -0.16964814287113791 -0.36576944870152212 0 -0.15301488964195609 -0.34829566470157958 0 -0.1846014351435715 -0.37967625263478461 0 -0.19784770285517531 -0.36871073407885041 0 -0.16964814287113791 -0.36576944870152212 0 -0.19784770285517531 -0.36871073407885041 0 -0.16964814287113791 -0.36576944870152212 0 -0.19632767888240929 -0.35903625501036529 0 -0.16964814287113791 -0.36576944870152212 0 -0.18350175373784311 -0.35053542487413641 0 -0.1714356629012159 -0.34441864277437773 0 -0.16964814287113791 -0.36576944870152212 0 -0.18350175373784311 -0.35053542487413641 0 -0.1714356629012159 -0.34441864277437773 0 -0.18350175373784311 -0.35053542487413641 0 -0.18468224633181979 -0.33661272207261611 0 -0.1714356629012159 -0.34441864277437773 0 -0.18468224633181979 -0.33661272207261611 0 -0.1714100639484453 -0.32455024339630001 0 -0.18468224633181979 -0.33661272207261611 0 -0.1821916409300664 -0.3242333762233065 0 -0.1714100639484453 -0.32455024339630001 0 -0.18468224633181979 -0.33661272207261611 0 -0.1714100639484453 -0.32455024339630001 0 -0.19210987536820581 -0.32303714766519631 0 -0.18056437807179471 -0.31273339175911608 0 -0.1821916409300664 -0.3242333762233065 0 -0.19210987536820581 -0.32303714766519631 0 -0.18468224633181979 -0.33661272207261611 0 -0.1821916409300664 -0.3242333762233065 0 -0.18056437807179471 -0.31273339175911608 0 -0.1821916409300664 -0.3242333762233065 0 -0.1714100639484453 -0.32455024339630001 0 -0.18056437807179471 -0.31273339175911608 0 -0.1714100639484453 -0.32455024339630001 0 -0.18056437807179471 -0.31273339175911608 0 -0.1714100639484453 -0.32455024339630001 0 -0.15875667977432731 -0.31305016207021658 0 -0.1714100639484453 -0.32455024339630001 0 -0.15639659891449531 -0.32190480275141992 0 -0.1495873622944752 -0.33068777488062701 0 -0.18056437807179471 -0.31273339175911608 0 -0.15875667977432731 -0.31305016207021658 0 -0.1714100639484453 -0.32455024339630001 0 -0.15875667977432731 -0.31305016207021658 0 -0.1714100639484453 -0.32455024339630001 0 -0.15639659891449531 -0.32190480275141992 0 -0.15875667977432731 -0.31305016207021658 0 -0.1714100639484453 -0.32455024339630001 0 -0.15301488964195609 -0.34829566470157958 0 -0.1714356629012159 -0.34441864277437773 0 -0.1714100639484453 -0.32455024339630001 0 -0.15301488964195609 -0.34829566470157958 0 -0.1714100639484453 -0.32455024339630001 0 -0.1495873622944752 -0.33068777488062701 0 -0.15301488964195609 -0.34829566470157958 0 -0.1495873622944752 -0.33068777488062701 0 -0.1414820502422936 -0.33827262098342847 0 -0.15301488964195609 -0.34829566470157958 0 -0.1495873622944752 -0.33068777488062701 0 -0.1414820502422936 -0.33827262098342847 0 -0.1406042898571212 -0.32483246826164308 0 -0.15875667977432731 -0.31305016207021658 0 -0.14583228964073319 -0.3193310306585298 0 -0.14348859032101341 -0.31327194051654661 0 -0.15639659891449531 -0.32190480275141992 0 -0.15875667977432731 -0.31305016207021658 0 -0.14583228964073319 -0.3193310306585298 0 -0.15875667977432731 -0.31305016207021658 0 -0.14348859032101341 -0.31327194051654661 0 -0.15639659891449531 -0.32190480275141992 0 -0.1495873622944752 -0.33068777488062701 0 -0.14583228964073319 -0.3193310306585298 0 -0.1495873622944752 -0.33068777488062701 0 -0.14583228964073319 -0.3193310306585298 0 -0.1406042898571212 -0.32483246826164308 0 -0.14583228964073319 -0.3193310306585298 0 -0.14031930510148971 -0.31970199461217269 0 -0.1406042898571212 -0.32483246826164308 0 -0.14583228964073319 -0.3193310306585298 0 -0.14083548028412171 -0.31675158108975898 0 -0.14348859032101341 -0.31327194051654661 0 -0.14583228964073319 -0.3193310306585298 0 -0.14083548028412171 -0.31675158108975898 0 -0.14031930510148971 -0.31970199461217269 0 -0.14348859032101341 -0.31327194051654661 0 -0.13930187325613569 -0.31333275517240677 0 -0.14083548028412171 -0.31675158108975898 0 -0.14348859032101341 -0.31327194051654661 0 -0.13903843234274091 -0.31620812000857151 0 -0.13717952136363901 -0.31766587328508861 0 -0.12814290376288481 -0.33611556183183322 0 -0.13717952136363901 -0.31766587328508861 0 -0.1406042898571212 -0.32483246826164308 0 -0.12814290376288481 -0.33611556183183322 0 -0.13717952136363901 -0.31766587328508861 0 -0.1293215764797383 -0.3230862281859419 0 -0.12814290376288481 -0.33611556183183322 0 -0.13500914363655589 -0.31339510972621809 0 -0.13717952136363901 -0.31766587328508861 0 -0.1293215764797383 -0.3230862281859419 0 -0.13500914363655589 -0.31339510972621809 0 -0.13181940247648161 -0.31344144269019902 0 -0.13930187325613569 -0.31333275517240677 0 -0.13903843234274091 -0.31620812000857151 0 -0.13717952136363901 -0.31766587328508861 0 -0.13930187325613569 -0.31333275517240677 0 -0.13717952136363901 -0.31766587328508861 0 -0.14348859032101341 -0.31327194051654661 0 -0.13930187325613569 -0.31333275517240677 0 -0.13903843234274091 -0.31620812000857151 0 -0.13500914363655589 -0.31339510972621809 0 -0.13930187325613569 -0.31333275517240677 0 -0.13500914363655589 -0.31339510972621809 0 -0.13930187325613569 -0.31333275517240677 0 -0.13717952136363901 -0.31766587328508861 0 -0.13903843234274091 -0.31620812000857151 0 -0.13717952136363901 -0.31766587328508861 0 -0.13905196806826139 -0.31771715384074051 0 -0.14083548028412171 -0.31675158108975898 0 -0.13905196806826139 -0.31771715384074051 0 -0.14031930510148971 -0.31970199461217269 0 -0.14083548028412171 -0.31675158108975898 0 -0.13903843234274091 -0.31620812000857151 0 -0.13905196806826139 -0.31771715384074051 0 -0.13717952136363901 -0.31766587328508861 0 -0.13905196806826139 -0.31771715384074051 0 -0.14031930510148971 -0.31970199461217269 0 -0.13717952136363901 -0.31766587328508861 0 -0.1293215764797383 -0.3230862281859419 0 -0.13717952136363901 -0.31766587328508861 0 -0.14031930510148971 -0.31970199461217269 0 -0.1406042898571212 -0.32483246826164308 0 -0.13500914363655589 -0.31339510972621809 0 -0.1293215764797383 -0.3230862281859419 0 -0.13181940247648161 -0.31344144269019902 0 -0.1293215764797383 -0.3230862281859419 0 -0.13181940247648161 -0.31344144269019902 0 -0.12427237808688971 -0.31613607221539308 0 -0.13500914363655589 -0.31339510972621809 0 -0.1293215764797383 -0.3230862281859419 0 -0.1285367533768986 -0.30925998762068679 0 -0.13181940247648161 -0.31344144269019902 0 -0.12427237808688971 -0.31613607221539308 0 -0.1414820502422936 -0.33827262098342847 0 -0.12814290376288481 -0.33611556183183322 0 -0.1360608056550307 -0.35143163524145948 0 -0.1414820502422936 -0.33827262098342847 0 -0.1406042898571212 -0.32483246826164308 0 -0.12814290376288481 -0.33611556183183322 0 -0.1360608056550307 -0.35143163524145948 0 -0.12812666361228051 -0.36150390876310767 0 -0.1191062861621304 -0.35456525037857772 0 -0.12814290376288481 -0.33611556183183322 0 -0.1360608056550307 -0.35143163524145948 0 -0.1191062861621304 -0.35456525037857772 0 -0.1360608056550307 -0.35143163524145948 0 -0.15301488964195609 -0.34829566470157958 0 -0.13461971533546691 -0.37204108600685931 0 -0.1414820502422936 -0.33827262098342847 0 -0.1360608056550307 -0.35143163524145948 0 -0.15301488964195609 -0.34829566470157958 0 -0.1542241429844993 -0.37603136075650478 0 -0.15301488964195609 -0.34829566470157958 0 -0.13461971533546691 -0.37204108600685931 0 -0.15301488964195609 -0.34829566470157958 0 -0.13461971533546691 -0.37204108600685931 0 -0.1360608056550307 -0.35143163524145948 0 -0.13461971533546691 -0.37204108600685931 0 -0.12812666361228051 -0.36150390876310767 0 -0.13461971533546691 -0.37204108600685931 0 -0.12812666361228051 -0.36150390876310767 0 -0.12271984729649391 -0.36797766342553417 0 -0.13461971533546691 -0.37204108600685931 0 -0.12271984729649391 -0.36797766342553417 0 -0.12108740855967071 -0.38114056776092681 0 -0.12271984729649391 -0.36797766342553417 0 -0.110069668561376 -0.37301493892532223 0 -0.12108740855967071 -0.38114056776092681 0 -0.12271984729649391 -0.36797766342553417 0 -0.110069668561376 -0.37301493892532223 0 -0.1191062861621304 -0.35456525037857772 0 -0.1111866503681915 -0.36212413203702232 0 -0.110069668561376 -0.37301493892532223 0 -0.1191062861621304 -0.35456525037857772 0 -0.110069668561376 -0.37301493892532223 0 -0.1191062861621304 -0.35456525037857772 0 -0.12812666361228051 -0.36150390876310767 0 -0.12271984729649391 -0.36797766342553417 0 -0.1191062861621304 -0.35456525037857772 0 -0.1111866503681915 -0.36212413203702232 0 -0.110069668561376 -0.37301493892532223 0 -0.1071586490317215 -0.36933673662457861 0 -0.1025001442797033 -0.36878760973336538 0 -0.092867294853428123 -0.37060475261786652 0 -0.090849377254120164 -0.3496240795835126 0 -0.110069668561376 -0.37301493892532223 0 -0.10487813291761509 -0.37342026580260429 0 -0.1071586490317215 -0.36933673662457861 0 -0.10487813291761509 -0.37342026580260429 0 -0.098555839244069382 -0.37268239333261449 0 -0.1019434607355445 -0.37753604055626649 0 -0.10487813291761509 -0.37342026580260429 0 -0.1025001442797033 -0.36878760973336538 0 -0.098555839244069382 -0.37268239333261449 0 -0.10487813291761509 -0.37342026580260429 0 -0.1025001442797033 -0.36878760973336538 0 -0.1071586490317215 -0.36933673662457861 0 -0.1111866503681915 -0.36212413203702232 0 -0.1025001442797033 -0.36878760973336538 0 -0.1071586490317215 -0.36933673662457861 0 -0.1025001442797033 -0.36878760973336538 0 -0.092867294853428123 -0.37060475261786652 0 -0.1025001442797033 -0.36878760973336538 0 -0.098555839244069382 -0.37268239333261449 0 -0.092867294853428123 -0.37060475261786652 0 -0.098555839244069382 -0.37268239333261449 0 -0.092867294853428123 -0.37060475261786652 0 -0.093929531538894578 -0.38164902944585938 0 -0.1025001442797033 -0.36878760973336538 0 -0.1159108603797203 -0.34593691895965328 0 -0.1025001442797033 -0.36878760973336538 0 -0.1042802350165293 -0.35389855303946671 0 -0.090849377254120164 -0.3496240795835126 0 -0.1025001442797033 -0.36878760973336538 0 -0.1042802350165293 -0.35389855303946671 0 -0.1159108603797203 -0.34593691895965328 0 -0.1042802350165293 -0.35389855303946671 0 -0.1100854768669301 -0.33635515388472847 0 -0.090849377254120164 -0.3496240795835126 0 -0.1111866503681915 -0.36212413203702232 0 -0.1025001442797033 -0.36878760973336538 0 -0.1159108603797203 -0.34593691895965328 0 -0.12814290376288481 -0.33611556183183322 0 -0.1159108603797203 -0.34593691895965328 0 -0.1191062861621304 -0.35456525037857772 0 -0.1111866503681915 -0.36212413203702232 0 -0.1159108603797203 -0.34593691895965328 0 -0.1191062861621304 -0.35456525037857772 0 -0.12814290376288481 -0.33611556183183322 0 -0.1191062861621304 -0.35456525037857772 0 -0.1042802350165293 -0.35389855303946671 0 -0.1159108603797203 -0.34593691895965328 0 -0.1100854768669301 -0.33635515388472847 0 -0.1293215764797383 -0.3230862281859419 0 -0.1100854768669301 -0.33635515388472847 0 -0.1293215764797383 -0.3230862281859419 0 -0.12814290376288481 -0.33611556183183322 0 -0.1159108603797203 -0.34593691895965328 0 -0.1293215764797383 -0.3230862281859419 0 -0.1159108603797203 -0.34593691895965328 0 -0.1293215764797383 -0.3230862281859419 0 -0.1159108603797203 -0.34593691895965328 0 -0.1100854768669301 -0.33635515388472847 0 -0.1293215764797383 -0.3230862281859419 0 -0.1100854768669301 -0.33635515388472847 0 -0.1166404068490679 -0.32219542778944471 0 -0.12427237808688971 -0.31613607221539308 0 -0.114027223223167 -0.31362206881937632 0 -0.1233218650564137 -0.30959565741799261 0 -0.12427237808688971 -0.31613607221539308 0 -0.1166404068490679 -0.32219542778944471 0 -0.114027223223167 -0.31362206881937632 0 -0.1293215764797383 -0.3230862281859419 0 -0.12427237808688971 -0.31613607221539308 0 -0.1166404068490679 -0.32219542778944471 0 -0.1100854768669301 -0.33635515388472847 0 -0.1166404068490679 -0.32219542778944471 0 -0.1054953795886153 -0.32177761584178399 0 -0.1166404068490679 -0.32219542778944471 0 -0.114027223223167 -0.31362206881937632 0 -0.1054953795886153 -0.32177761584178399 0 -0.1100854768669301 -0.33635515388472847 0 -0.1054953795886153 -0.32177761584178399 0 -0.08817993112899733 -0.32186934056284378 0 -0.1054953795886153 -0.32177761584178399 0 -0.08817993112899733 -0.32186934056284378 0 -0.098803386283195599 -0.31084306231350911 0 -0.114027223223167 -0.31362206881937632 0 -0.1054953795886153 -0.32177761584178399 0 -0.098803386283195599 -0.31084306231350911 0 -0.1100854768669301 -0.33635515388472847 0 -0.08817993112899733 -0.32186934056284378 0 -0.090849377254120164 -0.3496240795835126 0 -0.1100854768669301 -0.33635515388472847 0 -0.090849377254120164 -0.3496240795835126 0 -0.08817993112899733 -0.32186934056284378 0 -0.068607372302384811 -0.34218405705961841 0 -0.08817993112899733 -0.32186934056284378 0 -0.090849377254120164 -0.3496240795835126 0 -0.08817993112899733 -0.32186934056284378 0 -0.068607372302384811 -0.34218405705961841 0 -0.090849377254120164 -0.3496240795835126 0 -0.08817993112899733 -0.32186934056284378 0 -0.068686811322512337 -0.3200686295331503 0 -0.077803823656077631 -0.31018151184964621 0 -0.08817993112899733 -0.32186934056284378 0 -0.098803386283195599 -0.31084306231350911 0 -0.08817993112899733 -0.32186934056284378 0 -0.068686811322512337 -0.3200686295331503 0 -0.068607372302384811 -0.34218405705961841 0 -0.068686811322512337 -0.3200686295331503 0 -0.068607372302384811 -0.34218405705961841 0 -0.057020490009622171 -0.32972185262478337 0 -0.068607372302384811 -0.34218405705961841 0 -0.063750436764240706 -0.36505165535521039 0 -0.066384086614780735 -0.36650006433233739 0 -0.068607372302384811 -0.34218405705961841 0 -0.066384086614780735 -0.36650006433233739 0 -0.090849377254120164 -0.3496240795835126 0 -0.063750436764240706 -0.36505165535521039 0 -0.066384086614780735 -0.36650006433233739 0 -0.057569698252130638 -0.36777172245591222 0 -0.063750436764240706 -0.36505165535521039 0 -0.066384086614780735 -0.36650006433233739 0 -0.066384086614780735 -0.36650006433233739 0 -0.081344315728048344 -0.37472763116059221 0 -0.081344315728048344 -0.37472763116059221 0 -0.092867294853428123 -0.37060475261786652 0 -0.090849377254120164 -0.3496240795835126 0 -0.066384086614780735 -0.36650006433233739 0 -0.081344315728048344 -0.37472763116059221 0 -0.090849377254120164 -0.3496240795835126 0 -0.092867294853428123 -0.37060475261786652 0 -0.090849377254120164 -0.3496240795835126 0 -0.081344315728048344 -0.37472763116059221 0 -0.092867294853428123 -0.37060475261786652 0 -0.066384086614780735 -0.36650006433233739 0 -0.090849377254120164 -0.3496240795835126 0 -0.095721911214905878 -0.25452512295504748 0 -0.10476337173715131 -0.26964924190994238 0 -0.083240820347768987 -0.27051646648269878 0 -0.095721911214905878 -0.25452512295504748 0 -0.1091327142612739 -0.25696123718903757 0 -0.10476337173715131 -0.26964924190994238 0 -0.095721911214905878 -0.25452512295504748 0 -0.1091327142612739 -0.25696123718903757 0 -0.10425775271815001 -0.24508298738637729 0 -0.1091327142612739 -0.25696123718903757 0 -0.1223083114857455 -0.25613110687167828 0 -0.11762503027157251 -0.2438646842861463 0 -0.1257252129849713 -0.26760651690292381 0 -0.1223083114857455 -0.25613110687167828 0 -0.1154467705645582 -0.26537978080928831 0 -0.1091327142612739 -0.25696123718903757 0 -0.1154467705645582 -0.26537978080928831 0 -0.10476337173715131 -0.26964924190994238 0 -0.1091327142612739 -0.25696123718903757 0 -0.1223083114857455 -0.25613110687167828 0 -0.1154467705645582 -0.26537978080928831 0 -0.1154467705645582 -0.26537978080928831 0 -0.1152029857384768 -0.27555030453465978 0 -0.10476337173715131 -0.26964924190994238 0 -0.1257252129849713 -0.26760651690292381 0 -0.1154467705645582 -0.26537978080928831 0 -0.1152029857384768 -0.27555030453465978 0 -0.12445474201649299 -0.27837977644627282 0 -0.1152029857384768 -0.27555030453465978 0 -0.11892878243140589 -0.28618845527802489 0 -0.1257252129849713 -0.26760651690292381 0 -0.12445474201649299 -0.27837977644627282 0 -0.1152029857384768 -0.27555030453465978 0 -0.1152029857384768 -0.27555030453465978 0 -0.10476337173715131 -0.26964924190994238 0 -0.1082976643155039 -0.28410207081680222 0 -0.10476337173715131 -0.26964924190994238 0 -0.096707478297604718 -0.28330793626112222 0 -0.083240820347768987 -0.27051646648269878 0 -0.10476337173715131 -0.26964924190994238 0 -0.096707478297604718 -0.28330793626112222 0 -0.1082976643155039 -0.28410207081680222 0 -0.096707478297604718 -0.28330793626112222 0 -0.10152515934921651 -0.2960789985733962 0 -0.085710375738382916 -0.29619290352277128 0 -0.10152515934921651 -0.2960789985733962 0 -0.1082976643155039 -0.28410207081680222 0 -0.11471779628211 -0.29580868125497939 0 -0.096707478297604718 -0.28330793626112222 0 -0.10152515934921651 -0.2960789985733962 0 -0.1082976643155039 -0.28410207081680222 0 -0.1152029857384768 -0.27555030453465978 0 -0.1082976643155039 -0.28410207081680222 0 -0.11892878243140589 -0.28618845527802489 0 -0.1082976643155039 -0.28410207081680222 0 -0.11892878243140589 -0.28618845527802489 0 -0.11471779628211 -0.29580868125497939 0 -0.12740540384098351 -0.2871823888050643 0 -0.12445474201649299 -0.27837977644627282 0 -0.11892878243140589 -0.28618845527802489 0 -0.12740540384098351 -0.2871823888050643 0 -0.11892878243140589 -0.28618845527802489 0 -0.1235437429290084 -0.29547536832135329 0 -0.11892878243140589 -0.28618845527802489 0 -0.1235437429290084 -0.29547536832135329 0 -0.11471779628211 -0.29580868125497939 0 -0.11471779628211 -0.29580868125497939 0 -0.1100677433627278 -0.30384615540220961 0 -0.1189567677945495 -0.30349879238961219 0 -0.1235437429290084 -0.29547536832135329 0 -0.11471779628211 -0.29580868125497939 0 -0.1189567677945495 -0.30349879238961219 0 -0.12806223591387 -0.30264482312176189 0 -0.1235437429290084 -0.29547536832135329 0 -0.1189567677945495 -0.30349879238961219 0 -0.114027223223167 -0.31362206881937632 0 -0.1189567677945495 -0.30349879238961219 0 -0.1233218650564137 -0.30959565741799261 0 -0.12806223591387 -0.30264482312176189 0 -0.1189567677945495 -0.30349879238961219 0 -0.1233218650564137 -0.30959565741799261 0 -0.114027223223167 -0.31362206881937632 0 -0.1100677433627278 -0.30384615540220961 0 -0.1189567677945495 -0.30349879238961219 0 -0.10152515934921651 -0.2960789985733962 0 -0.098803386283195599 -0.31084306231350911 0 -0.085710375738382916 -0.29619290352277128 0 -0.114027223223167 -0.31362206881937632 0 -0.1100677433627278 -0.30384615540220961 0 -0.098803386283195599 -0.31084306231350911 0 -0.10152515934921651 -0.2960789985733962 0 -0.1100677433627278 -0.30384615540220961 0 -0.098803386283195599 -0.31084306231350911 0 -0.10152515934921651 -0.2960789985733962 0 -0.11471779628211 -0.29580868125497939 0 -0.1100677433627278 -0.30384615540220961 0 -0.08817993112899733 -0.32186934056284378 0 -0.077803823656077631 -0.31018151184964621 0 -0.085710375738382916 -0.29619290352277128 0 -0.08817993112899733 -0.32186934056284378 0 -0.085710375738382916 -0.29619290352277128 0 -0.08817993112899733 -0.32186934056284378 0 -0.098803386283195599 -0.31084306231350911 0 -0.085710375738382916 -0.29619290352277128 0 -0.077803823656077631 -0.31018151184964621 0 -0.068638176434417886 -0.30259517377981898 0 -0.085710375738382916 -0.29619290352277128 0 -0.068686811322512337 -0.3200686295331503 0 -0.077803823656077631 -0.31018151184964621 0 -0.068638176434417886 -0.30259517377981898 0 -0.068638176434417886 -0.30259517377981898 0 -0.069603619070109229 -0.286165192350259 0 -0.085710375738382916 -0.29619290352277128 0 -0.068638176434417886 -0.30259517377981898 0 -0.069603619070109229 -0.286165192350259 0 -0.053825610010505162 -0.29664550207160822 0 -0.096707478297604718 -0.28330793626112222 0 -0.085710375738382916 -0.29619290352277128 0 -0.083240820347768987 -0.27051646648269878 0 -0.069603619070109229 -0.286165192350259 0 -0.085710375738382916 -0.29619290352277128 0 -0.083240820347768987 -0.27051646648269878 0 -0.085710375738382916 -0.29619290352277128 0 -0.083240820347768987 -0.27051646648269878 0 -0.069603619070109229 -0.286165192350259 0 -0.065976498469842673 -0.2695614295332962 0 -0.056561050103304047 -0.28315485566382542 0 -0.069603619070109229 -0.286165192350259 0 -0.083240820347768987 -0.27051646648269878 0 -0.065976498469842673 -0.2695614295332962 0 -0.083240820347768987 -0.27051646648269878 0 -0.080771264957155059 -0.2448400294426262 0 -0.068158317794434542 -0.2495170602682302 0 -0.065976498469842673 -0.2695614295332962 0 -0.057576418678844839 -0.25856318574999182 0 -0.068158317794434542 -0.2495170602682302 0 -0.083240820347768987 -0.27051646648269878 0 -0.065976498469842673 -0.2695614295332962 0 -0.068158317794434542 -0.2495170602682302 0 -0.095721911214905878 -0.25452512295504748 0 -0.083240820347768987 -0.27051646648269878 0 -0.080771264957155059 -0.2448400294426262 0 -0.083240820347768987 -0.27051646648269878 0 -0.080771264957155059 -0.2448400294426262 0 -0.041423614893305441 -0.26445528927329959 0 -0.025767639489991299 -0.25946497962313969 0 -0.034892676046757463 -0.24952760846005781 0 -0.041423614893305441 -0.26445528927329959 0 -0.047152442161352552 -0.25140253843235022 0 -0.034892676046757463 -0.24952760846005781 0 -0.041423614893305441 -0.26445528927329959 0 -0.057576418678844839 -0.25856318574999182 0 -0.05435483081791645 -0.27106279540243228 0 -0.047152442161352552 -0.25140253843235022 0 -0.057576418678844839 -0.25856318574999182 0 -0.05687482565736731 -0.2475939293170851 0 -0.041423614893305441 -0.26445528927329959 0 -0.047152442161352552 -0.25140253843235022 0 -0.057576418678844839 -0.25856318574999182 0 -0.057576418678844839 -0.25856318574999182 0 -0.05687482565736731 -0.2475939293170851 0 -0.068158317794434542 -0.2495170602682302 0 -0.065976498469842673 -0.2695614295332962 0 -0.057576418678844839 -0.25856318574999182 0 -0.05435483081791645 -0.27106279540243228 0 -0.065976498469842673 -0.2695614295332962 0 -0.05435483081791645 -0.27106279540243228 0 -0.056561050103304047 -0.28315485566382542 0 -0.05435483081791645 -0.27106279540243228 0 -0.043451643150317763 -0.28418272521225629 0 -0.056561050103304047 -0.28315485566382542 0 -0.041423614893305441 -0.26445528927329959 0 -0.05435483081791645 -0.27106279540243228 0 -0.043451643150317763 -0.28418272521225629 0 -0.041423614893305441 -0.26445528927329959 0 -0.029300949854769141 -0.2762645262555754 0 -0.025767639489991299 -0.25946497962313969 0 -0.041423614893305441 -0.26445528927329959 0 -0.043451643150317763 -0.28418272521225629 0 -0.029300949854769141 -0.2762645262555754 0 -0.043451643150317763 -0.28418272521225629 0 -0.029002166555643621 -0.29161404621555059 0 -0.029300949854769141 -0.2762645262555754 0 -0.043451643150317763 -0.28418272521225629 0 -0.041774922849496597 -0.29782342139614137 0 -0.029002166555643621 -0.29161404621555059 0 -0.043451643150317763 -0.28418272521225629 0 -0.053825610010505162 -0.29664550207160822 0 -0.041774922849496597 -0.29782342139614137 0 -0.069603619070109229 -0.286165192350259 0 -0.056561050103304047 -0.28315485566382542 0 -0.053825610010505162 -0.29664550207160822 0 -0.043451643150317763 -0.28418272521225629 0 -0.056561050103304047 -0.28315485566382542 0 -0.053825610010505162 -0.29664550207160822 0 -0.068638176434417886 -0.30259517377981898 0 -0.053825610010505162 -0.29664550207160822 0 -0.048995993823199427 -0.31184232618792301 0 -0.068686811322512337 -0.3200686295331503 0 -0.068638176434417886 -0.30259517377981898 0 -0.048995993823199427 -0.31184232618792301 0 -0.053825610010505162 -0.29664550207160822 0 -0.048995993823199427 -0.31184232618792301 0 -0.041774922849496597 -0.29782342139614137 0 -0.048995993823199427 -0.31184232618792301 0 -0.041774922849496597 -0.29782342139614137 0 -0.033599200707817037 -0.30483250729336853 0 -0.041774922849496597 -0.29782342139614137 0 -0.033599200707817037 -0.30483250729336853 0 -0.029002166555643621 -0.29161404621555059 0 -0.048995993823199427 -0.31184232618792301 0 -0.033599200707817037 -0.30483250729336853 0 -0.034172123316752713 -0.31601593148002077 0 -0.033599200707817037 -0.30483250729336853 0 -0.01964115124026174 -0.30990303824227577 0 -0.034172123316752713 -0.31601593148002077 0 -0.033599200707817037 -0.30483250729336853 0 -0.024323838445463059 -0.30084998171713673 0 -0.01964115124026174 -0.30990303824227577 0 -0.033599200707817037 -0.30483250729336853 0 -0.024323838445463059 -0.30084998171713673 0 -0.029002166555643621 -0.29161404621555059 0 -0.024323838445463059 -0.30084998171713673 0 -0.01964115124026174 -0.30990303824227577 0 -0.01505283527812985 -0.29705033511735202 0 -0.01964115124026174 -0.30990303824227577 0 -0.0064590071102648833 -0.30689811281617091 0 -0.013163787212558771 -0.3147811884499806 0 -0.0064590071102648833 -0.30689811281617091 0 -0.0031332965675300618 -0.3192535604675994 0 0.0068436558020707403 -0.30952440010844662 0 -0.0064590071102648833 -0.30689811281617091 0 -0.0052124117894683216 -0.29773121284251319 0 0.001060383604688247 -0.30155388938627731 0 -0.0052124117894683216 -0.29773121284251319 0 0.001060383604688247 -0.30155388938627731 0 0.0021455206274590228 -0.29404508635188592 0 -0.0064590071102648833 -0.30689811281617091 0 -0.0052124117894683216 -0.29773121284251319 0 -0.01505283527812985 -0.29705033511735202 0 -0.01964115124026174 -0.30990303824227577 0 -0.0064590071102648833 -0.30689811281617091 0 -0.01505283527812985 -0.29705033511735202 0 -0.01505283527812985 -0.29705033511735202 0 -0.0074649649844617692 -0.28893040109489587 0 -0.0171993095363366 -0.2827848063253503 0 -0.0052124117894683216 -0.29773121284251319 0 -0.01505283527812985 -0.29705033511735202 0 -0.0074649649844617692 -0.28893040109489587 0 -0.0074649649844617692 -0.28893040109489587 0 0.0045612647380138989 -0.28431467149452821 0 0.0021455206274590228 -0.29404508635188592 0 -0.0052124117894683216 -0.29773121284251319 0 -0.0074649649844617692 -0.28893040109489587 0 0.0021455206274590228 -0.29404508635188592 0 -0.0074649649844617692 -0.28893040109489587 0 -0.0046885611662538448 -0.27467123434601781 0 0.0045612647380138989 -0.28431467149452821 0 -0.0074649649844617692 -0.28893040109489587 0 -0.0171993095363366 -0.2827848063253503 0 -0.0046885611662538448 -0.27467123434601781 0 -0.024323838445463059 -0.30084998171713673 0 -0.01505283527812985 -0.29705033511735202 0 -0.029002166555643621 -0.29161404621555059 0 -0.01505283527812985 -0.29705033511735202 0 -0.0171993095363366 -0.2827848063253503 0 -0.029002166555643621 -0.29161404621555059 0 -0.0171993095363366 -0.2827848063253503 0 -0.029002166555643621 -0.29161404621555059 0 -0.029300949854769141 -0.2762645262555754 0 -0.029300949854769141 -0.2762645262555754 0 -0.0173661246746738 -0.26998341458809377 0 -0.025767639489991299 -0.25946497962313969 0 -0.0171993095363366 -0.2827848063253503 0 -0.029300949854769141 -0.2762645262555754 0 -0.0173661246746738 -0.26998341458809377 0 -0.0171993095363366 -0.2827848063253503 0 -0.0173661246746738 -0.26998341458809377 0 -0.0046885611662538448 -0.27467123434601781 0 -0.0173661246746738 -0.26998341458809377 0 -0.0046885611662538448 -0.27467123434601781 0 -0.011000072387487479 -0.26005496459402222 0 -0.0046885611662538448 -0.27467123434601781 0 -0.011000072387487479 -0.26005496459402222 0 0.001638160530432056 -0.26101289470167283 0 -0.011000072387487479 -0.26005496459402222 0 -0.0074019412988201817 -0.24854936663358451 0 0.001638160530432056 -0.26101289470167283 0 -0.011000072387487479 -0.26005496459402222 0 -0.02058946353034052 -0.24673964048383121 0 -0.0074019412988201817 -0.24854936663358451 0 -0.011000072387487479 -0.26005496459402222 0 -0.025767639489991299 -0.25946497962313969 0 -0.02058946353034052 -0.24673964048383121 0 -0.0173661246746738 -0.26998341458809377 0 -0.011000072387487479 -0.26005496459402222 0 -0.025767639489991299 -0.25946497962313969 0 -0.025767639489991299 -0.25946497962313969 0 -0.02058946353034052 -0.24673964048383121 0 -0.034892676046757463 -0.24952760846005781 0 -0.034516181116196587 -0.35191788790384237 0 -0.049034813475771682 -0.36249877355639237 0 -0.048492507822679283 -0.34201290646057358 0 -0.03125074449343767 -0.36632186491452567 0 -0.049034813475771682 -0.36249877355639237 0 -0.029462254649158429 -0.38281349005316662 0 -0.049034813475771682 -0.36249877355639237 0 -0.029462254649158429 -0.38281349005316662 0 -0.049034813475771682 -0.36249877355639237 0 -0.029462254649158429 -0.38281349005316662 0 -0.051109456153729617 -0.37703639657970811 0 -0.034516181116196587 -0.35191788790384237 0 -0.03125074449343767 -0.36632186491452567 0 -0.049034813475771682 -0.36249877355639237 0 -0.049034813475771682 -0.36249877355639237 0 -0.057569698252130638 -0.36777172245591222 0 -0.051109456153729617 -0.37703639657970811 0 -0.066384086614780735 -0.36650006433233739 0 -0.051109456153729617 -0.37703639657970811 0 -0.066384086614780735 -0.36650006433233739 0 -0.057569698252130638 -0.36777172245591222 0 -0.051109456153729617 -0.37703639657970811 0 -0.063750436764240706 -0.36505165535521039 0 -0.049034813475771682 -0.36249877355639237 0 -0.057569698252130638 -0.36777172245591222 0 -0.068607372302384811 -0.34218405705961841 0 -0.049034813475771682 -0.36249877355639237 0 -0.068607372302384811 -0.34218405705961841 0 -0.063750436764240706 -0.36505165535521039 0 -0.049034813475771682 -0.36249877355639237 0 -0.068607372302384811 -0.34218405705961841 0 -0.049034813475771682 -0.36249877355639237 0 -0.048492507822679283 -0.34201290646057358 0 -0.068607372302384811 -0.34218405705961841 0 -0.057020490009622171 -0.32972185262478337 0 -0.048492507822679283 -0.34201290646057358 0 -0.057020490009622171 -0.32972185262478337 0 -0.048492507822679283 -0.34201290646057358 0 -0.043710091296826757 -0.32688652408015278 0 -0.048995993823199427 -0.31184232618792301 0 -0.057020490009622171 -0.32972185262478337 0 -0.043710091296826757 -0.32688652408015278 0 -0.068686811322512337 -0.3200686295331503 0 -0.048995993823199427 -0.31184232618792301 0 -0.057020490009622171 -0.32972185262478337 0 -0.043710091296826757 -0.32688652408015278 0 -0.023421693932178401 -0.32307004227387609 0 -0.043710091296826757 -0.32688652408015278 0 -0.034172123316752713 -0.31601593148002077 0 -0.023421693932178401 -0.32307004227387609 0 -0.048995993823199427 -0.31184232618792301 0 -0.043710091296826757 -0.32688652408015278 0 -0.034172123316752713 -0.31601593148002077 0 -0.043710091296826757 -0.32688652408015278 0 -0.034789525323552173 -0.3364174222726391 0 -0.023421693932178401 -0.32307004227387609 0 -0.034516181116196587 -0.35191788790384237 0 -0.048492507822679283 -0.34201290646057358 0 -0.034789525323552173 -0.3364174222726391 0 -0.048492507822679283 -0.34201290646057358 0 -0.043710091296826757 -0.32688652408015278 0 -0.034789525323552173 -0.3364174222726391 0 -0.023807152449879829 -0.33819975064475061 0 -0.023421693932178401 -0.32307004227387609 0 -0.0033260258263804669 -0.32681841465303751 0 -0.034516181116196587 -0.35191788790384237 0 -0.034789525323552173 -0.3364174222726391 0 -0.023807152449879829 -0.33819975064475061 0 -0.034789525323552173 -0.3364174222726391 0 -0.023807152449879829 -0.33819975064475061 0 -0.023421693932178401 -0.32307004227387609 0 -0.01964115124026174 -0.30990303824227577 0 -0.034172123316752713 -0.31601593148002077 0 -0.023421693932178401 -0.32307004227387609 0 -0.01964115124026174 -0.30990303824227577 0 -0.023421693932178401 -0.32307004227387609 0 -0.013163787212558771 -0.3147811884499806 0 -0.023421693932178401 -0.32307004227387609 0 -0.0031332965675300618 -0.3192535604675994 0 -0.023421693932178401 -0.32307004227387609 0 -0.013163787212558771 -0.3147811884499806 0 -0.0031332965675300618 -0.3192535604675994 0 -0.023421693932178401 -0.32307004227387609 0 -0.0033260258263804669 -0.32681841465303751 0 -0.0031332965675300618 -0.3192535604675994 0 -0.0064590071102648833 -0.30689811281617091 0 -0.013163787212558771 -0.3147811884499806 0 -0.0031332965675300618 -0.3192535604675994 0 -0.023807152449879829 -0.33819975064475061 0 -0.0033260258263804669 -0.32681841465303751 0 -0.0053138169306343359 -0.33563337472114801 0 -0.023807152449879829 -0.33819975064475061 0 -0.0033260258263804669 -0.32681841465303751 0 -0.023807152449879829 -0.33819975064475061 0 -0.0053138169306343359 -0.33563337472114801 0 -0.0073683429415816156 -0.34561773438271709 0 -0.0033260258263804669 -0.32681841465303751 0 -0.0053138169306343359 -0.33563337472114801 0 0.0016103038837324639 -0.33199173929296572 0 -0.0053138169306343359 -0.33563337472114801 0 -0.0073683429415816156 -0.34561773438271709 0 0.0044609759893579036 -0.33771915893773408 0 -0.0073683429415816156 -0.34561773438271709 0 -0.00075274073939014601 -0.3564584525775914 0 -0.012221122963374201 -0.35529528028319518 0 -0.00075274073939014601 -0.3564584525775914 0 -0.012221122963374201 -0.35529528028319518 0 -0.0104788203870329 -0.36560489059452711 0 -0.0073683429415816156 -0.34561773438271709 0 -0.012221122963374201 -0.35529528028319518 0 -0.020588287028139831 -0.35010470642616592 0 -0.023807152449879829 -0.33819975064475061 0 -0.0073683429415816156 -0.34561773438271709 0 -0.020588287028139831 -0.35010470642616592 0 -0.012221122963374201 -0.35529528028319518 0 -0.020588287028139831 -0.35010470642616592 0 -0.02284685477756641 -0.36061752371752842 0 -0.034516181116196587 -0.35191788790384237 0 -0.020588287028139831 -0.35010470642616592 0 -0.02284685477756641 -0.36061752371752842 0 -0.034516181116196587 -0.35191788790384237 0 -0.023807152449879829 -0.33819975064475061 0 -0.020588287028139831 -0.35010470642616592 0 -0.03125074449343767 -0.36632186491452567 0 -0.02025643773077002 -0.37322320494285222 0 -0.029462254649158429 -0.38281349005316662 0 -0.03125074449343767 -0.36632186491452567 0 -0.02284685477756641 -0.36061752371752842 0 -0.02025643773077002 -0.37322320494285222 0 -0.034516181116196587 -0.35191788790384237 0 -0.03125074449343767 -0.36632186491452567 0 -0.02284685477756641 -0.36061752371752842 0 -0.02284685477756641 -0.36061752371752842 0 -0.02025643773077002 -0.37322320494285222 0 -0.0104788203870329 -0.36560489059452711 0 -0.02025643773077002 -0.37322320494285222 0 -0.0104788203870329 -0.36560489059452711 0 -0.0082454498370062301 -0.37783571146599321 0 -0.012221122963374201 -0.35529528028319518 0 -0.02284685477756641 -0.36061752371752842 0 -0.0104788203870329 -0.36560489059452711 0 -0.00075274073939014601 -0.3564584525775914 0 -0.0104788203870329 -0.36560489059452711 0 0.0014496837259096161 -0.37019917058000251 0 -0.0104788203870329 -0.36560489059452711 0 -0.0082454498370062301 -0.37783571146599321 0 0.0014496837259096161 -0.37019917058000251 0 -0.0082454498370062301 -0.37783571146599321 0 0.001178295979689481 -0.3881409324793787 0 0.0014496837259096161 -0.37019917058000251 0 -0.013335108411958081 -0.38502830909826641 0 -0.0082454498370062301 -0.37783571146599321 0 0.001178295979689481 -0.3881409324793787 0 -0.02025643773077002 -0.37322320494285222 0 -0.013335108411958081 -0.38502830909826641 0 -0.0082454498370062301 -0.37783571146599321 0 -0.0098896958225452025 -0.40312820654994069 0 0.001178295979689481 -0.3881409324793787 0 0.0080763184361985277 -0.4079839549095946 0 -0.013335108411958081 -0.38502830909826641 0 -0.0098896958225452025 -0.40312820654994069 0 0.001178295979689481 -0.3881409324793787 0 -0.026827697568039811 -0.39423347186273988 0 -0.033773224259886207 -0.4104452190821718 0 -0.020176703618998499 -0.41173136554844852 0 -0.0098896958225452025 -0.40312820654994069 0 -0.029462254649158429 -0.38281349005316662 0 -0.0098896958225452025 -0.40312820654994069 0 -0.026827697568039811 -0.39423347186273988 0 -0.020176703618998499 -0.41173136554844852 0 -0.0098896958225452025 -0.40312820654994069 0 -0.026827697568039811 -0.39423347186273988 0 -0.029462254649158429 -0.38281349005316662 0 -0.02025643773077002 -0.37322320494285222 0 -0.013335108411958081 -0.38502830909826641 0 -0.029462254649158429 -0.38281349005316662 0 -0.013335108411958081 -0.38502830909826641 0 -0.0098896958225452025 -0.40312820654994069 0 -0.029462254649158429 -0.38281349005316662 0 -0.026827697568039811 -0.39423347186273988 0 -0.054086006648044221 -0.38448055151166632 0 -0.026827697568039811 -0.39423347186273988 0 -0.029462254649158429 -0.38281349005316662 0 -0.054086006648044221 -0.38448055151166632 0 -0.029462254649158429 -0.38281349005316662 0 -0.051109456153729617 -0.37703639657970811 0 -0.054086006648044221 -0.38448055151166632 0 -0.026827697568039811 -0.39423347186273988 0 -0.04244947688583655 -0.39961519165880749 0 -0.033773224259886207 -0.4104452190821718 0 -0.026827697568039811 -0.39423347186273988 0 -0.044476237978441101 -0.39376917224719388 0 -0.054086006648044221 -0.38448055151166632 0 -0.026827697568039811 -0.39423347186273988 0 -0.04244947688583655 -0.39961519165880749 0 -0.044476237978441101 -0.39376917224719388 0 -0.04244947688583655 -0.39961519165880749 0 -0.044476237978441101 -0.39376917224719388 0 -0.054541770811843859 -0.3967474739555622 0 -0.044476237978441101 -0.39376917224719388 0 -0.054541770811843859 -0.3967474739555622 0 -0.054086006648044221 -0.38448055151166632 0 -0.04244947688583655 -0.39961519165880749 0 -0.054541770811843859 -0.3967474739555622 0 -0.047940813964459143 -0.40977153777140318 0 -0.054541770811843859 -0.3967474739555622 0 -0.059047307723192027 -0.4076500050322116 0 -0.047940813964459143 -0.40977153777140318 0 -0.054541770811843859 -0.3967474739555622 0 -0.059047307723192027 -0.4076500050322116 0 -0.067385704034009272 -0.40160776068576809 0 -0.054541770811843859 -0.3967474739555622 0 -0.064224746421867457 -0.3893508556193026 0 -0.067385704034009272 -0.40160776068576809 0 -0.054541770811843859 -0.3967474739555622 0 -0.054086006648044221 -0.38448055151166632 0 -0.064224746421867457 -0.3893508556193026 0 -0.066384086614780735 -0.36650006433233739 0 -0.051109456153729617 -0.37703639657970811 0 -0.054086006648044221 -0.38448055151166632 0 -0.055567234848722502 -0.43368031821831771 0 -0.05803860556271926 -0.41951586772026223 0 -0.041253820432041233 -0.4253944886752965 0 -0.05803860556271926 -0.41951586772026223 0 -0.047940813964459143 -0.40977153777140318 0 -0.041253820432041233 -0.4253944886752965 0 -0.05803860556271926 -0.41951586772026223 0 -0.059047307723192027 -0.4076500050322116 0 -0.047940813964459143 -0.40977153777140318 0 -0.033773224259886207 -0.4104452190821718 0 -0.041253820432041233 -0.4253944886752965 0 -0.023459158130170452 -0.42867114199527478 0 -0.047940813964459143 -0.40977153777140318 0 -0.033773224259886207 -0.4104452190821718 0 -0.041253820432041233 -0.4253944886752965 0 -0.04244947688583655 -0.39961519165880749 0 -0.047940813964459143 -0.40977153777140318 0 -0.033773224259886207 -0.4104452190821718 0 -0.055567234848722502 -0.43368031821831771 0 -0.041253820432041233 -0.4253944886752965 0 -0.039612264755186782 -0.45304739528729721 0 -0.041253820432041233 -0.4253944886752965 0 -0.023459158130170452 -0.42867114199527478 0 -0.039612264755186782 -0.45304739528729721 0 -0.023459158130170452 -0.42867114199527478 0 -0.020176703618998499 -0.41173136554844852 0 -0.0062201247180692348 -0.41868752424963762 0 -0.033773224259886207 -0.4104452190821718 0 -0.023459158130170452 -0.42867114199527478 0 -0.020176703618998499 -0.41173136554844852 0 -0.0098896958225452025 -0.40312820654994069 0 -0.0062201247180692348 -0.41868752424963762 0 0.0080763184361985277 -0.4079839549095946 0 -0.0098896958225452025 -0.40312820654994069 0 -0.020176703618998499 -0.41173136554844852 0 -0.0062201247180692348 -0.41868752424963762 0 -0.023459158130170452 -0.42867114199527478 0 -0.0062201247180692348 -0.41868752424963762 0 0.00098278496791487282 -0.43499994183307022 0 -0.023459158130170452 -0.42867114199527478 0 -0.01021388243781865 -0.45148415516460921 0 0.00098278496791487282 -0.43499994183307022 0 -0.01021388243781865 -0.45148415516460921 0 -0.017137315581297458 -0.47257937858970051 0 0.0058249948487519992 -0.47378655522329088 0 -0.01021388243781865 -0.45148415516460921 0 -0.017137315581297458 -0.47257937858970051 0 -0.039612264755186782 -0.45304739528729721 0 -0.017137315581297458 -0.47257937858970051 0 -0.035731853051649283 -0.47022070656449549 0 -0.039612264755186782 -0.45304739528729721 0 -0.023459158130170452 -0.42867114199527478 0 -0.01021388243781865 -0.45148415516460921 0 -0.039612264755186782 -0.45304739528729721 0 -0.0055299371706789557 -0.5 0 -0.017137315581297458 -0.47257937858970051 0 0.0058249948487519992 -0.47378655522329088 0 -0.017137315581297458 -0.47257937858970051 0 -0.027251683969294449 -0.48565012481494002 0 -0.035731853051649283 -0.47022070656449549 0 -0.0055299371706789557 -0.5 0 -0.017137315581297458 -0.47257937858970051 0 -0.027251683969294449 -0.48565012481494002 0 -0.0055299371706789557 -0.5 0 -0.027251683969294449 -0.48565012481494002 0 -0.035450826421156267 -0.5 0 -0.027251683969294449 -0.48565012481494002 0 -0.035450826421156267 -0.5 0 -0.043777162089773433 -0.4858812690605735 0 -0.027251683969294449 -0.48565012481494002 0 -0.043777162089773433 -0.4858812690605735 0 -0.035731853051649283 -0.47022070656449549 0 -0.043777162089773433 -0.4858812690605735 0 -0.062795593314491943 -0.46246998616704887 0 -0.067631384442881345 -0.48191178913905819 0 -0.043777162089773433 -0.4858812690605735 0 -0.062795593314491943 -0.46246998616704887 0 -0.043777162089773433 -0.4858812690605735 0 -0.035731853051649283 -0.47022070656449549 0 -0.062795593314491943 -0.46246998616704887 0 -0.035450826421156267 -0.5 0 -0.043777162089773433 -0.4858812690605735 0 -0.065371715671633579 -0.5 0 -0.043777162089773433 -0.4858812690605735 0 -0.065371715671633579 -0.5 0 -0.067631384442881345 -0.48191178913905819 0 -0.035731853051649283 -0.47022070656449549 0 -0.039612264755186782 -0.45304739528729721 0 -0.062795593314491943 -0.46246998616704887 0 -0.039612264755186782 -0.45304739528729721 0 -0.063093534258204464 -0.4470929176268672 0 -0.062795593314491943 -0.46246998616704887 0 -0.039612264755186782 -0.45304739528729721 0 -0.062795593314491943 -0.46246998616704887 0 -0.055567234848722502 -0.43368031821831771 0 -0.039612264755186782 -0.45304739528729721 0 -0.063093534258204464 -0.4470929176268672 0 -0.063093534258204464 -0.4470929176268672 0 -0.078083407498481111 -0.44365101322148132 0 -0.07517077470611816 -0.42853518480640779 0 -0.063093534258204464 -0.4470929176268672 0 -0.078083407498481111 -0.44365101322148132 0 -0.062795593314491943 -0.46246998616704887 0 -0.078083407498481111 -0.44365101322148132 0 -0.062795593314491943 -0.46246998616704887 0 -0.062795593314491943 -0.46246998616704887 0 -0.085880290841635537 -0.4718524896252857 0 -0.078083407498481111 -0.44365101322148132 0 -0.062795593314491943 -0.46246998616704887 0 -0.085880290841635537 -0.4718524896252857 0 -0.078083407498481111 -0.44365101322148132 0 -0.085880290841635537 -0.4718524896252857 0 -0.097711956992144813 -0.4474166230622264 0 -0.078083407498481111 -0.44365101322148132 0 -0.097711956992144813 -0.4474166230622264 0 -0.09337122168247193 -0.42483204027591481 0 -0.065371715671633579 -0.5 0 -0.067631384442881345 -0.48191178913905819 0 -0.080332160296872165 -0.48935520084238282 0 -0.062795593314491943 -0.46246998616704887 0 -0.067631384442881345 -0.48191178913905819 0 -0.085880290841635537 -0.4718524896252857 0 -0.067631384442881345 -0.48191178913905819 0 -0.085880290841635537 -0.4718524896252857 0 -0.080332160296872165 -0.48935520084238282 0 -0.085880290841635537 -0.4718524896252857 0 -0.080332160296872165 -0.48935520084238282 0 -0.1089649883687793 -0.48123499308352191 0 -0.065371715671633579 -0.5 0 -0.080332160296872165 -0.48935520084238282 0 -0.095292604922110891 -0.5 0 -0.080332160296872165 -0.48935520084238282 0 -0.095292604922110891 -0.5 0 -0.1089649883687793 -0.48123499308352191 0 -0.085880290841635537 -0.4718524896252857 0 -0.1089649883687793 -0.48123499308352191 0 -0.085880290841635537 -0.4718524896252857 0 -0.1089649883687793 -0.48123499308352191 0 -0.1038076478007464 -0.46498510783643909 0 -0.13220195266968959 -0.47624020067167439 0 -0.132049685895923 -0.49061749654175812 0 -0.1089649883687793 -0.48123499308352191 0 -0.13220195266968959 -0.47624020067167439 0 -0.1089649883687793 -0.48123499308352191 0 -0.12267335500042589 -0.45943632557472242 0 -0.132049685895923 -0.49061749654175812 0 -0.1089649883687793 -0.48123499308352191 0 -0.132049685895923 -0.49061749654175812 0 -0.12521349417258831 -0.5 0 -0.1089649883687793 -0.48123499308352191 0 -0.12521349417258831 -0.5 0 -0.095292604922110891 -0.5 0 -0.1089649883687793 -0.48123499308352191 0 -0.097711956992144813 -0.4474166230622264 0 -0.1209273657791242 -0.44176315549154482 0 -0.10892361542948779 -0.43270009710332302 0 -0.085880290841635537 -0.4718524896252857 0 -0.097711956992144813 -0.4474166230622264 0 -0.1038076478007464 -0.46498510783643909 0 -0.097711956992144813 -0.4474166230622264 0 -0.1038076478007464 -0.46498510783643909 0 -0.12267335500042589 -0.45943632557472242 0 -0.1089649883687793 -0.48123499308352191 0 -0.1038076478007464 -0.46498510783643909 0 -0.12267335500042589 -0.45943632557472242 0 -0.097711956992144813 -0.4474166230622264 0 -0.12267335500042589 -0.45943632557472242 0 -0.097711956992144813 -0.4474166230622264 0 -0.12267335500042589 -0.45943632557472242 0 -0.1209273657791242 -0.44176315549154482 0 -0.1216473709369055 -0.42684453866736272 0 -0.10892361542948779 -0.43270009710332302 0 -0.1087215033836464 -0.41950108730796121 0 -0.1209273657791242 -0.44176315549154482 0 -0.1216473709369055 -0.42684453866736272 0 -0.10892361542948779 -0.43270009710332302 0 -0.097711956992144813 -0.4474166230622264 0 -0.10892361542948779 -0.43270009710332302 0 -0.09337122168247193 -0.42483204027591481 0 -0.10892361542948779 -0.43270009710332302 0 -0.1087215033836464 -0.41950108730796121 0 -0.09337122168247193 -0.42483204027591481 0 -0.096588227858627168 -0.4092920006955777 0 -0.1087215033836464 -0.41950108730796121 0 -0.09337122168247193 -0.42483204027591481 0 -0.096588227858627168 -0.4092920006955777 0 -0.1087215033836464 -0.41950108730796121 0 -0.1080054089967771 -0.40891004411514281 0 -0.1087215033836464 -0.41950108730796121 0 -0.1080054089967771 -0.40891004411514281 0 -0.120923414606757 -0.4101805087101501 0 -0.1216473709369055 -0.42684453866736272 0 -0.1087215033836464 -0.41950108730796121 0 -0.120923414606757 -0.4101805087101501 0 -0.1307621202024957 -0.41939643977350932 0 -0.1216473709369055 -0.42684453866736272 0 -0.120923414606757 -0.4101805087101501 0 -0.13157646338772311 -0.40235343479418412 0 -0.1127529974633094 -0.3920012321200208 0 -0.13157646338772311 -0.40235343479418412 0 -0.11341138155082391 -0.3988465766850991 0 -0.13157646338772311 -0.40235343479418412 0 -0.1127529974633094 -0.3920012321200208 0 -0.11341138155082391 -0.3988465766850991 0 -0.13157646338772311 -0.40235343479418412 0 -0.120923414606757 -0.4101805087101501 0 -0.11341138155082391 -0.3988465766850991 0 -0.1080054089967771 -0.40891004411514281 0 -0.120923414606757 -0.4101805087101501 0 -0.11341138155082391 -0.3988465766850991 0 -0.13092027878879889 -0.38880123511953929 0 -0.1127529974633094 -0.3920012321200208 0 -0.12108740855967071 -0.38114056776092681 0 -0.1127529974633094 -0.3920012321200208 0 -0.12108740855967071 -0.38114056776092681 0 -0.1098954811148765 -0.38186976570230341 0 -0.110069668561376 -0.37301493892532223 0 -0.12108740855967071 -0.38114056776092681 0 -0.1098954811148765 -0.38186976570230341 0 -0.1127529974633094 -0.3920012321200208 0 -0.1098954811148765 -0.38186976570230341 0 -0.093929531538894578 -0.38164902944585938 0 -0.1098954811148765 -0.38186976570230341 0 -0.1019434607355445 -0.37753604055626649 0 -0.093929531538894578 -0.38164902944585938 0 -0.1127529974633094 -0.3920012321200208 0 -0.093929531538894578 -0.38164902944585938 0 -0.095246299713925064 -0.39533971857601341 0 -0.1127529974633094 -0.3920012321200208 0 -0.093929531538894578 -0.38164902944585938 0 -0.10487813291761509 -0.37342026580260429 0 -0.1098954811148765 -0.38186976570230341 0 -0.1019434607355445 -0.37753604055626649 0 -0.110069668561376 -0.37301493892532223 0 -0.10487813291761509 -0.37342026580260429 0 -0.1098954811148765 -0.38186976570230341 0 -0.093929531538894578 -0.38164902944585938 0 -0.095246299713925064 -0.39533971857601341 0 -0.098555839244069382 -0.37268239333261449 0 -0.1019434607355445 -0.37753604055626649 0 -0.093929531538894578 -0.38164902944585938 0 -0.1080054089967771 -0.40891004411514281 0 -0.11341138155082391 -0.3988465766850991 0 -0.095246299713925064 -0.39533971857601341 0 -0.1127529974633094 -0.3920012321200208 0 -0.11341138155082391 -0.3988465766850991 0 -0.095246299713925064 -0.39533971857601341 0 -0.11341138155082391 -0.3988465766850991 0 -0.095246299713925064 -0.39533971857601341 0 -0.096588227858627168 -0.4092920006955777 0 -0.095246299713925064 -0.39533971857601341 0 -0.096588227858627168 -0.4092920006955777 0 -0.1080054089967771 -0.40891004411514281 0 -0.095246299713925064 -0.39533971857601341 0 -0.096588227858627168 -0.4092920006955777 0 -0.095246299713925064 -0.39533971857601341 0 -0.082445157773887515 -0.40535209700250152 0 -0.095246299713925064 -0.39533971857601341 0 -0.079735523067896136 -0.39234528709765859 0 -0.095246299713925064 -0.39533971857601341 0 -0.079735523067896136 -0.39234528709765859 0 -0.082445157773887515 -0.40535209700250152 0 -0.081344315728048344 -0.37472763116059221 0 -0.093929531538894578 -0.38164902944585938 0 -0.079735523067896136 -0.39234528709765859 0 -0.081344315728048344 -0.37472763116059221 0 -0.093929531538894578 -0.38164902944585938 0 -0.092867294853428123 -0.37060475261786652 0 -0.093929531538894578 -0.38164902944585938 0 -0.081344315728048344 -0.37472763116059221 0 -0.092867294853428123 -0.37060475261786652 0 -0.093929531538894578 -0.38164902944585938 0 -0.093929531538894578 -0.38164902944585938 0 -0.095246299713925064 -0.39533971857601341 0 -0.079735523067896136 -0.39234528709765859 0 -0.081344315728048344 -0.37472763116059221 0 -0.054086006648044221 -0.38448055151166632 0 -0.069847647966464088 -0.38522608134730479 0 -0.081344315728048344 -0.37472763116059221 0 -0.054086006648044221 -0.38448055151166632 0 -0.066384086614780735 -0.36650006433233739 0 -0.081344315728048344 -0.37472763116059221 0 -0.054086006648044221 -0.38448055151166632 0 -0.054086006648044221 -0.38448055151166632 0 -0.064224746421867457 -0.3893508556193026 0 -0.069847647966464088 -0.38522608134730479 0 -0.081344315728048344 -0.37472763116059221 0 -0.079735523067896136 -0.39234528709765859 0 -0.069847647966464088 -0.38522608134730479 0 -0.079735523067896136 -0.39234528709765859 0 -0.064224746421867457 -0.3893508556193026 0 -0.069847647966464088 -0.38522608134730479 0 -0.079735523067896136 -0.39234528709765859 0 -0.082445157773887515 -0.40535209700250152 0 -0.067385704034009272 -0.40160776068576809 0 -0.079735523067896136 -0.39234528709765859 0 -0.064224746421867457 -0.3893508556193026 0 -0.079735523067896136 -0.39234528709765859 0 -0.064224746421867457 -0.3893508556193026 0 -0.067385704034009272 -0.40160776068576809 0 -0.05803860556271926 -0.41951586772026223 0 -0.059047307723192027 -0.4076500050322116 0 -0.071173719160636528 -0.41351995860781049 0 -0.059047307723192027 -0.4076500050322116 0 -0.067385704034009272 -0.40160776068576809 0 -0.071173719160636528 -0.41351995860781049 0 -0.05803860556271926 -0.41951586772026223 0 -0.071173719160636528 -0.41351995860781049 0 -0.07517077470611816 -0.42853518480640779 0 -0.082445157773887515 -0.40535209700250152 0 -0.067385704034009272 -0.40160776068576809 0 -0.071173719160636528 -0.41351995860781049 0 -0.071173719160636528 -0.41351995860781049 0 -0.07517077470611816 -0.42853518480640779 0 -0.083749820236348263 -0.41630625627764251 0 -0.055567234848722502 -0.43368031821831771 0 -0.05803860556271926 -0.41951586772026223 0 -0.07517077470611816 -0.42853518480640779 0 -0.055567234848722502 -0.43368031821831771 0 -0.063093534258204464 -0.4470929176268672 0 -0.07517077470611816 -0.42853518480640779 0 -0.078083407498481111 -0.44365101322148132 0 -0.07517077470611816 -0.42853518480640779 0 -0.09337122168247193 -0.42483204027591481 0 -0.078083407498481111 -0.44365101322148132 0 -0.09337122168247193 -0.42483204027591481 0 -0.07517077470611816 -0.42853518480640779 0 -0.09337122168247193 -0.42483204027591481 0 -0.083749820236348263 -0.41630625627764251 0 -0.096588227858627168 -0.4092920006955777 0 -0.09337122168247193 -0.42483204027591481 0 -0.083749820236348263 -0.41630625627764251 0 -0.096588227858627168 -0.4092920006955777 0 -0.082445157773887515 -0.40535209700250152 0 -0.083749820236348263 -0.41630625627764251 0 -0.082445157773887515 -0.40535209700250152 0 -0.071173719160636528 -0.41351995860781049 0 -0.083749820236348263 -0.41630625627764251 0 -0.084759377840465486 -0.071625959810252535 0 -0.077455850545230992 -0.083275463413191586 0 -0.087769017666925353 -0.094420651272060924 0 -0.084759377840465486 -0.071625959810252535 0 -0.087769017666925353 -0.094420651272060924 0 -0.1059782127135928 -0.074433393834118733 0 -0.084759377840465486 -0.071625959810252535 0 -0.1059782127135928 -0.074433393834118733 0 -0.089206877821650585 -0.057973808767956651 0 -0.084759377840465486 -0.071625959810252535 0 -0.089206877821650585 -0.057973808767956651 0 -0.074277404596178959 -0.05973641421770063 0 -0.06844506044708043 -0.073932768015858727 0 -0.074277404596178959 -0.05973641421770063 0 -0.057325107243472263 -0.061673721710143722 0 -0.084759377840465486 -0.071625959810252535 0 -0.06844506044708043 -0.073932768015858727 0 -0.077455850545230992 -0.083275463413191586 0 -0.084759377840465486 -0.071625959810252535 0 -0.06844506044708043 -0.073932768015858727 0 -0.074277404596178959 -0.05973641421770063 0 -0.077455850545230992 -0.083275463413191586 0 -0.066762949065087646 -0.089902242077299757 0 -0.087769017666925353 -0.094420651272060924 0 -0.06844506044708043 -0.073932768015858727 0 -0.077455850545230992 -0.083275463413191586 0 -0.066762949065087646 -0.089902242077299757 0 -0.066762949065087646 -0.089902242077299757 0 -0.07076687267432108 -0.1142568572280081 0 -0.051600297873546357 -0.095051206105288819 0 -0.066762949065087646 -0.089902242077299757 0 -0.07076687267432108 -0.1142568572280081 0 -0.087769017666925353 -0.094420651272060924 0 -0.07076687267432108 -0.1142568572280081 0 -0.097242629798420327 -0.1185668471750775 0 -0.07076687267432108 -0.1142568572280081 0 -0.097242629798420327 -0.1185668471750775 0 -0.083729950295400757 -0.13590116009119169 0 -0.07076687267432108 -0.1142568572280081 0 -0.087769017666925353 -0.094420651272060924 0 -0.097242629798420327 -0.1185668471750775 0 -0.097242629798420327 -0.1185668471750775 0 -0.1184006278415676 -0.1106082292566901 0 -0.1099842562905755 -0.097964843497610643 0 -0.087769017666925353 -0.094420651272060924 0 -0.097242629798420327 -0.1185668471750775 0 -0.1099842562905755 -0.097964843497610643 0 -0.097242629798420327 -0.1185668471750775 0 -0.1184006278415676 -0.1106082292566901 0 -0.12371838692251939 -0.12287683712214691 0 -0.097242629798420327 -0.1185668471750775 0 -0.12371838692251939 -0.12287683712214691 0 -0.1128338108833226 -0.13047386474767261 0 -0.097242629798420327 -0.1185668471750775 0 -0.12371838692251939 -0.12287683712214691 0 -0.1184006278415676 -0.1106082292566901 0 -0.12371838692251939 -0.12287683712214691 0 -0.1291261972115724 -0.11262163051793379 0 -0.1184006278415676 -0.1106082292566901 0 -0.1244101908758608 -0.098938989160173352 0 -0.1299695072667052 -0.10656040677306911 0 -0.1184006278415676 -0.1106082292566901 0 -0.1099842562905755 -0.097964843497610643 0 -0.1244101908758608 -0.098938989160173352 0 -0.1099842562905755 -0.097964843497610643 0 -0.1244101908758608 -0.098938989160173352 0 -0.12267102177126871 -0.086747198019136773 0 -0.1099842562905755 -0.097964843497610643 0 -0.12267102177126871 -0.086747198019136773 0 -0.1059782127135928 -0.074433393834118733 0 -0.087769017666925353 -0.094420651272060924 0 -0.1099842562905755 -0.097964843497610643 0 -0.1059782127135928 -0.074433393834118733 0 -0.1059782127135928 -0.074433393834118733 0 -0.1176456145751838 -0.059964442654696103 0 -0.13241715236731019 -0.071499797347555794 0 -0.12267102177126871 -0.086747198019136773 0 -0.1059782127135928 -0.074433393834118733 0 -0.13241715236731019 -0.071499797347555794 0 -0.1176456145751838 -0.059964442654696103 0 -0.1131896275628357 -0.036310698784263309 0 -0.10261073543698759 -0.052826179683409413 0 -0.1176456145751838 -0.059964442654696103 0 -0.1131896275628357 -0.036310698784263309 0 -0.1277566199360311 -0.046518470620895702 0 -0.1131896275628357 -0.036310698784263309 0 -0.123096087504753 -0.021537143894235469 0 -0.1277566199360311 -0.046518470620895702 0 -0.1131896275628357 -0.036310698784263309 0 -0.097965794684774246 -0.03812649795123136 0 -0.10261073543698759 -0.052826179683409413 0 -0.097965794684774246 -0.03812649795123136 0 -0.10261073543698759 -0.052826179683409413 0 -0.082880886156258937 -0.045922202544615327 0 -0.1131896275628357 -0.036310698784263309 0 -0.097965794684774246 -0.03812649795123136 0 -0.1032973716438029 -0.027317123237146031 0 -0.1059782127135928 -0.074433393834118733 0 -0.1176456145751838 -0.059964442654696103 0 -0.10261073543698759 -0.052826179683409413 0 -0.1059782127135928 -0.074433393834118733 0 -0.10261073543698759 -0.052826179683409413 0 -0.089206877821650585 -0.057973808767956651 0 -0.1195315168135004 -0.0024303773624146621 0 -0.123096087504753 -0.021537143894235469 0 -0.1113963054135417 -0.0043700933766745859 0 -0.123096087504753 -0.021537143894235469 0 -0.1195315168135004 -0.0024303773624146621 0 -0.123096087504753 -0.021537143894235469 0 -0.1268184100029203 -0.01315007552767593 0 -0.1113963054135417 -0.0043700933766745859 0 -0.1114119624519735 -0.013561206835568459 0 -0.123096087504753 -0.021537143894235469 0 -0.1113963054135417 -0.0043700933766745859 0 -0.1195315168135004 -0.0024303773624146621 0 -0.123096087504753 -0.021537143894235469 0 -0.1195315168135004 -0.0024303773624146621 0 -0.12743649414895861 -0.006291773193808704 0 -0.1268184100029203 -0.01315007552767593 0 -0.1114119624519735 -0.013561206835568459 0 -0.11359048742354021 -0.019403281660653349 0 -0.123096087504753 -0.021537143894235469 0 -0.11359048742354021 -0.019403281660653349 0 -0.123096087504753 -0.021537143894235469 0 -0.112828499283345 -0.024865531336549059 0 -0.1114119624519735 -0.013561206835568459 0 -0.11359048742354021 -0.019403281660653349 0 -0.1071170657176144 -0.01896591174976836 0 -0.11359048742354021 -0.019403281660653349 0 -0.112828499283345 -0.024865531336549059 0 -0.1071170657176144 -0.01896591174976836 0 -0.1131896275628357 -0.036310698784263309 0 -0.123096087504753 -0.021537143894235469 0 -0.112828499283345 -0.024865531336549059 0 -0.1131896275628357 -0.036310698784263309 0 -0.112828499283345 -0.024865531336549059 0 -0.1032973716438029 -0.027317123237146031 0 -0.112828499283345 -0.024865531336549059 0 -0.1032973716438029 -0.027317123237146031 0 -0.1071170657176144 -0.01896591174976836 0 -0.097965794684774246 -0.03812649795123136 0 -0.1032973716438029 -0.027317123237146031 0 -0.094286155278714756 -0.02795183140897111 0 -0.1032973716438029 -0.027317123237146031 0 -0.094286155278714756 -0.02795183140897111 0 -0.094397087335533425 -0.01768226819209302 0 -0.1032973716438029 -0.027317123237146031 0 -0.094397087335533425 -0.01768226819209302 0 -0.1071170657176144 -0.01896591174976836 0 -0.1113963054135417 -0.0043700933766745859 0 -0.1022998594653398 -0.0098496059293485816 0 -0.095042178018154802 0.0009823759069313182 0 -0.1113963054135417 -0.0043700933766745859 0 -0.1114119624519735 -0.013561206835568459 0 -0.1022998594653398 -0.0098496059293485816 0 -0.1114119624519735 -0.013561206835568459 0 -0.1071170657176144 -0.01896591174976836 0 -0.1022998594653398 -0.0098496059293485816 0 -0.094397087335533425 -0.01768226819209302 0 -0.1071170657176144 -0.01896591174976836 0 -0.1022998594653398 -0.0098496059293485816 0 -0.094397087335533425 -0.01768226819209302 0 -0.1022998594653398 -0.0098496059293485816 0 -0.09119992214601233 -0.0072252515097783881 0 -0.1022998594653398 -0.0098496059293485816 0 -0.09119992214601233 -0.0072252515097783881 0 -0.095042178018154802 0.0009823759069313182 0 -0.09119992214601233 -0.0072252515097783881 0 -0.080555240801361186 -0.010014772595642639 0 -0.082085834664370957 0.00072418305549578471 0 -0.09119992214601233 -0.0072252515097783881 0 -0.095042178018154802 0.0009823759069313182 0 -0.082085834664370957 0.00072418305549578471 0 -0.094397087335533425 -0.01768226819209302 0 -0.09119992214601233 -0.0072252515097783881 0 -0.080555240801361186 -0.010014772595642639 0 -0.094397087335533425 -0.01768226819209302 0 -0.080555240801361186 -0.010014772595642639 0 -0.080578328941956462 -0.021189621102860021 0 -0.094286155278714756 -0.02795183140897111 0 -0.094397087335533425 -0.01768226819209302 0 -0.080578328941956462 -0.021189621102860021 0 -0.094286155278714756 -0.02795183140897111 0 -0.080578328941956462 -0.021189621102860021 0 -0.084474720586090568 -0.032751805197192257 0 -0.080578328941956462 -0.021189621102860021 0 -0.066662437868748453 -0.030568872978283489 0 -0.084474720586090568 -0.032751805197192257 0 -0.066662437868748453 -0.030568872978283489 0 -0.069748504601416489 -0.015336708063262551 0 -0.056638824423872462 -0.01491351256515484 0 -0.080578328941956462 -0.021189621102860021 0 -0.066662437868748453 -0.030568872978283489 0 -0.069748504601416489 -0.015336708063262551 0 -0.080555240801361186 -0.010014772595642639 0 -0.080578328941956462 -0.021189621102860021 0 -0.069748504601416489 -0.015336708063262551 0 -0.080555240801361186 -0.010014772595642639 0 -0.069748504601416489 -0.015336708063262551 0 -0.070517512630694557 -0.002546413074365927 0 -0.069748504601416489 -0.015336708063262551 0 -0.070517512630694557 -0.002546413074365927 0 -0.056638824423872462 -0.01491351256515484 0 -0.080555240801361186 -0.010014772595642639 0 -0.070517512630694557 -0.002546413074365927 0 -0.082085834664370957 0.00072418305549578471 0 -0.10261073543698759 -0.052826179683409413 0 -0.089206877821650585 -0.057973808767956651 0 -0.082880886156258937 -0.045922202544615327 0 -0.089206877821650585 -0.057973808767956651 0 -0.082880886156258937 -0.045922202544615327 0 -0.074277404596178959 -0.05973641421770063 0 -0.097965794684774246 -0.03812649795123136 0 -0.084474720586090568 -0.032751805197192257 0 -0.082880886156258937 -0.045922202544615327 0 -0.097965794684774246 -0.03812649795123136 0 -0.094286155278714756 -0.02795183140897111 0 -0.084474720586090568 -0.032751805197192257 0 -0.066662437868748453 -0.030568872978283489 0 -0.084474720586090568 -0.032751805197192257 0 -0.082880886156258937 -0.045922202544615327 0 -0.066662437868748453 -0.030568872978283489 0 -0.082880886156258937 -0.045922202544615327 0 -0.063495440641379144 -0.047188353309730827 0 -0.063495440641379144 -0.047188353309730827 0 -0.074277404596178959 -0.05973641421770063 0 -0.057325107243472263 -0.061673721710143722 0 -0.082880886156258937 -0.045922202544615327 0 -0.063495440641379144 -0.047188353309730827 0 -0.074277404596178959 -0.05973641421770063 0 -0.063495440641379144 -0.047188353309730827 0 -0.057325107243472263 -0.061673721710143722 0 -0.046694023406942807 -0.048562101043976187 0 -0.057325107243472263 -0.061673721710143722 0 -0.04259340245180282 -0.060362124209989078 0 -0.046694023406942807 -0.048562101043976187 0 -0.063495440641379144 -0.047188353309730827 0 -0.050841850176557173 -0.035660650400660583 0 -0.046694023406942807 -0.048562101043976187 0 -0.066662437868748453 -0.030568872978283489 0 -0.050841850176557173 -0.035660650400660583 0 -0.066662437868748453 -0.030568872978283489 0 -0.063495440641379144 -0.047188353309730827 0 -0.050841850176557173 -0.035660650400660583 0 -0.050841850176557173 -0.035660650400660583 0 -0.035021262484366579 -0.040752427823039901 0 -0.050841850176557173 -0.035660650400660583 0 -0.035021262484366579 -0.040752427823039901 0 -0.046694023406942807 -0.048562101043976187 0 -0.035021262484366579 -0.040752427823039901 0 -0.034255536741932671 -0.047445902250769348 0 -0.046694023406942807 -0.048562101043976187 0 -0.035021262484366579 -0.040752427823039901 0 -0.034255536741932671 -0.047445902250769348 0 -0.025136370030621889 -0.050391805666694857 0 -0.035021262484366579 -0.040752427823039901 0 -0.034255536741932671 -0.047445902250769348 0 -0.034255536741932671 -0.047445902250769348 0 -0.038051421926349027 -0.053999980248557337 0 -0.030277492868152789 -0.05739527141432739 0 -0.04259340245180282 -0.060362124209989078 0 -0.030277492868152789 -0.05739527141432739 0 -0.03100086444038247 -0.068981994541821523 0 -0.038051421926349027 -0.053999980248557337 0 -0.04259340245180282 -0.060362124209989078 0 -0.030277492868152789 -0.05739527141432739 0 -0.034255536741932671 -0.047445902250769348 0 -0.038051421926349027 -0.053999980248557337 0 -0.046694023406942807 -0.048562101043976187 0 -0.038051421926349027 -0.053999980248557337 0 -0.04259340245180282 -0.060362124209989078 0 -0.046694023406942807 -0.048562101043976187 0 -0.070517512630694557 -0.002546413074365927 0 -0.056638824423872462 -0.01491351256515484 0 -0.055813665327939861 0.004961667931764239 0 -0.056638824423872462 -0.01491351256515484 0 -0.038065540254775793 -0.01414133944257338 0 -0.055813665327939861 0.004961667931764239 0 -0.050841850176557173 -0.035660650400660583 0 -0.056638824423872462 -0.01491351256515484 0 -0.038065540254775793 -0.01414133944257338 0 -0.066662437868748453 -0.030568872978283489 0 -0.050841850176557173 -0.035660650400660583 0 -0.056638824423872462 -0.01491351256515484 0 -0.035021262484366579 -0.040752427823039901 0 -0.038065540254775793 -0.01414133944257338 0 -0.035021262484366579 -0.040752427823039901 0 -0.038065540254775793 -0.01414133944257338 0 -0.02211103150227026 -0.01782876186553007 0 -0.050841850176557173 -0.035660650400660583 0 -0.035021262484366579 -0.040752427823039901 0 -0.038065540254775793 -0.01414133944257338 0 -0.038065540254775793 -0.01414133944257338 0 -0.041109818025184541 0.01246974893789313 0 -0.02211103150227026 -0.01782876186553007 0 -0.008081950935871246 -0.0078643453545879025 0 -0.02332930609282181 0.002293464424054465 0 -0.038065540254775793 -0.01414133944257338 0 -0.02211103150227026 -0.01782876186553007 0 -0.02332930609282181 0.002293464424054465 0 -0.035021262484366579 -0.040752427823039901 0 -0.02211103150227026 -0.01782876186553007 0 -0.0099906299789442321 -0.0293115812195653 0 -0.0099906299789442321 -0.0293115812195653 0 -0.008081950935871246 -0.0078643453545879025 0 0.0069763512184407676 -0.022647556875415451 0 -0.02211103150227026 -0.01782876186553007 0 -0.0099906299789442321 -0.0293115812195653 0 -0.008081950935871246 -0.0078643453545879025 0 -0.008081950935871246 -0.0078643453545879025 0 0.0057465999670243432 0.0055996356184830438 0 -0.035021262484366579 -0.040752427823039901 0 -0.025136370030621889 -0.050391805666694857 0 -0.0071811579328509706 -0.049712626935109173 0 -0.018946400125805479 -0.056652799910228362 0 -0.025136370030621889 -0.050391805666694857 0 -0.0071811579328509706 -0.049712626935109173 0 -0.018946400125805479 -0.056652799910228362 0 -0.0095552923233079845 -0.062436331508622898 0 -0.021410271066296831 -0.063751429282473432 0 -0.018946400125805479 -0.056652799910228362 0 -0.030277492868152789 -0.05739527141432739 0 -0.025136370030621889 -0.050391805666694857 0 -0.018946400125805479 -0.056652799910228362 0 -0.030277492868152789 -0.05739527141432739 0 -0.021410271066296831 -0.063751429282473432 0 -0.034255536741932671 -0.047445902250769348 0 -0.030277492868152789 -0.05739527141432739 0 -0.025136370030621889 -0.050391805666694857 0 -0.035021262484366579 -0.040752427823039901 0 -0.0099906299789442321 -0.0293115812195653 0 -0.0071811579328509706 -0.049712626935109173 0 -0.035021262484366579 -0.040752427823039901 0 -0.0071811579328509706 -0.049712626935109173 0 -0.0099906299789442321 -0.0293115812195653 0 -0.0071811579328509706 -0.049712626935109173 0 0.0050241786169890248 -0.03713629370316586 0 -0.018946400125805479 -0.056652799910228362 0 -0.0071811579328509706 -0.049712626935109173 0 -0.0095552923233079845 -0.062436331508622898 0 -0.0095552923233079845 -0.062436331508622898 0 0.0055518271476778479 -0.060554578777902927 0 -0.0071811579328509706 -0.049712626935109173 0 -0.0095552923233079845 -0.062436331508622898 0 0.0055518271476778479 -0.060554578777902927 0 -0.00083418359899767053 -0.072522553478430687 0 -0.01018293480097566 -0.085106020112889605 0 -0.01727130557383541 -0.073290749037367015 0 -0.0095552923233079845 -0.062436331508622898 0 -0.00083418359899767053 -0.072522553478430687 0 0.0055518271476778479 -0.060554578777902927 0 -0.0095552923233079845 -0.062436331508622898 0 -0.00083418359899767053 -0.072522553478430687 0 -0.01727130557383541 -0.073290749037367015 0 -0.01018293480097566 -0.085106020112889605 0 -0.032453498244747199 -0.087001550327739735 0 -0.013713416355387869 -0.1050205758249743 0 -0.01018293480097566 -0.085106020112889605 0 -0.01727130557383541 -0.073290749037367015 0 -0.032453498244747199 -0.087001550327739735 0 -0.01018293480097566 -0.085106020112889605 0 -0.032453498244747199 -0.087001550327739735 0 -0.01727130557383541 -0.073290749037367015 0 -0.03100086444038247 -0.068981994541821523 0 -0.032453498244747199 -0.087001550327739735 0 -0.0095552923233079845 -0.062436331508622898 0 -0.021410271066296831 -0.063751429282473432 0 -0.01727130557383541 -0.073290749037367015 0 -0.021410271066296831 -0.063751429282473432 0 -0.01727130557383541 -0.073290749037367015 0 -0.03100086444038247 -0.068981994541821523 0 -0.030277492868152789 -0.05739527141432739 0 -0.021410271066296831 -0.063751429282473432 0 -0.03100086444038247 -0.068981994541821523 0 -0.04259340245180282 -0.060362124209989078 0 -0.03100086444038247 -0.068981994541821523 0 -0.049546184547941761 -0.07654420465893548 0 -0.03100086444038247 -0.068981994541821523 0 -0.032453498244747199 -0.087001550327739735 0 -0.049546184547941761 -0.07654420465893548 0 -0.032453498244747199 -0.087001550327739735 0 -0.049546184547941761 -0.07654420465893548 0 -0.051600297873546357 -0.095051206105288819 0 -0.06844506044708043 -0.073932768015858727 0 -0.066762949065087646 -0.089902242077299757 0 -0.049546184547941761 -0.07654420465893548 0 -0.066762949065087646 -0.089902242077299757 0 -0.049546184547941761 -0.07654420465893548 0 -0.051600297873546357 -0.095051206105288819 0 -0.06844506044708043 -0.073932768015858727 0 -0.057325107243472263 -0.061673721710143722 0 -0.049546184547941761 -0.07654420465893548 0 -0.057325107243472263 -0.061673721710143722 0 -0.04259340245180282 -0.060362124209989078 0 -0.049546184547941761 -0.07654420465893548 0 -0.07076687267432108 -0.1142568572280081 0 -0.044291115550221832 -0.10994686728093871 0 -0.050178390909508278 -0.13166414322784881 0 -0.07076687267432108 -0.1142568572280081 0 -0.044291115550221832 -0.10994686728093871 0 -0.07076687267432108 -0.1142568572280081 0 -0.051600297873546357 -0.095051206105288819 0 -0.044291115550221832 -0.10994686728093871 0 -0.032453498244747199 -0.087001550327739735 0 -0.051600297873546357 -0.095051206105288819 0 -0.044291115550221832 -0.10994686728093871 0 -0.032453498244747199 -0.087001550327739735 0 -0.044291115550221832 -0.10994686728093871 0 -0.028650089411466882 -0.1096696962239173 0 -0.044291115550221832 -0.10994686728093871 0 -0.050178390909508278 -0.13166414322784881 0 -0.033578234858004291 -0.12622010836747671 0 -0.044291115550221832 -0.10994686728093871 0 -0.028650089411466882 -0.1096696962239173 0 -0.033578234858004291 -0.12622010836747671 0 -0.028650089411466882 -0.1096696962239173 0 -0.021610958674889241 -0.1236399918879838 0 -0.013713416355387869 -0.1050205758249743 0 -0.028650089411466882 -0.1096696962239173 0 -0.021610958674889241 -0.1236399918879838 0 -0.033578234858004291 -0.12622010836747671 0 -0.032453498244747199 -0.087001550327739735 0 -0.028650089411466882 -0.1096696962239173 0 -0.013713416355387869 -0.1050205758249743 0 -0.013713416355387869 -0.1050205758249743 0 0.002348869369470805 -0.11731109275913 0 0.00271208556382007 -0.09883127110100752 0 -0.01018293480097566 -0.085106020112889605 0 -0.013713416355387869 -0.1050205758249743 0 0.00271208556382007 -0.09883127110100752 0 -0.021610958674889241 -0.1236399918879838 0 -0.013713416355387869 -0.1050205758249743 0 -0.0089565425227370356 -0.12302905988177 0 -0.013713416355387869 -0.1050205758249743 0 -0.0089565425227370356 -0.12302905988177 0 0.002348869369470805 -0.11731109275913 0 -0.0089565425227370356 -0.12302905988177 0 -8.7367507044229444e-05 -0.1320758947210427 0 0.002348869369470805 -0.11731109275913 0 -0.0089565425227370356 -0.12302905988177 0 -8.7367507044229444e-05 -0.1320758947210427 0 -0.01070795677091901 -0.13402965130026151 0 -8.7367507044229444e-05 -0.1320758947210427 0 -0.0083325490775591395 -0.1445639533356648 0 0.00207234792727306 -0.14230533698230219 0 -8.7367507044229444e-05 -0.1320758947210427 0 -0.01070795677091901 -0.13402965130026151 0 -0.0083325490775591395 -0.1445639533356648 0 -0.01070795677091901 -0.13402965130026151 0 -0.021584240955527311 -0.13825260388064289 0 -0.0083325490775591395 -0.1445639533356648 0 -0.021610958674889241 -0.1236399918879838 0 -0.0089565425227370356 -0.12302905988177 0 -0.01070795677091901 -0.13402965130026151 0 -0.021584240955527311 -0.13825260388064289 0 -0.033578234858004291 -0.12622010836747671 0 -0.035154613646412251 -0.14414734770352849 0 -0.021610958674889241 -0.1236399918879838 0 -0.01070795677091901 -0.13402965130026151 0 -0.021584240955527311 -0.13825260388064289 0 -0.021610958674889241 -0.1236399918879838 0 -0.021584240955527311 -0.13825260388064289 0 -0.033578234858004291 -0.12622010836747671 0 -0.021735869372850151 -0.1525695057058703 0 -0.035006977501845192 -0.15977716749456189 0 -0.035154613646412251 -0.14414734770352849 0 -0.021584240955527311 -0.13825260388064289 0 -0.021735869372850151 -0.1525695057058703 0 -0.035154613646412251 -0.14414734770352849 0 -0.021584240955527311 -0.13825260388064289 0 -0.021735869372850151 -0.1525695057058703 0 -0.0083325490775591395 -0.1445639533356648 0 -0.021735869372850151 -0.1525695057058703 0 -0.0083325490775591395 -0.1445639533356648 0 -0.0089773153789232361 -0.15948872001182321 0 -0.0083325490775591395 -0.1445639533356648 0 0.0044631311353323967 -0.15533498840657239 0 0.00207234792727306 -0.14230533698230219 0 -0.0083325490775591395 -0.1445639533356648 0 -0.0089773153789232361 -0.15948872001182321 0 0.0044631311353323967 -0.15533498840657239 0 -0.0089773153789232361 -0.15948872001182321 0 -0.0061774939463007019 -0.17193904810355759 0 -0.02254149666353707 -0.17016892296766931 0 -0.00089121633836973589 -0.16327629310308001 0 -0.0089773153789232361 -0.15948872001182321 0 0.0044631311353323967 -0.15533498840657239 0 -0.00089121633836973589 -0.16327629310308001 0 -0.0061774939463007019 -0.17193904810355759 0 0.0043408472213855853 -0.1709494822463099 0 -0.00089121633836973589 -0.16327629310308001 0 -0.0089773153789232361 -0.15948872001182321 0 -0.0061774939463007019 -0.17193904810355759 0 -0.0061774939463007019 -0.17193904810355759 0 -0.01111585859188041 -0.18519644467540661 0 -0.02254149666353707 -0.17016892296766931 0 -0.0061774939463007019 -0.17193904810355759 0 -0.01111585859188041 -0.18519644467540661 0 0.001720711736504155 -0.18321484223918161 0 -0.0061774939463007019 -0.17193904810355759 0 0.0043408472213855853 -0.1709494822463099 0 0.001720711736504155 -0.18321484223918161 0 -0.01111585859188041 -0.18519644467540661 0 -0.02254149666353707 -0.17016892296766931 0 -0.02905900948168361 -0.18889681296462019 0 -0.02254149666353707 -0.17016892296766931 0 -0.035986838854404138 -0.17541035913326941 0 -0.02905900948168361 -0.18889681296462019 0 -0.021735869372850151 -0.1525695057058703 0 -0.0089773153789232361 -0.15948872001182321 0 -0.02254149666353707 -0.17016892296766931 0 -0.02254149666353707 -0.17016892296766931 0 -0.035006977501845192 -0.15977716749456189 0 -0.035986838854404138 -0.17541035913326941 0 -0.021735869372850151 -0.1525695057058703 0 -0.02254149666353707 -0.17016892296766931 0 -0.035006977501845192 -0.15977716749456189 0 -0.035006977501845192 -0.15977716749456189 0 -0.046846234269656242 -0.16872630703543781 0 -0.035986838854404138 -0.17541035913326941 0 -0.035006977501845192 -0.15977716749456189 0 -0.046846234269656242 -0.16872630703543781 0 -0.052498855700484147 -0.1528508571804604 0 -0.035986838854404138 -0.17541035913326941 0 -0.049180669748795369 -0.18426403801105079 0 -0.02905900948168361 -0.18889681296462019 0 -0.046846234269656242 -0.16872630703543781 0 -0.035986838854404138 -0.17541035913326941 0 -0.049180669748795369 -0.18426403801105079 0 -0.046846234269656242 -0.16872630703543781 0 -0.049180669748795369 -0.18426403801105079 0 -0.067086850944435561 -0.17194904997627061 0 -0.049180669748795369 -0.18426403801105079 0 -0.065886087948995323 -0.1868444779592334 0 -0.067086850944435561 -0.17194904997627061 0 -0.046846234269656242 -0.16872630703543781 0 -0.052498855700484147 -0.1528508571804604 0 -0.067086850944435561 -0.17194904997627061 0 -0.052498855700484147 -0.1528508571804604 0 -0.050178390909508278 -0.13166414322784881 0 -0.066911883777597228 -0.13767809129283179 0 -0.050178390909508278 -0.13166414322784881 0 -0.033578234858004291 -0.12622010836747671 0 -0.035154613646412251 -0.14414734770352849 0 -0.035006977501845192 -0.15977716749456189 0 -0.052498855700484147 -0.1528508571804604 0 -0.035154613646412251 -0.14414734770352849 0 -0.052498855700484147 -0.1528508571804604 0 -0.050178390909508278 -0.13166414322784881 0 -0.035154613646412251 -0.14414734770352849 0 -0.030496456730285251 -0.23617075648794489 0 -0.02058946353034052 -0.24673964048383121 0 -0.01433523027994708 -0.2315735345724951 0 -0.030496456730285251 -0.23617075648794489 0 -0.02058946353034052 -0.24673964048383121 0 -0.034892676046757463 -0.24952760846005781 0 -0.0074019412988201817 -0.24854936663358451 0 -0.01433523027994708 -0.2315735345724951 0 0.0019815391129595372 -0.23326154048766989 0 -0.02058946353034052 -0.24673964048383121 0 -0.0074019412988201817 -0.24854936663358451 0 -0.01433523027994708 -0.2315735345724951 0 -0.01433523027994708 -0.2315735345724951 0 -0.00053481913395022479 -0.2137630812897415 0 0.0019815391129595372 -0.23326154048766989 0 -0.01433523027994708 -0.2315735345724951 0 -0.016979603611894871 -0.21562155904709421 0 -0.00053481913395022479 -0.2137630812897415 0 -0.01433523027994708 -0.2315735345724951 0 -0.026247679846550319 -0.22328377272885699 0 -0.016979603611894871 -0.21562155904709421 0 -0.030496456730285251 -0.23617075648794489 0 -0.01433523027994708 -0.2315735345724951 0 -0.026247679846550319 -0.22328377272885699 0 -0.030312494608010259 -0.20814308882602969 0 -0.016979603611894871 -0.21562155904709421 0 -0.013467794191016491 -0.201344317818348 0 -0.026247679846550319 -0.22328377272885699 0 -0.030312494608010259 -0.20814308882602969 0 -0.016979603611894871 -0.21562155904709421 0 -0.016979603611894871 -0.21562155904709421 0 -0.00053481913395022479 -0.2137630812897415 0 -0.013467794191016491 -0.201344317818348 0 -0.00053481913395022479 -0.2137630812897415 0 -0.013467794191016491 -0.201344317818348 0 0.0058434739981291749 -0.19505996769432099 0 -0.01111585859188041 -0.18519644467540661 0 -0.013467794191016491 -0.201344317818348 0 0.0058434739981291749 -0.19505996769432099 0 -0.01111585859188041 -0.18519644467540661 0 0.0058434739981291749 -0.19505996769432099 0 0.001720711736504155 -0.18321484223918161 0 -0.01111585859188041 -0.18519644467540661 0 -0.013467794191016491 -0.201344317818348 0 -0.02905900948168361 -0.18889681296462019 0 -0.030312494608010259 -0.20814308882602969 0 -0.013467794191016491 -0.201344317818348 0 -0.02905900948168361 -0.18889681296462019 0 -0.030312494608010259 -0.20814308882602969 0 -0.02905900948168361 -0.18889681296462019 0 -0.041609475830034527 -0.19700029446739331 0 -0.049180669748795369 -0.18426403801105079 0 -0.02905900948168361 -0.18889681296462019 0 -0.041609475830034527 -0.19700029446739331 0 -0.049180669748795369 -0.18426403801105079 0 -0.041609475830034527 -0.19700029446739331 0 -0.059602764428980909 -0.2007913685919219 0 -0.049180669748795369 -0.18426403801105079 0 -0.059602764428980909 -0.2007913685919219 0 -0.065886087948995323 -0.1868444779592334 0 -0.041609475830034527 -0.19700029446739331 0 -0.059602764428980909 -0.2007913685919219 0 -0.045998587730862482 -0.2099731760879861 0 -0.059602764428980909 -0.2007913685919219 0 -0.045998587730862482 -0.2099731760879861 0 -0.05759535120541931 -0.22008027816405351 0 -0.045998587730862482 -0.2099731760879861 0 -0.04157309878005086 -0.22466128756308301 0 -0.05759535120541931 -0.22008027816405351 0 -0.030312494608010259 -0.20814308882602969 0 -0.041609475830034527 -0.19700029446739331 0 -0.045998587730862482 -0.2099731760879861 0 -0.026247679846550319 -0.22328377272885699 0 -0.030312494608010259 -0.20814308882602969 0 -0.04157309878005086 -0.22466128756308301 0 -0.030312494608010259 -0.20814308882602969 0 -0.045998587730862482 -0.2099731760879861 0 -0.04157309878005086 -0.22466128756308301 0 -0.030496456730285251 -0.23617075648794489 0 -0.026247679846550319 -0.22328377272885699 0 -0.04157309878005086 -0.22466128756308301 0 -0.030496456730285251 -0.23617075648794489 0 -0.04157309878005086 -0.22466128756308301 0 -0.043926439475269682 -0.23893244645978129 0 -0.04157309878005086 -0.22466128756308301 0 -0.05759535120541931 -0.22008027816405351 0 -0.056579751506169992 -0.23675858024042681 0 -0.05759535120541931 -0.22008027816405351 0 -0.056579751506169992 -0.23675858024042681 0 -0.069134652816466816 -0.22964083039239391 0 -0.04157309878005086 -0.22466128756308301 0 -0.056579751506169992 -0.23675858024042681 0 -0.043926439475269682 -0.23893244645978129 0 -0.056579751506169992 -0.23675858024042681 0 -0.05687482565736731 -0.2475939293170851 0 -0.043926439475269682 -0.23893244645978129 0 -0.056579751506169992 -0.23675858024042681 0 -0.05687482565736731 -0.2475939293170851 0 -0.068158317794434542 -0.2495170602682302 0 -0.047152442161352552 -0.25140253843235022 0 -0.05687482565736731 -0.2475939293170851 0 -0.043926439475269682 -0.23893244645978129 0 -0.047152442161352552 -0.25140253843235022 0 -0.043926439475269682 -0.23893244645978129 0 -0.034892676046757463 -0.24952760846005781 0 -0.030496456730285251 -0.23617075648794489 0 -0.043926439475269682 -0.23893244645978129 0 -0.034892676046757463 -0.24952760846005781 0 -0.093742133900348884 -0.24043010099263989 0 -0.080771264957155059 -0.2448400294426262 0 -0.087282124908491243 -0.2287675351389323 0 -0.080771264957155059 -0.2448400294426262 0 -0.068158317794434542 -0.2495170602682302 0 -0.087282124908491243 -0.2287675351389323 0 -0.095721911214905878 -0.25452512295504748 0 -0.093742133900348884 -0.24043010099263989 0 -0.080771264957155059 -0.2448400294426262 0 -0.068158317794434542 -0.2495170602682302 0 -0.087282124908491243 -0.2287675351389323 0 -0.068158317794434542 -0.2495170602682302 0 -0.069134652816466816 -0.22964083039239391 0 -0.087282124908491243 -0.2287675351389323 0 -0.056579751506169992 -0.23675858024042681 0 -0.068158317794434542 -0.2495170602682302 0 -0.069134652816466816 -0.22964083039239391 0 -0.069134652816466816 -0.22964083039239391 0 -0.087282124908491243 -0.2287675351389323 0 -0.076057718667818963 -0.21308069815032701 0 -0.05759535120541931 -0.22008027816405351 0 -0.069134652816466816 -0.22964083039239391 0 -0.076057718667818963 -0.21308069815032701 0 -0.076057718667818963 -0.21308069815032701 0 -0.079724743922202038 -0.1931689517792245 0 -0.1064059320225479 -0.20801801000963441 0 -0.087282124908491243 -0.2287675351389323 0 -0.076057718667818963 -0.21308069815032701 0 -0.1064059320225479 -0.20801801000963441 0 -0.059602764428980909 -0.2007913685919219 0 -0.05759535120541931 -0.22008027816405351 0 -0.076057718667818963 -0.21308069815032701 0 -0.059602764428980909 -0.2007913685919219 0 -0.076057718667818963 -0.21308069815032701 0 -0.079724743922202038 -0.1931689517792245 0 -0.059602764428980909 -0.2007913685919219 0 -0.079724743922202038 -0.1931689517792245 0 -0.065886087948995323 -0.1868444779592334 0 -0.1064059320225479 -0.20801801000963441 0 -0.097716937947231491 -0.18236863836799291 0 -0.1110316492752499 -0.18715314187080029 0 -0.079724743922202038 -0.1931689517792245 0 -0.1064059320225479 -0.20801801000963441 0 -0.097716937947231491 -0.18236863836799291 0 -0.1064059320225479 -0.20801801000963441 0 -0.12552973913660481 -0.18726848488033629 0 -0.1064059320225479 -0.20801801000963441 0 -0.1110316492752499 -0.18715314187080029 0 -0.12552973913660481 -0.18726848488033629 0 -0.1064059320225479 -0.20801801000963441 0 -0.12552973913660481 -0.18726848488033629 0 -0.13387494140780751 -0.20470574401124339 0 -0.1064059320225479 -0.20801801000963441 0 -0.12427974049693311 -0.2192069991518282 0 -0.13387494140780751 -0.20470574401124339 0 -0.087282124908491243 -0.2287675351389323 0 -0.1064059320225479 -0.20801801000963441 0 -0.093742133900348884 -0.24043010099263989 0 -0.087282124908491243 -0.2287675351389323 0 -0.10824525073862321 -0.23051559327079299 0 -0.087282124908491243 -0.2287675351389323 0 -0.1064059320225479 -0.20801801000963441 0 -0.10824525073862321 -0.23051559327079299 0 -0.10824525073862321 -0.23051559327079299 0 -0.12427974049693311 -0.2192069991518282 0 -0.12824360402680501 -0.23191432903801429 0 -0.1064059320225479 -0.20801801000963441 0 -0.10824525073862321 -0.23051559327079299 0 -0.12427974049693311 -0.2192069991518282 0 -0.10824525073862321 -0.23051559327079299 0 -0.11762503027157251 -0.2438646842861463 0 -0.12824360402680501 -0.23191432903801429 0 -0.10824525073862321 -0.23051559327079299 0 -0.11762503027157251 -0.2438646842861463 0 -0.10425775271815001 -0.24508298738637729 0 -0.1223083114857455 -0.25613110687167828 0 -0.11762503027157251 -0.2438646842861463 0 -0.13178625741313191 -0.24563913469824819 0 -0.1091327142612739 -0.25696123718903757 0 -0.11762503027157251 -0.2438646842861463 0 -0.10425775271815001 -0.24508298738637729 0 -0.093742133900348884 -0.24043010099263989 0 -0.10824525073862321 -0.23051559327079299 0 -0.10425775271815001 -0.24508298738637729 0 -0.095721911214905878 -0.25452512295504748 0 -0.093742133900348884 -0.24043010099263989 0 -0.10425775271815001 -0.24508298738637729 0 -0.092565867144336622 -0.15088368298751351 0 -0.083729950295400757 -0.13590116009119169 0 -0.074051961468577149 -0.15384012550620929 0 -0.092565867144336622 -0.15088368298751351 0 -0.083729950295400757 -0.13590116009119169 0 -0.10068440036152999 -0.138661001170194 0 -0.07076687267432108 -0.1142568572280081 0 -0.050178390909508278 -0.13166414322784881 0 -0.066911883777597228 -0.13767809129283179 0 -0.07076687267432108 -0.1142568572280081 0 -0.083729950295400757 -0.13590116009119169 0 -0.066911883777597228 -0.13767809129283179 0 -0.083729950295400757 -0.13590116009119169 0 -0.066911883777597228 -0.13767809129283179 0 -0.074051961468577149 -0.15384012550620929 0 -0.052498855700484147 -0.1528508571804604 0 -0.066911883777597228 -0.13767809129283179 0 -0.074051961468577149 -0.15384012550620929 0 -0.074051961468577149 -0.15384012550620929 0 -0.067086850944435561 -0.17194904997627061 0 -0.08723645329314525 -0.16478450782981641 0 -0.052498855700484147 -0.1528508571804604 0 -0.074051961468577149 -0.15384012550620929 0 -0.067086850944435561 -0.17194904997627061 0 -0.065886087948995323 -0.1868444779592334 0 -0.067086850944435561 -0.17194904997627061 0 -0.080927999866602984 -0.17831632334858599 0 -0.079724743922202038 -0.1931689517792245 0 -0.065886087948995323 -0.1868444779592334 0 -0.080927999866602984 -0.17831632334858599 0 -0.079724743922202038 -0.1931689517792245 0 -0.080927999866602984 -0.17831632334858599 0 -0.097716937947231491 -0.18236863836799291 0 -0.080927999866602984 -0.17831632334858599 0 -0.08723645329314525 -0.16478450782981641 0 -0.097716937947231491 -0.18236863836799291 0 -0.067086850944435561 -0.17194904997627061 0 -0.080927999866602984 -0.17831632334858599 0 -0.08723645329314525 -0.16478450782981641 0 -0.092565867144336622 -0.15088368298751351 0 -0.074051961468577149 -0.15384012550620929 0 -0.08723645329314525 -0.16478450782981641 0 -0.10219726387108739 -0.16229156772505179 0 -0.097716937947231491 -0.18236863836799291 0 -0.11447398799461569 -0.17095743422523779 0 -0.092565867144336622 -0.15088368298751351 0 -0.08723645329314525 -0.16478450782981641 0 -0.10219726387108739 -0.16229156772505179 0 -0.08723645329314525 -0.16478450782981641 0 -0.10219726387108739 -0.16229156772505179 0 -0.097716937947231491 -0.18236863836799291 0 -0.10219726387108739 -0.16229156772505179 0 -0.1129493426271293 -0.15918494803172301 0 -0.10797388694904241 -0.149235992811763 0 -0.097716937947231491 -0.18236863836799291 0 -0.1110316492752499 -0.18715314187080029 0 -0.11447398799461569 -0.17095743422523779 0 -0.11447398799461569 -0.17095743422523779 0 -0.12552973913660481 -0.18726848488033629 0 -0.13260571201648669 -0.17305508669918321 0 -0.1110316492752499 -0.18715314187080029 0 -0.11447398799461569 -0.17095743422523779 0 -0.12552973913660481 -0.18726848488033629 0 -0.11447398799461569 -0.17095743422523779 0 -0.1227554134926354 -0.1629562434519892 0 -0.13260571201648669 -0.17305508669918321 0 -0.10219726387108739 -0.16229156772505179 0 -0.1129493426271293 -0.15918494803172301 0 -0.11447398799461569 -0.17095743422523779 0 -0.1129493426271293 -0.15918494803172301 0 -0.11447398799461569 -0.17095743422523779 0 -0.1227554134926354 -0.1629562434519892 0 -0.1129493426271293 -0.15918494803172301 0 -0.1227554134926354 -0.1629562434519892 0 -0.12006252970395979 -0.152591584973194 0 -0.12006252970395979 -0.152591584973194 0 -0.1246746975720613 -0.14429165099579869 0 -0.1147695138312526 -0.14075431864444041 0 -0.12006252970395979 -0.152591584973194 0 -0.1147695138312526 -0.14075431864444041 0 -0.10797388694904241 -0.149235992811763 0 -0.1129493426271293 -0.15918494803172301 0 -0.12006252970395979 -0.152591584973194 0 -0.10797388694904241 -0.149235992811763 0 -0.1147695138312526 -0.14075431864444041 0 -0.10797388694904241 -0.149235992811763 0 -0.10068440036152999 -0.138661001170194 0 -0.092565867144336622 -0.15088368298751351 0 -0.10797388694904241 -0.149235992811763 0 -0.10068440036152999 -0.138661001170194 0 -0.092565867144336622 -0.15088368298751351 0 -0.10219726387108739 -0.16229156772505179 0 -0.10797388694904241 -0.149235992811763 0 -0.097242629798420327 -0.1185668471750775 0 -0.083729950295400757 -0.13590116009119169 0 -0.10068440036152999 -0.138661001170194 0 -0.097242629798420327 -0.1185668471750775 0 -0.10068440036152999 -0.138661001170194 0 -0.1128338108833226 -0.13047386474767261 0 -0.1147695138312526 -0.14075431864444041 0 -0.10068440036152999 -0.138661001170194 0 -0.1128338108833226 -0.13047386474767261 0 -0.1147695138312526 -0.14075431864444041 0 -0.1128338108833226 -0.13047386474767261 0 -0.1186083316188242 -0.13346037066554581 0 -0.1147695138312526 -0.14075431864444041 0 -0.1186083316188242 -0.13346037066554581 0 -0.1249345866341606 -0.13576661566523751 0 -0.1246746975720613 -0.14429165099579869 0 -0.1147695138312526 -0.14075431864444041 0 -0.1249345866341606 -0.13576661566523751 0 -0.12371838692251939 -0.12287683712214691 0 -0.1128338108833226 -0.13047386474767261 0 -0.12245831614015221 -0.12793607091777609 0 -0.1186083316188242 -0.13346037066554581 0 -0.1249345866341606 -0.13576661566523751 0 -0.12245831614015221 -0.12793607091777609 0 -0.1128338108833226 -0.13047386474767261 0 -0.1186083316188242 -0.13346037066554581 0 -0.12245831614015221 -0.12793607091777609 0 -0.1249345866341606 -0.13576661566523751 0 -0.12245831614015221 -0.12793607091777609 0 -0.13071229567074541 -0.13389839556568781 0 -0.12245831614015221 -0.12793607091777609 0 -0.13071229567074541 -0.13389839556568781 0 -0.1368682256682496 -0.12817010881979721 0 -0.1246746975720613 -0.14429165099579869 0 -0.1249345866341606 -0.13576661566523751 0 -0.13140556420772931 -0.14067341960016061 0 -0.1249345866341606 -0.13576661566523751 0 -0.13071229567074541 -0.13389839556568781 0 -0.13140556420772931 -0.14067341960016061 0 -0.13071229567074541 -0.13389839556568781 0 -0.1374574357055475 -0.13674023456130729 0 -0.1368682256682496 -0.12817010881979721 0 -0.1374574357055475 -0.13674023456130729 0 -0.1368682256682496 -0.12817010881979721 0 -0.14540586020422219 -0.13560887798403079 0 -0.1374574357055475 -0.13674023456130729 0 -0.1407959527869285 -0.14436383516889059 0 -0.13140556420772931 -0.14067341960016061 0 -0.13071229567074541 -0.13389839556568781 0 -0.1374574357055475 -0.13674023456130729 0 -0.13140556420772931 -0.14067341960016061 0 -0.1368682256682496 -0.12817010881979721 0 -0.14737626460106781 -0.12592111807363071 0 -0.14540586020422219 -0.13560887798403079 0 -0.1374574357055475 -0.13674023456130729 0 -0.14540586020422219 -0.13560887798403079 0 -0.1407959527869285 -0.14436383516889059 0 -0.14540586020422219 -0.13560887798403079 0 -0.15587760461318551 -0.13264452279792829 0 -0.15678102103438951 -0.14391739337086179 0 -0.14737626460106781 -0.12592111807363071 0 -0.15587760461318551 -0.13264452279792829 0 -0.15719415105627091 -0.1227792853410159 0 -0.14737626460106781 -0.12592111807363071 0 -0.14540586020422219 -0.13560887798403079 0 -0.15587760461318551 -0.13264452279792829 0 -0.1407959527869285 -0.14436383516889059 0 -0.1468003276251256 -0.1530169951031469 0 -0.15678102103438951 -0.14391739337086179 0 -0.14540586020422219 -0.13560887798403079 0 -0.1407959527869285 -0.14436383516889059 0 -0.15678102103438951 -0.14391739337086179 0 -0.1468003276251256 -0.1530169951031469 0 -0.15678102103438951 -0.14391739337086179 0 -0.1618267873882652 -0.15487258848071209 0 -0.1407959527869285 -0.14436383516889059 0 -0.1468003276251256 -0.1530169951031469 0 -0.13279725999559619 -0.14901009572655571 0 -0.1468003276251256 -0.1530169951031469 0 -0.13279725999559619 -0.14901009572655571 0 -0.1330444880777725 -0.15912308851814361 0 -0.1407959527869285 -0.14436383516889059 0 -0.13140556420772931 -0.14067341960016061 0 -0.13279725999559619 -0.14901009572655571 0 -0.1246746975720613 -0.14429165099579869 0 -0.13140556420772931 -0.14067341960016061 0 -0.13279725999559619 -0.14901009572655571 0 -0.12006252970395979 -0.152591584973194 0 -0.13279725999559619 -0.14901009572655571 0 -0.1330444880777725 -0.15912308851814361 0 -0.12006252970395979 -0.152591584973194 0 -0.1246746975720613 -0.14429165099579869 0 -0.13279725999559619 -0.14901009572655571 0 -0.1227554134926354 -0.1629562434519892 0 -0.12006252970395979 -0.152591584973194 0 -0.1330444880777725 -0.15912308851814361 0 -0.1227554134926354 -0.1629562434519892 0 -0.1330444880777725 -0.15912308851814361 0 -0.13260571201648669 -0.17305508669918321 0 -0.1330444880777725 -0.15912308851814361 0 -0.13260571201648669 -0.17305508669918321 0 -0.14327860588568919 -0.16543925680275071 0 -0.12552973913660481 -0.18726848488033629 0 -0.13260571201648669 -0.17305508669918321 0 -0.142782132878364 -0.1886151523016682 0 -0.14815028328559671 -0.17628871996725609 0 -0.1573805813158452 -0.16734400462489221 0 -0.15915750844726381 -0.18474937544656761 0 -0.14815028328559671 -0.17628871996725609 0 -0.15915750844726381 -0.18474937544656761 0 -0.142782132878364 -0.1886151523016682 0 -0.13260571201648669 -0.17305508669918321 0 -0.14815028328559671 -0.17628871996725609 0 -0.142782132878364 -0.1886151523016682 0 -0.1468003276251256 -0.1530169951031469 0 -0.1330444880777725 -0.15912308851814361 0 -0.14327860588568919 -0.16543925680275071 0 -0.13260571201648669 -0.17305508669918321 0 -0.14815028328559671 -0.17628871996725609 0 -0.14327860588568919 -0.16543925680275071 0 -0.14815028328559671 -0.17628871996725609 0 -0.14327860588568919 -0.16543925680275071 0 -0.1573805813158452 -0.16734400462489221 0 -0.1468003276251256 -0.1530169951031469 0 -0.1573805813158452 -0.16734400462489221 0 -0.1618267873882652 -0.15487258848071209 0 -0.1468003276251256 -0.1530169951031469 0 -0.14327860588568919 -0.16543925680275071 0 -0.1573805813158452 -0.16734400462489221 0 -0.1573805813158452 -0.16734400462489221 0 -0.1714341228141639 -0.1623693748209821 0 -0.1618267873882652 -0.15487258848071209 0 -0.1573805813158452 -0.16734400462489221 0 -0.1714341228141639 -0.1623693748209821 0 -0.17011141627568249 -0.1756589001507198 0 -0.1573805813158452 -0.16734400462489221 0 -0.15915750844726381 -0.18474937544656761 0 -0.17011141627568249 -0.1756589001507198 0 -0.15915750844726381 -0.18474937544656761 0 -0.17011141627568249 -0.1756589001507198 0 -0.1761221468536607 -0.1906291004356713 0 -0.17011141627568249 -0.1756589001507198 0 -0.18400063951085829 -0.17367443318172859 0 -0.1761221468536607 -0.1906291004356713 0 -0.18400063951085829 -0.17367443318172859 0 -0.1761221468536607 -0.1906291004356713 0 -0.19224833781571299 -0.1899871164870536 0 -0.18400063951085829 -0.17367443318172859 0 -0.1824598360587053 -0.15604070128364789 0 -0.19280240759936959 -0.1638856888916411 0 -0.1714341228141639 -0.1623693748209821 0 -0.18400063951085829 -0.17367443318172859 0 -0.1824598360587053 -0.15604070128364789 0 -0.1714341228141639 -0.1623693748209821 0 -0.17011141627568249 -0.1756589001507198 0 -0.18400063951085829 -0.17367443318172859 0 -0.1824598360587053 -0.15604070128364789 0 -0.17282547633562689 -0.14662562120419209 0 -0.19399013383676339 -0.1411974515825771 0 -0.1714341228141639 -0.1623693748209821 0 -0.1824598360587053 -0.15604070128364789 0 -0.17282547633562689 -0.14662562120419209 0 -0.17282547633562689 -0.14662562120419209 0 -0.1711301833626718 -0.13161604866728471 0 -0.19399013383676339 -0.1411974515825771 0 -0.1711301833626718 -0.13161604866728471 0 -0.19399013383676339 -0.1411974515825771 0 -0.19078395627702749 -0.11532063674878611 0 -0.15587760461318551 -0.13264452279792829 0 -0.1711301833626718 -0.13161604866728471 0 -0.15719415105627091 -0.1227792853410159 0 -0.15587760461318551 -0.13264452279792829 0 -0.1711301833626718 -0.13161604866728471 0 -0.15678102103438951 -0.14391739337086179 0 -0.17282547633562689 -0.14662562120419209 0 -0.1711301833626718 -0.13161604866728471 0 -0.15678102103438951 -0.14391739337086179 0 -0.1714341228141639 -0.1623693748209821 0 -0.17282547633562689 -0.14662562120419209 0 -0.1618267873882652 -0.15487258848071209 0 -0.17282547633562689 -0.14662562120419209 0 -0.15678102103438951 -0.14391739337086179 0 -0.1618267873882652 -0.15487258848071209 0 -0.15114094217610249 -0.24408778668063341 0 -0.1433518357179219 -0.23763047889329689 0 -0.1571319452915064 -0.23392897992680819 0 -0.14555956547881591 -0.25165122890814712 0 -0.15114094217610249 -0.24408778668063341 0 -0.1433518357179219 -0.23763047889329689 0 -0.14555956547881591 -0.25165122890814712 0 -0.1433518357179219 -0.23763047889329689 0 -0.13178625741313191 -0.24563913469824819 0 -0.11762503027157251 -0.2438646842861463 0 -0.13178625741313191 -0.24563913469824819 0 -0.12824360402680501 -0.23191432903801429 0 -0.1433518357179219 -0.23763047889329689 0 -0.13178625741313191 -0.24563913469824819 0 -0.12824360402680501 -0.23191432903801429 0 -0.1433518357179219 -0.23763047889329689 0 -0.12824360402680501 -0.23191432903801429 0 -0.144628974288882 -0.2208813194294561 0 -0.12427974049693311 -0.2192069991518282 0 -0.12824360402680501 -0.23191432903801429 0 -0.144628974288882 -0.2208813194294561 0 -0.1433518357179219 -0.23763047889329689 0 -0.144628974288882 -0.2208813194294561 0 -0.1571319452915064 -0.23392897992680819 0 -0.144628974288882 -0.2208813194294561 0 -0.1573836060397297 -0.22035384485546611 0 -0.1571319452915064 -0.23392897992680819 0 -0.144628974288882 -0.2208813194294561 0 -0.13387494140780751 -0.20470574401124339 0 -0.15737461297642449 -0.2056235028054226 0 -0.13387494140780751 -0.20470574401124339 0 -0.15737461297642449 -0.2056235028054226 0 -0.144628974288882 -0.2208813194294561 0 -0.15737461297642449 -0.2056235028054226 0 -0.1573836060397297 -0.22035384485546611 0 -0.12427974049693311 -0.2192069991518282 0 -0.144628974288882 -0.2208813194294561 0 -0.13387494140780751 -0.20470574401124339 0 -0.12552973913660481 -0.18726848488033629 0 -0.13387494140780751 -0.20470574401124339 0 -0.142782132878364 -0.1886151523016682 0 -0.13387494140780751 -0.20470574401124339 0 -0.142782132878364 -0.1886151523016682 0 -0.15737461297642449 -0.2056235028054226 0 -0.15915750844726381 -0.18474937544656761 0 -0.142782132878364 -0.1886151523016682 0 -0.15737461297642449 -0.2056235028054226 0 -0.15915750844726381 -0.18474937544656761 0 -0.1761221468536607 -0.1906291004356713 0 -0.15737461297642449 -0.2056235028054226 0 -0.1761221468536607 -0.1906291004356713 0 -0.18087428454504151 -0.2065412615996019 0 -0.15737461297642449 -0.2056235028054226 0 -0.1761221468536607 -0.1906291004356713 0 -0.18929528125695011 -0.19970945243359611 0 -0.19224833781571299 -0.1899871164870536 0 -0.1761221468536607 -0.1906291004356713 0 -0.18087428454504151 -0.2065412615996019 0 -0.18929528125695011 -0.19970945243359611 0 -0.18699518197941381 -0.21595929857790611 0 -0.18087428454504151 -0.2065412615996019 0 -0.17039889160210589 -0.22098157726017739 0 -0.18087428454504151 -0.2065412615996019 0 -0.15737461297642449 -0.2056235028054226 0 -0.18087428454504151 -0.2065412615996019 0 -0.15737461297642449 -0.2056235028054226 0 -0.17039889160210589 -0.22098157726017739 0 -0.15737461297642449 -0.2056235028054226 0 -0.1573836060397297 -0.22035384485546611 0 -0.17039889160210589 -0.22098157726017739 0 -0.1571319452915064 -0.23392897992680819 0 -0.17039889160210589 -0.22098157726017739 0 -0.16709785011861589 -0.23725638996949749 0 -0.1573836060397297 -0.22035384485546611 0 -0.1571319452915064 -0.23392897992680819 0 -0.17039889160210589 -0.22098157726017739 0 -0.18699518197941381 -0.21595929857790611 0 -0.17814857436379011 -0.23402105159375691 0 -0.17039889160210589 -0.22098157726017739 0 -0.17814857436379011 -0.23402105159375691 0 -0.16709785011861589 -0.23725638996949749 0 -0.18699518197941381 -0.21595929857790611 0 -0.17814857436379011 -0.23402105159375691 0 -0.1916287148353534 -0.22834351358174479 0 -0.18699518197941381 -0.21595929857790611 0 -0.17039889160210589 -0.22098157726017739 0 -0.17814857436379011 -0.23402105159375691 0 -0.1788834735570495 -0.2492280067697098 0 -0.1916287148353534 -0.22834351358174479 0 -0.16930196674816639 -0.25208280460960758 0 -0.17814857436379011 -0.23402105159375691 0 -0.16930196674816639 -0.25208280460960758 0 -0.17814857436379011 -0.23402105159375691 0 -0.1788834735570495 -0.2492280067697098 0 -0.17814857436379011 -0.23402105159375691 0 -0.1788834735570495 -0.2492280067697098 0 -0.1916287148353534 -0.22834351358174479 0 -0.16930196674816639 -0.25208280460960758 0 -0.16709785011861589 -0.23725638996949749 0 -0.16050787258751101 -0.24526753645713731 0 -0.16930196674816639 -0.25208280460960758 0 -0.17814857436379011 -0.23402105159375691 0 -0.16709785011861589 -0.23725638996949749 0 -0.1571319452915064 -0.23392897992680819 0 -0.16709785011861589 -0.23725638996949749 0 -0.16050787258751101 -0.24526753645713731 0 -0.15114094217610249 -0.24408778668063341 0 -0.1571319452915064 -0.23392897992680819 0 -0.16050787258751101 -0.24526753645713731 0 -0.15732989424637961 -0.25741631051579289 0 -0.15114094217610249 -0.24408778668063341 0 -0.16050787258751101 -0.24526753645713731 0 -0.21274794732428029 -0.24834802559785249 0 -0.20952475166938869 -0.23674410193605039 0 -0.22454749275957561 -0.23191452042330199 0 -0.21274794732428029 -0.24834802559785249 0 -0.20952475166938869 -0.23674410193605039 0 -0.19816737708826421 -0.24332479085234021 0 -0.20952475166938869 -0.23674410193605039 0 -0.19816737708826421 -0.24332479085234021 0 -0.1916287148353534 -0.22834351358174479 0 -0.1788834735570495 -0.2492280067697098 0 -0.19816737708826421 -0.24332479085234021 0 -0.1916287148353534 -0.22834351358174479 0 -0.1916287148353534 -0.22834351358174479 0 -0.20988527363517701 -0.22586057531507781 0 -0.20673987456910189 -0.2175545841325415 0 -0.20988527363517701 -0.22586057531507781 0 -0.21572188022262839 -0.21834946539082201 0 -0.20673987456910189 -0.2175545841325415 0 -0.20952475166938869 -0.23674410193605039 0 -0.1916287148353534 -0.22834351358174479 0 -0.20988527363517701 -0.22586057531507781 0 -0.20952475166938869 -0.23674410193605039 0 -0.20988527363517701 -0.22586057531507781 0 -0.22454749275957561 -0.23191452042330199 0 -0.20988527363517701 -0.22586057531507781 0 -0.21572188022262839 -0.21834946539082201 0 -0.22454749275957561 -0.23191452042330199 0 -0.21572188022262839 -0.21834946539082201 0 -0.21208954803869201 -0.20776034598128229 0 -0.22413913308114189 -0.2113354005103576 0 -0.21572188022262839 -0.21834946539082201 0 -0.21208954803869201 -0.20776034598128229 0 -0.20673987456910189 -0.2175545841325415 0 -0.21208954803869201 -0.20776034598128229 0 -0.20437395611365849 -0.20745902039378039 0 -0.20673987456910189 -0.2175545841325415 0 -0.21208954803869201 -0.20776034598128229 0 -0.20437395611365849 -0.20745902039378039 0 -0.1916287148353534 -0.22834351358174479 0 -0.20437395611365849 -0.20745902039378039 0 -0.18699518197941381 -0.21595929857790611 0 -0.18087428454504151 -0.2065412615996019 0 -0.20437395611365849 -0.20745902039378039 0 -0.18699518197941381 -0.21595929857790611 0 -0.1916287148353534 -0.22834351358174479 0 -0.20437395611365849 -0.20745902039378039 0 -0.18087428454504151 -0.2065412615996019 0 -0.20437395611365849 -0.20745902039378039 0 -0.18087428454504151 -0.2065412615996019 0 -0.20437395611365849 -0.20745902039378039 0 -0.18929528125695011 -0.19970945243359611 0 -0.1916287148353534 -0.22834351358174479 0 -0.20437395611365849 -0.20745902039378039 0 -0.20673987456910189 -0.2175545841325415 0 -0.20437395611365849 -0.20745902039378039 0 -0.19694142971746051 -0.19784450892677649 0 -0.18929528125695011 -0.19970945243359611 0 -0.20437395611365849 -0.20745902039378039 0 -0.19694142971746051 -0.19784450892677649 0 -0.20269892467535061 -0.19295447674161409 0 -0.19694142971746051 -0.19784450892677649 0 -0.18929528125695011 -0.19970945243359611 0 -0.19224833781571299 -0.1899871164870536 0 -0.19694142971746051 -0.19784450892677649 0 -0.19224833781571299 -0.1899871164870536 0 -0.20269892467535061 -0.19295447674161409 0 -0.20437395611365849 -0.20745902039378039 0 -0.21569349501885079 -0.1889106988677802 0 -0.20437395611365849 -0.20745902039378039 0 -0.20269892467535061 -0.19295447674161409 0 -0.21569349501885079 -0.1889106988677802 0 -0.21208954803869201 -0.20776034598128229 0 -0.21569349501885079 -0.1889106988677802 0 -0.224534460123791 -0.20084690977075101 0 -0.21208954803869201 -0.20776034598128229 0 -0.20437395611365849 -0.20745902039378039 0 -0.21569349501885079 -0.1889106988677802 0 -0.21569349501885079 -0.1889106988677802 0 -0.224534460123791 -0.20084690977075101 0 -0.23391384498602241 -0.19118172375095249 0 -0.224534460123791 -0.20084690977075101 0 -0.23391384498602241 -0.19118172375095249 0 -0.23863336709020619 -0.2037112788664163 0 -0.23391384498602241 -0.19118172375095249 0 -0.26130534856775339 -0.18579846135542619 0 -0.23391384498602241 -0.19118172375095249 0 -0.23863336709020619 -0.2037112788664163 0 -0.26130534856775339 -0.18579846135542619 0 -0.23863336709020619 -0.2037112788664163 0 -0.2369040911752921 -0.22137571193770131 0 -0.25100332460723662 -0.21172946587330899 0 -0.23863336709020619 -0.2037112788664163 0 -0.22413913308114189 -0.2113354005103576 0 -0.2369040911752921 -0.22137571193770131 0 -0.224534460123791 -0.20084690977075101 0 -0.23863336709020619 -0.2037112788664163 0 -0.22413913308114189 -0.2113354005103576 0 -0.21208954803869201 -0.20776034598128229 0 -0.224534460123791 -0.20084690977075101 0 -0.22413913308114189 -0.2113354005103576 0 -0.22413913308114189 -0.2113354005103576 0 -0.22454749275957561 -0.23191452042330199 0 -0.2369040911752921 -0.22137571193770131 0 -0.22413913308114189 -0.2113354005103576 0 -0.22454749275957561 -0.23191452042330199 0 -0.21572188022262839 -0.21834946539082201 0 -0.22413913308114189 -0.2113354005103576 0 -0.22454749275957561 -0.23191452042330199 0 -0.22454749275957561 -0.23191452042330199 0 -0.2369040911752921 -0.22137571193770131 0 -0.23790738491192881 -0.2395582492432205 0 -0.2369040911752921 -0.22137571193770131 0 -0.23790738491192881 -0.2395582492432205 0 -0.25723666982714699 -0.23820841720532429 0 -0.2369040911752921 -0.22137571193770131 0 -0.25723666982714699 -0.23820841720532429 0 -0.25100332460723662 -0.21172946587330899 0 -0.22495585243800931 -0.25249364033624638 0 -0.24130044097179529 -0.25564058872725781 0 -0.23790738491192881 -0.2395582492432205 0 -0.24130044097179529 -0.25564058872725781 0 -0.23790738491192881 -0.2395582492432205 0 -0.25723666982714699 -0.23820841720532429 0 -0.24130044097179529 -0.25564058872725781 0 -0.25723666982714699 -0.23820841720532429 0 -0.22495585243800931 -0.25249364033624638 0 -0.21274794732428029 -0.24834802559785249 0 -0.22454749275957561 -0.23191452042330199 0 -0.22495585243800931 -0.25249364033624638 0 -0.22454749275957561 -0.23191452042330199 0 -0.22495585243800931 -0.25249364033624638 0 -0.22454749275957561 -0.23191452042330199 0 -0.23790738491192881 -0.2395582492432205 0 -0.2115864363375293 -0.14448653114936821 0 -0.2064240193048045 -0.16070738919176211 0 -0.21887002726069771 -0.15554082789779539 0 -0.2115864363375293 -0.14448653114936821 0 -0.19399013383676339 -0.1411974515825771 0 -0.2064240193048045 -0.16070738919176211 0 -0.2115864363375293 -0.14448653114936821 0 -0.2041830764487319 -0.1289196513607731 0 -0.19399013383676339 -0.1411974515825771 0 -0.2115864363375293 -0.14448653114936821 0 -0.2154345864577204 -0.12802766816547781 0 -0.2041830764487319 -0.1289196513607731 0 -0.2041830764487319 -0.1289196513607731 0 -0.19399013383676339 -0.1411974515825771 0 -0.19078395627702749 -0.11532063674878611 0 -0.1824598360587053 -0.15604070128364789 0 -0.19399013383676339 -0.1411974515825771 0 -0.19280240759936959 -0.1638856888916411 0 -0.19399013383676339 -0.1411974515825771 0 -0.19280240759936959 -0.1638856888916411 0 -0.2064240193048045 -0.16070738919176211 0 -0.18400063951085829 -0.17367443318172859 0 -0.19280240759936959 -0.1638856888916411 0 -0.20333994025977059 -0.17753731952294499 0 -0.19280240759936959 -0.1638856888916411 0 -0.20333994025977059 -0.17753731952294499 0 -0.2064240193048045 -0.16070738919176211 0 -0.18400063951085829 -0.17367443318172859 0 -0.19224833781571299 -0.1899871164870536 0 -0.20333994025977059 -0.17753731952294499 0 -0.19224833781571299 -0.1899871164870536 0 -0.20269892467535061 -0.19295447674161409 0 -0.20333994025977059 -0.17753731952294499 0 -0.21569349501885079 -0.1889106988677802 0 -0.20333994025977059 -0.17753731952294499 0 -0.2270130339240444 -0.17036237734178081 0 -0.20269892467535061 -0.19295447674161409 0 -0.21569349501885079 -0.1889106988677802 0 -0.20333994025977059 -0.17753731952294499 0 -0.20333994025977059 -0.17753731952294499 0 -0.2064240193048045 -0.16070738919176211 0 -0.2270130339240444 -0.17036237734178081 0 -0.2064240193048045 -0.16070738919176211 0 -0.2270130339240444 -0.17036237734178081 0 -0.21887002726069771 -0.15554082789779539 0 -0.2270130339240444 -0.17036237734178081 0 -0.23045661947641241 -0.14660701390827041 0 -0.21887002726069771 -0.15554082789779539 0 -0.21569349501885079 -0.1889106988677802 0 -0.2270130339240444 -0.17036237734178081 0 -0.21569349501885079 -0.1889106988677802 0 -0.23391384498602241 -0.19118172375095249 0 -0.2270130339240444 -0.17036237734178081 0 -0.23391384498602241 -0.19118172375095249 0 -0.2482519669145887 -0.16648200385476961 0 -0.26130534856775339 -0.18579846135542619 0 -0.23391384498602241 -0.19118172375095249 0 -0.2270130339240444 -0.17036237734178081 0 -0.2482519669145887 -0.16648200385476961 0 -0.2270130339240444 -0.17036237734178081 0 -0.2482519669145887 -0.16648200385476961 0 -0.23045661947641241 -0.14660701390827041 0 -0.2482519669145887 -0.16648200385476961 0 -0.23045661947641241 -0.14660701390827041 0 -0.25295801924109529 -0.1445461540838856 0 -0.2115864363375293 -0.14448653114936821 0 -0.23045661947641241 -0.14660701390827041 0 -0.21887002726069771 -0.15554082789779539 0 -0.2115864363375293 -0.14448653114936821 0 -0.2154345864577204 -0.12802766816547781 0 -0.23045661947641241 -0.14660701390827041 0 -0.23045661947641241 -0.14660701390827041 0 -0.23787402957915979 -0.1198224895175395 0 -0.23045661947641241 -0.14660701390827041 0 -0.22717493035218811 -0.12628588253686371 0 -0.23787402957915979 -0.1198224895175395 0 -0.2154345864577204 -0.12802766816547781 0 -0.23045661947641241 -0.14660701390827041 0 -0.22717493035218811 -0.12628588253686371 0 -0.23045661947641241 -0.14660701390827041 0 -0.24833379368722169 -0.12242881535128169 0 -0.23787402957915979 -0.1198224895175395 0 -0.23045661947641241 -0.14660701390827041 0 -0.24833379368722169 -0.12242881535128169 0 -0.25295801924109529 -0.1445461540838856 0 -0.24833379368722169 -0.12242881535128169 0 -0.23787402957915979 -0.1198224895175395 0 -0.25078516967255832 -0.10897906838393739 0 -0.23787402957915979 -0.1198224895175395 0 -0.2452914396819072 -0.093037965126808536 0 -0.23787402957915979 -0.1198224895175395 0 -0.22493448589546 -0.11068635855616731 0 -0.2452914396819072 -0.093037965126808536 0 -0.23787402957915979 -0.1198224895175395 0 -0.2452914396819072 -0.093037965126808536 0 -0.25078516967255832 -0.10897906838393739 0 -0.22493448589546 -0.11068635855616731 0 -0.2452914396819072 -0.093037965126808536 0 -0.2269284637984624 -0.092247471546980958 0 -0.22493448589546 -0.11068635855616731 0 -0.2269284637984624 -0.092247471546980958 0 -0.21246547666984239 -0.1018401726314586 0 -0.2154345864577204 -0.12802766816547781 0 -0.22717493035218811 -0.12628588253686371 0 -0.22493448589546 -0.11068635855616731 0 -0.22717493035218811 -0.12628588253686371 0 -0.23787402957915979 -0.1198224895175395 0 -0.22493448589546 -0.11068635855616731 0 -0.2452914396819072 -0.093037965126808536 0 -0.22154034097744349 -0.074087302449213466 0 -0.25270884978465469 -0.066253440736077598 0 -0.2452914396819072 -0.093037965126808536 0 -0.25270884978465469 -0.066253440736077598 0 -0.2452914396819072 -0.093037965126808536 0 -0.2269284637984624 -0.092247471546980958 0 -0.22154034097744349 -0.074087302449213466 0 -0.2269284637984624 -0.092247471546980958 0 -0.22154034097744349 -0.074087302449213466 0 -0.21246547666984239 -0.1018401726314586 0 -0.22154034097744349 -0.074087302449213466 0 -0.20532123375130701 -0.08414396627088537 0 -0.21029011884153381 -0.057955982925987727 0 -0.22154034097744349 -0.074087302449213466 0 -0.21246547666984239 -0.1018401726314586 0 -0.22154034097744349 -0.074087302449213466 0 -0.20532123375130701 -0.08414396627088537 0 -0.21246547666984239 -0.1018401726314586 0 -0.20532123375130701 -0.08414396627088537 0 -0.18833216816618831 -0.075451004923934889 0 -0.1870339283968423 -0.095911798024367154 0 -0.18833216816618831 -0.075451004923934889 0 -0.21029011884153381 -0.057955982925987727 0 -0.20532123375130701 -0.08414396627088537 0 -0.18833216816618831 -0.075451004923934889 0 -0.21029011884153381 -0.057955982925987727 0 -0.2095603163497565 -0.1169588974925326 0 -0.21246547666984239 -0.1018401726314586 0 -0.19078395627702749 -0.11532063674878611 0 -0.2154345864577204 -0.12802766816547781 0 -0.22493448589546 -0.11068635855616731 0 -0.2095603163497565 -0.1169588974925326 0 -0.2154345864577204 -0.12802766816547781 0 -0.2041830764487319 -0.1289196513607731 0 -0.2095603163497565 -0.1169588974925326 0 -0.22493448589546 -0.11068635855616731 0 -0.2095603163497565 -0.1169588974925326 0 -0.21246547666984239 -0.1018401726314586 0 -0.20532123375130701 -0.08414396627088537 0 -0.21246547666984239 -0.1018401726314586 0 -0.1870339283968423 -0.095911798024367154 0 -0.21246547666984239 -0.1018401726314586 0 -0.19078395627702749 -0.11532063674878611 0 -0.1870339283968423 -0.095911798024367154 0 -0.2041830764487319 -0.1289196513607731 0 -0.2095603163497565 -0.1169588974925326 0 -0.19078395627702749 -0.11532063674878611 0 -0.1711301833626718 -0.13161604866728471 0 -0.19078395627702749 -0.11532063674878611 0 -0.1693865330646602 -0.1114469694894786 0 -0.1693865330646602 -0.1114469694894786 0 -0.15719415105627091 -0.1227792853410159 0 -0.14441626681549749 -0.1104410489198291 0 -0.1711301833626718 -0.13161604866728471 0 -0.1693865330646602 -0.1114469694894786 0 -0.15719415105627091 -0.1227792853410159 0 -0.1693865330646602 -0.1114469694894786 0 -0.16637421749084291 -0.092946026921882044 0 -0.14441626681549749 -0.1104410489198291 0 -0.1693865330646602 -0.1114469694894786 0 -0.1870339283968423 -0.095911798024367154 0 -0.16637421749084291 -0.092946026921882044 0 -0.19078395627702749 -0.11532063674878611 0 -0.1693865330646602 -0.1114469694894786 0 -0.1870339283968423 -0.095911798024367154 0 -0.18833216816618831 -0.075451004923934889 0 -0.16637421749084291 -0.092946026921882044 0 -0.18833216816618831 -0.075451004923934889 0 -0.1870339283968423 -0.095911798024367154 0 -0.16637421749084291 -0.092946026921882044 0 -0.18833216816618831 -0.075451004923934889 0 -0.16428047457153011 -0.065476768921427619 0 -0.1793049329842617 -0.047856813271073183 0 -0.18833216816618831 -0.075451004923934889 0 -0.16428047457153011 -0.065476768921427619 0 -0.16637421749084291 -0.092946026921882044 0 -0.16428047457153011 -0.065476768921427619 0 -0.16637421749084291 -0.092946026921882044 0 -0.1490714142114416 -0.079478532805872637 0 -0.16637421749084291 -0.092946026921882044 0 -0.1490714142114416 -0.079478532805872637 0 -0.13707768479858939 -0.096481124074215954 0 -0.1490714142114416 -0.079478532805872637 0 -0.13241715236731019 -0.071499797347555794 0 -0.1443901597825496 -0.055099829264574553 0 -0.16428047457153011 -0.065476768921427619 0 -0.1490714142114416 -0.079478532805872637 0 -0.1443901597825496 -0.055099829264574553 0 -0.12267102177126871 -0.086747198019136773 0 -0.13241715236731019 -0.071499797347555794 0 -0.13707768479858939 -0.096481124074215954 0 -0.13241715236731019 -0.071499797347555794 0 -0.13707768479858939 -0.096481124074215954 0 -0.1490714142114416 -0.079478532805872637 0 -0.13241715236731019 -0.071499797347555794 0 -0.13707768479858939 -0.096481124074215954 0 -0.1244101908758608 -0.098938989160173352 0 -0.13707768479858939 -0.096481124074215954 0 -0.1299695072667052 -0.10656040677306911 0 -0.1244101908758608 -0.098938989160173352 0 -0.12267102177126871 -0.086747198019136773 0 -0.13707768479858939 -0.096481124074215954 0 -0.13707768479858939 -0.096481124074215954 0 -0.1299695072667052 -0.10656040677306911 0 -0.14441626681549749 -0.1104410489198291 0 -0.12371838692251939 -0.12287683712214691 0 -0.12245831614015221 -0.12793607091777609 0 -0.14441626681549749 -0.1104410489198291 0 -0.12371838692251939 -0.12287683712214691 0 -0.1291261972115724 -0.11262163051793379 0 -0.14441626681549749 -0.1104410489198291 0 -0.12245831614015221 -0.12793607091777609 0 -0.14441626681549749 -0.1104410489198291 0 -0.1184006278415676 -0.1106082292566901 0 -0.1299695072667052 -0.10656040677306911 0 -0.1291261972115724 -0.11262163051793379 0 -0.12245831614015221 -0.12793607091777609 0 -0.1368682256682496 -0.12817010881979721 0 -0.14441626681549749 -0.1104410489198291 0 -0.1299695072667052 -0.10656040677306911 0 -0.1291261972115724 -0.11262163051793379 0 -0.14441626681549749 -0.1104410489198291 0 -0.1368682256682496 -0.12817010881979721 0 -0.14737626460106781 -0.12592111807363071 0 -0.14441626681549749 -0.1104410489198291 0 -0.14737626460106781 -0.12592111807363071 0 -0.15719415105627091 -0.1227792853410159 0 -0.14441626681549749 -0.1104410489198291 0 -0.16637421749084291 -0.092946026921882044 0 -0.14441626681549749 -0.1104410489198291 0 -0.16637421749084291 -0.092946026921882044 0 -0.13707768479858939 -0.096481124074215954 0 -0.14441626681549749 -0.1104410489198291 0 -0.14534073812157411 -0.025599999862636551 0 -0.15766078152670249 -0.038822405282724078 0 -0.1596986166843726 -0.018287629878874809 0 -0.14534073812157411 -0.025599999862636551 0 -0.14470387857328831 -0.013579684409493489 0 -0.13395813965962541 -0.019909367908082069 0 -0.14534073812157411 -0.025599999862636551 0 -0.14470387857328831 -0.013579684409493489 0 -0.1596986166843726 -0.018287629878874809 0 -0.15288594458857521 -0.0057362803360174394 0 -0.14470387857328831 -0.013579684409493489 0 -0.1596986166843726 -0.018287629878874809 0 -0.15288594458857521 -0.0057362803360174394 0 -0.14263431330638721 -0.0026543475024554258 0 -0.14470387857328831 -0.013579684409493489 0 -0.14470387857328831 -0.013579684409493489 0 -0.13370551907919501 -0.0092904809688946141 0 -0.13395813965962541 -0.019909367908082069 0 -0.14263431330638721 -0.0026543475024554258 0 -0.14470387857328831 -0.013579684409493489 0 -0.13370551907919501 -0.0092904809688946141 0 -0.14263431330638721 -0.0026543475024554258 0 -0.13370551907919501 -0.0092904809688946141 0 -0.1296905307002188 -0.00029615891624961121 0 -0.13370551907919501 -0.0092904809688946141 0 -0.1296905307002188 -0.00029615891624961121 0 -0.12743649414895861 -0.006291773193808704 0 -0.1195315168135004 -0.0024303773624146621 0 -0.1296905307002188 -0.00029615891624961121 0 -0.12743649414895861 -0.006291773193808704 0 -0.13370551907919501 -0.0092904809688946141 0 -0.1268184100029203 -0.01315007552767593 0 -0.13395813965962541 -0.019909367908082069 0 -0.13370551907919501 -0.0092904809688946141 0 -0.12743649414895861 -0.006291773193808704 0 -0.1268184100029203 -0.01315007552767593 0 -0.123096087504753 -0.021537143894235469 0 -0.13395813965962541 -0.019909367908082069 0 -0.12757143638572829 -0.02810380810425436 0 -0.123096087504753 -0.021537143894235469 0 -0.1268184100029203 -0.01315007552767593 0 -0.13395813965962541 -0.019909367908082069 0 -0.1367805619498427 -0.027986289063662021 0 -0.12757143638572829 -0.02810380810425436 0 -0.13892810759773749 -0.037197864290652007 0 -0.14534073812157411 -0.025599999862636551 0 -0.13395813965962541 -0.019909367908082069 0 -0.1367805619498427 -0.027986289063662021 0 -0.14534073812157411 -0.025599999862636551 0 -0.1367805619498427 -0.027986289063662021 0 -0.13892810759773749 -0.037197864290652007 0 -0.13395813965962541 -0.019909367908082069 0 -0.1367805619498427 -0.027986289063662021 0 -0.12757143638572829 -0.02810380810425436 0 -0.123096087504753 -0.021537143894235469 0 -0.12757143638572829 -0.02810380810425436 0 -0.1277566199360311 -0.046518470620895702 0 -0.13892810759773749 -0.037197864290652007 0 -0.1443901597825496 -0.055099829264574553 0 -0.123096087504753 -0.021537143894235469 0 -0.12757143638572829 -0.02810380810425436 0 -0.1277566199360311 -0.046518470620895702 0 -0.12757143638572829 -0.02810380810425436 0 -0.1277566199360311 -0.046518470620895702 0 -0.13892810759773749 -0.037197864290652007 0 -0.123096087504753 -0.021537143894235469 0 -0.1277566199360311 -0.046518470620895702 0 -0.13241715236731019 -0.071499797347555794 0 -0.1277566199360311 -0.046518470620895702 0 -0.1443901597825496 -0.055099829264574553 0 -0.13241715236731019 -0.071499797347555794 0 -0.1277566199360311 -0.046518470620895702 0 -0.1176456145751838 -0.059964442654696103 0 -0.13241715236731019 -0.071499797347555794 0 -0.1277566199360311 -0.046518470620895702 0 -0.16428047457153011 -0.065476768921427619 0 -0.1443901597825496 -0.055099829264574553 0 -0.15766078152670249 -0.038822405282724078 0 -0.14534073812157411 -0.025599999862636551 0 -0.13892810759773749 -0.037197864290652007 0 -0.15766078152670249 -0.038822405282724078 0 -0.13892810759773749 -0.037197864290652007 0 -0.1443901597825496 -0.055099829264574553 0 -0.15766078152670249 -0.038822405282724078 0 -0.15766078152670249 -0.038822405282724078 0 -0.1793049329842617 -0.047856813271073183 0 -0.17403331282914539 -0.03058554515212648 0 -0.16428047457153011 -0.065476768921427619 0 -0.15766078152670249 -0.038822405282724078 0 -0.1793049329842617 -0.047856813271073183 0 -0.1793049329842617 -0.047856813271073183 0 -0.17403331282914539 -0.03058554515212648 0 -0.19349426202699299 -0.03023649320779195 0 -0.17403331282914539 -0.03058554515212648 0 -0.17913583508951389 -0.01379730080937374 0 -0.19349426202699299 -0.03023649320779195 0 -0.15766078152670249 -0.038822405282724078 0 -0.17403331282914539 -0.03058554515212648 0 -0.1596986166843726 -0.018287629878874809 0 -0.17403331282914539 -0.03058554515212648 0 -0.1596986166843726 -0.018287629878874809 0 -0.17913583508951389 -0.01379730080937374 0 -0.15288594458857521 -0.0057362803360174394 0 -0.1596986166843726 -0.018287629878874809 0 -0.16664299870092189 -0.00098725277767185864 0 -0.1596986166843726 -0.018287629878874809 0 -0.16664299870092189 -0.00098725277767185864 0 -0.17913583508951389 -0.01379730080937374 0 -0.16664299870092189 -0.00098725277767185864 0 -0.17913583508951389 -0.01379730080937374 0 -0.18590658937504029 0.0026401256165909611 0 -0.17913583508951389 -0.01379730080937374 0 -0.1969415444654164 -0.011779062498855091 0 -0.18590658937504029 0.0026401256165909611 0 -0.1969415444654164 -0.011779062498855091 0 -0.18590658937504029 0.0026401256165909611 0 -0.21146848345518951 0.003149405620048396 0 -0.17913583508951389 -0.01379730080937374 0 -0.1969415444654164 -0.011779062498855091 0 -0.19349426202699299 -0.03023649320779195 0 -0.1969415444654164 -0.011779062498855091 0 -0.19349426202699299 -0.03023649320779195 0 -0.2152801408691786 -0.025016295302843501 0 -0.1969415444654164 -0.011779062498855091 0 -0.2152801408691786 -0.025016295302843501 0 -0.21146848345518951 0.003149405620048396 0 -0.18833216816618831 -0.075451004923934889 0 -0.1793049329842617 -0.047856813271073183 0 -0.19759253086806949 -0.044605120483036782 0 -0.18833216816618831 -0.075451004923934889 0 -0.19759253086806949 -0.044605120483036782 0 -0.21029011884153381 -0.057955982925987727 0 -0.1793049329842617 -0.047856813271073183 0 -0.19349426202699299 -0.03023649320779195 0 -0.19759253086806949 -0.044605120483036782 0 -0.19349426202699299 -0.03023649320779195 0 -0.19759253086806949 -0.044605120483036782 0 -0.2124548436403538 -0.041828048768985278 0 -0.19349426202699299 -0.03023649320779195 0 -0.2152801408691786 -0.025016295302843501 0 -0.2124548436403538 -0.041828048768985278 0 -0.2124548436403538 -0.041828048768985278 0 -0.21029011884153381 -0.057955982925987727 0 -0.23061520528504451 -0.04633443226696831 0 -0.19759253086806949 -0.044605120483036782 0 -0.2124548436403538 -0.041828048768985278 0 -0.21029011884153381 -0.057955982925987727 0 -0.22154034097744349 -0.074087302449213466 0 -0.23061520528504451 -0.04633443226696831 0 -0.22154034097744349 -0.074087302449213466 0 -0.21029011884153381 -0.057955982925987727 0 -0.23061520528504451 -0.04633443226696831 0 -0.2152801408691786 -0.025016295302843501 0 -0.2124548436403538 -0.041828048768985278 0 -0.23061520528504451 -0.04633443226696831 0 -0.23061520528504451 -0.04633443226696831 0 -0.23969006959264549 -0.018581562084723169 0 -0.23061520528504451 -0.04633443226696831 0 -0.23969006959264549 -0.018581562084723169 0 -0.26012625988740212 -0.039468916345346647 0 -0.22154034097744349 -0.074087302449213466 0 -0.23061520528504451 -0.04633443226696831 0 -0.25270884978465469 -0.066253440736077598 0 -0.23061520528504451 -0.04633443226696831 0 -0.26012625988740212 -0.039468916345346647 0 -0.25270884978465469 -0.066253440736077598 0 -0.23969006959264549 -0.018581562084723169 0 -0.21146848345518951 0.003149405620048396 0 -0.24496178883302311 0.01237944270509766 0 -0.2152801408691786 -0.025016295302843501 0 -0.23969006959264549 -0.018581562084723169 0 -0.21146848345518951 0.003149405620048396 0 -0.2152801408691786 -0.025016295302843501 0 -0.23061520528504451 -0.04633443226696831 0 -0.23969006959264549 -0.018581562084723169 0 -0.2675436699901495 -0.012684391954615921 0 -0.2850930399986577 -0.024558673915459909 0 -0.29084842672228689 0.0076878545578341444 0 -0.23969006959264549 -0.018581562084723169 0 -0.2675436699901495 -0.012684391954615921 0 -0.24496178883302311 0.01237944270509766 0 -0.2675436699901495 -0.012684391954615921 0 -0.26012625988740212 -0.039468916345346647 0 -0.23969006959264549 -0.018581562084723169 0 -0.2675436699901495 -0.012684391954615921 0 -0.26012625988740212 -0.039468916345346647 0 -0.2675436699901495 -0.012684391954615921 0 -0.2850930399986577 -0.024558673915459909 0 -0.26012625988740212 -0.039468916345346647 0 -0.2850930399986577 -0.024558673915459909 0 -0.30499230222712781 -0.017997269794696919 0 -0.29084842672228689 0.0076878545578341444 0 -0.2850930399986577 -0.024558673915459909 0 -0.30499230222712781 -0.017997269794696919 0 -0.29350154574471021 -0.044450210418664073 0 -0.30499230222712781 -0.017997269794696919 0 -0.29084842672228689 0.0076878545578341444 0 -0.31390032267290879 0.001897368345985068 0 -0.29350154574471021 -0.044450210418664073 0 -0.30427868518195128 -0.072447131110588397 0 -0.32291102566163321 -0.052239715899617359 0 -0.29350154574471021 -0.044450210418664073 0 -0.31896657823204971 -0.032018348765597109 0 -0.32291102566163321 -0.052239715899617359 0 -0.30499230222712781 -0.017997269794696919 0 -0.29350154574471021 -0.044450210418664073 0 -0.31896657823204971 -0.032018348765597109 0 -0.29350154574471021 -0.044450210418664073 0 -0.27841129873124459 -0.067934210963657413 0 -0.30427868518195128 -0.072447131110588397 0 -0.2850930399986577 -0.024558673915459909 0 -0.29350154574471021 -0.044450210418664073 0 -0.26012625988740212 -0.039468916345346647 0 -0.29350154574471021 -0.044450210418664073 0 -0.26012625988740212 -0.039468916345346647 0 -0.27841129873124459 -0.067934210963657413 0 -0.26012625988740212 -0.039468916345346647 0 -0.25270884978465469 -0.066253440736077598 0 -0.26012625988740212 -0.039468916345346647 0 -0.25270884978465469 -0.066253440736077598 0 -0.27841129873124459 -0.067934210963657413 0 -0.25270884978465469 -0.066253440736077598 0 -0.26541167251050729 -0.084205514534511847 0 -0.27841129873124459 -0.067934210963657413 0 -0.2452914396819072 -0.093037965126808536 0 -0.26541167251050729 -0.084205514534511847 0 -0.2650004296524609 -0.10114740952445619 0 -0.2452914396819072 -0.093037965126808536 0 -0.25270884978465469 -0.066253440736077598 0 -0.26541167251050729 -0.084205514534511847 0 -0.26541167251050729 -0.084205514534511847 0 -0.2650004296524609 -0.10114740952445619 0 -0.28564634470226929 -0.092654546321559506 0 -0.26541167251050729 -0.084205514534511847 0 -0.27841129873124459 -0.067934210963657413 0 -0.28564634470226929 -0.092654546321559506 0 -0.24833379368722169 -0.12242881535128169 0 -0.26480110773064908 -0.11539739694613151 0 -0.27514493606408202 -0.1312820102745848 0 -0.24833379368722169 -0.12242881535128169 0 -0.26480110773064908 -0.11539739694613151 0 -0.25078516967255832 -0.10897906838393739 0 -0.2452914396819072 -0.093037965126808536 0 -0.25078516967255832 -0.10897906838393739 0 -0.2650004296524609 -0.10114740952445619 0 -0.26480110773064908 -0.11539739694613151 0 -0.25078516967255832 -0.10897906838393739 0 -0.2650004296524609 -0.10114740952445619 0 -0.2650004296524609 -0.10114740952445619 0 -0.28474120957692278 -0.1131496811963973 0 -0.28564634470226929 -0.092654546321559506 0 -0.26480110773064908 -0.11539739694613151 0 -0.28474120957692278 -0.1131496811963973 0 -0.27514493606408202 -0.1312820102745848 0 -0.26480110773064908 -0.11539739694613151 0 -0.2650004296524609 -0.10114740952445619 0 -0.28474120957692278 -0.1131496811963973 0 -0.28474120957692278 -0.1131496811963973 0 -0.30526983805509672 -0.11245537178651149 0 -0.28564634470226929 -0.092654546321559506 0 -0.30526983805509672 -0.11245537178651149 0 -0.28564634470226929 -0.092654546321559506 0 -0.30857905939988889 -0.092356992461175735 0 -0.28474120957692278 -0.1131496811963973 0 -0.30526983805509672 -0.11245537178651149 0 -0.30195607844094252 -0.140135205197888 0 -0.27841129873124459 -0.067934210963657413 0 -0.28564634470226929 -0.092654546321559506 0 -0.30427868518195128 -0.072447131110588397 0 -0.28564634470226929 -0.092654546321559506 0 -0.30427868518195128 -0.072447131110588397 0 -0.28564634470226929 -0.092654546321559506 0 -0.30857905939988889 -0.092356992461175735 0 -0.30427868518195128 -0.072447131110588397 0 -0.30427868518195128 -0.072447131110588397 0 -0.33155871978592788 -0.069673125282747495 0 -0.32291102566163321 -0.052239715899617359 0 -0.30427868518195128 -0.072447131110588397 0 -0.3288085468901214 -0.089977153538802326 0 -0.33155871978592788 -0.069673125282747495 0 -0.30857905939988889 -0.092356992461175735 0 -0.30427868518195128 -0.072447131110588397 0 -0.3288085468901214 -0.089977153538802326 0 -0.3288085468901214 -0.089977153538802326 0 -0.33155871978592788 -0.069673125282747495 0 -0.34774129300182488 -0.082735446380318239 0 -0.3288085468901214 -0.089977153538802326 0 -0.3511309939927556 -0.098555953437193075 0 -0.34774129300182488 -0.082735446380318239 0 -0.30526983805509672 -0.11245537178651149 0 -0.32866857856308002 -0.1107168015458582 0 -0.31915130217039878 -0.12502831046526819 0 -0.32866857856308002 -0.1107168015458582 0 -0.31915130217039878 -0.12502831046526819 0 -0.33438152878896399 -0.12563066202067411 0 -0.30857905939988889 -0.092356992461175735 0 -0.3288085468901214 -0.089977153538802326 0 -0.32866857856308002 -0.1107168015458582 0 -0.30526983805509672 -0.11245537178651149 0 -0.30857905939988889 -0.092356992461175735 0 -0.32866857856308002 -0.1107168015458582 0 -0.3288085468901214 -0.089977153538802326 0 -0.3511309939927556 -0.098555953437193075 0 -0.3288085468901214 -0.089977153538802326 0 -0.34331931687982459 -0.10686961945164419 0 -0.3511309939927556 -0.098555953437193075 0 -0.3288085468901214 -0.089977153538802326 0 -0.34331931687982459 -0.10686961945164419 0 -0.32866857856308002 -0.1107168015458582 0 -0.32866857856308002 -0.1107168015458582 0 -0.34720440431868632 -0.1189370413497579 0 -0.33438152878896399 -0.12563066202067411 0 -0.34331931687982459 -0.10686961945164419 0 -0.32866857856308002 -0.1107168015458582 0 -0.34720440431868632 -0.1189370413497579 0 -0.34720440431868632 -0.1189370413497579 0 -0.33438152878896399 -0.12563066202067411 0 -0.34741505777368009 -0.13016669333789321 0 -0.34720440431868632 -0.1189370413497579 0 -0.36268484684438951 -0.1190384266111158 0 -0.3579385988444943 -0.1288231446599975 0 -0.34331931687982459 -0.10686961945164419 0 -0.34720440431868632 -0.1189370413497579 0 -0.35464269193855241 -0.10548379146956639 0 -0.34720440431868632 -0.1189370413497579 0 -0.35464269193855241 -0.10548379146956639 0 -0.36268484684438951 -0.1190384266111158 0 -0.35464269193855241 -0.10548379146956639 0 -0.36268484684438951 -0.1190384266111158 0 -0.35464269193855241 -0.10548379146956639 0 -0.3511309939927556 -0.098555953437193075 0 -0.36379277664744242 -0.1092179971870948 0 -0.34331931687982459 -0.10686961945164419 0 -0.35464269193855241 -0.10548379146956639 0 -0.3511309939927556 -0.098555953437193075 0 -0.3511309939927556 -0.098555953437193075 0 -0.36492102778498808 -0.094211280647730239 0 -0.35678004949357789 -0.089792443070241285 0 -0.3511309939927556 -0.098555953437193075 0 -0.37345344109538969 -0.1071347533355838 0 -0.36379277664744242 -0.1092179971870948 0 -0.3511309939927556 -0.098555953437193075 0 -0.36492102778498808 -0.094211280647730239 0 -0.37345344109538969 -0.1071347533355838 0 -0.36492102778498808 -0.094211280647730239 0 -0.37345344109538969 -0.1071347533355838 0 -0.37997177527635362 -0.088800420973651331 0 -0.3511309939927556 -0.098555953437193075 0 -0.37345344109538969 -0.1071347533355838 0 -0.35464269193855241 -0.10548379146956639 0 -0.36379277664744242 -0.1092179971870948 0 -0.36268484684438951 -0.1190384266111158 0 -0.36379277664744242 -0.1092179971870948 0 -0.37462886795691103 -0.1184763459202593 0 -0.36268484684438951 -0.1190384266111158 0 -0.37345344109538969 -0.1071347533355838 0 -0.36379277664744242 -0.1092179971870948 0 -0.37462886795691103 -0.1184763459202593 0 -0.37462886795691103 -0.1184763459202593 0 -0.36268484684438951 -0.1190384266111158 0 -0.37072700175022649 -0.13259306175266519 0 -0.33155871978592788 -0.069673125282747495 0 -0.35719872502226802 -0.064404736455334247 0 -0.34774129300182488 -0.082735446380318239 0 -0.35719872502226802 -0.064404736455334247 0 -0.34774129300182488 -0.082735446380318239 0 -0.36325926057736768 -0.082155703074774683 0 -0.3511309939927556 -0.098555953437193075 0 -0.34774129300182488 -0.082735446380318239 0 -0.35678004949357789 -0.089792443070241285 0 -0.34774129300182488 -0.082735446380318239 0 -0.35678004949357789 -0.089792443070241285 0 -0.36325926057736768 -0.082155703074774683 0 -0.36492102778498808 -0.094211280647730239 0 -0.36325926057736768 -0.082155703074774683 0 -0.37997177527635362 -0.088800420973651331 0 -0.36325926057736768 -0.082155703074774683 0 -0.37544789422893882 -0.070772870030723273 0 -0.37997177527635362 -0.088800420973651331 0 -0.36492102778498808 -0.094211280647730239 0 -0.35678004949357789 -0.089792443070241285 0 -0.36325926057736768 -0.082155703074774683 0 -0.35719872502226802 -0.064404736455334247 0 -0.37884492690954558 -0.054839602117997363 0 -0.37544789422893882 -0.070772870030723273 0 -0.35719872502226802 -0.064404736455334247 0 -0.36325926057736768 -0.082155703074774683 0 -0.37544789422893882 -0.070772870030723273 0 -0.35719872502226802 -0.064404736455334247 0 -0.36555663484781642 -0.040643059528352517 0 -0.37884492690954558 -0.054839602117997363 0 -0.35719872502226802 -0.064404736455334247 0 -0.36555663484781642 -0.040643059528352517 0 -0.34281611104347398 -0.051406973640920853 0 -0.33155871978592788 -0.069673125282747495 0 -0.35719872502226802 -0.064404736455334247 0 -0.34281611104347398 -0.051406973640920853 0 -0.36555663484781642 -0.040643059528352517 0 -0.34281611104347398 -0.051406973640920853 0 -0.34154336614131509 -0.03203230068864632 0 -0.36555663484781642 -0.040643059528352517 0 -0.36338250616200651 -0.01519824168372921 0 -0.37949077953040511 -0.02492776216193596 0 -0.36338250616200651 -0.01519824168372921 0 -0.38653749201156717 -0.0085714722691885865 0 -0.36953825318317091 0.0010669767550764381 0 -0.36338250616200651 -0.01519824168372921 0 -0.34648002239000819 -0.003224372146928744 0 -0.36953825318317091 0.0010669767550764381 0 -0.36555663484781642 -0.040643059528352517 0 -0.36338250616200651 -0.01519824168372921 0 -0.34154336614131509 -0.03203230068864632 0 -0.36338250616200651 -0.01519824168372921 0 -0.34648002239000819 -0.003224372146928744 0 -0.34154336614131509 -0.03203230068864632 0 -0.34648002239000819 -0.003224372146928744 0 -0.32645969789622858 -0.01258962578465257 0 -0.34154336614131509 -0.03203230068864632 0 -0.32645969789622858 -0.01258962578465257 0 -0.31896657823204971 -0.032018348765597109 0 -0.34154336614131509 -0.03203230068864632 0 -0.34648002239000819 -0.003224372146928744 0 -0.32645969789622858 -0.01258962578465257 0 -0.33183757558868021 0.0092231901974755889 0 -0.32645969789622858 -0.01258962578465257 0 -0.31390032267290879 0.001897368345985068 0 -0.33183757558868021 0.0092231901974755889 0 -0.30499230222712781 -0.017997269794696919 0 -0.32645969789622858 -0.01258962578465257 0 -0.31390032267290879 0.001897368345985068 0 -0.30499230222712781 -0.017997269794696919 0 -0.32645969789622858 -0.01258962578465257 0 -0.31896657823204971 -0.032018348765597109 0 -0.31896657823204971 -0.032018348765597109 0 -0.32291102566163321 -0.052239715899617359 0 -0.34154336614131509 -0.03203230068864632 0 -0.30427868518195128 -0.072447131110588397 0 -0.32291102566163321 -0.052239715899617359 0 -0.33155871978592788 -0.069673125282747495 0 -0.32291102566163321 -0.052239715899617359 0 -0.34281611104347398 -0.051406973640920853 0 -0.32291102566163321 -0.052239715899617359 0 -0.34154336614131509 -0.03203230068864632 0 -0.32291102566163321 -0.052239715899617359 0 -0.34281611104347398 -0.051406973640920853 0 -0.34154336614131509 -0.03203230068864632 0 -0.30719362811525203 -0.24701180601075259 0 -0.29842519666094219 -0.22786110040171931 0 -0.32461104141330033 -0.2293359746937596 0 -0.29842519666094219 -0.22786110040171931 0 -0.27317289868249872 -0.2207762456833908 0 -0.3002256202737571 -0.21314847876976009 0 -0.29842519666094219 -0.22786110040171931 0 -0.28246916049422771 -0.24363196748454599 0 -0.27317289868249872 -0.2207762456833908 0 -0.30719362811525203 -0.24701180601075259 0 -0.29842519666094219 -0.22786110040171931 0 -0.28246916049422771 -0.24363196748454599 0 -0.2684958022756625 -0.26238831904624688 0 -0.28246916049422771 -0.24363196748454599 0 -0.25723666982714699 -0.23820841720532429 0 -0.25723666982714699 -0.23820841720532429 0 -0.27317289868249872 -0.2207762456833908 0 -0.25100332460723662 -0.21172946587330899 0 -0.25723666982714699 -0.23820841720532429 0 -0.27317289868249872 -0.2207762456833908 0 -0.28246916049422771 -0.24363196748454599 0 -0.25723666982714699 -0.23820841720532429 0 -0.27317289868249872 -0.2207762456833908 0 -0.27317289868249872 -0.2207762456833908 0 -0.28910912753785051 -0.20334407416145731 0 -0.27317289868249872 -0.2207762456833908 0 -0.26756236305051739 -0.20543053548879109 0 -0.28910912753785051 -0.20334407416145731 0 -0.27317289868249872 -0.2207762456833908 0 -0.26756236305051739 -0.20543053548879109 0 -0.25100332460723662 -0.21172946587330899 0 -0.23863336709020619 -0.2037112788664163 0 -0.25100332460723662 -0.21172946587330899 0 -0.26130534856775339 -0.18579846135542619 0 -0.26756236305051739 -0.20543053548879109 0 -0.25100332460723662 -0.21172946587330899 0 -0.26130534856775339 -0.18579846135542619 0 -0.26756236305051739 -0.20543053548879109 0 -0.27675518004583438 -0.1946499299618463 0 -0.26130534856775339 -0.18579846135542619 0 -0.26756236305051739 -0.20543053548879109 0 -0.27675518004583438 -0.1946499299618463 0 -0.28910912753785051 -0.20334407416145731 0 -0.27675518004583438 -0.1946499299618463 0 -0.29049171586200417 -0.19140211593390821 0 -0.28869685214948448 -0.18041519895989991 0 -0.29049171586200417 -0.19140211593390821 0 -0.28910912753785051 -0.20334407416145731 0 -0.3038285189476761 -0.202514407881732 0 -0.27675518004583438 -0.1946499299618463 0 -0.29049171586200417 -0.19140211593390821 0 -0.28910912753785051 -0.20334407416145731 0 -0.27317289868249872 -0.2207762456833908 0 -0.28910912753785051 -0.20334407416145731 0 -0.3002256202737571 -0.21314847876976009 0 -0.28910912753785051 -0.20334407416145731 0 -0.3002256202737571 -0.21314847876976009 0 -0.3038285189476761 -0.202514407881732 0 -0.29842519666094219 -0.22786110040171931 0 -0.3002256202737571 -0.21314847876976009 0 -0.31469301309989378 -0.21338364530541459 0 -0.3002256202737571 -0.21314847876976009 0 -0.3038285189476761 -0.202514407881732 0 -0.31469301309989378 -0.21338364530541459 0 -0.29049171586200417 -0.19140211593390821 0 -0.30368846229270369 -0.18411998976671309 0 -0.32042147073886029 -0.19306074049287991 0 -0.29049171586200417 -0.19140211593390821 0 -0.32042147073886029 -0.19306074049287991 0 -0.29049171586200417 -0.19140211593390821 0 -0.3038285189476761 -0.202514407881732 0 -0.32042147073886029 -0.19306074049287991 0 -0.28869685214948448 -0.18041519895989991 0 -0.31608835573121558 -0.1750319365643736 0 -0.30368846229270369 -0.18411998976671309 0 -0.28869685214948448 -0.18041519895989991 0 -0.31608835573121558 -0.1750319365643736 0 -0.29921503399195359 -0.16155522740870359 0 -0.28869685214948448 -0.18041519895989991 0 -0.31608835573121558 -0.1750319365643736 0 -0.29921503399195359 -0.16155522740870359 0 -0.31490971312894073 -0.15734885753334779 0 -0.31608835573121558 -0.1750319365643736 0 -0.29921503399195359 -0.16155522740870359 0 -0.28110755500329793 -0.1668342770774657 0 -0.28594446030173332 -0.15077527075862049 0 -0.29921503399195359 -0.16155522740870359 0 -0.28869685214948448 -0.18041519895989991 0 -0.28110755500329793 -0.1668342770774657 0 -0.29049171586200417 -0.19140211593390821 0 -0.30368846229270369 -0.18411998976671309 0 -0.28869685214948448 -0.18041519895989991 0 -0.28869685214948448 -0.18041519895989991 0 -0.26130534856775339 -0.18579846135542619 0 -0.28869685214948448 -0.18041519895989991 0 -0.26130534856775339 -0.18579846135542619 0 -0.28110755500329793 -0.1668342770774657 0 -0.27675518004583438 -0.1946499299618463 0 -0.28869685214948448 -0.18041519895989991 0 -0.26130534856775339 -0.18579846135542619 0 -0.2482519669145887 -0.16648200385476961 0 -0.26130534856775339 -0.18579846135542619 0 -0.26845346200273862 -0.15718481997489589 0 -0.26130534856775339 -0.18579846135542619 0 -0.26845346200273862 -0.15718481997489589 0 -0.28110755500329793 -0.1668342770774657 0 -0.26845346200273862 -0.15718481997489589 0 -0.28110755500329793 -0.1668342770774657 0 -0.28594446030173332 -0.15077527075862049 0 -0.26845346200273862 -0.15718481997489589 0 -0.27514493606408202 -0.1312820102745848 0 -0.28594446030173332 -0.15077527075862049 0 -0.2482519669145887 -0.16648200385476961 0 -0.26845346200273862 -0.15718481997489589 0 -0.25295801924109529 -0.1445461540838856 0 -0.26845346200273862 -0.15718481997489589 0 -0.25295801924109529 -0.1445461540838856 0 -0.27514493606408202 -0.1312820102745848 0 -0.24833379368722169 -0.12242881535128169 0 -0.25295801924109529 -0.1445461540838856 0 -0.27514493606408202 -0.1312820102745848 0 -0.24833379368722169 -0.12242881535128169 0 -0.27514493606408202 -0.1312820102745848 0 -0.28474120957692278 -0.1131496811963973 0 -0.27514493606408202 -0.1312820102745848 0 -0.30195607844094252 -0.140135205197888 0 -0.27514493606408202 -0.1312820102745848 0 -0.30195607844094252 -0.140135205197888 0 -0.29921503399195359 -0.16155522740870359 0 -0.28594446030173332 -0.15077527075862049 0 -0.30195607844094252 -0.140135205197888 0 -0.27514493606408202 -0.1312820102745848 0 -0.28594446030173332 -0.15077527075862049 0 -0.30195607844094252 -0.140135205197888 0 -0.29921503399195359 -0.16155522740870359 0 -0.30195607844094252 -0.140135205197888 0 -0.31490971312894073 -0.15734885753334779 0 -0.30526983805509672 -0.11245537178651149 0 -0.30195607844094252 -0.140135205197888 0 -0.31915130217039878 -0.12502831046526819 0 -0.30195607844094252 -0.140135205197888 0 -0.32432636973716999 -0.13574834017801371 0 -0.31915130217039878 -0.12502831046526819 0 -0.32432636973716999 -0.13574834017801371 0 -0.31915130217039878 -0.12502831046526819 0 -0.33438152878896399 -0.12563066202067411 0 -0.30195607844094252 -0.140135205197888 0 -0.32876722081780291 -0.14898840012119111 0 -0.31490971312894073 -0.15734885753334779 0 -0.30195607844094252 -0.140135205197888 0 -0.32432636973716999 -0.13574834017801371 0 -0.32876722081780291 -0.14898840012119111 0 -0.30195607844094252 -0.140135205197888 0 -0.32876722081780291 -0.14898840012119111 0 -0.32876722081780291 -0.14898840012119111 0 -0.32852187666278881 -0.16103351837458271 0 -0.31490971312894073 -0.15734885753334779 0 -0.32876722081780291 -0.14898840012119111 0 -0.34329220705358088 -0.15108034468061951 0 -0.32852187666278881 -0.16103351837458271 0 -0.34329220705358088 -0.15108034468061951 0 -0.32852187666278881 -0.16103351837458271 0 -0.32876722081780291 -0.14898840012119111 0 -0.34329220705358088 -0.15108034468061951 0 -0.33637806518029217 -0.1366187814658435 0 -0.32432636973716999 -0.13574834017801371 0 -0.32876722081780291 -0.14898840012119111 0 -0.33637806518029217 -0.1366187814658435 0 -0.32432636973716999 -0.13574834017801371 0 -0.33637806518029217 -0.1366187814658435 0 -0.33438152878896399 -0.12563066202067411 0 -0.33637806518029217 -0.1366187814658435 0 -0.33438152878896399 -0.12563066202067411 0 -0.34741505777368009 -0.13016669333789321 0 -0.34720440431868632 -0.1189370413497579 0 -0.34741505777368009 -0.13016669333789321 0 -0.3579385988444943 -0.1288231446599975 0 -0.33637806518029217 -0.1366187814658435 0 -0.35806253744437322 -0.1411271709866565 0 -0.33637806518029217 -0.1366187814658435 0 -0.34741505777368009 -0.13016669333789321 0 -0.35806253744437322 -0.1411271709866565 0 -0.34741505777368009 -0.13016669333789321 0 -0.3579385988444943 -0.1288231446599975 0 -0.35806253744437322 -0.1411271709866565 0 -0.36268484684438951 -0.1190384266111158 0 -0.3579385988444943 -0.1288231446599975 0 -0.37072700175022649 -0.13259306175266519 0 -0.37072700175022649 -0.13259306175266519 0 -0.35806253744437322 -0.1411271709866565 0 -0.37828494590977291 -0.14533158478565161 0 -0.36268484684438951 -0.1190384266111158 0 -0.37072700175022649 -0.13259306175266519 0 -0.37072700175022649 -0.13259306175266519 0 -0.35806253744437322 -0.1411271709866565 0 -0.3579385988444943 -0.1288231446599975 0 -0.37072700175022649 -0.13259306175266519 0 -0.35806253744437322 -0.1411271709866565 0 -0.37072700175022649 -0.13259306175266519 0 -0.37828494590977291 -0.14533158478565161 0 -0.35806253744437322 -0.1411271709866565 0 -0.37828494590977291 -0.14533158478565161 0 -0.36643973154349252 -0.1515696276524332 0 -0.35806253744437322 -0.1411271709866565 0 -0.37828494590977291 -0.14533158478565161 0 -0.36643973154349252 -0.1515696276524332 0 -0.35806253744437322 -0.1411271709866565 0 -0.35382397189279391 -0.1568470641740673 0 -0.34329220705358088 -0.15108034468061951 0 -0.33637806518029217 -0.1366187814658435 0 -0.35806253744437322 -0.1411271709866565 0 -0.34329220705358088 -0.15108034468061951 0 -0.35806253744437322 -0.1411271709866565 0 -0.35382397189279391 -0.1568470641740673 0 -0.34329220705358088 -0.15108034468061951 0 -0.35806253744437322 -0.1411271709866565 0 -0.34329220705358088 -0.15108034468061951 0 -0.35382397189279391 -0.1568470641740673 0 -0.34190848722277839 -0.16335375771085539 0 -0.35055590407450399 -0.17175358915906119 0 -0.35382397189279391 -0.1568470641740673 0 -0.34190848722277839 -0.16335375771085539 0 -0.35055590407450399 -0.17175358915906119 0 -0.35382397189279391 -0.1568470641740673 0 -0.36543192869600849 -0.16466513034968999 0 -0.36643973154349252 -0.1515696276524332 0 -0.35382397189279391 -0.1568470641740673 0 -0.36543192869600849 -0.16466513034968999 0 -0.36643973154349252 -0.1515696276524332 0 -0.36543192869600849 -0.16466513034968999 0 -0.38638443787410948 -0.15898285856661479 0 -0.36543192869600849 -0.16466513034968999 0 -0.36358297719726151 -0.1810667478955274 0 -0.37753005425245872 -0.17346469631497161 0 -0.35055590407450399 -0.17175358915906119 0 -0.36543192869600849 -0.16466513034968999 0 -0.36358297719726151 -0.1810667478955274 0 -0.36358297719726151 -0.1810667478955274 0 -0.3802809804925727 -0.19637798961082331 0 -0.37753005425245872 -0.17346469631497161 0 -0.35055590407450399 -0.17175358915906119 0 -0.3333484764302248 -0.17605427216594621 0 -0.35035122561571652 -0.19471936505185161 0 -0.35055590407450399 -0.17175358915906119 0 -0.36358297719726151 -0.1810667478955274 0 -0.35035122561571652 -0.19471936505185161 0 -0.35055590407450399 -0.17175358915906119 0 -0.3333484764302248 -0.17605427216594621 0 -0.34190848722277839 -0.16335375771085539 0 -0.34329220705358088 -0.15108034468061951 0 -0.34190848722277839 -0.16335375771085539 0 -0.32852187666278881 -0.16103351837458271 0 -0.3333484764302248 -0.17605427216594621 0 -0.34190848722277839 -0.16335375771085539 0 -0.32852187666278881 -0.16103351837458271 0 -0.32852187666278881 -0.16103351837458271 0 -0.31490971312894073 -0.15734885753334779 0 -0.31608835573121558 -0.1750319365643736 0 -0.3333484764302248 -0.17605427216594621 0 -0.32852187666278881 -0.16103351837458271 0 -0.31608835573121558 -0.1750319365643736 0 -0.3333484764302248 -0.17605427216594621 0 -0.31608835573121558 -0.1750319365643736 0 -0.32042147073886029 -0.19306074049287991 0 -0.30368846229270369 -0.18411998976671309 0 -0.31608835573121558 -0.1750319365643736 0 -0.32042147073886029 -0.19306074049287991 0 -0.3038285189476761 -0.202514407881732 0 -0.32042147073886029 -0.19306074049287991 0 -0.31469301309989378 -0.21338364530541459 0 -0.32042147073886029 -0.19306074049287991 0 -0.31469301309989378 -0.21338364530541459 0 -0.33794582326811162 -0.2136359176669998 0 -0.32042147073886029 -0.19306074049287991 0 -0.33794582326811162 -0.2136359176669998 0 -0.35035122561571652 -0.19471936505185161 0 -0.3333484764302248 -0.17605427216594621 0 -0.32042147073886029 -0.19306074049287991 0 -0.35035122561571652 -0.19471936505185161 0 -0.32042147073886029 -0.19306074049287991 0 -0.35035122561571652 -0.19471936505185161 0 -0.35035122561571652 -0.19471936505185161 0 -0.3802809804925727 -0.19637798961082331 0 -0.35035122561571652 -0.19471936505185161 0 -0.36608374714553482 -0.21674293346339141 0 -0.3802809804925727 -0.19637798961082331 0 -0.36358297719726151 -0.1810667478955274 0 -0.35035122561571652 -0.19471936505185161 0 -0.3802809804925727 -0.19637798961082331 0 -0.33794582326811162 -0.2136359176669998 0 -0.35035122561571652 -0.19471936505185161 0 -0.36608374714553482 -0.21674293346339141 0 -0.33794582326811162 -0.2136359176669998 0 -0.36608374714553482 -0.21674293346339141 0 -0.35151444159536399 -0.23457284699470149 0 -0.36608374714553482 -0.21674293346339141 0 -0.35151444159536399 -0.23457284699470149 0 -0.37841784177742749 -0.23980971929564329 0 -0.35151444159536399 -0.23457284699470149 0 -0.37841784177742749 -0.23980971929564329 0 -0.35074909256490078 -0.2544265487002364 0 -0.35151444159536399 -0.23457284699470149 0 -0.37841784177742749 -0.23980971929564329 0 -0.32984033196924661 -0.25079586296346412 0 -0.35074909256490078 -0.2544265487002364 0 -0.35151444159536399 -0.23457284699470149 0 -0.32984033196924661 -0.25079586296346412 0 -0.35151444159536399 -0.23457284699470149 0 -0.32461104141330033 -0.2293359746937596 0 -0.35151444159536399 -0.23457284699470149 0 -0.32461104141330033 -0.2293359746937596 0 -0.33794582326811162 -0.2136359176669998 0 -0.35151444159536399 -0.23457284699470149 0 -0.32461104141330033 -0.2293359746937596 0 -0.29842519666094219 -0.22786110040171931 0 -0.31469301309989378 -0.21338364530541459 0 -0.32461104141330033 -0.2293359746937596 0 -0.31469301309989378 -0.21338364530541459 0 -0.33794582326811162 -0.2136359176669998 0 -0.32461104141330033 -0.2293359746937596 0 -0.32984033196924661 -0.25079586296346412 0 -0.30719362811525203 -0.24701180601075259 0 -0.32461104141330033 -0.2293359746937596 0 -0.42874790633329363 -0.22666804866296519 0 -0.40532124195949121 -0.24504659159658509 0 -0.39529176282730127 -0.22059651023469221 0 -0.42882862824786411 -0.25215583988111961 0 -0.42874790633329363 -0.22666804866296519 0 -0.40532124195949121 -0.24504659159658509 0 -0.40532124195949121 -0.24504659159658509 0 -0.37841784177742749 -0.23980971929564329 0 -0.39529176282730127 -0.22059651023469221 0 -0.40532124195949121 -0.24504659159658509 0 -0.37841784177742749 -0.23980971929564329 0 -0.38796331349011443 -0.26301535694688227 0 -0.40532124195949121 -0.24504659159658509 0 -0.37841784177742749 -0.23980971929564329 0 -0.36608374714553482 -0.21674293346339141 0 -0.37841784177742749 -0.23980971929564329 0 -0.39529176282730127 -0.22059651023469221 0 -0.39529176282730127 -0.22059651023469221 0 -0.3802809804925727 -0.19637798961082331 0 -0.41021073536942859 -0.19803661416979501 0 -0.36608374714553482 -0.21674293346339141 0 -0.39529176282730127 -0.22059651023469221 0 -0.3802809804925727 -0.19637798961082331 0 -0.3802809804925727 -0.19637798961082331 0 -0.41021073536942859 -0.19803661416979501 0 -0.39448392983844638 -0.17263413234757791 0 -0.3802809804925727 -0.19637798961082331 0 -0.41021073536942859 -0.19803661416979501 0 -0.42874790633329363 -0.22666804866296519 0 -0.39529176282730127 -0.22059651023469221 0 -0.41021073536942859 -0.19803661416979501 0 -0.42874790633329363 -0.22666804866296519 0 -0.41021073536942859 -0.19803661416979501 0 -0.4401404902462846 -0.19969523872876671 0 -0.41021073536942859 -0.19803661416979501 0 -0.41714294136046021 -0.1761753367215155 0 -0.4401404902462846 -0.19969523872876671 0 -0.41021073536942859 -0.19803661416979501 0 -0.4401404902462846 -0.19969523872876671 0 -0.41714294136046021 -0.1761753367215155 0 -0.43904737243451408 -0.17464877847223631 0 -0.4401404902462846 -0.19969523872876671 0 -0.41714294136046021 -0.1761753367215155 0 -0.42697096754586372 -0.15545383019154099 0 -0.43904737243451408 -0.17464877847223631 0 -0.40732623982897498 -0.1647247938003796 0 -0.41714294136046021 -0.1761753367215155 0 -0.39448392983844638 -0.17263413234757791 0 -0.40732623982897498 -0.1647247938003796 0 -0.41714294136046021 -0.1761753367215155 0 -0.42697096754586372 -0.15545383019154099 0 -0.40732623982897498 -0.1647247938003796 0 -0.40262795672781843 -0.15039270748859609 0 -0.42697096754586372 -0.15545383019154099 0 -0.41021073536942859 -0.19803661416979501 0 -0.41714294136046021 -0.1761753367215155 0 -0.39448392983844638 -0.17263413234757791 0 -0.3802809804925727 -0.19637798961082331 0 -0.39448392983844638 -0.17263413234757791 0 -0.37753005425245872 -0.17346469631497161 0 -0.39448392983844638 -0.17263413234757791 0 -0.37753005425245872 -0.17346469631497161 0 -0.38638443787410948 -0.15898285856661479 0 -0.36543192869600849 -0.16466513034968999 0 -0.37753005425245872 -0.17346469631497161 0 -0.38638443787410948 -0.15898285856661479 0 -0.39448392983844638 -0.17263413234757791 0 -0.38638443787410948 -0.15898285856661479 0 -0.40732623982897498 -0.1647247938003796 0 -0.38638443787410948 -0.15898285856661479 0 -0.40262795672781843 -0.15039270748859609 0 -0.40732623982897498 -0.1647247938003796 0 -0.39448392983844638 -0.17263413234757791 0 -0.38638443787410948 -0.15898285856661479 0 -0.40262795672781843 -0.15039270748859609 0 -0.39442667454971941 -0.13415480486628081 0 -0.41253123543362141 -0.1393940864213952 0 -0.40262795672781843 -0.15039270748859609 0 -0.37828494590977291 -0.14533158478565161 0 -0.39442667454971941 -0.13415480486628081 0 -0.36643973154349252 -0.1515696276524332 0 -0.38638443787410948 -0.15898285856661479 0 -0.37828494590977291 -0.14533158478565161 0 -0.38638443787410948 -0.15898285856661479 0 -0.40262795672781843 -0.15039270748859609 0 -0.37828494590977291 -0.14533158478565161 0 -0.40262795672781843 -0.15039270748859609 0 -0.37828494590977291 -0.14533158478565161 0 -0.38638443787410948 -0.15898285856661479 0 -0.37828494590977291 -0.14533158478565161 0 -0.37828494590977291 -0.14533158478565161 0 -0.38480362760193559 -0.1319482511596429 0 -0.39442667454971941 -0.13415480486628081 0 -0.37072700175022649 -0.13259306175266519 0 -0.38480362760193559 -0.1319482511596429 0 -0.39577588819802417 -0.1157135532339737 0 -0.37072700175022649 -0.13259306175266519 0 -0.37828494590977291 -0.14533158478565161 0 -0.38480362760193559 -0.1319482511596429 0 -0.38480362760193559 -0.1319482511596429 0 -0.39442667454971941 -0.13415480486628081 0 -0.39577588819802417 -0.1157135532339737 0 -0.39442667454971941 -0.13415480486628081 0 -0.41253123543362141 -0.1393940864213952 0 -0.41165981523076728 -0.1218179481055594 0 -0.41253123543362141 -0.1393940864213952 0 -0.426970763113938 -0.13515114145499871 0 -0.41165981523076728 -0.1218179481055594 0 -0.40262795672781843 -0.15039270748859609 0 -0.42697096754586372 -0.15545383019154099 0 -0.40262795672781843 -0.15039270748859609 0 -0.41253123543362141 -0.1393940864213952 0 -0.42697096754586372 -0.15545383019154099 0 -0.42697096754586372 -0.15545383019154099 0 -0.426970763113938 -0.13515114145499871 0 -0.44509263740706551 -0.14212220901294331 0 -0.41253123543362141 -0.1393940864213952 0 -0.42697096754586372 -0.15545383019154099 0 -0.426970763113938 -0.13515114145499871 0 -0.426970763113938 -0.13515114145499871 0 -0.43006680524271368 -0.1179881169787706 0 -0.45029269494434387 -0.12341505764234929 0 -0.426970763113938 -0.13515114145499871 0 -0.44509263740706551 -0.14212220901294331 0 -0.45029269494434387 -0.12341505764234929 0 -0.42697096754586372 -0.15545383019154099 0 -0.44509263740706551 -0.14212220901294331 0 -0.45131397836390907 -0.16051495289448589 0 -0.47246189950802481 -0.1371868507305154 0 -0.47565698918195443 -0.16557607559743079 0 -0.45131397836390907 -0.16051495289448589 0 -0.44509263740706551 -0.14212220901294331 0 -0.47246189950802481 -0.1371868507305154 0 -0.45131397836390907 -0.16051495289448589 0 -0.47246189950802481 -0.1371868507305154 0 -0.45029269494434387 -0.12341505764234929 0 -0.4627810458106838 -0.1149266163432036 0 -0.44509263740706551 -0.14212220901294331 0 -0.47246189950802481 -0.1371868507305154 0 -0.45029269494434387 -0.12341505764234929 0 -0.47246189950802481 -0.1371868507305154 0 -0.5 -0.1432294961685274 0 -0.5 -0.1158217940366789 0 -0.47246189950802481 -0.1371868507305154 0 -0.5 -0.1432294961685274 0 -0.49015151825732162 -0.1569333472344516 0 -0.47246189950802481 -0.1371868507305154 0 -0.47565698918195443 -0.16557607559743079 0 -0.49015151825732162 -0.1569333472344516 0 -0.47565698918195443 -0.16557607559743079 0 -0.49999999999999978 -0.17063719830037569 0 -0.5 -0.1432294961685274 0 -0.49999999999999978 -0.17063719830037569 0 -0.49015151825732162 -0.1569333472344516 0 -0.47565698918195443 -0.16557607559743079 0 -0.49999999999999978 -0.17063719830037569 0 -0.49015151825732162 -0.1569333472344516 0 -0.49999999999999978 -0.17063719830037569 0 -0.5 -0.18682484307354291 0 -0.48423261982685789 -0.18480150032177839 0 -0.47565698918195443 -0.16557607559743079 0 -0.49999999999999978 -0.17063719830037569 0 -0.48423261982685789 -0.18480150032177839 0 -0.47565698918195443 -0.16557607559743079 0 -0.48423261982685789 -0.18480150032177839 0 -0.45966848465605259 -0.18140453382487251 0 -0.47565698918195443 -0.16557607559743079 0 -0.45131397836390907 -0.16051495289448589 0 -0.47565698918195443 -0.16557607559743079 0 -0.45966848465605259 -0.18140453382487251 0 -0.45131397836390907 -0.16051495289448589 0 -0.42697096754586372 -0.15545383019154099 0 -0.45131397836390907 -0.16051495289448589 0 -0.43904737243451408 -0.17464877847223631 0 -0.42697096754586372 -0.15545383019154099 0 -0.45131397836390907 -0.16051495289448589 0 -0.45966848465605259 -0.18140453382487251 0 -0.45131397836390907 -0.16051495289448589 0 -0.43904737243451408 -0.17464877847223631 0 -0.45966848465605259 -0.18140453382487251 0 -0.43904737243451408 -0.17464877847223631 0 -0.4401404902462846 -0.19969523872876671 0 -0.5 -0.27385615966996801 0 -0.49999999999999661 -0.20301248784671 0 -0.47514940566521352 -0.23326952014714999 0 -0.45413044471375702 -0.21811696237505071 0 -0.47007024512314061 -0.20135386328773849 0 -0.47514940566521352 -0.23326952014714999 0 -0.42874790633329363 -0.22666804866296519 0 -0.4401404902462846 -0.19969523872876671 0 -0.45413044471375702 -0.21811696237505071 0 -0.4401404902462846 -0.19969523872876671 0 -0.45413044471375702 -0.21811696237505071 0 -0.47007024512314061 -0.20135386328773849 0 -0.45966848465605259 -0.18140453382487251 0 -0.4401404902462846 -0.19969523872876671 0 -0.47007024512314061 -0.20135386328773849 0 -0.4401404902462846 -0.19969523872876671 0 -0.47007024512314061 -0.20135386328773849 0 -0.47007024512314061 -0.20135386328773849 0 -0.49999999999999661 -0.20301248784671 0 -0.47514940566521352 -0.23326952014714999 0 -0.48423261982685789 -0.18480150032177839 0 -0.45966848465605259 -0.18140453382487251 0 -0.47007024512314061 -0.20135386328773849 0 -0.48423261982685789 -0.18480150032177839 0 -0.47007024512314061 -0.20135386328773849 0 -0.49999999999999661 -0.20301248784671 0 -0.5 -0.18682484307354291 0 -0.48423261982685789 -0.18480150032177839 0 -0.49999999999999661 -0.20301248784671 0 -0.47007024512314061 -0.20135386328773849 0 -0.49999999999999661 -0.20301248784671 0 -0.47024296673703608 -0.26214578800260963 0 -0.47514940566521352 -0.23326952014714999 0 -0.45645277741734702 -0.2411318597008231 0 -0.45413044471375702 -0.21811696237505071 0 -0.47514940566521352 -0.23326952014714999 0 -0.45645277741734702 -0.2411318597008231 0 -0.42874790633329363 -0.22666804866296519 0 -0.45413044471375702 -0.21811696237505071 0 -0.45645277741734702 -0.2411318597008231 0 -0.42882862824786411 -0.25215583988111961 0 -0.42874790633329363 -0.22666804866296519 0 -0.45645277741734702 -0.2411318597008231 0 -0.41251788627771868 -0.047201757817496137 0 -0.43127794994743568 -0.02694574779495618 0 -0.41368769409973888 -0.021078929689551929 0 -0.41251788627771868 -0.047201757817496137 0 -0.4096338524315063 -0.069379980071832964 0 -0.42486825943558088 -0.070273358677097469 0 -0.41251788627771868 -0.047201757817496137 0 -0.42486825943558088 -0.070273358677097469 0 -0.43862570644421162 -0.052555419479466271 0 -0.41251788627771868 -0.047201757817496137 0 -0.43127794994743568 -0.02694574779495618 0 -0.43862570644421162 -0.052555419479466271 0 -0.43127794994743568 -0.02694574779495618 0 -0.43378871403987529 -0.0037156786729933022 0 -0.41933320277035652 -0.0073184789836325441 0 -0.43378871403987529 -0.0037156786729933022 0 -0.41933320277035652 -0.0073184789836325441 0 -0.41432406220981272 0.0057619269529878836 0 -0.41933320277035652 -0.0073184789836325441 0 -0.41196952604221698 -0.0020688422146962399 0 -0.41432406220981272 0.0057619269529878836 0 -0.41933320277035652 -0.0073184789836325441 0 -0.41368769409973888 -0.021078929689551929 0 -0.4049577091662086 -0.0072437002136591534 0 -0.41196952604221698 -0.0020688422146962399 0 -0.4049577091662086 -0.0072437002136591534 0 -0.4071055423468859 0.002776995099962481 0 -0.41933320277035652 -0.0073184789836325441 0 -0.41196952604221698 -0.0020688422146962399 0 -0.4049577091662086 -0.0072437002136591534 0 -0.43127794994743568 -0.02694574779495618 0 -0.41933320277035652 -0.0073184789836325441 0 -0.41368769409973888 -0.021078929689551929 0 -0.41251788627771868 -0.047201757817496137 0 -0.41368769409973888 -0.021078929689551929 0 -0.39786258448612799 -0.02481437816321163 0 -0.41368769409973888 -0.021078929689551929 0 -0.39786258448612799 -0.02481437816321163 0 -0.4049577091662086 -0.0072437002136591534 0 -0.4049577091662086 -0.0072437002136591534 0 -0.38653749201156717 -0.0085714722691885865 0 -0.39706540415667713 0.0062458464327191116 0 -0.39786258448612799 -0.02481437816321163 0 -0.4049577091662086 -0.0072437002136591534 0 -0.38653749201156717 -0.0085714722691885865 0 -0.38653749201156717 -0.0085714722691885865 0 -0.38342362107646139 0.00405821384166671 0 -0.36953825318317091 0.0010669767550764381 0 -0.39786258448612799 -0.02481437816321163 0 -0.38653749201156717 -0.0085714722691885865 0 -0.37949077953040511 -0.02492776216193596 0 -0.39786258448612799 -0.02481437816321163 0 -0.37949077953040511 -0.02492776216193596 0 -0.38998394583112961 -0.039862646827438022 0 -0.36338250616200651 -0.01519824168372921 0 -0.38653749201156717 -0.0085714722691885865 0 -0.37949077953040511 -0.02492776216193596 0 -0.36555663484781642 -0.040643059528352517 0 -0.37949077953040511 -0.02492776216193596 0 -0.38998394583112961 -0.039862646827438022 0 -0.36555663484781642 -0.040643059528352517 0 -0.38998394583112961 -0.039862646827438022 0 -0.37884492690954558 -0.054839602117997363 0 -0.41251788627771868 -0.047201757817496137 0 -0.39786258448612799 -0.02481437816321163 0 -0.38998394583112961 -0.039862646827438022 0 -0.41251788627771868 -0.047201757817496137 0 -0.38998394583112961 -0.039862646827438022 0 -0.39392068678855519 -0.066121683066152126 0 -0.41251788627771868 -0.047201757817496137 0 -0.39392068678855519 -0.066121683066152126 0 -0.4096338524315063 -0.069379980071832964 0 -0.38998394583112961 -0.039862646827438022 0 -0.37884492690954558 -0.054839602117997363 0 -0.39392068678855519 -0.066121683066152126 0 -0.37884492690954558 -0.054839602117997363 0 -0.37544789422893882 -0.070772870030723273 0 -0.39392068678855519 -0.066121683066152126 0 -0.37544789422893882 -0.070772870030723273 0 -0.37997177527635362 -0.088800420973651331 0 -0.39392068678855519 -0.066121683066152126 0 -0.37997177527635362 -0.088800420973651331 0 -0.40935372746676058 -0.088473393238507281 0 -0.37997177527635362 -0.088800420973651331 0 -0.39423626164356151 -0.1003391744360192 0 -0.40935372746676058 -0.088473393238507281 0 -0.37997177527635362 -0.088800420973651331 0 -0.39392068678855519 -0.066121683066152126 0 -0.40935372746676058 -0.088473393238507281 0 -0.39392068678855519 -0.066121683066152126 0 -0.4096338524315063 -0.069379980071832964 0 -0.40935372746676058 -0.088473393238507281 0 -0.37345344109538969 -0.1071347533355838 0 -0.39577588819802417 -0.1157135532339737 0 -0.37462886795691103 -0.1184763459202593 0 -0.37072700175022649 -0.13259306175266519 0 -0.39577588819802417 -0.1157135532339737 0 -0.37345344109538969 -0.1071347533355838 0 -0.37462886795691103 -0.1184763459202593 0 -0.39577588819802417 -0.1157135532339737 0 -0.37072700175022649 -0.13259306175266519 0 -0.39577588819802417 -0.1157135532339737 0 -0.37345344109538969 -0.1071347533355838 0 -0.37997177527635362 -0.088800420973651331 0 -0.39423626164356151 -0.1003391744360192 0 -0.37345344109538969 -0.1071347533355838 0 -0.39423626164356151 -0.1003391744360192 0 -0.39577588819802417 -0.1157135532339737 0 -0.39423626164356151 -0.1003391744360192 0 -0.39577588819802417 -0.1157135532339737 0 -0.41091251386727068 -0.10551354684004351 0 -0.39423626164356151 -0.1003391744360192 0 -0.41091251386727068 -0.10551354684004351 0 -0.40935372746676058 -0.088473393238507281 0 -0.39577588819802417 -0.1157135532339737 0 -0.41165981523076728 -0.1218179481055594 0 -0.41091251386727068 -0.10551354684004351 0 -0.39442667454971941 -0.13415480486628081 0 -0.39577588819802417 -0.1157135532339737 0 -0.41165981523076728 -0.1218179481055594 0 -0.39577588819802417 -0.1157135532339737 0 -0.41165981523076728 -0.1218179481055594 0 -0.39577588819802417 -0.1157135532339737 0 -0.41091251386727068 -0.10551354684004351 0 -0.41165981523076728 -0.1218179481055594 0 -0.41091251386727068 -0.10551354684004351 0 -0.42293610045570962 -0.10739846348972169 0 -0.41165981523076728 -0.1218179481055594 0 -0.42293610045570962 -0.10739846348972169 0 -0.43006680524271368 -0.1179881169787706 0 -0.41091251386727068 -0.10551354684004351 0 -0.42604913953651807 -0.095313540446114606 0 -0.40935372746676058 -0.088473393238507281 0 -0.41091251386727068 -0.10551354684004351 0 -0.42604913953651807 -0.095313540446114606 0 -0.42293610045570962 -0.10739846348972169 0 -0.41091251386727068 -0.10551354684004351 0 -0.42604913953651807 -0.095313540446114606 0 -0.42604913953651807 -0.095313540446114606 0 -0.43873567965716759 -0.088146365503363244 0 -0.43774430666010078 -0.1042641138208935 0 -0.42604913953651807 -0.095313540446114606 0 -0.42293610045570962 -0.10739846348972169 0 -0.43774430666010078 -0.1042641138208935 0 -0.426970763113938 -0.13515114145499871 0 -0.41165981523076728 -0.1218179481055594 0 -0.43006680524271368 -0.1179881169787706 0 -0.42293610045570962 -0.10739846348972169 0 -0.43006680524271368 -0.1179881169787706 0 -0.43774430666010078 -0.1042641138208935 0 -0.4096338524315063 -0.069379980071832964 0 -0.40935372746676058 -0.088473393238507281 0 -0.42486825943558088 -0.070273358677097469 0 -0.42604913953651807 -0.095313540446114606 0 -0.40935372746676058 -0.088473393238507281 0 -0.43873567965716759 -0.088146365503363244 0 -0.40935372746676058 -0.088473393238507281 0 -0.42486825943558088 -0.070273358677097469 0 -0.43873567965716759 -0.088146365503363244 0 -0.40935372746676058 -0.088473393238507281 0 -0.43873567965716759 -0.088146365503363244 0 -0.42486825943558088 -0.070273358677097469 0 -0.4421958142930027 -0.070620043593344756 0 -0.43873567965716759 -0.088146365503363244 0 -0.42486825943558088 -0.070273358677097469 0 -0.4421958142930027 -0.070620043593344756 0 -0.43862570644421162 -0.052555419479466271 0 -0.4421958142930027 -0.070620043593344756 0 -0.45908380429614032 -0.064508310287921256 0 -0.43862570644421162 -0.052555419479466271 0 -0.45203323252347127 -0.077773514288212109 0 -0.4421958142930027 -0.070620043593344756 0 -0.45908380429614032 -0.064508310287921256 0 -0.45203323252347127 -0.077773514288212109 0 -0.43873567965716759 -0.088146365503363244 0 -0.46811763184757438 -0.087819337768219194 0 -0.45203323252347127 -0.077773514288212109 0 -0.4421958142930027 -0.070620043593344756 0 -0.43873567965716759 -0.088146365503363244 0 -0.43873567965716759 -0.088146365503363244 0 -0.46811763184757438 -0.087819337768219194 0 -0.45359164258806117 -0.10280616720612371 0 -0.43873567965716759 -0.088146365503363244 0 -0.46811763184757438 -0.087819337768219194 0 -0.45203323252347127 -0.077773514288212109 0 -0.46811763184757438 -0.087819337768219194 0 -0.45908380429614032 -0.064508310287921256 0 -0.45029269494434387 -0.12341505764234929 0 -0.43774430666010078 -0.1042641138208935 0 -0.45359164258806117 -0.10280616720612371 0 -0.43006680524271368 -0.1179881169787706 0 -0.45029269494434387 -0.12341505764234929 0 -0.43774430666010078 -0.1042641138208935 0 -0.43873567965716759 -0.088146365503363244 0 -0.43774430666010078 -0.1042641138208935 0 -0.45359164258806117 -0.10280616720612371 0 -0.46811763184757438 -0.087819337768219194 0 -0.45359164258806117 -0.10280616720612371 0 -0.46887513732896818 -0.1027032158203089 0 -0.45359164258806117 -0.10280616720612371 0 -0.4627810458106838 -0.1149266163432036 0 -0.46887513732896818 -0.1027032158203089 0 -0.45029269494434387 -0.12341505764234929 0 -0.45359164258806117 -0.10280616720612371 0 -0.4627810458106838 -0.1149266163432036 0 -0.47246189950802481 -0.1371868507305154 0 -0.47733593121518259 -0.11229795564821581 0 -0.5 -0.1158217940366789 0 -0.47246189950802481 -0.1371868507305154 0 -0.4627810458106838 -0.1149266163432036 0 -0.47733593121518259 -0.11229795564821581 0 -0.4627810458106838 -0.1149266163432036 0 -0.47733593121518259 -0.11229795564821581 0 -0.46887513732896818 -0.1027032158203089 0 -0.47733593121518259 -0.11229795564821581 0 -0.46887513732896818 -0.1027032158203089 0 -0.48254943518333859 -0.095666002135782163 0 -0.46811763184757438 -0.087819337768219194 0 -0.46887513732896818 -0.1027032158203089 0 -0.48254943518333859 -0.095666002135782163 0 -0.48254943518333859 -0.095666002135782163 0 -0.5 -0.1158217940366789 0 -0.49999999999999828 -0.088414091904830544 0 -0.47733593121518259 -0.11229795564821581 0 -0.48254943518333859 -0.095666002135782163 0 -0.5 -0.1158217940366789 0 -0.46811763184757438 -0.087819337768219194 0 -0.45908380429614032 -0.064508310287921256 0 -0.47954190214806908 -0.076461201096376261 0 -0.45908380429614032 -0.064508310287921256 0 -0.47954190214806908 -0.076461201096376261 0 -0.45908380429614032 -0.064508310287921256 0 -0.47954190214806908 -0.076461201096376261 0 -0.4797541133834422 -0.054112045070692463 0 -0.46811763184757438 -0.087819337768219194 0 -0.48254943518333859 -0.095666002135782163 0 -0.47954190214806908 -0.076461201096376261 0 -0.47954190214806908 -0.076461201096376261 0 -0.49999999999999828 -0.088414091904830544 0 -0.48254943518333859 -0.095666002135782163 0 -0.47954190214806908 -0.076461201096376261 0 -0.49999999999999828 -0.088414091904830544 0 -0.47954190214806908 -0.076461201096376261 0 -0.49999999999999828 -0.088414091904830544 0 -0.5 -0.061213212032636299 0 -0.47954190214806908 -0.076461201096376261 0 -0.5 -0.061213212032636299 0 -0.4797541133834422 -0.054112045070692463 0 -0.5 -0.061213212032636299 0 -0.5 -0.034012332160442083 0 -0.4797541133834422 -0.054112045070692463 0 -0.5 -0.034012332160442083 0 -0.4797541133834422 -0.054112045070692463 0 -0.46809529795745958 -0.033821291476430232 0 -0.45908380429614032 -0.064508310287921256 0 -0.4797541133834422 -0.054112045070692463 0 -0.46809529795745958 -0.033821291476430232 0 -0.45908380429614032 -0.064508310287921256 0 -0.46809529795745958 -0.033821291476430232 0 -0.44960495292878289 -0.039319850822697143 0 -0.43127794994743568 -0.02694574779495618 0 -0.44960495292878289 -0.039319850822697143 0 -0.43862570644421162 -0.052555419479466271 0 -0.45908380429614032 -0.064508310287921256 0 -0.44960495292878289 -0.039319850822697143 0 -0.43862570644421162 -0.052555419479466271 0 -0.45908380429614032 -0.064508310287921256 0 -0.43862570644421162 -0.052555419479466271 0 -0.43378871403987529 -0.0037156786729933022 0 -0.45094200599866741 -0.018768485074711759 0 -0.45048731362507782 0.001039663864718561 0 -0.43378871403987529 -0.0037156786729933022 0 -0.45094200599866741 -0.018768485074711759 0 -0.43127794994743568 -0.02694574779495618 0 -0.44960495292878289 -0.039319850822697143 0 -0.45094200599866741 -0.018768485074711759 0 -0.43127794994743568 -0.02694574779495618 0 -0.43378871403987529 -0.0037156786729933022 0 -0.45094200599866741 -0.018768485074711759 0 -0.46809529795745958 -0.033821291476430232 0 -0.45094200599866741 -0.018768485074711759 0 -0.46809529795745958 -0.033821291476430232 0 -0.44960495292878289 -0.039319850822697143 0 -0.45094200599866741 -0.018768485074711759 0 -0.46809529795745958 -0.033821291476430232 0 -0.45094200599866741 -0.018768485074711759 0 -0.46757882059456513 -0.0077866980642548149 0 -0.45094200599866741 -0.018768485074711759 0 -0.46757882059456513 -0.0077866980642548149 0 -0.45048731362507782 0.001039663864718561 0 -0.5 -0.034012332160442083 0 -0.46809529795745958 -0.033821291476430232 0 -0.48338201569889561 -0.017018613621449911 0 -0.46757882059456513 -0.0077866980642548149 0 -0.48338201569889561 -0.017018613621449911 0 -0.48713054266686168 0.002431054637415931 0 -0.46809529795745958 -0.033821291476430232 0 -0.46757882059456513 -0.0077866980642548149 0 -0.48338201569889561 -0.017018613621449911 0 -0.5 -0.034012332160442083 0 -0.48338201569889561 -0.017018613621449911 0 -0.5 -0.0068114522882477546 0 -0.48338201569889561 -0.017018613621449911 0 -0.5 -0.0068114522882477546 0 -0.48713054266686168 0.002431054637415931 0 -0.48713054266686168 0.002431054637415931 0 -0.5 0.02038942758394657 0 -0.48240168715859227 0.01912011610724005 0 -0.5 -0.0068114522882477546 0 -0.48713054266686168 0.002431054637415931 0 -0.5 0.02038942758394657 0 -0.5 0.02038942758394657 0 -0.48870951920765338 0.027590157014227141 0 -0.49819089546775608 0.037457616660202253 0 -0.5 0.02038942758394657 0 -0.48870951920765338 0.027590157014227141 0 -0.48240168715859227 0.01912011610724005 0 -0.48240168715859227 0.01912011610724005 0 -0.47424549420426532 0.033393467705519722 0 -0.46392835701681329 0.022487435295002509 0 -0.48240168715859227 0.01912011610724005 0 -0.46687192567033559 0.01004242635699479 0 -0.46392835701681329 0.022487435295002509 0 -0.48870951920765338 0.027590157014227141 0 -0.48240168715859227 0.01912011610724005 0 -0.47424549420426532 0.033393467705519722 0 -0.46757882059456513 -0.0077866980642548149 0 -0.48713054266686168 0.002431054637415931 0 -0.46687192567033559 0.01004242635699479 0 -0.48713054266686168 0.002431054637415931 0 -0.46687192567033559 0.01004242635699479 0 -0.48713054266686168 0.002431054637415931 0 -0.48240168715859227 0.01912011610724005 0 -0.46687192567033559 0.01004242635699479 0 -0.5 0.047590307456140901 0 -0.49070102329864862 0.057885849282125097 0 -0.48379313918704819 0.045778268777172372 0 -0.5 0.047590307456140901 0 -0.49070102329864862 0.057885849282125097 0 -0.5 0.074791187328335229 0 -0.49070102329864862 0.057885849282125097 0 -0.48379313918704819 0.045778268777172372 0 -0.47901095400754612 0.063383633566851921 0 -0.5 0.047590307456140901 0 -0.49819089546775608 0.037457616660202253 0 -0.48379313918704819 0.045778268777172372 0 -0.49819089546775608 0.037457616660202253 0 -0.47424549420426532 0.033393467705519722 0 -0.49819089546775608 0.037457616660202253 0 -0.48379313918704819 0.045778268777172372 0 -0.47424549420426532 0.033393467705519722 0 -0.5 0.02038942758394657 0 -0.5 0.047590307456140901 0 -0.49819089546775608 0.037457616660202253 0 -0.48870951920765338 0.027590157014227141 0 -0.49819089546775608 0.037457616660202253 0 -0.47424549420426532 0.033393467705519722 0 -0.48379313918704819 0.045778268777172372 0 -0.47424549420426532 0.033393467705519722 0 -0.46260299950298861 0.041911466808071077 0 -0.48379313918704819 0.045778268777172372 0 -0.46519235301055489 0.054594772579183222 0 -0.46260299950298861 0.041911466808071077 0 -0.48379313918704819 0.045778268777172372 0 -0.46519235301055489 0.054594772579183222 0 -0.47901095400754612 0.063383633566851921 0 -0.46519235301055489 0.054594772579183222 0 -0.45273568262519109 0.049950704767747871 0 -0.45568495483550081 0.066004484426329169 0 -0.46519235301055489 0.054594772579183222 0 -0.45568495483550081 0.066004484426329169 0 -0.47901095400754612 0.063383633566851921 0 -0.46519235301055489 0.054594772579183222 0 -0.46260299950298861 0.041911466808071077 0 -0.45273568262519109 0.049950704767747871 0 -0.46260299950298861 0.041911466808071077 0 -0.4469094298246804 0.039673775490583887 0 -0.45273568262519109 0.049950704767747871 0 -0.47424549420426532 0.033393467705519722 0 -0.46260299950298861 0.041911466808071077 0 -0.45030009294077439 0.029329318750837191 0 -0.47424549420426532 0.033393467705519722 0 -0.45030009294077439 0.029329318750837191 0 -0.46260299950298861 0.041911466808071077 0 -0.4469094298246804 0.039673775490583887 0 -0.45030009294077439 0.029329318750837191 0 -0.4469094298246804 0.039673775490583887 0 -0.43605842863391092 0.034635208321716099 0 -0.43393451408538602 0.053064040253560991 0 -0.4469094298246804 0.039673775490583887 0 -0.45030009294077439 0.029329318750837191 0 -0.43605842863391092 0.034635208321716099 0 -0.45273568262519109 0.049950704767747871 0 -0.43393451408538602 0.053064040253560991 0 -0.45568495483550081 0.066004484426329169 0 -0.4469094298246804 0.039673775490583887 0 -0.45273568262519109 0.049950704767747871 0 -0.43393451408538602 0.053064040253560991 0 -0.46687192567033559 0.01004242635699479 0 -0.44661330867380961 0.017653798076573669 0 -0.45048731362507782 0.001039663864718561 0 -0.46757882059456513 -0.0077866980642548149 0 -0.46687192567033559 0.01004242635699479 0 -0.45048731362507782 0.001039663864718561 0 -0.46687192567033559 0.01004242635699479 0 -0.44661330867380961 0.017653798076573669 0 -0.46687192567033559 0.01004242635699479 0 -0.46392835701681329 0.022487435295002509 0 -0.44661330867380961 0.017653798076573669 0 -0.46392835701681329 0.022487435295002509 0 -0.44661330867380961 0.017653798076573669 0 -0.45030009294077439 0.029329318750837191 0 -0.47424549420426532 0.033393467705519722 0 -0.46392835701681329 0.022487435295002509 0 -0.45030009294077439 0.029329318750837191 0 -0.44661330867380961 0.017653798076573669 0 -0.45030009294077439 0.029329318750837191 0 -0.42635469167728379 0.025265169796153671 0 -0.45030009294077439 0.029329318750837191 0 -0.42635469167728379 0.025265169796153671 0 -0.45030009294077439 0.029329318750837191 0 -0.42635469167728379 0.025265169796153671 0 -0.43605842863391092 0.034635208321716099 0 -0.44661330867380961 0.017653798076573669 0 -0.43919037368972069 0.0075561255006074196 0 -0.45048731362507782 0.001039663864718561 0 -0.43378871403987529 -0.0037156786729933022 0 -0.43919037368972069 0.0075561255006074196 0 -0.45048731362507782 0.001039663864718561 0 -0.43378871403987529 -0.0037156786729933022 0 -0.43919037368972069 0.0075561255006074196 0 -0.42587215842012027 0.01524671873413075 0 -0.44661330867380961 0.017653798076573669 0 -0.43919037368972069 0.0075561255006074196 0 -0.42587215842012027 0.01524671873413075 0 -0.43378871403987529 -0.0037156786729933022 0 -0.41663542208108362 0.01133712772872579 0 -0.43378871403987529 -0.0037156786729933022 0 -0.42587215842012027 0.01524671873413075 0 -0.41663542208108362 0.01133712772872579 0 -0.43378871403987529 -0.0037156786729933022 0 -0.41432406220981272 0.0057619269529878836 0 -0.41663542208108362 0.01133712772872579 0 -0.41432406220981272 0.0057619269529878836 0 -0.41663542208108362 0.01133712772872579 0 -0.41432406220981272 0.0057619269529878836 0 -0.41663542208108362 0.01133712772872579 0 -0.40721101015951378 0.0111897445424608 0 -0.41663542208108362 0.01133712772872579 0 -0.40721101015951378 0.0111897445424608 0 -0.40491121463730589 0.02162566157335135 0 -0.41432406220981272 0.0057619269529878836 0 -0.40721101015951378 0.0111897445424608 0 -0.4071055423468859 0.002776995099962481 0 -0.41196952604221698 -0.0020688422146962399 0 -0.41432406220981272 0.0057619269529878836 0 -0.4071055423468859 0.002776995099962481 0 -0.41663542208108362 0.01133712772872579 0 -0.42211109327574492 0.024544922270632 0 -0.40491121463730589 0.02162566157335135 0 -0.42294135858208087 0.026547594306904392 0 -0.39696505689472272 0.036307159240500743 0 -0.40491121463730589 0.02162566157335135 0 -0.42211109327574492 0.024544922270632 0 -0.40491121463730589 0.02162566157335135 0 -0.42294135858208087 0.026547594306904392 0 -0.42211109327574492 0.024544922270632 0 -0.40491121463730589 0.02162566157335135 0 -0.41663542208108362 0.01133712772872579 0 -0.40491121463730589 0.02162566157335135 0 -0.41663542208108362 0.01133712772872579 0 -0.42211109327574492 0.024544922270632 0 -0.42587215842012027 0.01524671873413075 0 -0.41663542208108362 0.01133712772872579 0 -0.42211109327574492 0.024544922270632 0 -0.44661330867380961 0.017653798076573669 0 -0.42635469167728379 0.025265169796153671 0 -0.44661330867380961 0.017653798076573669 0 -0.42587215842012027 0.01524671873413075 0 -0.42635469167728379 0.025265169796153671 0 -0.42294135858208087 0.026547594306904392 0 -0.42635469167728379 0.025265169796153671 0 -0.43605842863391092 0.034635208321716099 0 -0.42211109327574492 0.024544922270632 0 -0.42635469167728379 0.025265169796153671 0 -0.42294135858208087 0.026547594306904392 0 -0.42211109327574492 0.024544922270632 0 -0.42294135858208087 0.026547594306904392 0 -0.42211109327574492 0.024544922270632 0 -0.42635469167728379 0.025265169796153671 0 -0.42294135858208087 0.026547594306904392 0 -0.42635469167728379 0.025265169796153671 0 -0.42587215842012027 0.01524671873413075 0 -0.42211109327574492 0.024544922270632 0 -0.42635469167728379 0.025265169796153671 0 -0.42294135858208087 0.026547594306904392 0 -0.43393451408538602 0.053064040253560991 0 -0.42294135858208087 0.026547594306904392 0 -0.43605842863391092 0.034635208321716099 0 -0.43393451408538602 0.053064040253560991 0 -0.42294135858208087 0.026547594306904392 0 -0.43393451408538602 0.053064040253560991 0 -0.41940708618358791 0.046057776575262478 0 -0.43393451408538602 0.053064040253560991 0 -0.41988240292948081 0.059814648023132203 0 -0.4299857102739072 0.071360049970611988 0 -0.43393451408538602 0.053064040253560991 0 -0.41988240292948081 0.059814648023132203 0 -0.41940708618358791 0.046057776575262478 0 -0.41988240292948081 0.059814648023132203 0 -0.40974970386612319 0.05229442369148745 0 -0.41940708618358791 0.046057776575262478 0 -0.40974970386612319 0.05229442369148745 0 -0.41940708618358791 0.046057776575262478 0 -0.41112828653685352 0.045037878929458618 0 -0.41988240292948081 0.059814648023132203 0 -0.40974970386612319 0.05229442369148745 0 -0.40588783373901571 0.063899837377538529 0 -0.42294135858208087 0.026547594306904392 0 -0.39696505689472272 0.036307159240500743 0 -0.42294135858208087 0.026547594306904392 0 -0.41940708618358791 0.046057776575262478 0 -0.41165533107536623 0.038598738161769813 0 -0.42294135858208087 0.026547594306904392 0 -0.41165533107536623 0.038598738161769813 0 -0.39696505689472272 0.036307159240500743 0 -0.41940708618358791 0.046057776575262478 0 -0.41112828653685352 0.045037878929458618 0 -0.41165533107536623 0.038598738161769813 0 -0.41112828653685352 0.045037878929458618 0 -0.41165533107536623 0.038598738161769813 0 -0.40370102502233679 0.04320057728931475 0 -0.40974970386612319 0.05229442369148745 0 -0.41112828653685352 0.045037878929458618 0 -0.40370102502233679 0.04320057728931475 0 -0.41165533107536623 0.038598738161769813 0 -0.40370102502233679 0.04320057728931475 0 -0.39696505689472272 0.036307159240500743 0 -0.40370102502233679 0.04320057728931475 0 -0.39100270711824869 0.046311310130119653 0 -0.39696505689472272 0.036307159240500743 0 -0.40370102502233679 0.04320057728931475 0 -0.39100270711824869 0.046311310130119653 0 -0.39876989083825259 0.048529650048697567 0 -0.39696505689472272 0.036307159240500743 0 -0.38460901564691963 0.031547892532623072 0 -0.39111972736662981 0.031013029327406471 0 -0.39696505689472272 0.036307159240500743 0 -0.39111972736662981 0.031013029327406471 0 -0.39741967133818978 0.028199837026236439 0 -0.39928439428803802 0.057180999115757962 0 -0.39326633799086402 0.064304730937405741 0 -0.40588783373901571 0.063899837377538529 0 -0.40974970386612319 0.05229442369148745 0 -0.39928439428803802 0.057180999115757962 0 -0.40588783373901571 0.063899837377538529 0 -0.40974970386612319 0.05229442369148745 0 -0.40370102502233679 0.04320057728931475 0 -0.39876989083825259 0.048529650048697567 0 -0.40974970386612319 0.05229442369148745 0 -0.39928439428803802 0.057180999115757962 0 -0.39876989083825259 0.048529650048697567 0 -0.39928439428803802 0.057180999115757962 0 -0.39876989083825259 0.048529650048697567 0 -0.39111259631673972 0.054541006896367608 0 -0.39100270711824869 0.046311310130119653 0 -0.39876989083825259 0.048529650048697567 0 -0.39111259631673972 0.054541006896367608 0 -0.39928439428803802 0.057180999115757962 0 -0.39111259631673972 0.054541006896367608 0 -0.39326633799086402 0.064304730937405741 0 -0.39100270711824869 0.046311310130119653 0 -0.3833032429943023 0.050461815299403398 0 -0.37098875520736319 0.046066724174093923 0 -0.39111259631673972 0.054541006896367608 0 -0.38104900467073288 0.060457535846821377 0 -0.39326633799086402 0.064304730937405741 0 -0.39111259631673972 0.054541006896367608 0 -0.3833032429943023 0.050461815299403398 0 -0.38104900467073288 0.060457535846821377 0 -0.39100270711824869 0.046311310130119653 0 -0.39111259631673972 0.054541006896367608 0 -0.3833032429943023 0.050461815299403398 0 -0.3833032429943023 0.050461815299403398 0 -0.38104900467073288 0.060457535846821377 0 -0.37098875520736319 0.046066724174093923 0 -0.39696505689472272 0.036307159240500743 0 -0.38460901564691963 0.031547892532623072 0 -0.37098875520736319 0.046066724174093923 0 -0.39696505689472272 0.036307159240500743 0 -0.37098875520736319 0.046066724174093923 0 -0.39100270711824869 0.046311310130119653 0 -0.39696505689472272 0.036307159240500743 0 -0.37098875520736319 0.046066724174093923 0 -0.38460901564691963 0.031547892532623072 0 -0.37169809957755168 0.034485684418351738 0 -0.37098875520736319 0.046066724174093923 0 -0.38460901564691963 0.031547892532623072 0 -0.3761672922991911 0.026867423316783549 0 -0.37169809957755168 0.034485684418351738 0 -0.38460901564691963 0.031547892532623072 0 -0.3761672922991911 0.026867423316783549 0 -0.38055333495443072 0.017491504448059879 0 -0.38055333495443072 0.017491504448059879 0 -0.39111972736662981 0.031013029327406471 0 -0.39741967133818978 0.028199837026236439 0 -0.38460901564691963 0.031547892532623072 0 -0.38055333495443072 0.017491504448059879 0 -0.39111972736662981 0.031013029327406471 0 -0.38055333495443072 0.017491504448059879 0 -0.38342362107646139 0.00405821384166671 0 -0.39706540415667713 0.0062458464327191116 0 -0.38055333495443072 0.017491504448059879 0 -0.38342362107646139 0.00405821384166671 0 -0.36953825318317091 0.0010669767550764381 0 -0.38653749201156717 -0.0085714722691885865 0 -0.38342362107646139 0.00405821384166671 0 -0.39706540415667713 0.0062458464327191116 0 -0.38055333495443072 0.017491504448059879 0 -0.39706540415667713 0.0062458464327191116 0 -0.40491121463730589 0.02162566157335135 0 -0.4049577091662086 -0.0072437002136591534 0 -0.4071055423468859 0.002776995099962481 0 -0.39706540415667713 0.0062458464327191116 0 -0.40721101015951378 0.0111897445424608 0 -0.4071055423468859 0.002776995099962481 0 -0.39706540415667713 0.0062458464327191116 0 -0.40721101015951378 0.0111897445424608 0 -0.39706540415667713 0.0062458464327191116 0 -0.40491121463730589 0.02162566157335135 0 -0.38055333495443072 0.017491504448059879 0 -0.40491121463730589 0.02162566157335135 0 -0.39741967133818978 0.028199837026236439 0 -0.38055333495443072 0.017491504448059879 0 -0.40491121463730589 0.02162566157335135 0 -0.39696505689472272 0.036307159240500743 0 -0.40491121463730589 0.02162566157335135 0 -0.39741967133818978 0.028199837026236439 0 -0.40491121463730589 0.02162566157335135 0 -0.39741967133818978 0.028199837026236439 0 -0.4002043884727714 0.106430540332039 0 -0.38827756260742841 0.1069851595481361 0 -0.39050069605298621 0.09804674460565517 0 -0.4002043884727714 0.106430540332039 0 -0.39050069605298621 0.09804674460565517 0 -0.39919300886277492 0.092084473865180677 0 -0.4002043884727714 0.106430540332039 0 -0.39919300886277492 0.092084473865180677 0 -0.40962597196079598 0.098768754046315549 0 -0.4002043884727714 0.106430540332039 0 -0.40500159503933081 0.11906023549783409 0 -0.39123204437261538 0.1183441265096393 0 -0.40500159503933081 0.11906023549783409 0 -0.39123204437261538 0.1183441265096393 0 -0.39724577858065152 0.1299831436324938 0 -0.4002043884727714 0.106430540332039 0 -0.39123204437261538 0.1183441265096393 0 -0.38827756260742841 0.1069851595481361 0 -0.39123204437261538 0.1183441265096393 0 -0.37804625210008819 0.123601833798883 0 -0.39724577858065152 0.1299831436324938 0 -0.39123204437261538 0.1183441265096393 0 -0.38088203858385289 0.11058566211189109 0 -0.38827756260742841 0.1069851595481361 0 -0.37804625210008819 0.123601833798883 0 -0.38088203858385289 0.11058566211189109 0 -0.36731618702330532 0.1060265404953956 0 -0.39123204437261538 0.1183441265096393 0 -0.37804625210008819 0.123601833798883 0 -0.38088203858385289 0.11058566211189109 0 -0.38088203858385289 0.11058566211189109 0 -0.3795381468158272 0.097970650207401519 0 -0.36731618702330532 0.1060265404953956 0 -0.38088203858385289 0.11058566211189109 0 -0.38827756260742841 0.1069851595481361 0 -0.3795381468158272 0.097970650207401519 0 -0.39050069605298621 0.09804674460565517 0 -0.3795381468158272 0.097970650207401519 0 -0.38529037350612899 0.08676289907551854 0 -0.38827756260742841 0.1069851595481361 0 -0.39050069605298621 0.09804674460565517 0 -0.3795381468158272 0.097970650207401519 0 -0.38529037350612899 0.08676289907551854 0 -0.38585427601343142 0.073387020954206642 0 -0.36915247111533223 0.076046632334744568 0 -0.3795381468158272 0.097970650207401519 0 -0.38529037350612899 0.08676289907551854 0 -0.36915247111533223 0.076046632334744568 0 -0.38529037350612899 0.08676289907551854 0 -0.38585427601343142 0.073387020954206642 0 -0.39963909762920591 0.076793050612180599 0 -0.38104900467073288 0.060457535846821377 0 -0.38585427601343142 0.073387020954206642 0 -0.36915247111533223 0.076046632334744568 0 -0.38104900467073288 0.060457535846821377 0 -0.38585427601343142 0.073387020954206642 0 -0.39326633799086402 0.064304730937405741 0 -0.38585427601343142 0.073387020954206642 0 -0.39326633799086402 0.064304730937405741 0 -0.39963909762920591 0.076793050612180599 0 -0.39326633799086402 0.064304730937405741 0 -0.39963909762920591 0.076793050612180599 0 -0.40588783373901571 0.063899837377538529 0 -0.39050069605298621 0.09804674460565517 0 -0.38529037350612899 0.08676289907551854 0 -0.39919300886277492 0.092084473865180677 0 -0.38529037350612899 0.08676289907551854 0 -0.39963909762920591 0.076793050612180599 0 -0.39919300886277492 0.092084473865180677 0 -0.39963909762920591 0.076793050612180599 0 -0.39919300886277492 0.092084473865180677 0 -0.41142221274610902 0.087150526556525748 0 -0.39919300886277492 0.092084473865180677 0 -0.41142221274610902 0.087150526556525748 0 -0.40962597196079598 0.098768754046315549 0 -0.39963909762920591 0.076793050612180599 0 -0.41142221274610902 0.087150526556525748 0 -0.41524682468080237 0.072012980574736374 0 -0.41142221274610902 0.087150526556525748 0 -0.41524682468080237 0.072012980574736374 0 -0.42307428493215049 0.083430446648407333 0 -0.41142221274610902 0.087150526556525748 0 -0.42307428493215049 0.083430446648407333 0 -0.42088711779091198 0.097099534599919282 0 -0.41988240292948081 0.059814648023132203 0 -0.40588783373901571 0.063899837377538529 0 -0.41524682468080237 0.072012980574736374 0 -0.39963909762920591 0.076793050612180599 0 -0.40588783373901571 0.063899837377538529 0 -0.41524682468080237 0.072012980574736374 0 -0.41988240292948081 0.059814648023132203 0 -0.41524682468080237 0.072012980574736374 0 -0.4299857102739072 0.071360049970611988 0 -0.43393451408538602 0.053064040253560991 0 -0.4299857102739072 0.071360049970611988 0 -0.4449276695886909 0.079580486200217571 0 -0.41524682468080237 0.072012980574736374 0 -0.4299857102739072 0.071360049970611988 0 -0.42307428493215049 0.083430446648407333 0 -0.42307428493215049 0.083430446648407333 0 -0.42732516987257141 0.097249824090241244 0 -0.42088711779091198 0.097099534599919282 0 -0.42307428493215049 0.083430446648407333 0 -0.43682238123718642 0.085048319794647276 0 -0.42732516987257141 0.097249824090241244 0 -0.4299857102739072 0.071360049970611988 0 -0.43682238123718642 0.085048319794647276 0 -0.4449276695886909 0.079580486200217571 0 -0.4299857102739072 0.071360049970611988 0 -0.42307428493215049 0.083430446648407333 0 -0.43682238123718642 0.085048319794647276 0 -0.43682238123718642 0.085048319794647276 0 -0.43069153314159431 0.1145075166488613 0 -0.44257559726247542 0.098016071726705262 0 -0.42383173818412262 0.1049838925542337 0 -0.42732516987257141 0.097249824090241244 0 -0.43069153314159431 0.1145075166488613 0 -0.43682238123718642 0.085048319794647276 0 -0.43069153314159431 0.1145075166488613 0 -0.43682238123718642 0.085048319794647276 0 -0.42732516987257141 0.097249824090241244 0 -0.43069153314159431 0.1145075166488613 0 -0.42383173818412262 0.1049838925542337 0 -0.42732516987257141 0.097249824090241244 0 -0.42088711779091198 0.097099534599919282 0 -0.4002043884727714 0.106430540332039 0 -0.40962597196079598 0.098768754046315549 0 -0.41642313193141278 0.111078694877913 0 -0.42088711779091198 0.097099534599919282 0 -0.40962597196079598 0.098768754046315549 0 -0.41642313193141278 0.111078694877913 0 -0.42383173818412262 0.1049838925542337 0 -0.42088711779091198 0.097099534599919282 0 -0.41642313193141278 0.111078694877913 0 -0.41142221274610902 0.087150526556525748 0 -0.42088711779091198 0.097099534599919282 0 -0.40962597196079598 0.098768754046315549 0 -0.40500159503933081 0.11906023549783409 0 -0.41642313193141278 0.111078694877913 0 -0.41340409697242059 0.12685292149463129 0 -0.4002043884727714 0.106430540332039 0 -0.40500159503933081 0.11906023549783409 0 -0.41642313193141278 0.111078694877913 0 -0.41642313193141278 0.111078694877913 0 -0.43069153314159431 0.1145075166488613 0 -0.41340409697242059 0.12685292149463129 0 -0.43069153314159431 0.1145075166488613 0 -0.43701833249064481 0.1242334301559498 0 -0.44179067089362839 0.1076777407290711 0 -0.42383173818412262 0.1049838925542337 0 -0.41642313193141278 0.111078694877913 0 -0.43069153314159431 0.1145075166488613 0 -0.44179067089362839 0.1076777407290711 0 -0.46025929109890668 0.1228993092208283 0 -0.43701833249064481 0.1242334301559498 0 -0.4456387852995447 0.1215821685367893 0 -0.44179067089362839 0.1076777407290711 0 -0.4456387852995447 0.1215821685367893 0 -0.44179067089362839 0.1076777407290711 0 -0.46025929109890668 0.1228993092208283 0 -0.44179067089362839 0.1076777407290711 0 -0.45439337809347963 0.10844862579155699 0 -0.45737508089389378 0.1171240750731626 0 -0.43069153314159431 0.1145075166488613 0 -0.44179067089362839 0.1076777407290711 0 -0.44257559726247542 0.098016071726705262 0 -0.44179067089362839 0.1076777407290711 0 -0.44257559726247542 0.098016071726705262 0 -0.45046103111811231 0.1019930611521717 0 -0.44257559726247542 0.098016071726705262 0 -0.45046103111811231 0.1019930611521717 0 -0.45389416723914727 0.093804188021215956 0 -0.44179067089362839 0.1076777407290711 0 -0.45046103111811231 0.1019930611521717 0 -0.45439337809347963 0.10844862579155699 0 -0.45439337809347963 0.10844862579155699 0 -0.45965134210183101 0.1020186794923091 0 -0.46021395701907231 0.1117008824395225 0 -0.45046103111811231 0.1019930611521717 0 -0.45439337809347963 0.10844862579155699 0 -0.45965134210183101 0.1020186794923091 0 -0.45965134210183101 0.1020186794923091 0 -0.45389416723914727 0.093804188021215956 0 -0.46346612645172991 0.09164912933258422 0 -0.45046103111811231 0.1019930611521717 0 -0.45965134210183101 0.1020186794923091 0 -0.45389416723914727 0.093804188021215956 0 -0.45965134210183101 0.1020186794923091 0 -0.46346612645172991 0.09164912933258422 0 -0.46942433891909358 0.09794253220754158 0 -0.45965134210183101 0.1020186794923091 0 -0.46716403993112687 0.1061796871622742 0 -0.46021395701907231 0.1117008824395225 0 -0.45965134210183101 0.1020186794923091 0 -0.46716403993112687 0.1061796871622742 0 -0.46942433891909358 0.09794253220754158 0 -0.46850251367066731 0.11368406789329109 0 -0.46310818746654842 0.1170947369159233 0 -0.46021395701907231 0.1117008824395225 0 -0.46716403993112687 0.1061796871622742 0 -0.46850251367066731 0.11368406789329109 0 -0.46021395701907231 0.1117008824395225 0 -0.44179067089362839 0.1076777407290711 0 -0.46025929109890668 0.1228993092208283 0 -0.45737508089389378 0.1171240750731626 0 -0.46843522873632337 0.122233320799193 0 -0.46025929109890668 0.1228993092208283 0 -0.47466662052273528 0.12622733750165099 0 -0.46850251367066731 0.11368406789329109 0 -0.46310818746654842 0.1170947369159233 0 -0.46843522873632337 0.122233320799193 0 -0.46310818746654842 0.1170947369159233 0 -0.46843522873632337 0.122233320799193 0 -0.46312395089326902 0.12017514188532499 0 -0.46843522873632337 0.122233320799193 0 -0.46312395089326902 0.12017514188532499 0 -0.46025929109890668 0.1228993092208283 0 -0.46312395089326902 0.12017514188532499 0 -0.46093476916251391 0.1192141210106173 0 -0.46025929109890668 0.1228993092208283 0 -0.46310818746654842 0.1170947369159233 0 -0.46312395089326902 0.12017514188532499 0 -0.46093476916251391 0.1192141210106173 0 -0.46310818746654842 0.1170947369159233 0 -0.46093476916251391 0.1192141210106173 0 -0.45737508089389378 0.1171240750731626 0 -0.46093476916251391 0.1192141210106173 0 -0.46025929109890668 0.1228993092208283 0 -0.45737508089389378 0.1171240750731626 0 -0.45439337809347963 0.10844862579155699 0 -0.46021395701907231 0.1117008824395225 0 -0.45737508089389378 0.1171240750731626 0 -0.46310818746654842 0.1170947369159233 0 -0.46021395701907231 0.1117008824395225 0 -0.45737508089389378 0.1171240750731626 0 -0.43393451408538602 0.053064040253560991 0 -0.4449276695886909 0.079580486200217571 0 -0.43393451408538602 0.053064040253560991 0 -0.4449276695886909 0.079580486200217571 0 -0.45568495483550081 0.066004484426329169 0 -0.4449276695886909 0.079580486200217571 0 -0.44607463045159118 0.088520672121561589 0 -0.45931141054148722 0.082075152416908659 0 -0.43682238123718642 0.085048319794647276 0 -0.4449276695886909 0.079580486200217571 0 -0.44607463045159118 0.088520672121561589 0 -0.43682238123718642 0.085048319794647276 0 -0.44257559726247542 0.098016071726705262 0 -0.44607463045159118 0.088520672121561589 0 -0.45389416723914727 0.093804188021215956 0 -0.44607463045159118 0.088520672121561589 0 -0.45931141054148722 0.082075152416908659 0 -0.44257559726247542 0.098016071726705262 0 -0.45389416723914727 0.093804188021215956 0 -0.44607463045159118 0.088520672121561589 0 -0.46346612645172991 0.09164912933258422 0 -0.45931141054148722 0.082075152416908659 0 -0.4778424774177511 0.083998275813429113 0 -0.45389416723914727 0.093804188021215956 0 -0.46346612645172991 0.09164912933258422 0 -0.45931141054148722 0.082075152416908659 0 -0.45931141054148722 0.082075152416908659 0 -0.45568495483550081 0.066004484426329169 0 -0.4778424774177511 0.083998275813429113 0 -0.45568495483550081 0.066004484426329169 0 -0.4778424774177511 0.083998275813429113 0 -0.4449276695886909 0.079580486200217571 0 -0.45931141054148722 0.082075152416908659 0 -0.45568495483550081 0.066004484426329169 0 -0.45568495483550081 0.066004484426329169 0 -0.47901095400754612 0.063383633566851921 0 -0.4778424774177511 0.083998275813429113 0 -0.46346612645172991 0.09164912933258422 0 -0.4778424774177511 0.083998275813429113 0 -0.46942433891909358 0.09794253220754158 0 -0.4778424774177511 0.083998275813429113 0 -0.5 0.074791187328335229 0 -0.500000000000001 0.1019920672005296 0 -0.4778424774177511 0.083998275813429113 0 -0.500000000000001 0.1019920672005296 0 -0.49070102329864862 0.057885849282125097 0 -0.47901095400754612 0.063383633566851921 0 -0.5 0.074791187328335229 0 -0.47901095400754612 0.063383633566851921 0 -0.4778424774177511 0.083998275813429113 0 -0.5 0.074791187328335229 0 -0.4758780139246695 0.1174792835986567 0 -0.47802804794497011 0.1055522737787066 0 -0.48583949670281379 0.1188773836853006 0 -0.4758780139246695 0.1174792835986567 0 -0.48583949670281379 0.1188773836853006 0 -0.47466662052273528 0.12622733750165099 0 -0.46850251367066731 0.11368406789329109 0 -0.46843522873632337 0.122233320799193 0 -0.4758780139246695 0.1174792835986567 0 -0.46843522873632337 0.122233320799193 0 -0.4758780139246695 0.1174792835986567 0 -0.47466662052273528 0.12622733750165099 0 -0.46850251367066731 0.11368406789329109 0 -0.4758780139246695 0.1174792835986567 0 -0.47802804794497011 0.1055522737787066 0 -0.46716403993112687 0.1061796871622742 0 -0.46850251367066731 0.11368406789329109 0 -0.47802804794497011 0.1055522737787066 0 -0.4778424774177511 0.083998275813429113 0 -0.46942433891909358 0.09794253220754158 0 -0.47802804794497011 0.1055522737787066 0 -0.46716403993112687 0.1061796871622742 0 -0.46942433891909358 0.09794253220754158 0 -0.47802804794497011 0.1055522737787066 0 -0.4778424774177511 0.083998275813429113 0 -0.47802804794497011 0.1055522737787066 0 -0.500000000000001 0.1019920672005296 0 -0.47802804794497011 0.1055522737787066 0 -0.500000000000001 0.1019920672005296 0 -0.48583949670281379 0.1188773836853006 0 -0.500000000000001 0.1019920672005296 0 -0.48583949670281379 0.1188773836853006 0 -0.5 0.12882254570531809 0 -0.48583949670281379 0.1188773836853006 0 -0.5 0.12882254570531809 0 -0.48012964554945292 0.1392761667154675 0 -0.46025929109890668 0.1228993092208283 0 -0.48012964554945292 0.1392761667154675 0 -0.46025929109890668 0.1228993092208283 0 -0.48012964554945292 0.1392761667154675 0 -0.47466662052273528 0.12622733750165099 0 -0.48583949670281379 0.1188773836853006 0 -0.48012964554945292 0.1392761667154675 0 -0.47466662052273528 0.12622733750165099 0 -0.48012964554945292 0.1392761667154675 0 -0.47877182913478272 0.16708886820882621 0 -0.46054832187124589 0.15920585333638149 0 -0.5 0.12882254570531809 0 -0.48012964554945292 0.1392761667154675 0 -0.49999999999999922 0.15565302421010671 0 -0.48012964554945292 0.1392761667154675 0 -0.49999999999999922 0.15565302421010671 0 -0.48012964554945292 0.1392761667154675 0 -0.49999999999999922 0.15565302421010671 0 -0.47877182913478272 0.16708886820882621 0 -0.49999999999999922 0.15565302421010671 0 -0.5 0.1779255645443959 0 -0.47877182913478272 0.16708886820882621 0 -0.5 0.1779255645443959 0 -0.48270114262150221 0.18638983864249509 0 -0.47877182913478272 0.16708886820882621 0 -0.48270114262150221 0.18638983864249509 0 -0.47877182913478272 0.16708886820882621 0 -0.46006277036340648 0.18636274336085071 0 -0.47877182913478272 0.16708886820882621 0 -0.46054832187124589 0.15920585333638149 0 -0.46006277036340648 0.18636274336085071 0 -0.46054832187124589 0.15920585333638149 0 -0.46006277036340648 0.18636274336085071 0 -0.44389494779998923 0.16842226767380999 0 -0.46006277036340648 0.18636274336085071 0 -0.44389494779998923 0.16842226767380999 0 -0.43491579376131378 0.18775851035633559 0 -0.46054832187124589 0.15920585333638149 0 -0.44389494779998923 0.16842226767380999 0 -0.44064209651387592 0.15105814280471949 0 -0.44064209651387592 0.15105814280471949 0 -0.44240998807245457 0.13343301136195221 0 -0.45666722910393531 0.14090689107754059 0 -0.46054832187124589 0.15920585333638149 0 -0.44064209651387592 0.15105814280471949 0 -0.45666722910393531 0.14090689107754059 0 -0.46025929109890668 0.1228993092208283 0 -0.44240998807245457 0.13343301136195221 0 -0.45666722910393531 0.14090689107754059 0 -0.4456387852995447 0.1215821685367893 0 -0.46025929109890668 0.1228993092208283 0 -0.44240998807245457 0.13343301136195221 0 -0.46025929109890668 0.1228993092208283 0 -0.44240998807245457 0.13343301136195221 0 -0.43701833249064481 0.1242334301559498 0 -0.4456387852995447 0.1215821685367893 0 -0.44240998807245457 0.13343301136195221 0 -0.46025929109890668 0.1228993092208283 0 -0.48012964554945292 0.1392761667154675 0 -0.45666722910393531 0.14090689107754059 0 -0.48012964554945292 0.1392761667154675 0 -0.46054832187124589 0.15920585333638149 0 -0.45666722910393531 0.14090689107754059 0 -0.47545477511343798 0.22821340015460251 0 -0.50000000000000355 0.25257516604358171 0 -0.47243170773416598 0.25252131008609718 0 -0.49999999999999728 0.22247064521297411 0 -0.47545477511343798 0.22821340015460251 0 -0.50000000000000355 0.25257516604358171 0 -0.49999999999999728 0.22247064521297411 0 -0.47545477511343798 0.22821340015460251 0 -0.47981480967647572 0.20635154742371739 0 -0.49999999999999728 0.22247064521297411 0 -0.47545477511343798 0.22821340015460251 0 -0.47545477511343798 0.22821340015460251 0 -0.47981480967647572 0.20635154742371739 0 -0.46183424333790829 0.2145505728736328 0 -0.49999999999999728 0.22247064521297411 0 -0.47981480967647572 0.20635154742371739 0 -0.5 0.200198104878685 0 -0.5 0.1779255645443959 0 -0.48270114262150221 0.18638983864249509 0 -0.5 0.200198104878685 0 -0.48270114262150221 0.18638983864249509 0 -0.47981480967647572 0.20635154742371739 0 -0.5 0.200198104878685 0 -0.48270114262150221 0.18638983864249509 0 -0.46006277036340648 0.18636274336085071 0 -0.47981480967647572 0.20635154742371739 0 -0.46006277036340648 0.18636274336085071 0 -0.44373564997161308 0.20767254717792411 0 -0.46183424333790829 0.2145505728736328 0 -0.46006277036340648 0.18636274336085071 0 -0.47981480967647572 0.20635154742371739 0 -0.46183424333790829 0.2145505728736328 0 -0.46006277036340648 0.18636274336085071 0 -0.44373564997161308 0.20767254717792411 0 -0.43491579376131378 0.18775851035633559 0 -0.44373564997161308 0.20767254717792411 0 -0.46183424333790829 0.2145505728736328 0 -0.4509095502268789 0.23395615509623141 0 -0.47545477511343798 0.22821340015460251 0 -0.46183424333790829 0.2145505728736328 0 -0.4509095502268789 0.23395615509623141 0 -0.47545477511343798 0.22821340015460251 0 -0.4509095502268789 0.23395615509623141 0 -0.44373564997161308 0.20767254717792411 0 -0.4509095502268789 0.23395615509623141 0 -0.42619555400130871 0.2210865732610654 0 -0.4509095502268789 0.23395615509623141 0 -0.45447176510546028 0.26210261842800259 0 -0.43846763777347608 0.25139159902730851 0 -0.4509095502268789 0.23395615509623141 0 -0.42483305275653133 0.2391713563412208 0 -0.43846763777347608 0.25139159902730851 0 -0.4509095502268789 0.23395615509623141 0 -0.47243170773416598 0.25252131008609718 0 -0.45447176510546028 0.26210261842800259 0 -0.47545477511343798 0.22821340015460251 0 -0.4509095502268789 0.23395615509623141 0 -0.47243170773416598 0.25252131008609718 0 -0.42483305275653133 0.2391713563412208 0 -0.4058641186269526 0.24719101802337209 0 -0.42186070460899672 0.25309052481387179 0 -0.42483305275653133 0.2391713563412208 0 -0.40570075130157518 0.22831226782547601 0 -0.4058641186269526 0.24719101802337209 0 -0.42483305275653133 0.2391713563412208 0 -0.43846763777347608 0.25139159902730851 0 -0.42186070460899672 0.25309052481387179 0 -0.4509095502268789 0.23395615509623141 0 -0.42483305275653133 0.2391713563412208 0 -0.42619555400130871 0.2210865732610654 0 -0.42619555400130871 0.2210865732610654 0 -0.4093815069092428 0.20930915628961541 0 -0.40570075130157518 0.22831226782547601 0 -0.42483305275653133 0.2391713563412208 0 -0.42619555400130871 0.2210865732610654 0 -0.40570075130157518 0.22831226782547601 0 -0.42619555400130871 0.2210865732610654 0 -0.4093815069092428 0.20930915628961541 0 -0.42673330281057742 0.203657828083776 0 -0.44373564997161308 0.20767254717792411 0 -0.42619555400130871 0.2210865732610654 0 -0.42673330281057742 0.203657828083776 0 -0.42673330281057742 0.203657828083776 0 -0.43491579376131378 0.18775851035633559 0 -0.41450696552696992 0.19227560940300201 0 -0.44373564997161308 0.20767254717792411 0 -0.42673330281057742 0.203657828083776 0 -0.43491579376131378 0.18775851035633559 0 -0.4093815069092428 0.20930915628961541 0 -0.42673330281057742 0.203657828083776 0 -0.41450696552696992 0.19227560940300201 0 -0.4093815069092428 0.20930915628961541 0 -0.41450696552696992 0.19227560940300201 0 -0.38917287431225889 0.19672734352777779 0 -0.41450696552696992 0.19227560940300201 0 -0.38917287431225889 0.19672734352777779 0 -0.39506614435951359 0.18124695928314211 0 -0.38917287431225889 0.19672734352777779 0 -0.37898545115169752 0.21022080054698841 0 -0.37264942182107469 0.19314124370032379 0 -0.38917287431225889 0.19672734352777779 0 -0.37906143969833178 0.1837364686344008 0 -0.37264942182107469 0.19314124370032379 0 -0.38917287431225889 0.19672734352777779 0 -0.37898545115169752 0.21022080054698841 0 -0.39295229269392568 0.21375641065098319 0 -0.37898545115169752 0.21022080054698841 0 -0.39295229269392568 0.21375641065098319 0 -0.38566351333877391 0.22701595062985411 0 -0.4093815069092428 0.20930915628961541 0 -0.39295229269392568 0.21375641065098319 0 -0.40570075130157518 0.22831226782547601 0 -0.4093815069092428 0.20930915628961541 0 -0.38917287431225889 0.19672734352777779 0 -0.39295229269392568 0.21375641065098319 0 -0.39295229269392568 0.21375641065098319 0 -0.40570075130157518 0.22831226782547601 0 -0.38566351333877391 0.22701595062985411 0 -0.40570075130157518 0.22831226782547601 0 -0.38566351333877391 0.22701595062985411 0 -0.38890999743407823 0.2427193981317495 0 -0.37898545115169752 0.21022080054698841 0 -0.38566351333877391 0.22701595062985411 0 -0.36918549998045508 0.2219342564482602 0 -0.38566351333877391 0.22701595062985411 0 -0.37426535240908931 0.23763306958086369 0 -0.36918549998045508 0.2219342564482602 0 -0.38566351333877391 0.22701595062985411 0 -0.38890999743407823 0.2427193981317495 0 -0.37426535240908931 0.23763306958086369 0 -0.38890999743407823 0.2427193981317495 0 -0.37426535240908931 0.23763306958086369 0 -0.37627277756599359 0.25576698107499612 0 -0.40570075130157518 0.22831226782547601 0 -0.38890999743407823 0.2427193981317495 0 -0.4058641186269526 0.24719101802337209 0 -0.38890999743407823 0.2427193981317495 0 -0.4058641186269526 0.24719101802337209 0 -0.39181582631995732 0.25666003096110762 0 -0.42456068504600192 0.1439667135030753 0 -0.40845034835474481 0.1615357131875573 0 -0.39950638225365043 0.15875242040585999 0 -0.40644770470087432 0.14163984351175291 0 -0.42456068504600192 0.1439667135030753 0 -0.39950638225365043 0.15875242040585999 0 -0.42456068504600192 0.1439667135030753 0 -0.39950638225365043 0.15875242040585999 0 -0.40644770470087432 0.14163984351175291 0 -0.41340409697242059 0.12685292149463129 0 -0.42456068504600192 0.1439667135030753 0 -0.43069153314159431 0.1145075166488613 0 -0.43701833249064481 0.1242334301559498 0 -0.42456068504600192 0.1439667135030753 0 -0.43069153314159431 0.1145075166488613 0 -0.41340409697242059 0.12685292149463129 0 -0.42456068504600192 0.1439667135030753 0 -0.43701833249064481 0.1242334301559498 0 -0.44240998807245457 0.13343301136195221 0 -0.42456068504600192 0.1439667135030753 0 -0.44240998807245457 0.13343301136195221 0 -0.42456068504600192 0.1439667135030753 0 -0.43069153314159431 0.1145075166488613 0 -0.42456068504600192 0.1439667135030753 0 -0.44064209651387592 0.15105814280471949 0 -0.44240998807245457 0.13343301136195221 0 -0.42456068504600192 0.1439667135030753 0 -0.44064209651387592 0.15105814280471949 0 -0.42456068504600192 0.1439667135030753 0 -0.41953382528648597 0.16812116145303871 0 -0.42456068504600192 0.1439667135030753 0 -0.41953382528648597 0.16812116145303871 0 -0.44389494779998923 0.16842226767380999 0 -0.44064209651387592 0.15105814280471949 0 -0.41953382528648597 0.16812116145303871 0 -0.43491579376131378 0.18775851035633559 0 -0.41450696552696992 0.19227560940300201 0 -0.41953382528648597 0.16812116145303871 0 -0.44389494779998923 0.16842226767380999 0 -0.43491579376131378 0.18775851035633559 0 -0.41953382528648597 0.16812116145303871 0 -0.41450696552696992 0.19227560940300201 0 -0.41953382528648597 0.16812116145303871 0 -0.4060243672849842 0.17307354262849031 0 -0.41450696552696992 0.19227560940300201 0 -0.41953382528648597 0.16812116145303871 0 -0.42456068504600192 0.1439667135030753 0 -0.41953382528648597 0.16812116145303871 0 -0.40845034835474481 0.1615357131875573 0 -0.41953382528648597 0.16812116145303871 0 -0.40845034835474481 0.1615357131875573 0 -0.4060243672849842 0.17307354262849031 0 -0.40845034835474481 0.1615357131875573 0 -0.39950638225365043 0.15875242040585999 0 -0.40230428932012002 0.16580132986850479 0 -0.39950638225365043 0.15875242040585999 0 -0.40230428932012002 0.16580132986850479 0 -0.39498347874854289 0.1694299291903946 0 -0.40230428932012002 0.16580132986850479 0 -0.39498347874854289 0.1694299291903946 0 -0.4060243672849842 0.17307354262849031 0 -0.40845034835474481 0.1615357131875573 0 -0.40230428932012002 0.16580132986850479 0 -0.4060243672849842 0.17307354262849031 0 -0.41450696552696992 0.19227560940300201 0 -0.4060243672849842 0.17307354262849031 0 -0.39506614435951359 0.18124695928314211 0 -0.39498347874854289 0.1694299291903946 0 -0.4060243672849842 0.17307354262849031 0 -0.39506614435951359 0.18124695928314211 0 -0.39498347874854289 0.1694299291903946 0 -0.39506614435951359 0.18124695928314211 0 -0.38614730887295268 0.17683648479544889 0 -0.38917287431225889 0.19672734352777779 0 -0.39506614435951359 0.18124695928314211 0 -0.37906143969833178 0.1837364686344008 0 -0.39506614435951359 0.18124695928314211 0 -0.38614730887295268 0.17683648479544889 0 -0.37906143969833178 0.1837364686344008 0 -0.39498347874854289 0.1694299291903946 0 -0.38614730887295268 0.17683648479544889 0 -0.37547817268542238 0.172932582073858 0 -0.37547817268542238 0.172932582073858 0 -0.37906143969833178 0.1837364686344008 0 -0.37075009083196669 0.17910762915761069 0 -0.38614730887295268 0.17683648479544889 0 -0.37547817268542238 0.172932582073858 0 -0.37906143969833178 0.1837364686344008 0 -0.39950638225365043 0.15875242040585999 0 -0.39498347874854289 0.1694299291903946 0 -0.37547817268542238 0.172932582073858 0 -0.39950638225365043 0.15875242040585999 0 -0.37547817268542238 0.172932582073858 0 -0.38095294971031302 0.15620214862961901 0 -0.39950638225365043 0.15875242040585999 0 -0.37547817268542238 0.172932582073858 0 -0.38877631717686989 0.1411771271023711 0 -0.3743845192430213 0.13462170770880841 0 -0.3727609344829107 0.14736618439603419 0 -0.38877631717686989 0.1411771271023711 0 -0.38095294971031302 0.15620214862961901 0 -0.3727609344829107 0.14736618439603419 0 -0.39950638225365043 0.15875242040585999 0 -0.38877631717686989 0.1411771271023711 0 -0.38095294971031302 0.15620214862961901 0 -0.39950638225365043 0.15875242040585999 0 -0.38877631717686989 0.1411771271023711 0 -0.40644770470087432 0.14163984351175291 0 -0.39950638225365043 0.15875242040585999 0 -0.38877631717686989 0.1411771271023711 0 -0.40500159503933081 0.11906023549783409 0 -0.41340409697242059 0.12685292149463129 0 -0.39724577858065152 0.1299831436324938 0 -0.40644770470087432 0.14163984351175291 0 -0.41340409697242059 0.12685292149463129 0 -0.39724577858065152 0.1299831436324938 0 -0.40644770470087432 0.14163984351175291 0 -0.38877631717686989 0.1411771271023711 0 -0.39724577858065152 0.1299831436324938 0 -0.37804625210008819 0.123601833798883 0 -0.38877631717686989 0.1411771271023711 0 -0.3743845192430213 0.13462170770880841 0 -0.37804625210008819 0.123601833798883 0 -0.38877631717686989 0.1411771271023711 0 -0.37804625210008819 0.123601833798883 0 -0.38877631717686989 0.1411771271023711 0 -0.39724577858065152 0.1299831436324938 0 -0.365347101462831 0.13817461851868421 0 -0.35348317360806891 0.12938077574343321 0 -0.36633164424306752 0.1221005795070398 0 -0.365347101462831 0.13817461851868421 0 -0.36633164424306752 0.1221005795070398 0 -0.3743845192430213 0.13462170770880841 0 -0.365347101462831 0.13817461851868421 0 -0.36633164424306752 0.1221005795070398 0 -0.37804625210008819 0.123601833798883 0 -0.3743845192430213 0.13462170770880841 0 -0.36633164424306752 0.1221005795070398 0 -0.3743845192430213 0.13462170770880841 0 -0.365347101462831 0.13817461851868421 0 -0.3727609344829107 0.14736618439603419 0 -0.35348317360806891 0.12938077574343321 0 -0.33623501688266189 0.13743010248621851 0 -0.34806126244690111 0.1156444249085414 0 -0.365347101462831 0.13817461851868421 0 -0.35348317360806891 0.12938077574343321 0 -0.35480555670105951 0.1470729930362859 0 -0.35348317360806891 0.12938077574343321 0 -0.35480555670105951 0.1470729930362859 0 -0.33623501688266189 0.13743010248621851 0 -0.35480555670105951 0.1470729930362859 0 -0.35095368412742989 0.16285979326107619 0 -0.34108384742594228 0.1551062344628846 0 -0.35480555670105951 0.1470729930362859 0 -0.33623501688266189 0.13743010248621851 0 -0.34108384742594228 0.1551062344628846 0 -0.35480555670105951 0.1470729930362859 0 -0.3727609344829107 0.14736618439603419 0 -0.36538929421828598 0.1597472365875848 0 -0.365347101462831 0.13817461851868421 0 -0.35480555670105951 0.1470729930362859 0 -0.3727609344829107 0.14736618439603419 0 -0.38095294971031302 0.15620214862961901 0 -0.3727609344829107 0.14736618439603419 0 -0.36538929421828598 0.1597472365875848 0 -0.37547817268542238 0.172932582073858 0 -0.38095294971031302 0.15620214862961901 0 -0.36538929421828598 0.1597472365875848 0 -0.37547817268542238 0.172932582073858 0 -0.36538929421828598 0.1597472365875848 0 -0.36047104019532872 0.17338291754511381 0 -0.36798971074878389 0.18637854837707041 0 -0.36047104019532872 0.17338291754511381 0 -0.35030780973606301 0.17549075859465871 0 -0.37906143969833178 0.1837364686344008 0 -0.36798971074878389 0.18637854837707041 0 -0.37075009083196669 0.17910762915761069 0 -0.37547817268542238 0.172932582073858 0 -0.37075009083196669 0.17910762915761069 0 -0.36047104019532872 0.17338291754511381 0 -0.36798971074878389 0.18637854837707041 0 -0.37075009083196669 0.17910762915761069 0 -0.36047104019532872 0.17338291754511381 0 -0.36798971074878389 0.18637854837707041 0 -0.34042135529351392 0.18433105797711491 0 -0.36798971074878389 0.18637854837707041 0 -0.35030780973606301 0.17549075859465871 0 -0.34042135529351392 0.18433105797711491 0 -0.35480555670105951 0.1470729930362859 0 -0.36538929421828598 0.1597472365875848 0 -0.35095368412742989 0.16285979326107619 0 -0.36047104019532872 0.17338291754511381 0 -0.35030780973606301 0.17549075859465871 0 -0.35095368412742989 0.16285979326107619 0 -0.36538929421828598 0.1597472365875848 0 -0.36047104019532872 0.17338291754511381 0 -0.35095368412742989 0.16285979326107619 0 -0.35030780973606301 0.17549075859465871 0 -0.35095368412742989 0.16285979326107619 0 -0.33901620810013772 0.16895250346694651 0 -0.35095368412742989 0.16285979326107619 0 -0.33901620810013772 0.16895250346694651 0 -0.34108384742594228 0.1551062344628846 0 -0.33901620810013772 0.16895250346694651 0 -0.32669072761201778 0.17772801114192871 0 -0.32440877131842272 0.15921578006389581 0 -0.33901620810013772 0.16895250346694651 0 -0.32440877131842272 0.15921578006389581 0 -0.34108384742594228 0.1551062344628846 0 -0.35030780973606301 0.17549075859465871 0 -0.33901620810013772 0.16895250346694651 0 -0.34042135529351392 0.18433105797711491 0 -0.33901620810013772 0.16895250346694651 0 -0.34042135529351392 0.18433105797711491 0 -0.32669072761201778 0.17772801114192871 0 -0.34042135529351392 0.18433105797711491 0 -0.31258252575418349 0.1810014576415731 0 -0.32058184338665102 0.18999642887825369 0 -0.34042135529351392 0.18433105797711491 0 -0.31258252575418349 0.1810014576415731 0 -0.34042135529351392 0.18433105797711491 0 -0.32669072761201778 0.17772801114192871 0 -0.31258252575418349 0.1810014576415731 0 -0.32669072761201778 0.17772801114192871 0 -0.31258252575418349 0.1810014576415731 0 -0.32440877131842272 0.15921578006389581 0 -0.31258252575418349 0.1810014576415731 0 -0.32058184338665102 0.18999642887825369 0 -0.31164202783444339 0.18960367438034681 0 -0.31258252575418349 0.1810014576415731 0 -0.32440877131842272 0.15921578006389581 0 -0.31258252575418349 0.1810014576415731 0 -0.32440877131842272 0.15921578006389581 0 -0.30928686699462882 0.16318737426620769 0 -0.32440877131842272 0.15921578006389581 0 -0.31214676871617769 0.1437750609055741 0 -0.30928686699462882 0.16318737426620769 0 -0.32440877131842272 0.15921578006389581 0 -0.33623501688266189 0.13743010248621851 0 -0.31214676871617769 0.1437750609055741 0 -0.33623501688266189 0.13743010248621851 0 -0.31214676871617769 0.1437750609055741 0 -0.3127173757629626 0.1125196991101781 0 -0.33623501688266189 0.13743010248621851 0 -0.34806126244690111 0.1156444249085414 0 -0.32440877131842272 0.15921578006389581 0 -0.33623501688266189 0.13743010248621851 0 -0.32440877131842272 0.15921578006389581 0 -0.33623501688266189 0.13743010248621851 0 -0.34108384742594228 0.1551062344628846 0 -0.34824261657673289 0.24684003078997019 0 -0.36034560581290948 0.2331949797244813 0 -0.34699158187959073 0.23006221094352949 0 -0.34824261657673289 0.24684003078997019 0 -0.34699158187959073 0.23006221094352949 0 -0.3369866833716032 0.23617689592248431 0 -0.34824261657673289 0.24684003078997019 0 -0.36292965957869022 0.24700153722895329 0 -0.36034560581290948 0.2331949797244813 0 -0.36292965957869022 0.24700153722895329 0 -0.37426535240908931 0.23763306958086369 0 -0.37627277756599359 0.25576698107499612 0 -0.36292965957869022 0.24700153722895329 0 -0.37426535240908931 0.23763306958086369 0 -0.36034560581290948 0.2331949797244813 0 -0.37426535240908931 0.23763306958086369 0 -0.36034560581290948 0.2331949797244813 0 -0.36918549998045508 0.2219342564482602 0 -0.36034560581290948 0.2331949797244813 0 -0.36918549998045508 0.2219342564482602 0 -0.35426280419631678 0.2199018442433508 0 -0.35426280419631678 0.2199018442433508 0 -0.34699158187959073 0.23006221094352949 0 -0.33803848401705971 0.22215341913216219 0 -0.36034560581290948 0.2331949797244813 0 -0.35426280419631678 0.2199018442433508 0 -0.34699158187959073 0.23006221094352949 0 -0.35426280419631678 0.2199018442433508 0 -0.34672654872418962 0.20331660088694001 0 -0.33803848401705971 0.22215341913216219 0 -0.35426280419631678 0.2199018442433508 0 -0.34672654872418962 0.20331660088694001 0 -0.36428910476369658 0.2087495983247315 0 -0.37898545115169752 0.21022080054698841 0 -0.36428910476369658 0.2087495983247315 0 -0.37264942182107469 0.19314124370032379 0 -0.36918549998045508 0.2219342564482602 0 -0.35426280419631678 0.2199018442433508 0 -0.36428910476369658 0.2087495983247315 0 -0.37898545115169752 0.21022080054698841 0 -0.36918549998045508 0.2219342564482602 0 -0.36428910476369658 0.2087495983247315 0 -0.34672654872418962 0.20331660088694001 0 -0.37264942182107469 0.19314124370032379 0 -0.34672654872418962 0.20331660088694001 0 -0.36428910476369658 0.2087495983247315 0 -0.37264942182107469 0.19314124370032379 0 -0.36798971074878389 0.18637854837707041 0 -0.34672654872418962 0.20331660088694001 0 -0.37264942182107469 0.19314124370032379 0 -0.37906143969833178 0.1837364686344008 0 -0.36798971074878389 0.18637854837707041 0 -0.37264942182107469 0.19314124370032379 0 -0.36798971074878389 0.18637854837707041 0 -0.34042135529351392 0.18433105797711491 0 -0.34672654872418962 0.20331660088694001 0 -0.34042135529351392 0.18433105797711491 0 -0.34672654872418962 0.20331660088694001 0 -0.32524963504831961 0.19869588108650291 0 -0.34042135529351392 0.18433105797711491 0 -0.32058184338665102 0.18999642887825369 0 -0.32524963504831961 0.19869588108650291 0 -0.32058184338665102 0.18999642887825369 0 -0.32524963504831961 0.19869588108650291 0 -0.311616888936874 0.19584633358857631 0 -0.32058184338665102 0.18999642887825369 0 -0.311616888936874 0.19584633358857631 0 -0.31164202783444339 0.18960367438034681 0 -0.32524963504831961 0.19869588108650291 0 -0.31041164584417502 0.20699007176870929 0 -0.311616888936874 0.19584633358857631 0 -0.32524963504831961 0.19869588108650291 0 -0.32080367562730439 0.2134919580735562 0 -0.31041164584417502 0.20699007176870929 0 -0.34672654872418962 0.20331660088694001 0 -0.32524963504831961 0.19869588108650291 0 -0.32080367562730439 0.2134919580735562 0 -0.34672654872418962 0.20331660088694001 0 -0.32080367562730439 0.2134919580735562 0 -0.34672654872418962 0.20331660088694001 0 -0.32080367562730439 0.2134919580735562 0 -0.33803848401705971 0.22215341913216219 0 -0.34699158187959073 0.23006221094352949 0 -0.33803848401705971 0.22215341913216219 0 -0.3369866833716032 0.23617689592248431 0 -0.33803848401705971 0.22215341913216219 0 -0.32310956683312447 0.23072473879632621 0 -0.3369866833716032 0.23617689592248431 0 -0.32080367562730439 0.2134919580735562 0 -0.32310956683312447 0.23072473879632621 0 -0.29488080253041948 0.22366731526017231 0 -0.32080367562730439 0.2134919580735562 0 -0.33803848401705971 0.22215341913216219 0 -0.32310956683312447 0.23072473879632621 0 -0.32310956683312447 0.23072473879632621 0 -0.33213242169912183 0.24992613500971911 0 -0.32310956683312447 0.23072473879632621 0 -0.33213242169912183 0.24992613500971911 0 -0.30846245916933263 0.2451797241646857 0 -0.32310956683312447 0.23072473879632621 0 -0.33213242169912183 0.24992613500971911 0 -0.3369866833716032 0.23617689592248431 0 -0.34824261657673289 0.24684003078997019 0 -0.33213242169912183 0.24992613500971911 0 -0.3369866833716032 0.23617689592248431 0 -0.28924369278351397 0.24685883917450829 0 -0.29488080253041948 0.22366731526017231 0 -0.27553996635935202 0.23890616885437449 0 -0.28924369278351397 0.24685883917450829 0 -0.30846245916933263 0.2451797241646857 0 -0.29488080253041948 0.22366731526017231 0 -0.32310956683312447 0.23072473879632621 0 -0.30846245916933263 0.2451797241646857 0 -0.29488080253041948 0.22366731526017231 0 -0.29488080253041948 0.22366731526017231 0 -0.28407512471040941 0.20883264418328651 0 -0.29950722707795763 0.20324887083473889 0 -0.32080367562730439 0.2134919580735562 0 -0.29488080253041948 0.22366731526017231 0 -0.31041164584417502 0.20699007176870929 0 -0.29488080253041948 0.22366731526017231 0 -0.31041164584417502 0.20699007176870929 0 -0.29950722707795763 0.20324887083473889 0 -0.32080367562730439 0.2134919580735562 0 -0.29488080253041948 0.22366731526017231 0 -0.29950722707795763 0.20324887083473889 0 -0.311616888936874 0.19584633358857631 0 -0.3015163791760046 0.1902883674773978 0 -0.31041164584417502 0.20699007176870929 0 -0.29950722707795763 0.20324887083473889 0 -0.311616888936874 0.19584633358857631 0 -0.311616888936874 0.19584633358857631 0 -0.31164202783444339 0.18960367438034681 0 -0.3015163791760046 0.1902883674773978 0 -0.28837844238890981 0.19566619674656741 0 -0.27286605706807421 0.19835798802342289 0 -0.28528464438297441 0.1802360771772038 0 -0.3015163791760046 0.1902883674773978 0 -0.28837844238890981 0.19566619674656741 0 -0.28528464438297441 0.1802360771772038 0 -0.29950722707795763 0.20324887083473889 0 -0.3015163791760046 0.1902883674773978 0 -0.28837844238890981 0.19566619674656741 0 -0.28407512471040941 0.20883264418328651 0 -0.29950722707795763 0.20324887083473889 0 -0.28837844238890981 0.19566619674656741 0 -0.28407512471040941 0.20883264418328651 0 -0.28837844238890981 0.19566619674656741 0 -0.27286605706807421 0.19835798802342289 0 -0.27286605706807421 0.19835798802342289 0 -0.25001791226633591 0.20223167449818141 0 -0.25771628892770448 0.1781885867772483 0 -0.27286605706807421 0.19835798802342289 0 -0.25001791226633591 0.20223167449818141 0 -0.26474309448668609 0.22322285005153111 0 -0.25001791226633591 0.20223167449818141 0 -0.26474309448668609 0.22322285005153111 0 -0.2417097275862935 0.21883514260066619 0 -0.28407512471040941 0.20883264418328651 0 -0.27286605706807421 0.19835798802342289 0 -0.26474309448668609 0.22322285005153111 0 -0.29488080253041948 0.22366731526017231 0 -0.28407512471040941 0.20883264418328651 0 -0.26474309448668609 0.22322285005153111 0 -0.29488080253041948 0.22366731526017231 0 -0.26474309448668609 0.22322285005153111 0 -0.27553996635935202 0.23890616885437449 0 -0.26474309448668609 0.22322285005153111 0 -0.25825314838481339 0.2425458797231245 0 -0.2408074769917862 0.23465833815203779 0 -0.25825314838481339 0.2425458797231245 0 -0.27553996635935202 0.23890616885437449 0 -0.27057909361132693 0.25823596006253607 0 -0.26474309448668609 0.22322285005153111 0 -0.25825314838481339 0.2425458797231245 0 -0.27553996635935202 0.23890616885437449 0 -0.28924369278351397 0.24685883917450829 0 -0.27553996635935202 0.23890616885437449 0 -0.27057909361132693 0.25823596006253607 0 -0.28994981765154099 0.129105890536617 0 -0.31214676871617769 0.1437750609055741 0 -0.3127173757629626 0.1125196991101781 0 -0.28994981765154099 0.129105890536617 0 -0.29743723577162201 0.15772453462911959 0 -0.27396272325231502 0.1460593730725179 0 -0.28994981765154099 0.129105890536617 0 -0.31214676871617769 0.1437750609055741 0 -0.29743723577162201 0.15772453462911959 0 -0.31214676871617769 0.1437750609055741 0 -0.29743723577162201 0.15772453462911959 0 -0.30928686699462882 0.16318737426620769 0 -0.29743723577162201 0.15772453462911959 0 -0.28528464438297441 0.1802360771772038 0 -0.27396272325231502 0.1460593730725179 0 -0.29743723577162201 0.15772453462911959 0 -0.30928686699462882 0.16318737426620769 0 -0.29985903341273767 0.17422003809087569 0 -0.31258252575418349 0.1810014576415731 0 -0.3015163791760046 0.1902883674773978 0 -0.28528464438297441 0.1802360771772038 0 -0.31258252575418349 0.1810014576415731 0 -0.28528464438297441 0.1802360771772038 0 -0.31258252575418349 0.1810014576415731 0 -0.29985903341273767 0.17422003809087569 0 -0.28528464438297441 0.1802360771772038 0 -0.31258252575418349 0.1810014576415731 0 -0.30928686699462882 0.16318737426620769 0 -0.29985903341273767 0.17422003809087569 0 -0.31258252575418349 0.1810014576415731 0 -0.31164202783444339 0.18960367438034681 0 -0.3015163791760046 0.1902883674773978 0 -0.29743723577162201 0.15772453462911959 0 -0.29985903341273767 0.17422003809087569 0 -0.28528464438297441 0.1802360771772038 0 -0.28528464438297441 0.1802360771772038 0 -0.25799286945900141 0.15886893947765879 0 -0.27396272325231502 0.1460593730725179 0 -0.28528464438297441 0.1802360771772038 0 -0.25771628892770448 0.1781885867772483 0 -0.25799286945900141 0.15886893947765879 0 -0.28528464438297441 0.1802360771772038 0 -0.25771628892770448 0.1781885867772483 0 -0.27286605706807421 0.19835798802342289 0 -0.28528464438297441 0.1802360771772038 0 -0.25771628892770448 0.1781885867772483 0 -0.25799286945900141 0.15886893947765879 0 -0.27396272325231502 0.1460593730725179 0 -0.24645927362986639 0.1322616828522806 0 -0.27396272325231502 0.1460593730725179 0 -0.25813148535304709 0.1137235584372733 0 -0.24645927362986639 0.1322616828522806 0 -0.28994981765154099 0.129105890536617 0 -0.27396272325231502 0.1460593730725179 0 -0.25813148535304709 0.1137235584372733 0 -0.28994981765154099 0.129105890536617 0 -0.25813148535304709 0.1137235584372733 0 -0.28527348531387148 0.1062774067215993 0 -0.25813148535304709 0.1137235584372733 0 -0.26809942719924362 0.085466672468615335 0 -0.24211114701042519 0.09453997081764981 0 -0.25813148535304709 0.1137235584372733 0 -0.28527348531387148 0.1062774067215993 0 -0.26809942719924362 0.085466672468615335 0 -0.28994981765154099 0.129105890536617 0 -0.28527348531387148 0.1062774067215993 0 -0.3127173757629626 0.1125196991101781 0 -0.28527348531387148 0.1062774067215993 0 -0.29863135018488107 0.090887834791935129 0 -0.26809942719924362 0.085466672468615335 0 -0.29863135018488107 0.090887834791935129 0 -0.3127173757629626 0.1125196991101781 0 -0.32522550257001381 0.085314451198393579 0 -0.28527348531387148 0.1062774067215993 0 -0.29863135018488107 0.090887834791935129 0 -0.3127173757629626 0.1125196991101781 0 -0.30838091471111689 0.071929158449262412 0 -0.28938518827392129 0.073094889940132288 0 -0.30045108620983141 0.056480684655655082 0 -0.30838091471111689 0.071929158449262412 0 -0.29863135018488107 0.090887834791935129 0 -0.28938518827392129 0.073094889940132288 0 -0.30838091471111689 0.071929158449262412 0 -0.29863135018488107 0.090887834791935129 0 -0.32522550257001381 0.085314451198393579 0 -0.29863135018488107 0.090887834791935129 0 -0.28938518827392129 0.073094889940132288 0 -0.26809942719924362 0.085466672468615335 0 -0.27339286909944799 0.068627364571179045 0 -0.26809942719924362 0.085466672468615335 0 -0.25797894661879511 0.062645041705594595 0 -0.28938518827392129 0.073094889940132288 0 -0.27339286909944799 0.068627364571179045 0 -0.26809942719924362 0.085466672468615335 0 -0.28938518827392129 0.073094889940132288 0 -0.27339286909944799 0.068627364571179045 0 -0.27810791430583198 0.053302854170373969 0 -0.26809942719924362 0.085466672468615335 0 -0.24155975252329931 0.073837244407682759 0 -0.24211114701042519 0.09453997081764981 0 -0.26809942719924362 0.085466672468615335 0 -0.25797894661879511 0.062645041705594595 0 -0.24155975252329931 0.073837244407682759 0 -0.25797894661879511 0.062645041705594595 0 -0.25457044692415531 0.039847410896771858 0 -0.27810791430583198 0.053302854170373969 0 -0.25457044692415531 0.039847410896771858 0 -0.27832561070586459 0.033023089959677988 0 -0.27810791430583198 0.053302854170373969 0 -0.25457044692415531 0.039847410896771858 0 -0.27832561070586459 0.033023089959677988 0 -0.26425628348590557 0.023451762646417129 0 -0.27339286909944799 0.068627364571179045 0 -0.25797894661879511 0.062645041705594595 0 -0.27810791430583198 0.053302854170373969 0 -0.2675436699901495 -0.012684391954615921 0 -0.27087138527552468 0.0084193362086761453 0 -0.24496178883302311 0.01237944270509766 0 -0.26425628348590557 0.023451762646417129 0 -0.27087138527552468 0.0084193362086761453 0 -0.24496178883302311 0.01237944270509766 0 -0.25457044692415531 0.039847410896771858 0 -0.26425628348590557 0.023451762646417129 0 -0.24496178883302311 0.01237944270509766 0 -0.27832561070586459 0.033023089959677988 0 -0.27087138527552468 0.0084193362086761453 0 -0.29084842672228689 0.0076878545578341444 0 -0.27832561070586459 0.033023089959677988 0 -0.26425628348590557 0.023451762646417129 0 -0.27087138527552468 0.0084193362086761453 0 -0.2675436699901495 -0.012684391954615921 0 -0.27087138527552468 0.0084193362086761453 0 -0.29084842672228689 0.0076878545578341444 0 -0.27832561070586459 0.033023089959677988 0 -0.29084842672228689 0.0076878545578341444 0 -0.29742139705940329 0.038172626107336738 0 -0.29084842672228689 0.0076878545578341444 0 -0.29742139705940329 0.038172626107336738 0 -0.31536361093022047 0.023162692553965091 0 -0.29084842672228689 0.0076878545578341444 0 -0.31390032267290879 0.001897368345985068 0 -0.31536361093022047 0.023162692553965091 0 -0.28938518827392129 0.073094889940132288 0 -0.27810791430583198 0.053302854170373969 0 -0.30045108620983141 0.056480684655655082 0 -0.27810791430583198 0.053302854170373969 0 -0.29742139705940329 0.038172626107336738 0 -0.30045108620983141 0.056480684655655082 0 -0.27832561070586459 0.033023089959677988 0 -0.27810791430583198 0.053302854170373969 0 -0.29742139705940329 0.038172626107336738 0 -0.29742139705940329 0.038172626107336738 0 -0.31326721037818012 0.04384481104951992 0 -0.31536361093022047 0.023162692553965091 0 -0.29742139705940329 0.038172626107336738 0 -0.30045108620983141 0.056480684655655082 0 -0.31326721037818012 0.04384481104951992 0 -0.30045108620983141 0.056480684655655082 0 -0.31614389253053521 0.058539768217305201 0 -0.31326721037818012 0.04384481104951992 0 -0.30838091471111689 0.071929158449262412 0 -0.30045108620983141 0.056480684655655082 0 -0.31614389253053521 0.058539768217305201 0 -0.31614389253053521 0.058539768217305201 0 -0.32606944419769918 0.058537200194134428 0 -0.32632993569316249 0.049539284099900133 0 -0.31614389253053521 0.058539768217305201 0 -0.32606944419769918 0.058537200194134428 0 -0.32407031919003448 0.067960545172723347 0 -0.31614389253053521 0.058539768217305201 0 -0.32632993569316249 0.049539284099900133 0 -0.31326721037818012 0.04384481104951992 0 -0.31326721037818012 0.04384481104951992 0 -0.32440600722766622 0.036233154165429153 0 -0.31536361093022047 0.023162692553965091 0 -0.32632993569316249 0.049539284099900133 0 -0.31326721037818012 0.04384481104951992 0 -0.32440600722766622 0.036233154165429153 0 -0.32632993569316249 0.049539284099900133 0 -0.32440600722766622 0.036233154165429153 0 -0.33493356877254737 0.040217683228884499 0 -0.33493356877254737 0.040217683228884499 0 -0.33773362937706508 0.058109203286609047 0 -0.35024175618411629 0.03090395537482463 0 -0.32440600722766622 0.036233154165429153 0 -0.33493356877254737 0.040217683228884499 0 -0.3356278108200631 0.02574104630544399 0 -0.33493356877254737 0.040217683228884499 0 -0.3356278108200631 0.02574104630544399 0 -0.35024175618411629 0.03090395537482463 0 -0.32632993569316249 0.049539284099900133 0 -0.33493356877254737 0.040217683228884499 0 -0.33773362937706508 0.058109203286609047 0 -0.33773362937706508 0.058109203286609047 0 -0.34582286122008349 0.055521810561559207 0 -0.34467628773160258 0.068943552874552061 0 -0.32606944419769918 0.058537200194134428 0 -0.33773362937706508 0.058109203286609047 0 -0.32407031919003448 0.067960545172723347 0 -0.32606944419769918 0.058537200194134428 0 -0.32632993569316249 0.049539284099900133 0 -0.33773362937706508 0.058109203286609047 0 -0.31390032267290879 0.001897368345985068 0 -0.31536361093022047 0.023162692553965091 0 -0.33183757558868021 0.0092231901974755889 0 -0.31536361093022047 0.023162692553965091 0 -0.3356278108200631 0.02574104630544399 0 -0.33183757558868021 0.0092231901974755889 0 -0.32440600722766622 0.036233154165429153 0 -0.31536361093022047 0.023162692553965091 0 -0.3356278108200631 0.02574104630544399 0 -0.3356278108200631 0.02574104630544399 0 -0.33183757558868021 0.0092231901974755889 0 -0.35619545527155538 0.01335734732276773 0 -0.34648002239000819 -0.003224372146928744 0 -0.33183757558868021 0.0092231901974755889 0 -0.35619545527155538 0.01335734732276773 0 -0.34648002239000819 -0.003224372146928744 0 -0.35619545527155538 0.01335734732276773 0 -0.36953825318317091 0.0010669767550764381 0 -0.33183757558868021 0.0092231901974755889 0 -0.35619545527155538 0.01335734732276773 0 -0.3356278108200631 0.02574104630544399 0 -0.35619545527155538 0.01335734732276773 0 -0.35024175618411629 0.03090395537482463 0 -0.35619545527155538 0.01335734732276773 0 -0.35024175618411629 0.03090395537482463 0 -0.36610105650922109 0.026346306655102781 0 -0.35024175618411629 0.03090395537482463 0 -0.36610105650922109 0.026346306655102781 0 -0.36322388697573799 0.035965026950029073 0 -0.38055333495443072 0.017491504448059879 0 -0.35619545527155538 0.01335734732276773 0 -0.36610105650922109 0.026346306655102781 0 -0.3761672922991911 0.026867423316783549 0 -0.38055333495443072 0.017491504448059879 0 -0.36610105650922109 0.026346306655102781 0 -0.3761672922991911 0.026867423316783549 0 -0.36610105650922109 0.026346306655102781 0 -0.37169809957755168 0.034485684418351738 0 -0.38055333495443072 0.017491504448059879 0 -0.35619545527155538 0.01335734732276773 0 -0.36953825318317091 0.0010669767550764381 0 -0.38055333495443072 0.017491504448059879 0 -0.35619545527155538 0.01335734732276773 0 -0.34582286122008349 0.055521810561559207 0 -0.35708976740043807 0.042022464127772247 0 -0.37098875520736319 0.046066724174093923 0 -0.3550784664853574 0.060270910634679757 0 -0.34582286122008349 0.055521810561559207 0 -0.37098875520736319 0.046066724174093923 0 -0.33773362937706508 0.058109203286609047 0 -0.35024175618411629 0.03090395537482463 0 -0.34582286122008349 0.055521810561559207 0 -0.34582286122008349 0.055521810561559207 0 -0.37098875520736319 0.046066724174093923 0 -0.3550784664853574 0.060270910634679757 0 -0.34582286122008349 0.055521810561559207 0 -0.34467628773160258 0.068943552874552061 0 -0.33773362937706508 0.058109203286609047 0 -0.35024175618411629 0.03090395537482463 0 -0.35024175618411629 0.03090395537482463 0 -0.34582286122008349 0.055521810561559207 0 -0.35708976740043807 0.042022464127772247 0 -0.35024175618411629 0.03090395537482463 0 -0.35708976740043807 0.042022464127772247 0 -0.36322388697573799 0.035965026950029073 0 -0.35708976740043807 0.042022464127772247 0 -0.36322388697573799 0.035965026950029073 0 -0.37098875520736319 0.046066724174093923 0 -0.36610105650922109 0.026346306655102781 0 -0.36322388697573799 0.035965026950029073 0 -0.37169809957755168 0.034485684418351738 0 -0.36322388697573799 0.035965026950029073 0 -0.37169809957755168 0.034485684418351738 0 -0.37098875520736319 0.046066724174093923 0 -0.37169809957755168 0.034485684418351738 0 -0.37098875520736319 0.046066724174093923 0 -0.37098875520736319 0.046066724174093923 0 -0.36915247111533223 0.076046632334744568 0 -0.3550784664853574 0.060270910634679757 0 -0.37098875520736319 0.046066724174093923 0 -0.36217438487350639 0.062687430482174983 0 -0.38104900467073288 0.060457535846821377 0 -0.37098875520736319 0.046066724174093923 0 -0.36915247111533223 0.076046632334744568 0 -0.37098875520736319 0.046066724174093923 0 -0.36915247111533223 0.076046632334744568 0 -0.36217438487350639 0.062687430482174983 0 -0.36915247111533223 0.076046632334744568 0 -0.35522564997771461 0.068595874489344691 0 -0.35498362600728378 0.079148189328135263 0 -0.36915247111533223 0.076046632334744568 0 -0.36217438487350639 0.062687430482174983 0 -0.35522564997771461 0.068595874489344691 0 -0.3550784664853574 0.060270910634679757 0 -0.36217438487350639 0.062687430482174983 0 -0.35522564997771461 0.068595874489344691 0 -0.3550784664853574 0.060270910634679757 0 -0.35522564997771461 0.068595874489344691 0 -0.34467628773160258 0.068943552874552061 0 -0.35522564997771461 0.068595874489344691 0 -0.34467628773160258 0.068943552874552061 0 -0.35498362600728378 0.079148189328135263 0 -0.34467628773160258 0.068943552874552061 0 -0.35988750801114122 0.093858747330864661 0 -0.34467628773160258 0.068943552874552061 0 -0.34784970493908929 0.088094859620412871 0 -0.34048815855518499 0.088930376001817135 0 -0.34467628773160258 0.068943552874552061 0 -0.34784970493908929 0.088094859620412871 0 -0.35988750801114122 0.093858747330864661 0 -0.34467628773160258 0.068943552874552061 0 -0.35498362600728378 0.079148189328135263 0 -0.35988750801114122 0.093858747330864661 0 -0.34784970493908929 0.088094859620412871 0 -0.34634686545842858 0.1006467622744177 0 -0.34048815855518499 0.088930376001817135 0 -0.3795381468158272 0.097970650207401519 0 -0.36915247111533223 0.076046632334744568 0 -0.36731618702330532 0.1060265404953956 0 -0.36915247111533223 0.076046632334744568 0 -0.35498362600728378 0.079148189328135263 0 -0.35988750801114122 0.093858747330864661 0 -0.36915247111533223 0.076046632334744568 0 -0.36731618702330532 0.1060265404953956 0 -0.35988750801114122 0.093858747330864661 0 -0.36915247111533223 0.076046632334744568 0 -0.36731618702330532 0.1060265404953956 0 -0.36731618702330532 0.1060265404953956 0 -0.35988750801114122 0.093858747330864661 0 -0.35906373670833919 0.1135882452325854 0 -0.36731618702330532 0.1060265404953956 0 -0.35988750801114122 0.093858747330864661 0 -0.36731618702330532 0.1060265404953956 0 -0.36633164424306752 0.1221005795070398 0 -0.35906373670833919 0.1135882452325854 0 -0.35348317360806891 0.12938077574343321 0 -0.36633164424306752 0.1221005795070398 0 -0.35906373670833919 0.1135882452325854 0 -0.37804625210008819 0.123601833798883 0 -0.36731618702330532 0.1060265404953956 0 -0.36731618702330532 0.1060265404953956 0 -0.36633164424306752 0.1221005795070398 0 -0.37804625210008819 0.123601833798883 0 -0.36731618702330532 0.1060265404953956 0 -0.36633164424306752 0.1221005795070398 0 -0.35348317360806891 0.12938077574343321 0 -0.34806126244690111 0.1156444249085414 0 -0.35906373670833919 0.1135882452325854 0 -0.35988750801114122 0.093858747330864661 0 -0.34806126244690111 0.1156444249085414 0 -0.34634686545842858 0.1006467622744177 0 -0.35988750801114122 0.093858747330864661 0 -0.34806126244690111 0.1156444249085414 0 -0.35988750801114122 0.093858747330864661 0 -0.34806126244690111 0.1156444249085414 0 -0.35906373670833919 0.1135882452325854 0 -0.34784970493908929 0.088094859620412871 0 -0.35988750801114122 0.093858747330864661 0 -0.34634686545842858 0.1006467622744177 0 -0.34634686545842858 0.1006467622744177 0 -0.33571579606724672 0.096074590957376832 0 -0.34048815855518499 0.088930376001817135 0 -0.34806126244690111 0.1156444249085414 0 -0.34634686545842858 0.1006467622744177 0 -0.33080265768535932 0.1094067743548789 0 -0.33571579606724672 0.096074590957376832 0 -0.33080265768535932 0.1094067743548789 0 -0.32522550257001381 0.085314451198393579 0 -0.34634686545842858 0.1006467622744177 0 -0.33571579606724672 0.096074590957376832 0 -0.33080265768535932 0.1094067743548789 0 -0.33623501688266189 0.13743010248621851 0 -0.34806126244690111 0.1156444249085414 0 -0.33080265768535932 0.1094067743548789 0 -0.33623501688266189 0.13743010248621851 0 -0.33080265768535932 0.1094067743548789 0 -0.3127173757629626 0.1125196991101781 0 -0.3127173757629626 0.1125196991101781 0 -0.32522550257001381 0.085314451198393579 0 -0.33080265768535932 0.1094067743548789 0 -0.3127173757629626 0.1125196991101781 0 -0.32522550257001381 0.085314451198393579 0 -0.30838091471111689 0.071929158449262412 0 -0.32522550257001381 0.085314451198393579 0 -0.32407031919003448 0.067960545172723347 0 -0.30838091471111689 0.071929158449262412 0 -0.31614389253053521 0.058539768217305201 0 -0.32407031919003448 0.067960545172723347 0 -0.33773362937706508 0.058109203286609047 0 -0.32522550257001381 0.085314451198393579 0 -0.32407031919003448 0.067960545172723347 0 -0.33773362937706508 0.058109203286609047 0 -0.32522550257001381 0.085314451198393579 0 -0.33773362937706508 0.058109203286609047 0 -0.34467628773160258 0.068943552874552061 0 -0.32522550257001381 0.085314451198393579 0 -0.34467628773160258 0.068943552874552061 0 -0.32522550257001381 0.085314451198393579 0 -0.34048815855518499 0.088930376001817135 0 -0.33571579606724672 0.096074590957376832 0 -0.32522550257001381 0.085314451198393579 0 -0.34048815855518499 0.088930376001817135 0 -0.39587414850767771 0.48209350728525308 0 -0.4246095660297679 0.49550093226822961 0 -0.3534751275836413 0.49999999999999878 0 -0.4246095660297679 0.49550093226822961 0 -0.43460803688680738 0.5 0 -0.3534751275836413 0.49999999999999878 0 -0.39587414850767771 0.48209350728525308 0 -0.37606570410381668 0.47366176847889557 0 -0.3534751275836413 0.49999999999999878 0 -0.39587414850767771 0.48209350728525308 0 -0.41273422942354338 0.48373000849199221 0 -0.40849540009959551 0.47651198387563498 0 -0.39587414850767771 0.48209350728525308 0 -0.3996498817311348 0.46074658372735239 0 -0.40849540009959551 0.47651198387563498 0 -0.39587414850767771 0.48209350728525308 0 -0.37606570410381668 0.47366176847889557 0 -0.3996498817311348 0.46074658372735239 0 -0.37722236811798338 0.46009136062209011 0 -0.38224190079936271 0.45006820067963232 0 -0.3996498817311348 0.46074658372735239 0 -0.37606570410381668 0.47366176847889557 0 -0.37722236811798338 0.46009136062209011 0 -0.3996498817311348 0.46074658372735239 0 -0.37722236811798338 0.46009136062209011 0 -0.38224190079936271 0.45006820067963232 0 -0.36982508649130652 0.45078168270744129 0 -0.38224190079936271 0.45006820067963232 0 -0.38478163890223388 0.44195167273689873 0 -0.37717856875035488 0.43646572130173161 0 -0.38224190079936271 0.45006820067963232 0 -0.38478163890223388 0.44195167273689873 0 -0.392783844087498 0.44712937912087741 0 -0.38478163890223388 0.44195167273689873 0 -0.392783844087498 0.44712937912087741 0 -0.38545621583256351 0.43256317926760163 0 -0.40475265770424662 0.44273224841968578 0 -0.38545621583256351 0.43256317926760163 0 -0.40475265770424662 0.44273224841968578 0 -0.392783844087498 0.44712937912087741 0 -0.38545621583256351 0.43256317926760163 0 -0.40475265770424662 0.44273224841968578 0 -0.392783844087498 0.44712937912087741 0 -0.3996498817311348 0.46074658372735239 0 -0.38224190079936271 0.45006820067963232 0 -0.392783844087498 0.44712937912087741 0 -0.3996498817311348 0.46074658372735239 0 -0.40475265770424662 0.44273224841968578 0 -0.3996498817311348 0.46074658372735239 0 -0.41260118742847002 0.4591617697880373 0 -0.38224190079936271 0.45006820067963232 0 -0.3996498817311348 0.46074658372735239 0 -0.3996498817311348 0.46074658372735239 0 -0.41705786266290701 0.47142496677507267 0 -0.3996498817311348 0.46074658372735239 0 -0.41260118742847002 0.4591617697880373 0 -0.41705786266290701 0.47142496677507267 0 -0.41260118742847002 0.4591617697880373 0 -0.42404909957592901 0.45290131757177132 0 -0.42433233267478132 0.46236191720032888 0 -0.41260118742847002 0.4591617697880373 0 -0.42433233267478132 0.46236191720032888 0 -0.41705786266290701 0.47142496677507267 0 -0.40475265770424662 0.44273224841968578 0 -0.42169110792396192 0.44280865114861362 0 -0.42404909957592901 0.45290131757177132 0 -0.40475265770424662 0.44273224841968578 0 -0.42404909957592901 0.45290131757177132 0 -0.40475265770424662 0.44273224841968578 0 -0.41260118742847002 0.4591617697880373 0 -0.42404909957592901 0.45290131757177132 0 -0.40475265770424662 0.44273224841968578 0 -0.42169110792396192 0.44280865114861362 0 -0.42167403783228991 0.43387995240292998 0 -0.42169110792396192 0.44280865114861362 0 -0.43256859531976771 0.44130543801670707 0 -0.42167403783228991 0.43387995240292998 0 -0.42169110792396192 0.44280865114861362 0 -0.42404909957592901 0.45290131757177132 0 -0.43256859531976771 0.44130543801670707 0 -0.42404909957592901 0.45290131757177132 0 -0.43256859531976771 0.44130543801670707 0 -0.43709915379447778 0.45371404382176528 0 -0.43709915379447778 0.45371404382176528 0 -0.43085435991212279 0.47460748804499753 0 -0.42433233267478132 0.46236191720032888 0 -0.43709915379447778 0.45371404382176528 0 -0.43085435991212279 0.47460748804499753 0 -0.42404909957592901 0.45290131757177132 0 -0.42433233267478132 0.46236191720032888 0 -0.43709915379447778 0.45371404382176528 0 -0.43085435991212279 0.47460748804499753 0 -0.42093848738124823 0.48048492800007481 0 -0.4246095660297679 0.49550093226822961 0 -0.43085435991212279 0.47460748804499753 0 -0.41705786266290701 0.47142496677507267 0 -0.42093848738124823 0.48048492800007481 0 -0.42433233267478132 0.46236191720032888 0 -0.43085435991212279 0.47460748804499753 0 -0.41705786266290701 0.47142496677507267 0 -0.41705786266290701 0.47142496677507267 0 -0.42093848738124823 0.48048492800007481 0 -0.40849540009959551 0.47651198387563498 0 -0.3996498817311348 0.46074658372735239 0 -0.41705786266290701 0.47142496677507267 0 -0.40849540009959551 0.47651198387563498 0 -0.42093848738124823 0.48048492800007481 0 -0.41273422942354338 0.48373000849199221 0 -0.40849540009959551 0.47651198387563498 0 -0.39587414850767771 0.48209350728525308 0 -0.41273422942354338 0.48373000849199221 0 -0.4246095660297679 0.49550093226822961 0 -0.42093848738124823 0.48048492800007481 0 -0.41273422942354338 0.48373000849199221 0 -0.4246095660297679 0.49550093226822961 0 -0.43085435991212279 0.47460748804499753 0 -0.4246095660297679 0.49550093226822961 0 -0.44359231273650979 0.48715639585560111 0 -0.4246095660297679 0.49550093226822961 0 -0.43460803688680738 0.5 0 -0.44359231273650979 0.48715639585560111 0 -0.43085435991212279 0.47460748804499753 0 -0.4246095660297679 0.49550093226822961 0 -0.43460803688680738 0.5 0 -0.44359231273650979 0.48715639585560111 0 -0.47179615636825523 0.48406193358053851 0 -0.43460803688680738 0.5 0 -0.47179615636825523 0.48406193358053851 0 -0.5 0.5 0 -0.43085435991212279 0.47460748804499753 0 -0.44359231273650979 0.48715639585560111 0 -0.44904327903594038 0.47589847328777579 0 -0.43085435991212279 0.47460748804499753 0 -0.44904327903594038 0.47589847328777579 0 -0.44503874418950079 0.4651511422224876 0 -0.44904327903594038 0.47589847328777579 0 -0.45565785419169641 0.46746222216158062 0 -0.44503874418950079 0.4651511422224876 0 -0.44904327903594038 0.47589847328777579 0 -0.47179615636825523 0.48406193358053851 0 -0.45565785419169641 0.46746222216158062 0 -0.47179615636825523 0.48406193358053851 0 -0.46998256701841551 0.46548133535631558 0 -0.45565785419169641 0.46746222216158062 0 -0.44359231273650979 0.48715639585560111 0 -0.44904327903594038 0.47589847328777579 0 -0.47179615636825523 0.48406193358053851 0 -0.44359231273650979 0.48715639585560111 0 -0.47179615636825523 0.48406193358053851 0 -0.47179615636825523 0.48406193358053851 0 -0.46998256701841551 0.46548133535631558 0 -0.48427253490423072 0.46769902061928392 0 -0.47179615636825523 0.48406193358053851 0 -0.50000000000000056 0.48096747130547601 0 -0.47179615636825523 0.48406193358053851 0 -0.50000000000000056 0.48096747130547601 0 -0.48427253490423072 0.46769902061928392 0 -0.47179615636825523 0.48406193358053851 0 -0.50000000000000056 0.48096747130547601 0 -0.5 0.5 0 -0.5 0.45281384566077187 0 -0.47380771698999419 0.44885237990829419 0 -0.48161906589270942 0.43147248004860927 0 -0.50000000000000056 0.48096747130547601 0 -0.5 0.45281384566077187 0 -0.48427253490423072 0.46769902061928392 0 -0.5 0.45281384566077187 0 -0.48427253490423072 0.46769902061928392 0 -0.47380771698999419 0.44885237990829419 0 -0.46998256701841551 0.46548133535631558 0 -0.48427253490423072 0.46769902061928392 0 -0.47380771698999419 0.44885237990829419 0 -0.47380771698999419 0.44885237990829419 0 -0.46901671851684951 0.43290530803738753 0 -0.48161906589270942 0.43147248004860927 0 -0.47380771698999419 0.44885237990829419 0 -0.46113466569365003 0.44082862444857429 0 -0.46901671851684951 0.43290530803738753 0 -0.47380771698999419 0.44885237990829419 0 -0.46113466569365003 0.44082862444857429 0 -0.45340059012245792 0.45354689150948169 0 -0.46113466569365003 0.44082862444857429 0 -0.45340059012245792 0.45354689150948169 0 -0.45211506636646381 0.44377325232024301 0 -0.46113466569365003 0.44082862444857429 0 -0.45211506636646381 0.44377325232024301 0 -0.45440318380967248 0.43695247064246079 0 -0.46998256701841551 0.46548133535631558 0 -0.47380771698999419 0.44885237990829419 0 -0.45340059012245792 0.45354689150948169 0 -0.46998256701841551 0.46548133535631558 0 -0.45340059012245792 0.45354689150948169 0 -0.45565785419169641 0.46746222216158062 0 -0.43709915379447778 0.45371404382176528 0 -0.45340059012245792 0.45354689150948169 0 -0.44503874418950079 0.4651511422224876 0 -0.43709915379447778 0.45371404382176528 0 -0.43085435991212279 0.47460748804499753 0 -0.44503874418950079 0.4651511422224876 0 -0.45340059012245792 0.45354689150948169 0 -0.45565785419169641 0.46746222216158062 0 -0.44503874418950079 0.4651511422224876 0 -0.43709915379447778 0.45371404382176528 0 -0.44334394767683138 0.4328205995985327 0 -0.43709915379447778 0.45371404382176528 0 -0.45340059012245792 0.45354689150948169 0 -0.44542372487108189 0.44604276775770552 0 -0.43709915379447778 0.45371404382176528 0 -0.44542372487108189 0.44604276775770552 0 -0.44334394767683138 0.4328205995985327 0 -0.43256859531976771 0.44130543801670707 0 -0.43709915379447778 0.45371404382176528 0 -0.44334394767683138 0.4328205995985327 0 -0.4470732206024291 0.43840322825959821 0 -0.45211506636646381 0.44377325232024301 0 -0.44542372487108189 0.44604276775770552 0 -0.4470732206024291 0.43840322825959821 0 -0.45211506636646381 0.44377325232024301 0 -0.45440318380967248 0.43695247064246079 0 -0.45340059012245792 0.45354689150948169 0 -0.45211506636646381 0.44377325232024301 0 -0.44542372487108189 0.44604276775770552 0 -0.4470732206024291 0.43840322825959821 0 -0.44542372487108189 0.44604276775770552 0 -0.44334394767683138 0.4328205995985327 0 -0.44334394767683138 0.4328205995985327 0 -0.44960658442649709 0.41186745781603251 0 -0.44334394767683138 0.4328205995985327 0 -0.4528990152817633 0.4239547785911425 0 -0.44960658442649709 0.41186745781603251 0 -0.4470732206024291 0.43840322825959821 0 -0.44334394767683138 0.4328205995985327 0 -0.44334394767683138 0.4328205995985327 0 -0.4528990152817633 0.4239547785911425 0 -0.45198936895215391 0.43108225617267493 0 -0.4470732206024291 0.43840322825959821 0 -0.44334394767683138 0.4328205995985327 0 -0.45198936895215391 0.43108225617267493 0 -0.4470732206024291 0.43840322825959821 0 -0.45198936895215391 0.43108225617267493 0 -0.45440318380967248 0.43695247064246079 0 -0.44809933733896912 0.40302973668424841 0 -0.42934858052233738 0.41186988363927901 0 -0.44960658442649709 0.41186745781603251 0 -0.44809933733896912 0.40302973668424841 0 -0.42934858052233738 0.41186988363927901 0 -0.44334394767683138 0.4328205995985327 0 -0.44960658442649709 0.41186745781603251 0 -0.42934858052233738 0.41186988363927901 0 -0.46010826796430981 0.41545055030207811 0 -0.47159940222510771 0.4212617849999718 0 -0.47440121776686051 0.40458844431137547 0 -0.44960658442649709 0.41186745781603251 0 -0.46010826796430981 0.41545055030207811 0 -0.46160428817681792 0.40351347489606881 0 -0.4528990152817633 0.4239547785911425 0 -0.44960658442649709 0.41186745781603251 0 -0.46010826796430981 0.41545055030207811 0 -0.46010826796430981 0.41545055030207811 0 -0.45976472858280099 0.42859239857736109 0 -0.47159940222510771 0.4212617849999718 0 -0.46010826796430981 0.41545055030207811 0 -0.47440121776686051 0.40458844431137547 0 -0.46160428817681792 0.40351347489606881 0 -0.46113466569365003 0.44082862444857429 0 -0.45440318380967248 0.43695247064246079 0 -0.45976472858280099 0.42859239857736109 0 -0.45198936895215391 0.43108225617267493 0 -0.45440318380967248 0.43695247064246079 0 -0.45976472858280099 0.42859239857736109 0 -0.4528990152817633 0.4239547785911425 0 -0.46010826796430981 0.41545055030207811 0 -0.45976472858280099 0.42859239857736109 0 -0.4528990152817633 0.4239547785911425 0 -0.45198936895215391 0.43108225617267493 0 -0.45976472858280099 0.42859239857736109 0 -0.45976472858280099 0.42859239857736109 0 -0.46901671851684951 0.43290530803738753 0 -0.47159940222510771 0.4212617849999718 0 -0.46113466569365003 0.44082862444857429 0 -0.45976472858280099 0.42859239857736109 0 -0.46901671851684951 0.43290530803738753 0 -0.48161906589270942 0.43147248004860927 0 -0.47159940222510771 0.4212617849999718 0 -0.48616990929982362 0.41534658070683012 0 -0.46901671851684951 0.43290530803738753 0 -0.48161906589270942 0.43147248004860927 0 -0.47159940222510771 0.4212617849999718 0 -0.47159940222510771 0.4212617849999718 0 -0.48616990929982362 0.41534658070683012 0 -0.47440121776686051 0.40458844431137547 0 -0.48616990929982362 0.41534658070683012 0 -0.5 0.42466022001606779 0 -0.5 0.39650659437136399 0 -0.5 0.45281384566077187 0 -0.48161906589270942 0.43147248004860927 0 -0.5 0.42466022001606779 0 -0.48161906589270942 0.43147248004860927 0 -0.48616990929982362 0.41534658070683012 0 -0.5 0.42466022001606779 0 -0.5 0.39650659437136399 0 -0.47718790589269738 0.38586032735699782 0 -0.49999999999999822 0.36835296872666018 0 -0.48616990929982362 0.41534658070683012 0 -0.5 0.39650659437136399 0 -0.47440121776686051 0.40458844431137547 0 -0.5 0.39650659437136399 0 -0.47440121776686051 0.40458844431137547 0 -0.47718790589269738 0.38586032735699782 0 -0.47440121776686051 0.40458844431137547 0 -0.47718790589269738 0.38586032735699782 0 -0.46621519599951411 0.39275491153772218 0 -0.47718790589269738 0.38586032735699782 0 -0.46201334698503321 0.37889799509063737 0 -0.47355516811839271 0.36425402420609448 0 -0.46201334698503321 0.37889799509063737 0 -0.45586922117616152 0.39091431603353188 0 -0.44557880415563422 0.38038898027784729 0 -0.46201334698503321 0.37889799509063737 0 -0.46621519599951411 0.39275491153772218 0 -0.45586922117616152 0.39091431603353188 0 -0.47718790589269738 0.38586032735699782 0 -0.46201334698503321 0.37889799509063737 0 -0.46621519599951411 0.39275491153772218 0 -0.44960658442649709 0.41186745781603251 0 -0.46160428817681792 0.40351347489606881 0 -0.45586922117616152 0.39091431603353188 0 -0.47440121776686051 0.40458844431137547 0 -0.46160428817681792 0.40351347489606881 0 -0.46621519599951411 0.39275491153772218 0 -0.46160428817681792 0.40351347489606881 0 -0.46621519599951411 0.39275491153772218 0 -0.45586922117616152 0.39091431603353188 0 -0.44960658442649709 0.41186745781603251 0 -0.45586922117616152 0.39091431603353188 0 -0.44809933733896912 0.40302973668424841 0 -0.44960658442649709 0.41186745781603251 0 -0.45586922117616152 0.39091431603353188 0 -0.45586922117616152 0.39091431603353188 0 -0.44809933733896912 0.40302973668424841 0 -0.44398421454236431 0.39220301952157771 0 -0.44809933733896912 0.40302973668424841 0 -0.44398421454236431 0.39220301952157771 0 -0.43488536825659008 0.39896128102100442 0 -0.45586922117616152 0.39091431603353188 0 -0.44398421454236431 0.39220301952157771 0 -0.44557880415563422 0.38038898027784729 0 -0.44398421454236431 0.39220301952157771 0 -0.44557880415563422 0.38038898027784729 0 -0.43334897886905838 0.38707198217106259 0 -0.44557880415563422 0.38038898027784729 0 -0.43334897886905838 0.38707198217106259 0 -0.42810100534158663 0.37398848971860821 0 -0.43334897886905838 0.38707198217106259 0 -0.41610538552338888 0.39204515065776818 0 -0.42810100534158663 0.37398848971860821 0 -0.41610538552338888 0.39204515065776818 0 -0.40286219052443828 0.37222041767625891 0 -0.42810100534158663 0.37398848971860821 0 -0.41610538552338888 0.39204515065776818 0 -0.40286219052443828 0.37222041767625891 0 -0.41610538552338888 0.39204515065776818 0 -0.40036473353264851 0.39541167524765902 0 -0.40286219052443828 0.37222041767625891 0 -0.41610538552338888 0.39204515065776818 0 -0.40740239817745089 0.4222165314534414 0 -0.40036473353264851 0.39541167524765902 0 -0.43334897886905838 0.38707198217106259 0 -0.41610538552338888 0.39204515065776818 0 -0.43488536825659008 0.39896128102100442 0 -0.41610538552338888 0.39204515065776818 0 -0.42934858052233738 0.41186988363927901 0 -0.41610538552338888 0.39204515065776818 0 -0.43488536825659008 0.39896128102100442 0 -0.42934858052233738 0.41186988363927901 0 -0.44809933733896912 0.40302973668424841 0 -0.43488536825659008 0.39896128102100442 0 -0.42934858052233738 0.41186988363927901 0 -0.44398421454236431 0.39220301952157771 0 -0.43334897886905838 0.38707198217106259 0 -0.43488536825659008 0.39896128102100442 0 -0.44334394767683138 0.4328205995985327 0 -0.42934858052233738 0.41186988363927901 0 -0.4324758617574791 0.43030488960998009 0 -0.42934858052233738 0.41186988363927901 0 -0.4324758617574791 0.43030488960998009 0 -0.42386178258839008 0.42400698186878177 0 -0.44334394767683138 0.4328205995985327 0 -0.42934858052233738 0.41186988363927901 0 -0.43256859531976771 0.44130543801670707 0 -0.44334394767683138 0.4328205995985327 0 -0.4324758617574791 0.43030488960998009 0 -0.4324758617574791 0.43030488960998009 0 -0.42386178258839008 0.42400698186878177 0 -0.42167403783228991 0.43387995240292998 0 -0.43256859531976771 0.44130543801670707 0 -0.4324758617574791 0.43030488960998009 0 -0.42167403783228991 0.43387995240292998 0 -0.42386178258839008 0.42400698186878177 0 -0.40740239817745089 0.4222165314534414 0 -0.42167403783228991 0.43387995240292998 0 -0.40475265770424662 0.44273224841968578 0 -0.40740239817745089 0.4222165314534414 0 -0.42167403783228991 0.43387995240292998 0 -0.42934858052233738 0.41186988363927901 0 -0.40740239817745089 0.4222165314534414 0 -0.42934858052233738 0.41186988363927901 0 -0.42386178258839008 0.42400698186878177 0 -0.40740239817745089 0.4222165314534414 0 -0.41610538552338888 0.39204515065776818 0 -0.42934858052233738 0.41186988363927901 0 -0.40740239817745089 0.4222165314534414 0 -0.40740239817745089 0.4222165314534414 0 -0.39100452383692991 0.40648545672669101 0 -0.3827523434658453 0.41826117133637652 0 -0.40740239817745089 0.4222165314534414 0 -0.39100452383692991 0.40648545672669101 0 -0.40036473353264851 0.39541167524765902 0 -0.40740239817745089 0.4222165314534414 0 -0.38545621583256351 0.43256317926760163 0 -0.40740239817745089 0.4222165314534414 0 -0.38545621583256351 0.43256317926760163 0 -0.3827523434658453 0.41826117133637652 0 -0.40475265770424662 0.44273224841968578 0 -0.40740239817745089 0.4222165314534414 0 -0.38545621583256351 0.43256317926760163 0 -0.38545621583256351 0.43256317926760163 0 -0.3827523434658453 0.41826117133637652 0 -0.36785192000822192 0.42328585742754588 0 -0.38545621583256351 0.43256317926760163 0 -0.36785192000822192 0.42328585742754588 0 -0.38545621583256351 0.43256317926760163 0 -0.37717856875035488 0.43646572130173161 0 -0.36785192000822192 0.42328585742754588 0 -0.38478163890223388 0.44195167273689873 0 -0.38545621583256351 0.43256317926760163 0 -0.37717856875035488 0.43646572130173161 0 -0.38545621583256351 0.43256317926760163 0 -0.37717856875035488 0.43646572130173161 0 -0.39100452383692991 0.40648545672669101 0 -0.3827523434658453 0.41826117133637652 0 -0.3798144567514633 0.40772155113995728 0 -0.3827523434658453 0.41826117133637652 0 -0.3798144567514633 0.40772155113995728 0 -0.36984470262962321 0.41265242782660189 0 -0.39100452383692991 0.40648545672669101 0 -0.3798144567514633 0.40772155113995728 0 -0.3867137524410672 0.38688217771584499 0 -0.3798144567514633 0.40772155113995728 0 -0.3867137524410672 0.38688217771584499 0 -0.3705653143576963 0.40154393775543129 0 -0.3867137524410672 0.38688217771584499 0 -0.3705653143576963 0.40154393775543129 0 -0.3867137524410672 0.38688217771584499 0 -0.40036473353264851 0.39541167524765902 0 -0.40286219052443828 0.37222041767625891 0 -0.3867137524410672 0.38688217771584499 0 -0.40286219052443828 0.37222041767625891 0 -0.3888982630442025 0.36590048581888218 0 -0.3867137524410672 0.38688217771584499 0 -0.40286219052443828 0.37222041767625891 0 -0.39100452383692991 0.40648545672669101 0 -0.3867137524410672 0.38688217771584499 0 -0.40036473353264851 0.39541167524765902 0 -0.40452535483654473 0.35355441468790599 0 -0.40513774515659717 0.3517922532406651 0 -0.38838520531790771 0.35105269421084939 0 -0.40513774515659717 0.3517922532406651 0 -0.38838520531790771 0.35105269421084939 0 -0.40096674788558628 0.34226624247182402 0 -0.40452535483654473 0.35355441468790599 0 -0.38838520531790771 0.35105269421084939 0 -0.39638885933713669 0.35885594300994089 0 -0.40452535483654473 0.35355441468790599 0 -0.38838520531790771 0.35105269421084939 0 -0.39638885933713669 0.35885594300994089 0 -0.3888982630442025 0.36590048581888218 0 -0.38838520531790771 0.35105269421084939 0 -0.39638885933713669 0.35885594300994089 0 -0.40452535483654473 0.35355441468790599 0 -0.40400165056791348 0.36112635213978639 0 -0.40400165056791348 0.36112635213978639 0 -0.39915538488354912 0.36667142198066771 0 -0.40286219052443828 0.37222041767625891 0 -0.39638885933713669 0.35885594300994089 0 -0.40400165056791348 0.36112635213978639 0 -0.39915538488354912 0.36667142198066771 0 -0.39915538488354912 0.36667142198066771 0 -0.40286219052443828 0.37222041767625891 0 -0.39915538488354912 0.36667142198066771 0 -0.40286219052443828 0.37222041767625891 0 -0.3888982630442025 0.36590048581888218 0 -0.39638885933713669 0.35885594300994089 0 -0.39915538488354912 0.36667142198066771 0 -0.3888982630442025 0.36590048581888218 0 -0.3867137524410672 0.38688217771584499 0 -0.3888982630442025 0.36590048581888218 0 -0.37519100471246991 0.3709854683288385 0 -0.3888982630442025 0.36590048581888218 0 -0.37519100471246991 0.3709854683288385 0 -0.37672549974694008 0.35622492463845878 0 -0.37672549974694008 0.35622492463845878 0 -0.38838520531790771 0.35105269421084939 0 -0.37913388308317869 0.33980033822586803 0 -0.3888982630442025 0.36590048581888218 0 -0.37672549974694008 0.35622492463845878 0 -0.38838520531790771 0.35105269421084939 0 -0.38838520531790771 0.35105269421084939 0 -0.37913388308317869 0.33980033822586803 0 -0.39362240827528772 0.33490398907415808 0 -0.3788145725477623 0.32633067759603118 0 -0.39362240827528772 0.33490398907415808 0 -0.37913388308317869 0.33980033822586803 0 -0.3788145725477623 0.32633067759603118 0 -0.39362240827528772 0.33490398907415808 0 -0.3788145725477623 0.32633067759603118 0 -0.38876715518139049 0.31878710207299171 0 -0.39362240827528772 0.33490398907415808 0 -0.37578149950171208 0.31311525499370502 0 -0.3788145725477623 0.32633067759603118 0 -0.38876715518139049 0.31878710207299171 0 -0.38876715518139049 0.31878710207299171 0 -0.40240558776230201 0.32701863013441079 0 -0.39362240827528772 0.33490398907415808 0 -0.38876715518139049 0.31878710207299171 0 -0.40240558776230201 0.32701863013441079 0 -0.40457359345530219 0.31146894366726913 0 -0.40513774515659717 0.3517922532406651 0 -0.40096674788558628 0.34226624247182402 0 -0.40932412850863459 0.33501089179464472 0 -0.38838520531790771 0.35105269421084939 0 -0.39362240827528772 0.33490398907415808 0 -0.40096674788558628 0.34226624247182402 0 -0.40240558776230201 0.32701863013441079 0 -0.40096674788558628 0.34226624247182402 0 -0.40932412850863459 0.33501089179464472 0 -0.40240558776230201 0.32701863013441079 0 -0.39362240827528772 0.33490398907415808 0 -0.40096674788558628 0.34226624247182402 0 -0.42472931721170898 0.33130129278301362 0 -0.42403274106079941 0.34432604134370942 0 -0.41452766950518899 0.34800263451576507 0 -0.40513774515659717 0.3517922532406651 0 -0.42472931721170898 0.33130129278301362 0 -0.41452766950518899 0.34800263451576507 0 -0.40513774515659717 0.3517922532406651 0 -0.40932412850863459 0.33501089179464472 0 -0.42472931721170898 0.33130129278301362 0 -0.40513774515659717 0.3517922532406651 0 -0.42472931721170898 0.33130129278301362 0 -0.40240558776230201 0.32701863013441079 0 -0.40932412850863459 0.33501089179464472 0 -0.41455490886051499 0.32557050574830021 0 -0.40932412850863459 0.33501089179464472 0 -0.41455490886051499 0.32557050574830021 0 -0.42472931721170898 0.33130129278301362 0 -0.41455490886051499 0.32557050574830021 0 -0.43219845517123362 0.32348926982994008 0 -0.40457359345530219 0.31146894366726913 0 -0.43219845517123362 0.32348926982994008 0 -0.40457359345530219 0.31146894366726913 0 -0.42790797361430749 0.31450024276589378 0 -0.43219845517123362 0.32348926982994008 0 -0.40457359345530219 0.31146894366726913 0 -0.40240558776230201 0.32701863013441079 0 -0.41455490886051499 0.32557050574830021 0 -0.40457359345530219 0.31146894366726913 0 -0.42790797361430749 0.31450024276589378 0 -0.44432088926682312 0.31081033232536431 0 -0.41455490886051499 0.32557050574830021 0 -0.43219845517123362 0.32348926982994008 0 -0.42472931721170898 0.33130129278301362 0 -0.42790797361430749 0.31450024276589378 0 -0.43219845517123362 0.32348926982994008 0 -0.44432088926682312 0.31081033232536431 0 -0.43219845517123362 0.32348926982994008 0 -0.42472931721170898 0.33130129278301362 0 -0.43219845517123362 0.32348926982994008 0 -0.42472931721170898 0.33130129278301362 0 -0.43861783033176682 0.3281141633673893 0 -0.42472931721170898 0.33130129278301362 0 -0.43620847317111799 0.34194410291109811 0 -0.42403274106079941 0.34432604134370942 0 -0.42472931721170898 0.33130129278301362 0 -0.43620847317111799 0.34194410291109811 0 -0.43861783033176682 0.3281141633673893 0 -0.4206655043551818 0.35605613516496148 0 -0.4471103362367872 0.36015507968552862 0 -0.43620847317111799 0.34194410291109811 0 -0.4206655043551818 0.35605613516496148 0 -0.4471103362367872 0.36015507968552862 0 -0.43620847317111799 0.34194410291109811 0 -0.42403274106079941 0.34432604134370942 0 -0.4206655043551818 0.35605613516496148 0 -0.43620847317111799 0.34194410291109811 0 -0.4206655043551818 0.35605613516496148 0 -0.40452535483654473 0.35355441468790599 0 -0.4206655043551818 0.35605613516496148 0 -0.42403274106079941 0.34432604134370942 0 -0.41452766950518899 0.34800263451576507 0 -0.4206655043551818 0.35605613516496148 0 -0.40452535483654473 0.35355441468790599 0 -0.41452766950518899 0.34800263451576507 0 -0.4206655043551818 0.35605613516496148 0 -0.40452535483654473 0.35355441468790599 0 -0.40400165056791348 0.36112635213978639 0 -0.4206655043551818 0.35605613516496148 0 -0.40452535483654473 0.35355441468790599 0 -0.40513774515659717 0.3517922532406651 0 -0.41452766950518899 0.34800263451576507 0 -0.40286219052443828 0.37222041767625891 0 -0.4206655043551818 0.35605613516496148 0 -0.40400165056791348 0.36112635213978639 0 -0.40286219052443828 0.37222041767625891 0 -0.4206655043551818 0.35605613516496148 0 -0.40286219052443828 0.37222041767625891 0 -0.4206655043551818 0.35605613516496148 0 -0.42810100534158663 0.37398848971860821 0 -0.4206655043551818 0.35605613516496148 0 -0.42810100534158663 0.37398848971860821 0 -0.4471103362367872 0.36015507968552862 0 -0.44557880415563422 0.38038898027784729 0 -0.42810100534158663 0.37398848971860821 0 -0.4471103362367872 0.36015507968552862 0 -0.46201334698503321 0.37889799509063737 0 -0.44557880415563422 0.38038898027784729 0 -0.4471103362367872 0.36015507968552862 0 -0.43620847317111799 0.34194410291109811 0 -0.4471103362367872 0.36015507968552862 0 -0.45970474012504142 0.34492472233680482 0 -0.4471103362367872 0.36015507968552862 0 -0.45970474012504142 0.34492472233680482 0 -0.47355516811839271 0.36425402420609448 0 -0.46201334698503321 0.37889799509063737 0 -0.4471103362367872 0.36015507968552862 0 -0.47355516811839271 0.36425402420609448 0 -0.4471103362367872 0.36015507968552862 0 -0.47355516811839271 0.36425402420609448 0 -0.47718790589269738 0.38586032735699782 0 -0.47355516811839271 0.36425402420609448 0 -0.49999999999999822 0.36835296872666018 0 -0.45970474012504142 0.34492472233680482 0 -0.47355516811839271 0.36425402420609448 0 -0.47341281624267928 0.34679689426055099 0 -0.47355516811839271 0.36425402420609448 0 -0.47341281624267928 0.34679689426055099 0 -0.48679711890909522 0.34714343418128107 0 -0.47355516811839271 0.36425402420609448 0 -0.48679711890909522 0.34714343418128107 0 -0.50000000000000144 0.36342147204453917 0 -0.48679711890909522 0.34714343418128107 0 -0.50000000000000144 0.36342147204453917 0 -0.5 0.34171187956590382 0 -0.48679711890909522 0.34714343418128107 0 -0.50000000000000144 0.36342147204453917 0 -0.47355516811839271 0.36425402420609448 0 -0.49999999999999822 0.36835296872666018 0 -0.47355516811839271 0.36425402420609448 0 -0.50000000000000144 0.36342147204453917 0 -0.49999999999999822 0.36835296872666018 0 -0.48443722932495759 0.31687542255032519 0 -0.5 0.32000228708726852 0 -0.48883788148227758 0.33122239323792391 0 -0.5 0.32000228708726852 0 -0.5 0.34171187956590382 0 -0.48883788148227758 0.33122239323792391 0 -0.48679711890909522 0.34714343418128107 0 -0.5 0.34171187956590382 0 -0.48883788148227758 0.33122239323792391 0 -0.48679711890909522 0.34714343418128107 0 -0.47359423781818799 0.3308653963180237 0 -0.45970474012504142 0.34492472233680482 0 -0.47341281624267928 0.34679689426055099 0 -0.47359423781818799 0.3308653963180237 0 -0.48679711890909522 0.34714343418128107 0 -0.48883788148227758 0.33122239323792391 0 -0.47359423781818799 0.3308653963180237 0 -0.47341281624267928 0.34679689426055099 0 -0.48679711890909522 0.34714343418128107 0 -0.47359423781818799 0.3308653963180237 0 -0.47359423781818799 0.3308653963180237 0 -0.47264581712595938 0.31671992269752891 0 -0.46039135672728082 0.31458735845476632 0 -0.48443722932495759 0.31687542255032519 0 -0.48883788148227758 0.33122239323792391 0 -0.47359423781818799 0.3308653963180237 0 -0.48443722932495759 0.31687542255032519 0 -0.47359423781818799 0.3308653963180237 0 -0.47264581712595938 0.31671992269752891 0 -0.48443722932495759 0.31687542255032519 0 -0.47264581712595938 0.31671992269752891 0 -0.47216044463341161 0.30455151346700049 0 -0.47359423781818799 0.3308653963180237 0 -0.46039135672728082 0.31458735845476632 0 -0.47359423781818799 0.3308653963180237 0 -0.46039135672728082 0.31458735845476632 0 -0.4608992614356977 0.32901526121317798 0 -0.46039135672728082 0.31458735845476632 0 -0.4608992614356977 0.32901526121317798 0 -0.44921264167741631 0.32840092545007737 0 -0.45970474012504142 0.34492472233680482 0 -0.4608992614356977 0.32901526121317798 0 -0.44921264167741631 0.32840092545007737 0 -0.45970474012504142 0.34492472233680482 0 -0.47359423781818799 0.3308653963180237 0 -0.4608992614356977 0.32901526121317798 0 -0.43620847317111799 0.34194410291109811 0 -0.45970474012504142 0.34492472233680482 0 -0.44921264167741631 0.32840092545007737 0 -0.43620847317111799 0.34194410291109811 0 -0.44921264167741631 0.32840092545007737 0 -0.43861783033176682 0.3281141633673893 0 -0.43219845517123362 0.32348926982994008 0 -0.43861783033176682 0.3281141633673893 0 -0.44432088926682312 0.31081033232536431 0 -0.46039135672728082 0.31458735845476632 0 -0.44921264167741631 0.32840092545007737 0 -0.44432088926682312 0.31081033232536431 0 -0.44921264167741631 0.32840092545007737 0 -0.43861783033176682 0.3281141633673893 0 -0.44432088926682312 0.31081033232536431 0 -0.43219845517123362 0.32348926982994008 0 -0.44432088926682312 0.31081033232536431 0 -0.44432088926682312 0.31081033232536431 0 -0.44371650413511771 0.29965447911541598 0 -0.43274424350808799 0.30058458220218709 0 -0.44432088926682312 0.31081033232536431 0 -0.44371650413511771 0.29965447911541598 0 -0.4552527322472365 0.29937664228707311 0 -0.44432088926682312 0.31081033232536431 0 -0.4552527322472365 0.29937664228707311 0 -0.44371650413511771 0.29965447911541598 0 -0.44254815151832222 0.28784635964703581 0 -0.43274424350808799 0.30058458220218709 0 -0.44371650413511771 0.29965447911541598 0 -0.44254815151832222 0.28784635964703581 0 -0.4552527322472365 0.29937664228707311 0 -0.44254815151832222 0.28784635964703581 0 -0.46618457522765222 0.28794295224878402 0 -0.4552527322472365 0.29937664228707311 0 -0.44254815151832222 0.28784635964703581 0 -0.46618457522765222 0.28794295224878402 0 -0.45348778201163131 0.27623694993016462 0 -0.44254815151832222 0.28784635964703581 0 -0.46618457522765222 0.28794295224878402 0 -0.46618457522765222 0.28794295224878402 0 -0.4552527322472365 0.29937664228707311 0 -0.46039135672728082 0.31458735845476632 0 -0.44432088926682312 0.31081033232536431 0 -0.47216044463341161 0.30455151346700049 0 -0.44432088926682312 0.31081033232536431 0 -0.47216044463341161 0.30455151346700049 0 -0.44432088926682312 0.31081033232536431 0 -0.4552527322472365 0.29937664228707311 0 -0.47216044463341161 0.30455151346700049 0 -0.46618457522765222 0.28794295224878402 0 -0.4552527322472365 0.29937664228707311 0 -0.47216044463341161 0.30455151346700049 0 -0.47264581712595938 0.31671992269752891 0 -0.46039135672728082 0.31458735845476632 0 -0.47216044463341161 0.30455151346700049 0 -0.46618457522765222 0.28794295224878402 0 -0.47216044463341161 0.30455151346700049 0 -0.48309228761382561 0.28801204730094082 0 -0.46618457522765222 0.28794295224878402 0 -0.48309228761382561 0.28801204730094082 0 -0.48309228761382877 0.27025905914618381 0 -0.46618457522765222 0.28794295224878402 0 -0.48309228761382561 0.28801204730094082 0 -0.48309228761382561 0.28801204730094082 0 -0.49999999999999889 0.2880811423530974 0 -0.49999999999999922 0.29829269460863311 0 -0.48309228761382561 0.28801204730094082 0 -0.49999999999999889 0.2880811423530974 0 -0.49154614380691353 0.27917010074964033 0 -0.48309228761382561 0.28801204730094082 0 -0.49999999999999889 0.2880811423530974 0 -0.47216044463341161 0.30455151346700049 0 -0.48309228761382561 0.28801204730094082 0 -0.49999999999999922 0.29829269460863311 0 -0.48443722932495759 0.31687542255032519 0 -0.5 0.32000228708726852 0 -0.49999999999999922 0.29829269460863311 0 -0.47216044463341161 0.30455151346700049 0 -0.49999999999999922 0.29829269460863311 0 -0.48443722932495759 0.31687542255032519 0 -0.47216044463341161 0.30455151346700049 0 -0.49999999999999922 0.29829269460863311 0 -0.50000000000000355 0.25257516604358171 0 -0.48309228761382877 0.27025905914618381 0 -0.50000000000000355 0.25257516604358171 0 -0.48309228761382877 0.27025905914618381 0 -0.47243170773416598 0.25252131008609718 0 -0.50000000000000355 0.25257516604358171 0 -0.5 0.27032815419833961 0 -0.48309228761382877 0.27025905914618381 0 -0.48309228761382561 0.28801204730094082 0 -0.49154614380691353 0.27917010074964033 0 -0.48309228761382877 0.27025905914618381 0 -0.49999999999999889 0.2880811423530974 0 -0.5 0.27032815419833961 0 -0.49154614380691353 0.27917010074964033 0 -0.5 0.27032815419833961 0 -0.49154614380691353 0.27917010074964033 0 -0.48309228761382877 0.27025905914618381 0 -0.46618457522765222 0.28794295224878402 0 -0.48309228761382877 0.27025905914618381 0 -0.46668787323784527 0.27080963386168561 0 -0.46618457522765222 0.28794295224878402 0 -0.48309228761382877 0.27025905914618381 0 -0.48309228761382877 0.27025905914618381 0 -0.47243170773416598 0.25252131008609718 0 -0.46668787323784527 0.27080963386168561 0 -0.47243170773416598 0.25252131008609718 0 -0.45447176510546028 0.26210261842800259 0 -0.46668787323784527 0.27080963386168561 0 -0.46618457522765222 0.28794295224878402 0 -0.46668787323784527 0.27080963386168561 0 -0.45348778201163131 0.27623694993016462 0 -0.45447176510546028 0.26210261842800259 0 -0.46668787323784527 0.27080963386168561 0 -0.45348778201163131 0.27623694993016462 0 -0.44254815151832222 0.28784635964703581 0 -0.45348778201163131 0.27623694993016462 0 -0.43566092072063228 0.2699905457307174 0 -0.45447176510546028 0.26210261842800259 0 -0.45348778201163131 0.27623694993016462 0 -0.43566092072063228 0.2699905457307174 0 -0.45447176510546028 0.26210261842800259 0 -0.43846763777347608 0.25139159902730851 0 -0.43566092072063228 0.2699905457307174 0 -0.43846763777347608 0.25139159902730851 0 -0.42186070460899672 0.25309052481387179 0 -0.43566092072063228 0.2699905457307174 0 -0.42186070460899672 0.25309052481387179 0 -0.41750954834922988 0.27017538504522087 0 -0.43566092072063228 0.2699905457307174 0 -0.4058641186269526 0.24719101802337209 0 -0.42186070460899672 0.25309052481387179 0 -0.40083419185370128 0.26677943909652108 0 -0.42186070460899672 0.25309052481387179 0 -0.41750954834922988 0.27017538504522087 0 -0.40083419185370128 0.26677943909652108 0 -0.41750954834922988 0.27017538504522087 0 -0.40093657290758961 0.28661841219936829 0 -0.40083419185370128 0.26677943909652108 0 -0.41750954834922988 0.27017538504522087 0 -0.43566092072063228 0.2699905457307174 0 -0.41891172780899222 0.28774976704528749 0 -0.44254815151832222 0.28784635964703581 0 -0.43566092072063228 0.2699905457307174 0 -0.41891172780899222 0.28774976704528749 0 -0.44254815151832222 0.28784635964703581 0 -0.41891172780899222 0.28774976704528749 0 -0.44254815151832222 0.28784635964703581 0 -0.43274424350808799 0.30058458220218709 0 -0.41891172780899222 0.28774976704528749 0 -0.42790797361430749 0.31450024276589378 0 -0.44432088926682312 0.31081033232536431 0 -0.43274424350808799 0.30058458220218709 0 -0.43274424350808799 0.30058458220218709 0 -0.41850050413787648 0.30277602932034992 0 -0.41891172780899222 0.28774976704528749 0 -0.42790797361430749 0.31450024276589378 0 -0.43274424350808799 0.30058458220218709 0 -0.41850050413787648 0.30277602932034992 0 -0.41850050413787648 0.30277602932034992 0 -0.40093657290758961 0.28661841219936829 0 -0.40457359345530219 0.31146894366726913 0 -0.42790797361430749 0.31450024276589378 0 -0.41850050413787648 0.30277602932034992 0 -0.40457359345530219 0.31146894366726913 0 -0.41750954834922988 0.27017538504522087 0 -0.41891172780899222 0.28774976704528749 0 -0.40093657290758961 0.28661841219936829 0 -0.41850050413787648 0.30277602932034992 0 -0.41891172780899222 0.28774976704528749 0 -0.40093657290758961 0.28661841219936829 0 -0.40457359345530219 0.31146894366726913 0 -0.37740526954597697 0.29988511697237552 0 -0.40093657290758961 0.28661841219936829 0 -0.40457359345530219 0.31146894366726913 0 -0.37740526954597697 0.29988511697237552 0 -0.38876715518139049 0.31878710207299171 0 -0.40457359345530219 0.31146894366726913 0 -0.37740526954597697 0.29988511697237552 0 -0.37578149950171208 0.31311525499370502 0 -0.38876715518139049 0.31878710207299171 0 -0.37740526954597697 0.29988511697237552 0 -0.37740526954597697 0.29988511697237552 0 -0.38255970199057582 0.28326929796902273 0 -0.36781326237388512 0.28424507279515338 0 -0.40093657290758961 0.28661841219936829 0 -0.37740526954597697 0.29988511697237552 0 -0.38255970199057582 0.28326929796902273 0 -0.38255970199057582 0.28326929796902273 0 -0.38731087667428082 0.27028903193159992 0 -0.37144618940786778 0.27264003028858419 0 -0.40093657290758961 0.28661841219936829 0 -0.38255970199057582 0.28326929796902273 0 -0.38731087667428082 0.27028903193159992 0 -0.38731087667428082 0.27028903193159992 0 -0.37627277756599359 0.25576698107499612 0 -0.37144618940786778 0.27264003028858419 0 -0.38890999743407823 0.2427193981317495 0 -0.37627277756599359 0.25576698107499612 0 -0.39181582631995732 0.25666003096110762 0 -0.38731087667428082 0.27028903193159992 0 -0.37627277756599359 0.25576698107499612 0 -0.39181582631995732 0.25666003096110762 0 -0.38731087667428082 0.27028903193159992 0 -0.39181582631995732 0.25666003096110762 0 -0.40083419185370128 0.26677943909652108 0 -0.4058641186269526 0.24719101802337209 0 -0.39181582631995732 0.25666003096110762 0 -0.40083419185370128 0.26677943909652108 0 -0.40093657290758961 0.28661841219936829 0 -0.38731087667428082 0.27028903193159992 0 -0.40083419185370128 0.26677943909652108 0 -0.35023694563665198 0.28830129027748203 0 -0.34115527656511913 0.26912753122311178 0 -0.3577765426805905 0.27576787636115602 0 -0.3589477142039037 0.26180195300715509 0 -0.34115527656511913 0.26912753122311178 0 -0.3577765426805905 0.27576787636115602 0 -0.35023694563665198 0.28830129027748203 0 -0.34115527656511913 0.26912753122311178 0 -0.34824261657673289 0.24684003078997019 0 -0.3589477142039037 0.26180195300715509 0 -0.34115527656511913 0.26912753122311178 0 -0.34824261657673289 0.24684003078997019 0 -0.36292965957869022 0.24700153722895329 0 -0.3589477142039037 0.26180195300715509 0 -0.36292965957869022 0.24700153722895329 0 -0.37627277756599359 0.25576698107499612 0 -0.3589477142039037 0.26180195300715509 0 -0.37627277756599359 0.25576698107499612 0 -0.3589477142039037 0.26180195300715509 0 -0.37144618940786778 0.27264003028858419 0 -0.3577765426805905 0.27576787636115602 0 -0.3589477142039037 0.26180195300715509 0 -0.37144618940786778 0.27264003028858419 0 -0.3577765426805905 0.27576787636115602 0 -0.37144618940786778 0.27264003028858419 0 -0.36781326237388512 0.28424507279515338 0 -0.38255970199057582 0.28326929796902273 0 -0.37144618940786778 0.27264003028858419 0 -0.36781326237388512 0.28424507279515338 0 -0.37740526954597697 0.29988511697237552 0 -0.36781326237388512 0.28424507279515338 0 -0.35023694563665198 0.28830129027748203 0 -0.37740526954597697 0.29988511697237552 0 -0.35023694563665198 0.28830129027748203 0 -0.37740526954597697 0.29988511697237552 0 -0.35709243412567682 0.30304314677720418 0 -0.35023694563665198 0.28830129027748203 0 -0.37578149950171208 0.31311525499370502 0 -0.37740526954597697 0.29988511697237552 0 -0.35709243412567682 0.30304314677720418 0 -0.37578149950171208 0.31311525499370502 0 -0.35709243412567682 0.30304314677720418 0 -0.36400673682023688 0.31775736611790389 0 -0.35709243412567682 0.30304314677720418 0 -0.36400673682023688 0.31775736611790389 0 -0.35709243412567682 0.30304314677720418 0 -0.3444992345986792 0.30646308275448292 0 -0.36400673682023688 0.31775736611790389 0 -0.3444992345986792 0.30646308275448292 0 -0.36400673682023688 0.31775736611790389 0 -0.35709243412567682 0.30304314677720418 0 -0.34813351616335581 0.29789210333375371 0 -0.3444992345986792 0.30646308275448292 0 -0.34813351616335581 0.29789210333375371 0 -0.3444992345986792 0.30646308275448292 0 -0.34070545029241528 0.29376089352584578 0 -0.3444992345986792 0.30646308275448292 0 -0.351052017028814 0.31540627098667767 0 -0.34532581149395131 0.3130827004918989 0 -0.3577765426805905 0.27576787636115602 0 -0.36781326237388512 0.28424507279515338 0 -0.35023694563665198 0.28830129027748203 0 -0.35709243412567682 0.30304314677720418 0 -0.35023694563665198 0.28830129027748203 0 -0.35709243412567682 0.30304314677720418 0 -0.34813351616335581 0.29789210333375371 0 -0.35023694563665198 0.28830129027748203 0 -0.34813351616335581 0.29789210333375371 0 -0.35023694563665198 0.28830129027748203 0 -0.34070545029241528 0.29376089352584578 0 -0.34070545029241528 0.29376089352584578 0 -0.33529009231047052 0.28213215458023211 0 -0.32499173237712159 0.29516879939106172 0 -0.35023694563665198 0.28830129027748203 0 -0.34070545029241528 0.29376089352584578 0 -0.33529009231047052 0.28213215458023211 0 -0.3444992345986792 0.30646308275448292 0 -0.32688830354676129 0.30683168260340521 0 -0.32499173237712159 0.29516879939106172 0 -0.3444992345986792 0.30646308275448292 0 -0.32499173237712159 0.29516879939106172 0 -0.3444992345986792 0.30646308275448292 0 -0.34033680093529323 0.3108945386121843 0 -0.32688830354676129 0.30683168260340521 0 -0.3444992345986792 0.30646308275448292 0 -0.34070545029241528 0.29376089352584578 0 -0.32499173237712159 0.29516879939106172 0 -0.3444992345986792 0.30646308275448292 0 -0.34033680093529323 0.3108945386121843 0 -0.34532581149395131 0.3130827004918989 0 -0.31611652273877461 0.29791372018525958 0 -0.3128306593774417 0.30780996527884852 0 -0.30861864703865222 0.29078205514389821 0 -0.32688830354676129 0.30683168260340521 0 -0.3128306593774417 0.30780996527884852 0 -0.32304672373342191 0.32232603545831301 0 -0.32688830354676129 0.30683168260340521 0 -0.31611652273877461 0.29791372018525958 0 -0.32499173237712159 0.29516879939106172 0 -0.32688830354676129 0.30683168260340521 0 -0.31611652273877461 0.29791372018525958 0 -0.3128306593774417 0.30780996527884852 0 -0.33529009231047052 0.28213215458023211 0 -0.32272624059089872 0.28224728311081981 0 -0.32499173237712159 0.29516879939106172 0 -0.32272624059089872 0.28224728311081981 0 -0.32499173237712159 0.29516879939106172 0 -0.31846697777256622 0.28960038322154302 0 -0.31611652273877461 0.29791372018525958 0 -0.32499173237712159 0.29516879939106172 0 -0.31846697777256622 0.28960038322154302 0 -0.31611652273877461 0.29791372018525958 0 -0.31846697777256622 0.28960038322154302 0 -0.31244299861246178 0.28896833078018391 0 -0.31846697777256622 0.28960038322154302 0 -0.31605739454357429 0.28370378264039031 0 -0.31244299861246178 0.28896833078018391 0 -0.32272624059089872 0.28224728311081981 0 -0.31846697777256622 0.28960038322154302 0 -0.31605739454357429 0.28370378264039031 0 -0.31605739454357429 0.28370378264039031 0 -0.31244299861246178 0.28896833078018391 0 -0.31102576664501591 0.2812828250670425 0 -0.32272624059089872 0.28224728311081981 0 -0.31605739454357429 0.28370378264039031 0 -0.31325657699857379 0.27418829140685252 0 -0.31605739454357429 0.28370378264039031 0 -0.31325657699857379 0.27418829140685252 0 -0.31102576664501591 0.2812828250670425 0 -0.31325657699857379 0.27418829140685252 0 -0.32587706162660812 0.26805700104009672 0 -0.31519362659259781 0.25982261629526332 0 -0.32272624059089872 0.28224728311081981 0 -0.31325657699857379 0.27418829140685252 0 -0.32587706162660812 0.26805700104009672 0 -0.33529009231047052 0.28213215458023211 0 -0.32272624059089872 0.28224728311081981 0 -0.32587706162660812 0.26805700104009672 0 -0.35023694563665198 0.28830129027748203 0 -0.33529009231047052 0.28213215458023211 0 -0.34115527656511913 0.26912753122311178 0 -0.33529009231047052 0.28213215458023211 0 -0.32587706162660812 0.26805700104009672 0 -0.34115527656511913 0.26912753122311178 0 -0.33213242169912183 0.24992613500971911 0 -0.34115527656511913 0.26912753122311178 0 -0.33213242169912183 0.24992613500971911 0 -0.32587706162660812 0.26805700104009672 0 -0.34115527656511913 0.26912753122311178 0 -0.34824261657673289 0.24684003078997019 0 -0.33213242169912183 0.24992613500971911 0 -0.34115527656511913 0.26912753122311178 0 -0.33213242169912183 0.24992613500971911 0 -0.30846245916933263 0.2451797241646857 0 -0.31519362659259781 0.25982261629526332 0 -0.33213242169912183 0.24992613500971911 0 -0.32587706162660812 0.26805700104009672 0 -0.31519362659259781 0.25982261629526332 0 -0.28924369278351397 0.24685883917450829 0 -0.30846245916933263 0.2451797241646857 0 -0.29915910949743851 0.26353543308035182 0 -0.30846245916933263 0.2451797241646857 0 -0.31519362659259781 0.25982261629526332 0 -0.29915910949743851 0.26353543308035182 0 -0.31325657699857379 0.27418829140685252 0 -0.29915910949743851 0.26353543308035182 0 -0.30322896420061962 0.28074858152769949 0 -0.29915910949743851 0.26353543308035182 0 -0.30322896420061962 0.28074858152769949 0 -0.29190860569478971 0.27678046567888659 0 -0.31325657699857379 0.27418829140685252 0 -0.31519362659259781 0.25982261629526332 0 -0.29915910949743851 0.26353543308035182 0 -0.31325657699857379 0.27418829140685252 0 -0.30322896420061962 0.28074858152769949 0 -0.31102576664501591 0.2812828250670425 0 -0.29915910949743851 0.26353543308035182 0 -0.29190860569478971 0.27678046567888659 0 -0.27894375475268302 0.27357869090854747 0 -0.29190860569478971 0.27678046567888659 0 -0.2770608724549985 0.27532776734952041 0 -0.30115032756820909 0.29071185552831408 0 -0.29190860569478971 0.27678046567888659 0 -0.27894375475268302 0.27357869090854747 0 -0.2770608724549985 0.27532776734952041 0 -0.28924369278351397 0.24685883917450829 0 -0.29915910949743851 0.26353543308035182 0 -0.27057909361132693 0.25823596006253607 0 -0.29915910949743851 0.26353543308035182 0 -0.27057909361132693 0.25823596006253607 0 -0.29915910949743851 0.26353543308035182 0 -0.27057909361132693 0.25823596006253607 0 -0.27894375475268302 0.27357869090854747 0 -0.2770608724549985 0.27532776734952041 0 -0.25952997509010678 0.26413212719712081 0 -0.27057909361132693 0.25823596006253607 0 -0.27894375475268302 0.27357869090854747 0 -0.2770608724549985 0.27532776734952041 0 -0.27057909361132693 0.25823596006253607 0 -0.2770608724549985 0.27532776734952041 0 -0.25952997509010678 0.26413212719712081 0 -0.27894375475268302 0.27357869090854747 0 -0.2770608724549985 0.27532776734952041 0 -0.2770608724549985 0.27532776734952041 0 -0.25952997509010678 0.26413212719712081 0 -0.25612174437497598 0.29477886934581687 0 -0.25952997509010678 0.26413212719712081 0 -0.25612174437497598 0.29477886934581687 0 -0.24013215390960629 0.27688613297126707 0 -0.27057909361132693 0.25823596006253607 0 -0.2419990777252152 0.25293648704472099 0 -0.25825314838481339 0.2425458797231245 0 -0.27057909361132693 0.25823596006253607 0 -0.2419990777252152 0.25293648704472099 0 -0.25952997509010678 0.26413212719712081 0 -0.2419990777252152 0.25293648704472099 0 -0.27057909361132693 0.25823596006253607 0 -0.25952997509010678 0.26413212719712081 0 -0.2419990777252152 0.25293648704472099 0 -0.26361768802922342 0.31212406153912858 0 -0.25612174437497598 0.29477886934581687 0 -0.23436961135623169 0.31498520059168772 0 -0.26361768802922342 0.31212406153912858 0 -0.25612174437497598 0.29477886934581687 0 -0.27258965791741868 0.29151054676198002 0 -0.2770608724549985 0.27532776734952041 0 -0.27258965791741868 0.29151054676198002 0 -0.28611816753393748 0.30145305834151293 0 -0.2770608724549985 0.27532776734952041 0 -0.25612174437497598 0.29477886934581687 0 -0.27258965791741868 0.29151054676198002 0 -0.2770608724549985 0.27532776734952041 0 -0.25612174437497598 0.29477886934581687 0 -0.26361768802922342 0.31212406153912858 0 -0.27258965791741868 0.29151054676198002 0 -0.28611816753393748 0.30145305834151293 0 -0.26361768802922342 0.31212406153912858 0 -0.28611816753393748 0.30145305834151293 0 -0.26361768802922342 0.31212406153912858 0 -0.28611816753393748 0.30145305834151293 0 -0.28190370938614318 0.31852221847294188 0 -0.2770608724549985 0.27532776734952041 0 -0.28611816753393748 0.30145305834151293 0 -0.30115032756820909 0.29071185552831408 0 -0.2770608724549985 0.27532776734952041 0 -0.30115032756820909 0.29071185552831408 0 -0.28611816753393748 0.30145305834151293 0 -0.30115032756820909 0.29071185552831408 0 -0.30861864703865222 0.29078205514389821 0 -0.28611816753393748 0.30145305834151293 0 -0.30861864703865222 0.29078205514389821 0 -0.30322896420061962 0.28074858152769949 0 -0.30115032756820909 0.29071185552831408 0 -0.30615257798896878 0.28717199236562518 0 -0.30322896420061962 0.28074858152769949 0 -0.29190860569478971 0.27678046567888659 0 -0.30115032756820909 0.29071185552831408 0 -0.31611652273877461 0.29791372018525958 0 -0.30861864703865222 0.29078205514389821 0 -0.31244299861246178 0.28896833078018391 0 -0.30861864703865222 0.29078205514389821 0 -0.30931283375884261 0.28890787624351011 0 -0.31244299861246178 0.28896833078018391 0 -0.30861864703865222 0.29078205514389821 0 -0.31244299861246178 0.28896833078018391 0 -0.30861864703865222 0.29078205514389821 0 -0.30931283375884261 0.28890787624351011 0 -0.30115032756820909 0.29071185552831408 0 -0.30861864703865222 0.29078205514389821 0 -0.30615257798896878 0.28717199236562518 0 -0.30615257798896878 0.28717199236562518 0 -0.30931283375884261 0.28890787624351011 0 -0.30845211737852068 0.28470959338470531 0 -0.30861864703865222 0.29078205514389821 0 -0.30615257798896878 0.28717199236562518 0 -0.30931283375884261 0.28890787624351011 0 -0.30931283375884261 0.28890787624351011 0 -0.31244299861246178 0.28896833078018391 0 -0.30845211737852068 0.28470959338470531 0 -0.31244299861246178 0.28896833078018391 0 -0.31102576664501591 0.2812828250670425 0 -0.30845211737852068 0.28470959338470531 0 -0.30322896420061962 0.28074858152769949 0 -0.31102576664501591 0.2812828250670425 0 -0.30845211737852068 0.28470959338470531 0 -0.30322896420061962 0.28074858152769949 0 -0.30615257798896878 0.28717199236562518 0 -0.30845211737852068 0.28470959338470531 0 -0.28611816753393748 0.30145305834151293 0 -0.30861864703865222 0.29078205514389821 0 -0.29854260818416711 0.31798554214723529 0 -0.30861864703865222 0.29078205514389821 0 -0.29854260818416711 0.31798554214723529 0 -0.3128306593774417 0.30780996527884852 0 -0.30861864703865222 0.29078205514389821 0 -0.29854260818416711 0.31798554214723529 0 -0.3128306593774417 0.30780996527884852 0 -0.29854260818416711 0.31798554214723529 0 -0.32304672373342191 0.32232603545831301 0 -0.29854260818416711 0.31798554214723529 0 -0.30575664653155071 0.33375753230444172 0 -0.32304672373342191 0.32232603545831301 0 -0.30575664653155071 0.33375753230444172 0 -0.28846656932968029 0.34518902915057159 0 -0.3041054378257747 0.35153638994353797 0 -0.30575664653155071 0.33375753230444172 0 -0.28846656932968029 0.34518902915057159 0 -0.29854260818416711 0.31798554214723529 0 -0.30575664653155071 0.33375753230444172 0 -0.28846656932968029 0.34518902915057159 0 -0.29854260818416711 0.31798554214723529 0 -0.28846656932968029 0.34518902915057159 0 -0.28611816753393748 0.30145305834151293 0 -0.29854260818416711 0.31798554214723529 0 -0.28190370938614318 0.31852221847294188 0 -0.29854260818416711 0.31798554214723529 0 -0.28190370938614318 0.31852221847294188 0 -0.28846656932968029 0.34518902915057159 0 -0.26361768802922342 0.31212406153912858 0 -0.28190370938614318 0.31852221847294188 0 -0.27206742811597701 0.33013049889133689 0 -0.28190370938614318 0.31852221847294188 0 -0.27206742811597701 0.33013049889133689 0 -0.28846656932968029 0.34518902915057159 0 -0.27206742811597701 0.33013049889133689 0 -0.2681619949663539 0.34773943884959019 0 -0.28846656932968029 0.34518902915057159 0 -0.27206742811597701 0.33013049889133689 0 -0.2631791069261773 0.33765391847382609 0 -0.2681619949663539 0.34773943884959019 0 -0.2631791069261773 0.33765391847382609 0 -0.25230409672890253 0.33574309273892178 0 -0.25909234631111477 0.32649215728561137 0 -0.27206742811597701 0.33013049889133689 0 -0.2631791069261773 0.33765391847382609 0 -0.25909234631111477 0.32649215728561137 0 -0.25230409672890253 0.33574309273892178 0 -0.25909234631111477 0.32649215728561137 0 -0.24111720852450971 0.32279506473674557 0 -0.2631791069261773 0.33765391847382609 0 -0.25230409672890253 0.33574309273892178 0 -0.2634909849332957 0.34869112074109782 0 -0.25230409672890253 0.33574309273892178 0 -0.2634909849332957 0.34869112074109782 0 -0.26361768802922342 0.31212406153912858 0 -0.27206742811597701 0.33013049889133689 0 -0.25909234631111477 0.32649215728561137 0 -0.26361768802922342 0.31212406153912858 0 -0.25909234631111477 0.32649215728561137 0 -0.24111720852450971 0.32279506473674557 0 -0.26361768802922342 0.31212406153912858 0 -0.24111720852450971 0.32279506473674557 0 -0.2620274014018274 0.36010090915767551 0 -0.26028792276529711 0.383831650878519 0 -0.2620274014018274 0.36010090915767551 0 -0.26827366003954672 0.37161780368733821 0 -0.26028792276529711 0.383831650878519 0 -0.2620274014018274 0.36010090915767551 0 -0.25290804108530268 0.3738556417100492 0 -0.26028792276529711 0.383831650878519 0 -0.2620274014018274 0.36010090915767551 0 -0.26410600543883272 0.36129524464265589 0 -0.26827366003954672 0.37161780368733821 0 -0.2620274014018274 0.36010090915767551 0 -0.26410600543883272 0.36129524464265589 0 -0.26327584899804768 0.35821787545842598 0 -0.2620274014018274 0.36010090915767551 0 -0.25290804108530268 0.3738556417100492 0 -0.2620274014018274 0.36010090915767551 0 -0.25290804108530268 0.3738556417100492 0 -0.25013698891243169 0.36042207492819578 0 -0.2620274014018274 0.36010090915767551 0 -0.25013698891243169 0.36042207492819578 0 -0.25638881925187118 0.35499186180119519 0 -0.25013698891243169 0.36042207492819578 0 -0.25638881925187118 0.35499186180119519 0 -0.24931110960080999 0.34956578338164179 0 -0.25638881925187118 0.35499186180119519 0 -0.25718509976155501 0.34956746112504511 0 -0.24931110960080999 0.34956578338164179 0 -0.25230409672890253 0.33574309273892178 0 -0.25718509976155501 0.34956746112504511 0 -0.2634909849332957 0.34869112074109782 0 -0.25230409672890253 0.33574309273892178 0 -0.25718509976155501 0.34956746112504511 0 -0.24931110960080999 0.34956578338164179 0 -0.2631791069261773 0.33765391847382609 0 -0.2634909849332957 0.34869112074109782 0 -0.2681619949663539 0.34773943884959019 0 -0.25718509976155501 0.34956746112504511 0 -0.2634909849332957 0.34869112074109782 0 -0.26254802102246583 0.35299838458921629 0 -0.2634909849332957 0.34869112074109782 0 -0.26254802102246583 0.35299838458921629 0 -0.2681619949663539 0.34773943884959019 0 -0.26254802102246583 0.35299838458921629 0 -0.26327584899804768 0.35821787545842598 0 -0.2681619949663539 0.34773943884959019 0 -0.26410600543883272 0.36129524464265589 0 -0.26327584899804768 0.35821787545842598 0 -0.2681619949663539 0.34773943884959019 0 -0.2620274014018274 0.36010090915767551 0 -0.25638881925187118 0.35499186180119519 0 -0.26254802102246583 0.35299838458921629 0 -0.25638881925187118 0.35499186180119519 0 -0.25718509976155501 0.34956746112504511 0 -0.26254802102246583 0.35299838458921629 0 -0.2620274014018274 0.36010090915767551 0 -0.26254802102246583 0.35299838458921629 0 -0.2620274014018274 0.36010090915767551 0 -0.26254802102246583 0.35299838458921629 0 -0.26327584899804768 0.35821787545842598 0 -0.2620274014018274 0.36010090915767551 0 -0.26327584899804768 0.35821787545842598 0 -0.26410600543883272 0.36129524464265589 0 -0.2681619949663539 0.34773943884959019 0 -0.28846656932968029 0.34518902915057159 0 -0.27521347850747579 0.36153214594551819 0 -0.28000767922184272 0.36802650630150652 0 -0.28846656932968029 0.34518902915057159 0 -0.26410600543883272 0.36129524464265589 0 -0.27521347850747579 0.36153214594551819 0 -0.28846656932968029 0.34518902915057159 0 -0.26410600543883272 0.36129524464265589 0 -0.28846656932968029 0.34518902915057159 0 -0.27521347850747579 0.36153214594551819 0 -0.26827366003954672 0.37161780368733821 0 -0.28000767922184272 0.36802650630150652 0 -0.26410600543883272 0.36129524464265589 0 -0.27521347850747579 0.36153214594551819 0 -0.26827366003954672 0.37161780368733821 0 -0.28000767922184272 0.36802650630150652 0 -0.28846656932968029 0.34518902915057159 0 -0.2969182424431504 0.37090505478451319 0 -0.28000767922184272 0.36802650630150652 0 -0.28846656932968029 0.34518902915057159 0 -0.28846656932968029 0.34518902915057159 0 -0.3041054378257747 0.35153638994353797 0 -0.2969182424431504 0.37090505478451319 0 -0.30575664653155071 0.33375753230444172 0 -0.3041054378257747 0.35153638994353797 0 -0.31642343812736118 0.34606288319997758 0 -0.3041054378257747 0.35153638994353797 0 -0.31296229269712961 0.36176745027818508 0 -0.31642343812736118 0.34606288319997758 0 -0.2969182424431504 0.37090505478451319 0 -0.31296229269712961 0.36176745027818508 0 -0.31513637375938253 0.38444066485979828 0 -0.3041054378257747 0.35153638994353797 0 -0.2969182424431504 0.37090505478451319 0 -0.31296229269712961 0.36176745027818508 0 -0.31296229269712961 0.36176745027818508 0 -0.32978211621601938 0.36434258303214617 0 -0.31513637375938253 0.38444066485979828 0 -0.34764373191620562 0.36091067885718892 0 -0.33589885594156482 0.38644176117037271 0 -0.32978211621601938 0.36434258303214617 0 -0.34764373191620562 0.36091067885718892 0 -0.33589885594156482 0.38644176117037271 0 -0.32978211621601938 0.36434258303214617 0 -0.33249508292647689 0.34343527267675139 0 -0.34764373191620562 0.36091067885718892 0 -0.33249508292647689 0.34343527267675139 0 -0.34774660372624711 0.33900961131040652 0 -0.34764373191620562 0.36091067885718892 0 -0.31296229269712961 0.36176745027818508 0 -0.32978211621601938 0.36434258303214617 0 -0.31642343812736118 0.34606288319997758 0 -0.32978211621601938 0.36434258303214617 0 -0.31642343812736118 0.34606288319997758 0 -0.33249508292647689 0.34343527267675139 0 -0.30575664653155071 0.33375753230444172 0 -0.31642343812736118 0.34606288319997758 0 -0.32304672373342191 0.32232603545831301 0 -0.31642343812736118 0.34606288319997758 0 -0.32304672373342191 0.32232603545831301 0 -0.33249508292647689 0.34343527267675139 0 -0.30575664653155071 0.33375753230444172 0 -0.32304672373342191 0.32232603545831301 0 -0.34033680093529323 0.3108945386121843 0 -0.32688830354676129 0.30683168260340521 0 -0.32304672373342191 0.32232603545831301 0 -0.34033680093529323 0.3108945386121843 0 -0.32304672373342191 0.32232603545831301 0 -0.33831408539238939 0.32823606731402988 0 -0.34033680093529323 0.3108945386121843 0 -0.33831408539238939 0.32823606731402988 0 -0.34541519341301891 0.31956690961425083 0 -0.34033680093529323 0.3108945386121843 0 -0.32304672373342191 0.32232603545831301 0 -0.34033680093529323 0.3108945386121843 0 -0.34532581149395131 0.3130827004918989 0 -0.34541519341301891 0.31956690961425083 0 -0.32304672373342191 0.32232603545831301 0 -0.33249508292647689 0.34343527267675139 0 -0.33831408539238939 0.32823606731402988 0 -0.33249508292647689 0.34343527267675139 0 -0.33831408539238939 0.32823606731402988 0 -0.34774660372624711 0.33900961131040652 0 -0.34774660372624711 0.33900961131040652 0 -0.35624387713182271 0.33226078983692442 0 -0.36393572936362911 0.3428684834504227 0 -0.34774660372624711 0.33900961131040652 0 -0.35624387713182271 0.33226078983692442 0 -0.34848262125113572 0.32769457727765772 0 -0.33831408539238939 0.32823606731402988 0 -0.34774660372624711 0.33900961131040652 0 -0.34848262125113572 0.32769457727765772 0 -0.35624387713182271 0.33226078983692442 0 -0.34848262125113572 0.32769457727765772 0 -0.35633036072664598 0.32494060448670198 0 -0.3444992345986792 0.30646308275448292 0 -0.35683516605591969 0.31729293706393341 0 -0.36400673682023688 0.31775736611790389 0 -0.3444992345986792 0.30646308275448292 0 -0.351052017028814 0.31540627098667767 0 -0.35683516605591969 0.31729293706393341 0 -0.351052017028814 0.31540627098667767 0 -0.34532581149395131 0.3130827004918989 0 -0.34541519341301891 0.31956690961425083 0 -0.351052017028814 0.31540627098667767 0 -0.34541519341301891 0.31956690961425083 0 -0.35162307169510681 0.32098025988584439 0 -0.33831408539238939 0.32823606731402988 0 -0.34541519341301891 0.31956690961425083 0 -0.34848262125113572 0.32769457727765772 0 -0.34541519341301891 0.31956690961425083 0 -0.34848262125113572 0.32769457727765772 0 -0.35162307169510681 0.32098025988584439 0 -0.34848262125113572 0.32769457727765772 0 -0.35633036072664598 0.32494060448670198 0 -0.35162307169510681 0.32098025988584439 0 -0.35633036072664598 0.32494060448670198 0 -0.35683516605591969 0.31729293706393341 0 -0.36095184795767687 0.32097028871907701 0 -0.35633036072664598 0.32494060448670198 0 -0.35162307169510681 0.32098025988584439 0 -0.35683516605591969 0.31729293706393341 0 -0.351052017028814 0.31540627098667767 0 -0.35162307169510681 0.32098025988584439 0 -0.35683516605591969 0.31729293706393341 0 -0.35683516605591969 0.31729293706393341 0 -0.36400673682023688 0.31775736611790389 0 -0.36095184795767687 0.32097028871907701 0 -0.36400673682023688 0.31775736611790389 0 -0.36537503389666781 0.32066921770948609 0 -0.36095184795767687 0.32097028871907701 0 -0.36400673682023688 0.31775736611790389 0 -0.36537503389666781 0.32066921770948609 0 -0.35633036072664598 0.32494060448670198 0 -0.36095184795767687 0.32097028871907701 0 -0.365995081839809 0.32948707576050512 0 -0.36537503389666781 0.32066921770948609 0 -0.36095184795767687 0.32097028871907701 0 -0.365995081839809 0.32948707576050512 0 -0.3788145725477623 0.32633067759603118 0 -0.36400673682023688 0.31775736611790389 0 -0.3788145725477623 0.32633067759603118 0 -0.36400673682023688 0.31775736611790389 0 -0.36537503389666781 0.32066921770948609 0 -0.3788145725477623 0.32633067759603118 0 -0.36537503389666781 0.32066921770948609 0 -0.365995081839809 0.32948707576050512 0 -0.37578149950171208 0.31311525499370502 0 -0.3788145725477623 0.32633067759603118 0 -0.36400673682023688 0.31775736611790389 0 -0.35624387713182271 0.33226078983692442 0 -0.35633036072664598 0.32494060448670198 0 -0.365995081839809 0.32948707576050512 0 -0.35624387713182271 0.33226078983692442 0 -0.36393572936362911 0.3428684834504227 0 -0.365995081839809 0.32948707576050512 0 -0.37913388308317869 0.33980033822586803 0 -0.3788145725477623 0.32633067759603118 0 -0.365995081839809 0.32948707576050512 0 -0.37913388308317869 0.33980033822586803 0 -0.36393572936362911 0.3428684834504227 0 -0.365995081839809 0.32948707576050512 0 -0.37672549974694008 0.35622492463845878 0 -0.37913388308317869 0.33980033822586803 0 -0.36393572936362911 0.3428684834504227 0 -0.37672549974694008 0.35622492463845878 0 -0.36393572936362911 0.3428684834504227 0 -0.36481504158517469 0.36290719650509867 0 -0.37519100471246991 0.3709854683288385 0 -0.37672549974694008 0.35622492463845878 0 -0.36481504158517469 0.36290719650509867 0 -0.37519100471246991 0.3709854683288385 0 -0.36481504158517469 0.36290719650509867 0 -0.36057924218662879 0.38354642725058452 0 -0.36481504158517469 0.36290719650509867 0 -0.34764373191620562 0.36091067885718892 0 -0.36057924218662879 0.38354642725058452 0 -0.34774660372624711 0.33900961131040652 0 -0.36393572936362911 0.3428684834504227 0 -0.34764373191620562 0.36091067885718892 0 -0.36393572936362911 0.3428684834504227 0 -0.36481504158517469 0.36290719650509867 0 -0.34764373191620562 0.36091067885718892 0 -0.35710293298350892 0.40294030475805531 0 -0.36057924218662879 0.38354642725058452 0 -0.34310604851199838 0.40050804040373339 0 -0.35710293298350892 0.40294030475805531 0 -0.3476787854432668 0.41265477830065223 0 -0.34310604851199838 0.40050804040373339 0 -0.34764373191620562 0.36091067885718892 0 -0.36057924218662879 0.38354642725058452 0 -0.33589885594156482 0.38644176117037271 0 -0.36057924218662879 0.38354642725058452 0 -0.34310604851199838 0.40050804040373339 0 -0.33589885594156482 0.38644176117037271 0 -0.3867137524410672 0.38688217771584499 0 -0.37519100471246991 0.3709854683288385 0 -0.36057924218662879 0.38354642725058452 0 -0.3867137524410672 0.38688217771584499 0 -0.36057924218662879 0.38354642725058452 0 -0.3705653143576963 0.40154393775543129 0 -0.35710293298350892 0.40294030475805531 0 -0.36057924218662879 0.38354642725058452 0 -0.3705653143576963 0.40154393775543129 0 -0.35710293298350892 0.40294030475805531 0 -0.3705653143576963 0.40154393775543129 0 -0.35441687627432628 0.4162056977950187 0 -0.3705653143576963 0.40154393775543129 0 -0.36984470262962321 0.41265242782660189 0 -0.35441687627432628 0.4162056977950187 0 -0.3798144567514633 0.40772155113995728 0 -0.3705653143576963 0.40154393775543129 0 -0.36984470262962321 0.41265242782660189 0 -0.3705653143576963 0.40154393775543129 0 -0.35441687627432628 0.4162056977950187 0 -0.3827523434658453 0.41826117133637652 0 -0.36984470262962321 0.41265242782660189 0 -0.36785192000822192 0.42328585742754588 0 -0.36984470262962321 0.41265242782660189 0 -0.36785192000822192 0.42328585742754588 0 -0.36785192000822192 0.42328585742754588 0 -0.35441687627432628 0.4162056977950187 0 -0.36984470262962321 0.41265242782660189 0 -0.36785192000822192 0.42328585742754588 0 -0.35441687627432628 0.4162056977950187 0 -0.36785192000822192 0.42328585742754588 0 -0.35840405020933419 0.42492678281148311 0 -0.35441687627432628 0.4162056977950187 0 -0.36785192000822192 0.42328585742754588 0 -0.35840405020933419 0.42492678281148311 0 -0.36483391986759101 0.43938981763191159 0 -0.36785192000822192 0.42328585742754588 0 -0.36483391986759101 0.43938981763191159 0 -0.37717856875035488 0.43646572130173161 0 -0.36785192000822192 0.42328585742754588 0 -0.36483391986759101 0.43938981763191159 0 -0.35081753161354018 0.43079190134805728 0 -0.36483391986759101 0.43938981763191159 0 -0.35840405020933419 0.42492678281148311 0 -0.35081753161354018 0.43079190134805728 0 -0.36483391986759101 0.43938981763191159 0 -0.35840405020933419 0.42492678281148311 0 -0.35081753161354018 0.43079190134805728 0 -0.35441687627432628 0.4162056977950187 0 -0.35441687627432628 0.4162056977950187 0 -0.33964677515101499 0.42961601508467567 0 -0.35081753161354018 0.43079190134805728 0 -0.35441687627432628 0.4162056977950187 0 -0.33964677515101499 0.42961601508467567 0 -0.35081753161354018 0.43079190134805728 0 -0.33964677515101499 0.42961601508467567 0 -0.34460848101734648 0.43787887615672372 0 -0.35081753161354018 0.43079190134805728 0 -0.34460848101734648 0.43787887615672372 0 -0.35329417083808762 0.44272955033713368 0 -0.35441687627432628 0.4162056977950187 0 -0.3476787854432668 0.41265477830065223 0 -0.33964677515101499 0.42961601508467567 0 -0.35710293298350892 0.40294030475805531 0 -0.35441687627432628 0.4162056977950187 0 -0.3476787854432668 0.41265477830065223 0 -0.35441687627432628 0.4162056977950187 0 -0.3476787854432668 0.41265477830065223 0 -0.3476787854432668 0.41265477830065223 0 -0.33199806346126393 0.42227960460212538 0 -0.33964677515101499 0.42961601508467567 0 -0.33199806346126393 0.42227960460212538 0 -0.32415397996692402 0.41197284348355628 0 -0.34310604851199838 0.40050804040373339 0 -0.3476787854432668 0.41265477830065223 0 -0.33199806346126393 0.42227960460212538 0 -0.34310604851199838 0.40050804040373339 0 -0.33199806346126393 0.42227960460212538 0 -0.33964677515101499 0.42961601508467567 0 -0.32487667402770459 0.44302633237433381 0 -0.33964677515101499 0.42961601508467567 0 -0.3367027099777144 0.44313791075801068 0 -0.34460848101734648 0.43787887615672372 0 -0.33964677515101499 0.42961601508467567 0 -0.32487667402770459 0.44302633237433381 0 -0.33199806346126393 0.42227960460212538 0 -0.31240910399228322 0.43750392579674002 0 -0.32487667402770459 0.44302633237433381 0 -0.32415397996692402 0.41197284348355628 0 -0.31240910399228322 0.43750392579674002 0 -0.32415397996692402 0.41197284348355628 0 -0.30739597146189029 0.42213535649593859 0 -0.31240910399228322 0.43750392579674002 0 -0.33199806346126393 0.42227960460212538 0 -0.32415397996692402 0.41197284348355628 0 -0.31240910399228322 0.43750392579674002 0 -0.32415397996692402 0.41197284348355628 0 -0.30725672201245108 0.40587634723818822 0 -0.30739597146189029 0.42213535649593859 0 -0.32415397996692402 0.41197284348355628 0 -0.33589885594156482 0.38644176117037271 0 -0.31513637375938253 0.38444066485979828 0 -0.32415397996692402 0.41197284348355628 0 -0.31513637375938253 0.38444066485979828 0 -0.30725672201245108 0.40587634723818822 0 -0.32415397996692402 0.41197284348355628 0 -0.33589885594156482 0.38644176117037271 0 -0.32415397996692402 0.41197284348355628 0 -0.34310604851199838 0.40050804040373339 0 -0.33589885594156482 0.38644176117037271 0 -0.32978211621601938 0.36434258303214617 0 -0.33589885594156482 0.38644176117037271 0 -0.31513637375938253 0.38444066485979828 0 -0.2969182424431504 0.37090505478451319 0 -0.31513637375938253 0.38444066485979828 0 -0.29898240703843809 0.38977861403162661 0 -0.31513637375938253 0.38444066485979828 0 -0.29898240703843809 0.38977861403162661 0 -0.30725672201245108 0.40587634723818822 0 -0.29898240703843809 0.38977861403162661 0 -0.30725672201245108 0.40587634723818822 0 -0.28836376322748097 0.40524005999358059 0 -0.29898240703843809 0.38977861403162661 0 -0.28836376322748097 0.40524005999358059 0 -0.27154878911400387 0.39086398345244089 0 -0.2969182424431504 0.37090505478451319 0 -0.29898240703843809 0.38977861403162661 0 -0.27154878911400387 0.39086398345244089 0 -0.28000767922184272 0.36802650630150652 0 -0.2969182424431504 0.37090505478451319 0 -0.27154878911400387 0.39086398345244089 0 -0.26827366003954672 0.37161780368733821 0 -0.27154878911400387 0.39086398345244089 0 -0.26028792276529711 0.383831650878519 0 -0.28000767922184272 0.36802650630150652 0 -0.27154878911400387 0.39086398345244089 0 -0.26827366003954672 0.37161780368733821 0 -0.28000767922184272 0.36802650630150652 0 -0.27154878911400387 0.39086398345244089 0 -0.27154878911400387 0.39086398345244089 0 -0.26260716915057719 0.41500474412007088 0 -0.27406892944141142 0.4079891850190322 0 -0.27154878911400387 0.39086398345244089 0 -0.26260716915057719 0.41500474412007088 0 -0.28836376322748097 0.40524005999358059 0 -0.27154878911400387 0.39086398345244089 0 -0.27406892944141142 0.4079891850190322 0 -0.27154878911400387 0.39086398345244089 0 -0.25854844412876848 0.40756239259936272 0 -0.26260716915057719 0.41500474412007088 0 -0.25854844412876848 0.40756239259936272 0 -0.24378868076877391 0.38761037426242018 0 -0.26028792276529711 0.383831650878519 0 -0.25854844412876848 0.40756239259936272 0 -0.24378868076877391 0.38761037426242018 0 -0.27154878911400387 0.39086398345244089 0 -0.26028792276529711 0.383831650878519 0 -0.25854844412876848 0.40756239259936272 0 -0.26028792276529711 0.383831650878519 0 -0.25854844412876848 0.40756239259936272 0 -0.25290804108530268 0.3738556417100492 0 -0.26028792276529711 0.383831650878519 0 -0.24378868076877391 0.38761037426242018 0 -0.25650706503281162 0.43541179474966613 0 -0.25804637789612622 0.41441180359152341 0 -0.25650706503281162 0.43541179474966613 0 -0.25059996062830647 0.42641743371929303 0 -0.25804637789612622 0.41441180359152341 0 -0.25876689418163368 0.42537279367958231 0 -0.25650706503281162 0.43541179474966613 0 -0.25804637789612622 0.41441180359152341 0 -0.25876689418163368 0.42537279367958231 0 -0.26544090832943301 0.43060703621748248 0 -0.2642079780894766 0.41521286250246908 0 -0.26544090832943301 0.43060703621748248 0 -0.25650706503281162 0.43541179474966613 0 -0.27012863850171509 0.44372989779681399 0 -0.25876689418163368 0.42537279367958231 0 -0.26544090832943301 0.43060703621748248 0 -0.25650706503281162 0.43541179474966613 0 -0.25059996062830647 0.42641743371929303 0 -0.25804637789612622 0.41441180359152341 0 -0.24299842589361209 0.42296427722315849 0 -0.25854844412876848 0.40756239259936272 0 -0.25804637789612622 0.41441180359152341 0 -0.25854844412876848 0.40756239259936272 0 -0.26260716915057719 0.41500474412007088 0 -0.25854844412876848 0.40756239259936272 0 -0.25804637789612622 0.41441180359152341 0 -0.26260716915057719 0.41500474412007088 0 -0.25876689418163368 0.42537279367958231 0 -0.26260716915057719 0.41500474412007088 0 -0.2642079780894766 0.41521286250246908 0 -0.25876689418163368 0.42537279367958231 0 -0.25804637789612622 0.41441180359152341 0 -0.26260716915057719 0.41500474412007088 0 -0.25876689418163368 0.42537279367958231 0 -0.26260716915057719 0.41500474412007088 0 -0.25804637789612622 0.41441180359152341 0 -0.26260716915057719 0.41500474412007088 0 -0.26260716915057719 0.41500474412007088 0 -0.2642079780894766 0.41521286250246908 0 -0.2642079780894766 0.41521286250246908 0 -0.2806297690639486 0.41734783094914069 0 -0.2642079780894766 0.41521286250246908 0 -0.27406892944141142 0.4079891850190322 0 -0.2806297690639486 0.41734783094914069 0 -0.26260716915057719 0.41500474412007088 0 -0.2642079780894766 0.41521286250246908 0 -0.27406892944141142 0.4079891850190322 0 -0.28836376322748097 0.40524005999358059 0 -0.27406892944141142 0.4079891850190322 0 -0.2806297690639486 0.41734783094914069 0 -0.2642079780894766 0.41521286250246908 0 -0.27759396584152762 0.43330783235888048 0 -0.2642079780894766 0.41521286250246908 0 -0.2806297690639486 0.41734783094914069 0 -0.27759396584152762 0.43330783235888048 0 -0.26544090832943301 0.43060703621748248 0 -0.2642079780894766 0.41521286250246908 0 -0.27759396584152762 0.43330783235888048 0 -0.26544090832943301 0.43060703621748248 0 -0.27759396584152762 0.43330783235888048 0 -0.27012863850171509 0.44372989779681399 0 -0.27759396584152762 0.43330783235888048 0 -0.2878459465608173 0.42649483231730739 0 -0.29610849129937239 0.435840866565397 0 -0.2806297690639486 0.41734783094914069 0 -0.27759396584152762 0.43330783235888048 0 -0.2878459465608173 0.42649483231730739 0 -0.2878459465608173 0.42649483231730739 0 -0.29610849129937239 0.435840866565397 0 -0.29705156003842059 0.41948279939581151 0 -0.2806297690639486 0.41734783094914069 0 -0.2878459465608173 0.42649483231730739 0 -0.29705156003842059 0.41948279939581151 0 -0.2806297690639486 0.41734783094914069 0 -0.29705156003842059 0.41948279939581151 0 -0.28836376322748097 0.40524005999358059 0 -0.2806297690639486 0.41734783094914069 0 -0.29705156003842059 0.41948279939581151 0 -0.30725672201245108 0.40587634723818822 0 -0.28836376322748097 0.40524005999358059 0 -0.29705156003842059 0.41948279939581151 0 -0.30725672201245108 0.40587634723818822 0 -0.29705156003842059 0.41948279939581151 0 -0.30739597146189029 0.42213535649593859 0 -0.29610849129937239 0.435840866565397 0 -0.29705156003842059 0.41948279939581151 0 -0.30739597146189029 0.42213535649593859 0 -0.29610849129937239 0.435840866565397 0 -0.30739597146189029 0.42213535649593859 0 -0.31240910399228322 0.43750392579674002 0 -0.30295941231266271 0.44481052759696688 0 -0.31234010036541721 0.45449451581043843 0 -0.2909799535935777 0.4514028022152925 0 -0.29610849129937239 0.435840866565397 0 -0.31240910399228322 0.43750392579674002 0 -0.30295941231266271 0.44481052759696688 0 -0.31240910399228322 0.43750392579674002 0 -0.30295941231266271 0.44481052759696688 0 -0.31234010036541721 0.45449451581043843 0 -0.31234010036541721 0.45449451581043843 0 -0.2909799535935777 0.4514028022152925 0 -0.30436594134562778 0.46949777207170462 0 -0.2909799535935777 0.4514028022152925 0 -0.30436594134562778 0.46949777207170462 0 -0.31234010036541721 0.45449451581043843 0 -0.30436594134562778 0.46949777207170462 0 -0.31784154853414542 0.46675816179249952 0 -0.28863295306311088 0.46578716309770191 0 -0.2909799535935777 0.4514028022152925 0 -0.30436594134562778 0.46949777207170462 0 -0.28863295306311088 0.46578716309770191 0 -0.2909799535935777 0.4514028022152925 0 -0.27612665239948481 0.45564060305112192 0 -0.27759396584152762 0.43330783235888048 0 -0.2909799535935777 0.4514028022152925 0 -0.27759396584152762 0.43330783235888048 0 -0.2909799535935777 0.4514028022152925 0 -0.27909594563663248 0.44663691103322339 0 -0.27759396584152762 0.43330783235888048 0 -0.29610849129937239 0.435840866565397 0 -0.2909799535935777 0.4514028022152925 0 -0.29610849129937239 0.435840866565397 0 -0.30295941231266271 0.44481052759696688 0 -0.2909799535935777 0.4514028022152925 0 -0.2909799535935777 0.4514028022152925 0 -0.27909594563663248 0.44663691103322339 0 -0.27612665239948481 0.45564060305112192 0 -0.27759396584152762 0.43330783235888048 0 -0.27012863850171509 0.44372989779681399 0 -0.27909594563663248 0.44663691103322339 0 -0.27012863850171509 0.44372989779681399 0 -0.27612665239948481 0.45564060305112192 0 -0.26413281477365202 0.45078555543729681 0 -0.27012863850171509 0.44372989779681399 0 -0.27909594563663248 0.44663691103322339 0 -0.27612665239948481 0.45564060305112192 0 -0.28863295306311088 0.46578716309770191 0 -0.27612665239948481 0.45564060305112192 0 -0.26293396576474998 0.46273369568107342 0 -0.28863295306311088 0.46578716309770191 0 -0.26293396576474998 0.46273369568107342 0 -0.27334555514248549 0.47380874842581489 0 -0.28863295306311088 0.46578716309770191 0 -0.26293396576474998 0.46273369568107342 0 -0.27612665239948481 0.45564060305112192 0 -0.26293396576474998 0.46273369568107342 0 -0.26413281477365202 0.45078555543729681 0 -0.26293396576474998 0.46273369568107342 0 -0.25496775216949857 0.45641178590780879 0 -0.23723497846638911 0.45968022826444532 0 -0.26293396576474998 0.46273369568107342 0 -0.23723497846638911 0.45968022826444532 0 -0.26293396576474998 0.46273369568107342 0 -0.25496775216949857 0.45641178590780879 0 -0.26413281477365202 0.45078555543729681 0 -0.26293396576474998 0.46273369568107342 0 -0.25658680314654969 0.47327500690366958 0 -0.23723497846638911 0.45968022826444532 0 -0.25650706503281162 0.43541179474966613 0 -0.25496775216949857 0.45641178590780879 0 -0.25650706503281162 0.43541179474966613 0 -0.25496775216949857 0.45641178590780879 0 -0.2445193356415174 0.4455358069413623 0 -0.25650706503281162 0.43541179474966613 0 -0.25496775216949857 0.45641178590780879 0 -0.26413281477365202 0.45078555543729681 0 -0.25650706503281162 0.43541179474966613 0 -0.27012863850171509 0.44372989779681399 0 -0.26413281477365202 0.45078555543729681 0 -0.27453203683748661 0.5 0 -0.26608230303987801 0.4856092473520624 0 -0.24821767325543501 0.5 0 -0.25030165867090959 0.4837517237055165 0 -0.26608230303987801 0.4856092473520624 0 -0.24821767325543501 0.5 0 -0.26293396576474998 0.46273369568107342 0 -0.25658680314654969 0.47327500690366958 0 -0.27334555514248549 0.47380874842581489 0 -0.25658680314654969 0.47327500690366958 0 -0.27334555514248549 0.47380874842581489 0 -0.26608230303987801 0.4856092473520624 0 -0.25030165867090959 0.4837517237055165 0 -0.25658680314654969 0.47327500690366958 0 -0.26608230303987801 0.4856092473520624 0 -0.25030165867090959 0.4837517237055165 0 -0.25658680314654969 0.47327500690366958 0 -0.24515571949348289 0.47537835920254562 0 -0.27334555514248549 0.47380874842581489 0 -0.26608230303987801 0.4856092473520624 0 -0.28734523070608842 0.48266340545820441 0 -0.27453203683748661 0.5 0 -0.26608230303987801 0.4856092473520624 0 -0.28734523070608842 0.48266340545820441 0 -0.27453203683748661 0.5 0 -0.28734523070608842 0.48266340545820441 0 -0.30084640041953808 0.5 0 -0.28863295306311088 0.46578716309770191 0 -0.27334555514248549 0.47380874842581489 0 -0.28734523070608842 0.48266340545820441 0 -0.28863295306311088 0.46578716309770191 0 -0.28734523070608842 0.48266340545820441 0 -0.30436594134562778 0.46949777207170462 0 -0.28734523070608842 0.48266340545820441 0 -0.30436594134562778 0.46949777207170462 0 -0.30265097838973321 0.48380098708060498 0 -0.30436594134562778 0.46949777207170462 0 -0.30265097838973321 0.48380098708060498 0 -0.31804634108767832 0.48304277079251101 0 -0.28734523070608842 0.48266340545820441 0 -0.30265097838973321 0.48380098708060498 0 -0.30084640041953808 0.5 0 -0.30265097838973321 0.48380098708060498 0 -0.30084640041953808 0.5 0 -0.31804634108767832 0.48304277079251101 0 -0.30084640041953808 0.5 0 -0.32716076400158978 0.5 0 -0.31804634108767832 0.48304277079251101 0 -0.32716076400158978 0.5 0 -0.33920218584201978 0.48464023757875091 0 -0.3534751275836413 0.49999999999999878 0 -0.32716076400158978 0.5 0 -0.33920218584201978 0.48464023757875091 0 -0.31804634108767832 0.48304277079251101 0 -0.33920218584201978 0.48464023757875091 0 -0.32946526020550537 0.47134900962393789 0 -0.31804634108767832 0.48304277079251101 0 -0.33920218584201978 0.48464023757875091 0 -0.32946526020550537 0.47134900962393789 0 -0.34430864220961099 0.46594404311087101 0 -0.30436594134562778 0.46949777207170462 0 -0.31804634108767832 0.48304277079251101 0 -0.31784154853414542 0.46675816179249952 0 -0.32946526020550537 0.47134900962393789 0 -0.31804634108767832 0.48304277079251101 0 -0.31784154853414542 0.46675816179249952 0 -0.32946526020550537 0.47134900962393789 0 -0.31784154853414542 0.46675816179249952 0 -0.33004176634922527 0.45564057889047732 0 -0.31234010036541721 0.45449451581043843 0 -0.31784154853414542 0.46675816179249952 0 -0.33004176634922527 0.45564057889047732 0 -0.31234010036541721 0.45449451581043843 0 -0.32487667402770459 0.44302633237433381 0 -0.33004176634922527 0.45564057889047732 0 -0.31240910399228322 0.43750392579674002 0 -0.31234010036541721 0.45449451581043843 0 -0.32487667402770459 0.44302633237433381 0 -0.33964677515101499 0.42961601508467567 0 -0.32487667402770459 0.44302633237433381 0 -0.3367027099777144 0.44313791075801068 0 -0.32487667402770459 0.44302633237433381 0 -0.3367027099777144 0.44313791075801068 0 -0.33004176634922527 0.45564057889047732 0 -0.3367027099777144 0.44313791075801068 0 -0.33004176634922527 0.45564057889047732 0 -0.34447300263438452 0.45001296842709659 0 -0.3367027099777144 0.44313791075801068 0 -0.34460848101734648 0.43787887615672372 0 -0.34447300263438452 0.45001296842709659 0 -0.32946526020550537 0.47134900962393789 0 -0.33004176634922527 0.45564057889047732 0 -0.34430864220961099 0.46594404311087101 0 -0.33004176634922527 0.45564057889047732 0 -0.34430864220961099 0.46594404311087101 0 -0.34447300263438452 0.45001296842709659 0 -0.34430864220961099 0.46594404311087101 0 -0.34447300263438452 0.45001296842709659 0 -0.3610476557729419 0.45959321175460749 0 -0.34430864220961099 0.46594404311087101 0 -0.3610476557729419 0.45959321175460749 0 -0.35726139167829152 0.47979660587730311 0 -0.34447300263438452 0.45001296842709659 0 -0.35329417083808762 0.44272955033713368 0 -0.3610476557729419 0.45959321175460749 0 -0.34460848101734648 0.43787887615672372 0 -0.34447300263438452 0.45001296842709659 0 -0.35329417083808762 0.44272955033713368 0 -0.35081753161354018 0.43079190134805728 0 -0.35329417083808762 0.44272955033713368 0 -0.36483391986759101 0.43938981763191159 0 -0.36483391986759101 0.43938981763191159 0 -0.36982508649130652 0.45078168270744129 0 -0.3610476557729419 0.45959321175460749 0 -0.36483391986759101 0.43938981763191159 0 -0.3610476557729419 0.45959321175460749 0 -0.35329417083808762 0.44272955033713368 0 -0.36483391986759101 0.43938981763191159 0 -0.3610476557729419 0.45959321175460749 0 -0.38224190079936271 0.45006820067963232 0 -0.36483391986759101 0.43938981763191159 0 -0.38224190079936271 0.45006820067963232 0 -0.36483391986759101 0.43938981763191159 0 -0.36982508649130652 0.45078168270744129 0 -0.38224190079936271 0.45006820067963232 0 -0.37717856875035488 0.43646572130173161 0 -0.36483391986759101 0.43938981763191159 0 -0.37606570410381668 0.47366176847889557 0 -0.37722236811798338 0.46009136062209011 0 -0.3610476557729419 0.45959321175460749 0 -0.37722236811798338 0.46009136062209011 0 -0.36982508649130652 0.45078168270744129 0 -0.3610476557729419 0.45959321175460749 0 -0.37606570410381668 0.47366176847889557 0 -0.3610476557729419 0.45959321175460749 0 -0.35726139167829152 0.47979660587730311 0 -0.37606570410381668 0.47366176847889557 0 -0.3534751275836413 0.49999999999999878 0 -0.35726139167829152 0.47979660587730311 0 -0.33920218584201978 0.48464023757875091 0 -0.3534751275836413 0.49999999999999878 0 -0.35726139167829152 0.47979660587730311 0 -0.3534751275836413 0.49999999999999878 0 -0.35726139167829152 0.47979660587730311 0 -0.3610476557729419 0.45959321175460749 0 -0.35726139167829152 0.47979660587730311 0 -0.33920218584201978 0.48464023757875091 0 -0.34430864220961099 0.46594404311087101 0 -0.35726139167829152 0.47979660587730311 0 -0.14074422522680519 0.47879457849721951 0 -0.1525287557788256 0.46243479849400582 0 -0.16033737588042549 0.48336075324267158 0 -0.1389051124483377 0.5 0 -0.16033737588042549 0.48336075324267158 0 -0.167624060821566 0.499999999999999 0 -0.14074422522680519 0.47879457849721951 0 -0.1389051124483377 0.5 0 -0.16033737588042549 0.48336075324267158 0 -0.14074422522680519 0.47879457849721951 0 -0.1389051124483377 0.5 0 -0.1251989796214896 0.48343113578115859 0 -0.14074422522680519 0.47879457849721951 0 -0.1251989796214896 0.48343113578115859 0 -0.12859057658337589 0.46069914291469699 0 -0.12859057658337589 0.46069914291469699 0 -0.1525287557788256 0.46243479849400582 0 -0.14074422522680519 0.47879457849721951 0 -0.12859057658337589 0.46069914291469699 0 -0.1525287557788256 0.46243479849400582 0 -0.12859057658337589 0.46069914291469699 0 -0.14501086790572379 0.44334818002460891 0 -0.12774258126637361 0.43196655821060898 0 -0.14501086790572379 0.44334818002460891 0 -0.1525287557788256 0.46243479849400582 0 -0.16289800859892981 0.4473349573461155 0 -0.14501086790572379 0.44334818002460891 0 -0.16289800859892981 0.4473349573461155 0 -0.15693904437447709 0.43076927195765408 0 -0.12859057658337589 0.46069914291469699 0 -0.14501086790572379 0.44334818002460891 0 -0.1525287557788256 0.46243479849400582 0 -0.1525287557788256 0.46243479849400582 0 -0.17116507124605071 0.46350946990546521 0 -0.16289800859892981 0.4473349573461155 0 -0.17116507124605071 0.46350946990546521 0 -0.16289800859892981 0.4473349573461155 0 -0.17844818379536559 0.44929710834515268 0 -0.16289800859892981 0.4473349573461155 0 -0.17329612849313619 0.43465091534980699 0 -0.15693904437447709 0.43076927195765408 0 -0.16289800859892981 0.4473349573461155 0 -0.17844818379536559 0.44929710834515268 0 -0.17329612849313619 0.43465091534980699 0 -0.17844818379536559 0.44929710834515268 0 -0.1878478987239891 0.45885169976324902 0 -0.18975402272338099 0.44864736319382442 0 -0.17844818379536559 0.44929710834515268 0 -0.18740826922785739 0.43733359046116332 0 -0.17329612849313619 0.43465091534980699 0 -0.17844818379536559 0.44929710834515268 0 -0.18975402272338099 0.44864736319382442 0 -0.18740826922785739 0.43733359046116332 0 -0.17116507124605071 0.46350946990546521 0 -0.18452312836754931 0.47700061596283239 0 -0.1878478987239891 0.45885169976324902 0 -0.17116507124605071 0.46350946990546521 0 -0.17844818379536559 0.44929710834515268 0 -0.1878478987239891 0.45885169976324902 0 -0.17116507124605071 0.46350946990546521 0 -0.18452312836754931 0.47700061596283239 0 -0.16033737588042549 0.48336075324267158 0 -0.1525287557788256 0.46243479849400582 0 -0.17116507124605071 0.46350946990546521 0 -0.16033737588042549 0.48336075324267158 0 -0.16033737588042549 0.48336075324267158 0 -0.167624060821566 0.499999999999999 0 -0.17002912715607979 0.49886192019447412 0 -0.18452312836754931 0.47700061596283239 0 -0.16033737588042549 0.48336075324267158 0 -0.17002912715607979 0.49886192019447412 0 -0.167624060821566 0.499999999999999 0 -0.17002912715607979 0.49886192019447412 0 -0.17002912715607979 0.49886192019447412 0 -0.19558894609133179 0.5 0 -0.19095988421122859 0.48895746492981268 0 -0.17002912715607979 0.49886192019447412 0 -0.19095988421122859 0.48895746492981268 0 -0.18452312836754931 0.47700061596283239 0 -0.17002912715607979 0.49886192019447412 0 -0.18452312836754931 0.47700061596283239 0 -0.17002912715607979 0.49886192019447412 0 -0.19095988421122859 0.48895746492981268 0 -0.19558894609133179 0.5 0 -0.19095988421122859 0.48895746492981268 0 -0.21189064126637641 0.47905300966514941 0 -0.19095988421122859 0.48895746492981268 0 -0.1978274015659173 0.47672329503604838 0 -0.21189064126637641 0.47905300966514941 0 -0.18452312836754931 0.47700061596283239 0 -0.1978274015659173 0.47672329503604838 0 -0.1990171295790176 0.45513931173119021 0 -0.1978274015659173 0.47672329503604838 0 -0.21189064126637641 0.47905300966514941 0 -0.1990171295790176 0.45513931173119021 0 -0.19095988421122859 0.48895746492981268 0 -0.21189064126637641 0.47905300966514941 0 -0.18452312836754931 0.47700061596283239 0 -0.19095988421122859 0.48895746492981268 0 -0.1978274015659173 0.47672329503604838 0 -0.19558894609133179 0.5 0 -0.21189064126637641 0.47905300966514941 0 -0.22190330967338351 0.5 0 -0.21189064126637641 0.47905300966514941 0 -0.22190330967338351 0.5 0 -0.2354657944192021 0.48449600506930479 0 -0.21189064126637641 0.47905300966514941 0 -0.23282139832152429 0.46914855440048608 0 -0.2354657944192021 0.48449600506930479 0 -0.21189064126637641 0.47905300966514941 0 -0.23282139832152429 0.46914855440048608 0 -0.25658680314654969 0.47327500690366958 0 -0.24515571949348289 0.47537835920254562 0 -0.23723497846638911 0.45968022826444532 0 -0.23282139832152429 0.46914855440048608 0 -0.24515571949348289 0.47537835920254562 0 -0.2354657944192021 0.48449600506930479 0 -0.25030165867090959 0.4837517237055165 0 -0.24515571949348289 0.47537835920254562 0 -0.2354657944192021 0.48449600506930479 0 -0.25030165867090959 0.4837517237055165 0 -0.24821767325543501 0.5 0 -0.2354657944192021 0.48449600506930479 0 -0.22190330967338351 0.5 0 -0.24821767325543501 0.5 0 -0.2354657944192021 0.48449600506930479 0 -0.2445193356415174 0.4455358069413623 0 -0.23723497846638911 0.45968022826444532 0 -0.2283264819684625 0.44202446297585779 0 -0.2445193356415174 0.4455358069413623 0 -0.2283264819684625 0.44202446297585779 0 -0.24252929423762939 0.43360278573544547 0 -0.25650706503281162 0.43541179474966613 0 -0.2445193356415174 0.4455358069413623 0 -0.24252929423762939 0.43360278573544547 0 -0.25496775216949857 0.45641178590780879 0 -0.2445193356415174 0.4455358069413623 0 -0.23723497846638911 0.45968022826444532 0 -0.23282139832152429 0.46914855440048608 0 -0.24515571949348289 0.47537835920254562 0 -0.23723497846638911 0.45968022826444532 0 -0.24515571949348289 0.47537835920254562 0 -0.23723497846638911 0.45968022826444532 0 -0.23282139832152429 0.46914855440048608 0 -0.23723497846638911 0.45968022826444532 0 -0.2181260540227038 0.45740976999781402 0 -0.21189064126637641 0.47905300966514941 0 -0.23282139832152429 0.46914855440048608 0 -0.2181260540227038 0.45740976999781402 0 -0.23723497846638911 0.45968022826444532 0 -0.2181260540227038 0.45740976999781402 0 -0.23723497846638911 0.45968022826444532 0 -0.2283264819684625 0.44202446297585779 0 -0.2181260540227038 0.45740976999781402 0 -0.23723497846638911 0.45968022826444532 0 -0.2283264819684625 0.44202446297585779 0 -0.2283264819684625 0.44202446297585779 0 -0.2092175575247788 0.43975400470923109 0 -0.2181260540227038 0.45740976999781402 0 -0.2092175575247788 0.43975400470923109 0 -0.2181260540227038 0.45740976999781402 0 -0.1990171295790176 0.45513931173119021 0 -0.2092175575247788 0.43975400470923109 0 -0.1990171295790176 0.45513931173119021 0 -0.2181260540227038 0.45740976999781402 0 -0.1990171295790176 0.45513931173119021 0 -0.21189064126637641 0.47905300966514941 0 -0.2181260540227038 0.45740976999781402 0 -0.1990171295790176 0.45513931173119021 0 -0.18452312836754931 0.47700061596283239 0 -0.1990171295790176 0.45513931173119021 0 -0.1878478987239891 0.45885169976324902 0 -0.18452312836754931 0.47700061596283239 0 -0.1990171295790176 0.45513931173119021 0 -0.1990171295790176 0.45513931173119021 0 -0.1878478987239891 0.45885169976324902 0 -0.18975402272338099 0.44864736319382442 0 -0.2092175575247788 0.43975400470923109 0 -0.1990171295790176 0.45513931173119021 0 -0.19909658388642329 0.44406925373068717 0 -0.1990171295790176 0.45513931173119021 0 -0.19909658388642329 0.44406925373068717 0 -0.18975402272338099 0.44864736319382442 0 -0.19909658388642329 0.44406925373068717 0 -0.18975402272338099 0.44864736319382442 0 -0.18740826922785739 0.43733359046116332 0 -0.19909658388642329 0.44406925373068717 0 -0.20048926588598009 0.42594532692747028 0 -0.18740826922785739 0.43733359046116332 0 -0.20048926588598009 0.42594532692747028 0 -0.1833454982117661 0.42085425028779871 0 -0.18740826922785739 0.43733359046116332 0 -0.2092175575247788 0.43975400470923109 0 -0.19909658388642329 0.44406925373068717 0 -0.20048926588598009 0.42594532692747028 0 -0.20048926588598009 0.42594532692747028 0 -0.19486434893031629 0.40619761803476301 0 -0.1833454982117661 0.42085425028779871 0 -0.21132955935436279 0.40833823136845998 0 -0.19486434893031629 0.40619761803476301 0 -0.20048926588598009 0.42594532692747028 0 -0.21132955935436279 0.40833823136845998 0 -0.19486434893031629 0.40619761803476301 0 -0.20048926588598009 0.42594532692747028 0 -0.21132955935436279 0.40833823136845998 0 -0.21941798547053701 0.42436869768726992 0 -0.21132955935436279 0.40833823136845998 0 -0.21941798547053701 0.42436869768726992 0 -0.2092175575247788 0.43975400470923109 0 -0.20048926588598009 0.42594532692747028 0 -0.21941798547053701 0.42436869768726992 0 -0.2092175575247788 0.43975400470923109 0 -0.21941798547053701 0.42436869768726992 0 -0.2283264819684625 0.44202446297585779 0 -0.23158720667105651 0.42817995472838932 0 -0.21941798547053701 0.42436869768726992 0 -0.2283264819684625 0.44202446297585779 0 -0.21941798547053701 0.42436869768726992 0 -0.2283264819684625 0.44202446297585779 0 -0.2092175575247788 0.43975400470923109 0 -0.21941798547053701 0.42436869768726992 0 -0.2283264819684625 0.44202446297585779 0 -0.23158720667105651 0.42817995472838932 0 -0.24252929423762939 0.43360278573544547 0 -0.21132955935436279 0.40833823136845998 0 -0.22856089411213629 0.41057844719260839 0 -0.2189001512750211 0.40091762296778061 0 -0.21941798547053701 0.42436869768726992 0 -0.22856089411213629 0.41057844719260839 0 -0.21132955935436279 0.40833823136845998 0 -0.21941798547053701 0.42436869768726992 0 -0.22856089411213629 0.41057844719260839 0 -0.23158720667105651 0.42817995472838932 0 -0.21941798547053701 0.42436869768726992 0 -0.22856089411213629 0.41057844719260839 0 -0.21132955935436279 0.40833823136845998 0 -0.22856089411213629 0.41057844719260839 0 -0.25854844412876848 0.40756239259936272 0 -0.25804637789612622 0.41441180359152341 0 -0.22856089411213629 0.41057844719260839 0 -0.25804637789612622 0.41441180359152341 0 -0.22856089411213629 0.41057844719260839 0 -0.23158720667105651 0.42817995472838932 0 -0.22856089411213629 0.41057844719260839 0 -0.24299842589361209 0.42296427722315849 0 -0.25804637789612622 0.41441180359152341 0 -0.22856089411213629 0.41057844719260839 0 -0.24299842589361209 0.42296427722315849 0 -0.25059996062830647 0.42641743371929303 0 -0.24299842589361209 0.42296427722315849 0 -0.24252929423762939 0.43360278573544547 0 -0.25650706503281162 0.43541179474966613 0 -0.25059996062830647 0.42641743371929303 0 -0.24252929423762939 0.43360278573544547 0 -0.23158720667105651 0.42817995472838932 0 -0.24299842589361209 0.42296427722315849 0 -0.24252929423762939 0.43360278573544547 0 -0.23739305070524519 0.38471179273785477 0 -0.24378868076877391 0.38761037426242018 0 -0.23119885757998021 0.3903619350973514 0 -0.23739305070524519 0.38471179273785477 0 -0.23756097464447151 0.37848409563832158 0 -0.24271981770988271 0.38616550181898318 0 -0.23739305070524519 0.38471179273785477 0 -0.24271981770988271 0.38616550181898318 0 -0.24378868076877391 0.38761037426242018 0 -0.23756097464447151 0.37848409563832158 0 -0.24271981770988271 0.38616550181898318 0 -0.24437978108753519 0.37268013198276051 0 -0.23739305070524519 0.38471179273785477 0 -0.23756097464447151 0.37848409563832158 0 -0.23167959020988649 0.38191612672804248 0 -0.25290804108530268 0.3738556417100492 0 -0.24271981770988271 0.38616550181898318 0 -0.24437978108753519 0.37268013198276051 0 -0.25290804108530268 0.3738556417100492 0 -0.24271981770988271 0.38616550181898318 0 -0.24378868076877391 0.38761037426242018 0 -0.25290804108530268 0.3738556417100492 0 -0.24378868076877391 0.38761037426242018 0 -0.24271981770988271 0.38616550181898318 0 -0.24378868076877391 0.38761037426242018 0 -0.22856089411213629 0.41057844719260839 0 -0.24378868076877391 0.38761037426242018 0 -0.23119885757998021 0.3903619350973514 0 -0.22856089411213629 0.41057844719260839 0 -0.24378868076877391 0.38761037426242018 0 -0.25854844412876848 0.40756239259936272 0 -0.22856089411213629 0.41057844719260839 0 -0.24378868076877391 0.38761037426242018 0 -0.22856089411213629 0.41057844719260839 0 -0.2232124820461181 0.39403621301794528 0 -0.23119885757998021 0.3903619350973514 0 -0.22856089411213629 0.41057844719260839 0 -0.2189001512750211 0.40091762296778061 0 -0.2232124820461181 0.39403621301794528 0 -0.2189001512750211 0.40091762296778061 0 -0.2232124820461181 0.39403621301794528 0 -0.21414419274657409 0.39211836991671001 0 -0.2232124820461181 0.39403621301794528 0 -0.22255844763771909 0.3833186566452369 0 -0.23119885757998021 0.3903619350973514 0 -0.2232124820461181 0.39403621301794528 0 -0.22255844763771909 0.3833186566452369 0 -0.21414419274657409 0.39211836991671001 0 -0.23739305070524519 0.38471179273785477 0 -0.23119885757998021 0.3903619350973514 0 -0.23167959020988649 0.38191612672804248 0 -0.22255844763771909 0.3833186566452369 0 -0.23119885757998021 0.3903619350973514 0 -0.23167959020988649 0.38191612672804248 0 -0.22255844763771909 0.3833186566452369 0 -0.23167959020988649 0.38191612672804248 0 -0.22969731770877591 0.37447434519136508 0 -0.23756097464447151 0.37848409563832158 0 -0.23167959020988649 0.38191612672804248 0 -0.22969731770877591 0.37447434519136508 0 -0.22255844763771909 0.3833186566452369 0 -0.22020829545972739 0.37274929056908179 0 -0.22969731770877591 0.37447434519136508 0 -0.22255844763771909 0.3833186566452369 0 -0.2105831245280709 0.381802810003806 0 -0.22020829545972739 0.37274929056908179 0 -0.2105831245280709 0.381802810003806 0 -0.21047234143722779 0.37204181356124832 0 -0.22020829545972739 0.37274929056908179 0 -0.22255844763771909 0.3833186566452369 0 -0.2105831245280709 0.381802810003806 0 -0.21414419274657409 0.39211836991671001 0 -0.2105831245280709 0.381802810003806 0 -0.21414419274657409 0.39211836991671001 0 -0.20360141312730179 0.39302180441216927 0 -0.2105831245280709 0.381802810003806 0 -0.20360141312730179 0.39302180441216927 0 -0.20086912161820161 0.38329517663812301 0 -0.2105831245280709 0.381802810003806 0 -0.19943229032995041 0.37312591810137219 0 -0.21047234143722779 0.37204181356124832 0 -0.2105831245280709 0.381802810003806 0 -0.20086912161820161 0.38329517663812301 0 -0.19943229032995041 0.37312591810137219 0 -0.21132955935436279 0.40833823136845998 0 -0.20360141312730179 0.39302180441216927 0 -0.19486434893031629 0.40619761803476301 0 -0.21132955935436279 0.40833823136845998 0 -0.2189001512750211 0.40091762296778061 0 -0.21414419274657409 0.39211836991671001 0 -0.21132955935436279 0.40833823136845998 0 -0.21414419274657409 0.39211836991671001 0 -0.20360141312730179 0.39302180441216927 0 -0.21132955935436279 0.40833823136845998 0 -0.20360141312730179 0.39302180441216927 0 -0.20360141312730179 0.39302180441216927 0 -0.19486434893031629 0.40619761803476301 0 -0.1877112454818621 0.39682397913574557 0 -0.20360141312730179 0.39302180441216927 0 -0.1877112454818621 0.39682397913574557 0 -0.18985965848748329 0.38523017403514459 0 -0.18985965848748329 0.38523017403514459 0 -0.1887085335126239 0.36947516734503449 0 -0.19943229032995041 0.37312591810137219 0 -0.20086912161820161 0.38329517663812301 0 -0.18985965848748329 0.38523017403514459 0 -0.19943229032995041 0.37312591810137219 0 -0.20360141312730179 0.39302180441216927 0 -0.20086912161820161 0.38329517663812301 0 -0.18985965848748329 0.38523017403514459 0 -0.18985965848748329 0.38523017403514459 0 -0.17556941793498981 0.37336007291772211 0 -0.1887085335126239 0.36947516734503449 0 -0.18985965848748329 0.38523017403514459 0 -0.17642159248316461 0.38995159067756829 0 -0.17556941793498981 0.37336007291772211 0 -0.16218396038267571 0.38954757926818168 0 -0.15350510409007651 0.37579406406054011 0 -0.16413677363352891 0.37158314056209829 0 -0.17642159248316461 0.38995159067756829 0 -0.16218396038267571 0.38954757926818168 0 -0.17556941793498981 0.37336007291772211 0 -0.16218396038267571 0.38954757926818168 0 -0.17556941793498981 0.37336007291772211 0 -0.16218396038267571 0.38954757926818168 0 -0.16413677363352891 0.37158314056209829 0 -0.17556941793498981 0.37336007291772211 0 -0.16218396038267571 0.38954757926818168 0 -0.16447737850430391 0.40251100716897059 0 -0.1493495066599603 0.39977691111673053 0 -0.17642159248316461 0.38995159067756829 0 -0.16218396038267571 0.38954757926818168 0 -0.16447737850430391 0.40251100716897059 0 -0.19486434893031629 0.40619761803476301 0 -0.1877112454818621 0.39682397913574557 0 -0.17839913850626979 0.40405700470106631 0 -0.19486434893031629 0.40619761803476301 0 -0.17839913850626979 0.40405700470106631 0 -0.17642159248316461 0.38995159067756829 0 -0.16447737850430391 0.40251100716897059 0 -0.17839913850626979 0.40405700470106631 0 -0.1877112454818621 0.39682397913574557 0 -0.18985965848748329 0.38523017403514459 0 -0.17642159248316461 0.38995159067756829 0 -0.1877112454818621 0.39682397913574557 0 -0.17642159248316461 0.38995159067756829 0 -0.17839913850626979 0.40405700470106631 0 -0.17839913850626979 0.40405700470106631 0 -0.1833454982117661 0.42085425028779871 0 -0.16770997162977111 0.41795230513206932 0 -0.19486434893031629 0.40619761803476301 0 -0.17839913850626979 0.40405700470106631 0 -0.1833454982117661 0.42085425028779871 0 -0.1833454982117661 0.42085425028779871 0 -0.18740826922785739 0.43733359046116332 0 -0.17329612849313619 0.43465091534980699 0 -0.1833454982117661 0.42085425028779871 0 -0.17329612849313619 0.43465091534980699 0 -0.16770997162977111 0.41795230513206932 0 -0.17329612849313619 0.43465091534980699 0 -0.15693904437447709 0.43076927195765408 0 -0.16770997162977111 0.41795230513206932 0 -0.15693904437447709 0.43076927195765408 0 -0.16770997162977111 0.41795230513206932 0 -0.15280010136398209 0.41378065211820769 0 -0.16447737850430391 0.40251100716897059 0 -0.17839913850626979 0.40405700470106631 0 -0.16770997162977111 0.41795230513206932 0 -0.16447737850430391 0.40251100716897059 0 -0.16770997162977111 0.41795230513206932 0 -0.15280010136398209 0.41378065211820769 0 -0.15280010136398209 0.41378065211820769 0 -0.14199277348474171 0.42363298598113303 0 -0.13745591264119639 0.40953448361945199 0 -0.15280010136398209 0.41378065211820769 0 -0.13745591264119639 0.40953448361945199 0 -0.1493495066599603 0.39977691111673053 0 -0.14501086790572379 0.44334818002460891 0 -0.15693904437447709 0.43076927195765408 0 -0.14199277348474171 0.42363298598113303 0 -0.15693904437447709 0.43076927195765408 0 -0.15280010136398209 0.41378065211820769 0 -0.14199277348474171 0.42363298598113303 0 -0.14501086790572379 0.44334818002460891 0 -0.14199277348474171 0.42363298598113303 0 -0.12774258126637361 0.43196655821060898 0 -0.14199277348474171 0.42363298598113303 0 -0.12774258126637361 0.43196655821060898 0 -0.12626538229327941 0.41751927109444859 0 -0.12626538229327941 0.41751927109444859 0 -0.13745591264119639 0.40953448361945199 0 -0.12082572697990961 0.40660523088268802 0 -0.14199277348474171 0.42363298598113303 0 -0.12626538229327941 0.41751927109444859 0 -0.13745591264119639 0.40953448361945199 0 -0.13745591264119639 0.40953448361945199 0 -0.1334006945047167 0.39596166816184108 0 -0.1493495066599603 0.39977691111673053 0 -0.13745591264119639 0.40953448361945199 0 -0.1334006945047167 0.39596166816184108 0 -0.12082572697990961 0.40660523088268802 0 -0.1334006945047167 0.39596166816184108 0 -0.12169056730583371 0.39481169775787001 0 -0.12082572697990961 0.40660523088268802 0 -0.1334006945047167 0.39596166816184108 0 -0.1230736302473963 0.38318059764092671 0 -0.12169056730583371 0.39481169775787001 0 -0.1334006945047167 0.39596166816184108 0 -0.1430260472012212 0.38525677025339772 0 -0.1230736302473963 0.38318059764092671 0 -0.1430260472012212 0.38525677025339772 0 -0.13578162110228301 0.37275117300411681 0 -0.1230736302473963 0.38318059764092671 0 -0.13578162110228301 0.37275117300411681 0 -0.12296577242776111 0.37403941816587571 0 -0.1230736302473963 0.38318059764092671 0 -0.15350510409007651 0.37579406406054011 0 -0.1430260472012212 0.38525677025339772 0 -0.13578162110228301 0.37275117300411681 0 -0.16218396038267571 0.38954757926818168 0 -0.15350510409007651 0.37579406406054011 0 -0.1430260472012212 0.38525677025339772 0 -0.1334006945047167 0.39596166816184108 0 -0.1430260472012212 0.38525677025339772 0 -0.1493495066599603 0.39977691111673053 0 -0.16218396038267571 0.38954757926818168 0 -0.1430260472012212 0.38525677025339772 0 -0.1493495066599603 0.39977691111673053 0 -0.16447737850430391 0.40251100716897059 0 -0.15280010136398209 0.41378065211820769 0 -0.1493495066599603 0.39977691111673053 0 -0.1428843656714115 0.34706315433005902 0 -0.16631830912670331 0.34731303947048142 0 -0.1410999396266128 0.35893913972579711 0 -0.14491470097235229 0.34935738400776728 0 -0.16234657347154871 0.36015256631142162 0 -0.1428843656714115 0.34706315433005902 0 -0.14491470097235229 0.34935738400776728 0 -0.16631830912670331 0.34731303947048142 0 -0.1410999396266128 0.35893913972579711 0 -0.1428843656714115 0.34706315433005902 0 -0.14491470097235229 0.34935738400776728 0 -0.1428843656714115 0.34706315433005902 0 -0.14491470097235229 0.34935738400776728 0 -0.15350510409007651 0.37579406406054011 0 -0.13578162110228301 0.37275117300411681 0 -0.16234657347154871 0.36015256631142162 0 -0.13578162110228301 0.37275117300411681 0 -0.16234657347154871 0.36015256631142162 0 -0.1410999396266128 0.35893913972579711 0 -0.13578162110228301 0.37275117300411681 0 -0.16234657347154871 0.36015256631142162 0 -0.1410999396266128 0.35893913972579711 0 -0.13578162110228301 0.37275117300411681 0 -0.12541893198456541 0.36256701212732789 0 -0.13578162110228301 0.37275117300411681 0 -0.12541893198456541 0.36256701212732789 0 -0.12296577242776111 0.37403941816587571 0 -0.1410999396266128 0.35893913972579711 0 -0.1428843656714115 0.34706315433005902 0 -0.12541893198456541 0.36256701212732789 0 -0.1428843656714115 0.34706315433005902 0 -0.1233244569280421 0.34685457950984999 0 -0.1428843656714115 0.34706315433005902 0 -0.12541893198456541 0.36256701212732789 0 -0.1233244569280421 0.34685457950984999 0 -0.1428843656714115 0.34706315433005902 0 -0.12541893198456541 0.36256701212732789 0 -0.13762904156263481 0.3324767652746291 0 -0.13357863635577469 0.33654790576064919 0 -0.1200149295023538 0.32122124578067102 0 -0.1428843656714115 0.34706315433005902 0 -0.13357863635577469 0.33654790576064919 0 -0.1233244569280421 0.34685457950984999 0 -0.13357863635577469 0.33654790576064919 0 -0.1233244569280421 0.34685457950984999 0 -0.13357863635577469 0.33654790576064919 0 -0.1200149295023538 0.32122124578067102 0 -0.13762904156263481 0.3324767652746291 0 -0.13357863635577469 0.33654790576064919 0 -0.13762904156263481 0.3324767652746291 0 -0.14138759889620839 0.32869896672157578 0 -0.13762904156263481 0.3324767652746291 0 -0.1408724196979067 0.3351484720948788 0 -0.14138759889620839 0.32869896672157578 0 -0.13762904156263481 0.3324767652746291 0 -0.13357863635577469 0.33654790576064919 0 -0.1408724196979067 0.3351484720948788 0 -0.1428843656714115 0.34706315433005902 0 -0.13357863635577469 0.33654790576064919 0 -0.1408724196979067 0.3351484720948788 0 -0.1428843656714115 0.34706315433005902 0 -0.13357863635577469 0.33654790576064919 0 -0.13762904156263481 0.3324767652746291 0 -0.14153783749322921 0.30828147096186159 0 -0.13762904156263481 0.3324767652746291 0 -0.14153783749322921 0.30828147096186159 0 -0.1200149295023538 0.32122124578067102 0 -0.13762904156263481 0.3324767652746291 0 -0.14138759889620839 0.32869896672157578 0 -0.14153783749322921 0.30828147096186159 0 -0.15390821799736731 0.32163012621833098 0 -0.14138759889620839 0.32869896672157578 0 -0.14153783749322921 0.30828147096186159 0 -0.15390821799736731 0.32163012621833098 0 -0.1579847350986246 0.31633475918929083 0 -0.14153783749322921 0.30828147096186159 0 -0.15390821799736731 0.32163012621833098 0 -0.14138759889620839 0.32869896672157578 0 -0.1482398499157013 0.33093676768602409 0 -0.15545517759327521 0.32785866820686771 0 -0.15390821799736731 0.32163012621833098 0 -0.1482398499157013 0.33093676768602409 0 -0.1428843656714115 0.34706315433005902 0 -0.15155239359649139 0.33472630926263941 0 -0.1645813707379335 0.3294187289111295 0 -0.1428843656714115 0.34706315433005902 0 -0.1645813707379335 0.3294187289111295 0 -0.1428843656714115 0.34706315433005902 0 -0.145760477322955 0.33834526218693878 0 -0.1408724196979067 0.3351484720948788 0 -0.1428843656714115 0.34706315433005902 0 -0.145760477322955 0.33834526218693878 0 -0.15155239359649139 0.33472630926263941 0 -0.1408724196979067 0.3351484720948788 0 -0.14138759889620839 0.32869896672157578 0 -0.1482398499157013 0.33093676768602409 0 -0.145760477322955 0.33834526218693878 0 -0.1408724196979067 0.3351484720948788 0 -0.1482398499157013 0.33093676768602409 0 -0.145760477322955 0.33834526218693878 0 -0.1482398499157013 0.33093676768602409 0 -0.15155239359649139 0.33472630926263941 0 -0.15545517759327521 0.32785866820686771 0 -0.1482398499157013 0.33093676768602409 0 -0.15155239359649139 0.33472630926263941 0 -0.1645813707379335 0.3294187289111295 0 -0.17248684443749321 0.33720122695469978 0 -0.16631830912670331 0.34731303947048142 0 -0.1428843656714115 0.34706315433005902 0 -0.1645813707379335 0.3294187289111295 0 -0.16631830912670331 0.34731303947048142 0 -0.15545517759327521 0.32785866820686771 0 -0.15155239359649139 0.33472630926263941 0 -0.1645813707379335 0.3294187289111295 0 -0.1645813707379335 0.3294187289111295 0 -0.17248684443749321 0.33720122695469978 0 -0.17255437102990259 0.32871626499449003 0 -0.1579847350986246 0.31633475918929083 0 -0.16881672061678399 0.32163868358561631 0 -0.15390821799736731 0.32163012621833098 0 -0.1579847350986246 0.31633475918929083 0 -0.15970103420221479 0.32415772963659018 0 -0.15545517759327521 0.32785866820686771 0 -0.1645813707379335 0.3294187289111295 0 -0.15970103420221479 0.32415772963659018 0 -0.1579847350986246 0.31633475918929083 0 -0.15970103420221479 0.32415772963659018 0 -0.16881672061678399 0.32163868358561631 0 -0.15545517759327521 0.32785866820686771 0 -0.15390821799736731 0.32163012621833098 0 -0.15970103420221479 0.32415772963659018 0 -0.1645813707379335 0.3294187289111295 0 -0.15970103420221479 0.32415772963659018 0 -0.16881672061678399 0.32163868358561631 0 -0.1645813707379335 0.3294187289111295 0 -0.16881672061678399 0.32163868358561631 0 -0.17255437102990259 0.32871626499449003 0 -0.1579847350986246 0.31633475918929083 0 -0.16881672061678399 0.32163868358561631 0 -0.16741700534784271 0.313583066958524 0 -0.16881672061678399 0.32163868358561631 0 -0.16741700534784271 0.313583066958524 0 -0.17421600553906061 0.31597224189195228 0 -0.17421600553906061 0.31597224189195228 0 -0.18085654929183709 0.32051846040107451 0 -0.18129620578495889 0.30783812483036188 0 -0.16881672061678399 0.32163868358561631 0 -0.17421600553906061 0.31597224189195228 0 -0.18085654929183709 0.32051846040107451 0 -0.16881672061678399 0.32163868358561631 0 -0.18085654929183709 0.32051846040107451 0 -0.17255437102990259 0.32871626499449003 0 -0.18085654929183709 0.32051846040107451 0 -0.17255437102990259 0.32871626499449003 0 -0.17958410155823071 0.33254315379729299 0 -0.185145212308329 0.32705195644964369 0 -0.18085654929183709 0.32051846040107451 0 -0.17958410155823071 0.33254315379729299 0 -0.185145212308329 0.32705195644964369 0 -0.18085654929183709 0.32051846040107451 0 -0.1923952675718674 0.32413375498961278 0 -0.18085654929183709 0.32051846040107451 0 -0.18983841364249041 0.3148084349979593 0 -0.18129620578495889 0.30783812483036188 0 -0.1793731837509375 0.33976311090655481 0 -0.17248684443749321 0.33720122695469978 0 -0.16631830912670331 0.34731303947048142 0 -0.1793731837509375 0.33976311090655481 0 -0.17248684443749321 0.33720122695469978 0 -0.17958410155823071 0.33254315379729299 0 -0.17248684443749321 0.33720122695469978 0 -0.17255437102990259 0.32871626499449003 0 -0.17958410155823071 0.33254315379729299 0 -0.185145212308329 0.32705195644964369 0 -0.17958410155823071 0.33254315379729299 0 -0.18956513779144579 0.33420417469157387 0 -0.1793731837509375 0.33976311090655481 0 -0.17958410155823071 0.33254315379729299 0 -0.18956513779144579 0.33420417469157387 0 -0.1793731837509375 0.33976311090655481 0 -0.18891152584081439 0.34755395961872609 0 -0.18956513779144579 0.33420417469157387 0 -0.16234657347154871 0.36015256631142162 0 -0.1758484651531971 0.36209020946479442 0 -0.18891152584081439 0.34755395961872609 0 -0.16631830912670331 0.34731303947048142 0 -0.16234657347154871 0.36015256631142162 0 -0.18891152584081439 0.34755395961872609 0 -0.16234657347154871 0.36015256631142162 0 -0.18891152584081439 0.34755395961872609 0 -0.1793731837509375 0.33976311090655481 0 -0.16631830912670331 0.34731303947048142 0 -0.18891152584081439 0.34755395961872609 0 -0.16631830912670331 0.34731303947048142 0 -0.18891152584081439 0.34755395961872609 0 -0.1758484651531971 0.36209020946479442 0 -0.18891152584081439 0.34755395961872609 0 -0.18895487548730391 0.35717256656726237 0 -0.14491470097235229 0.34935738400776728 0 -0.16631830912670331 0.34731303947048142 0 -0.16234657347154871 0.36015256631142162 0 -0.15350510409007651 0.37579406406054011 0 -0.16234657347154871 0.36015256631142162 0 -0.16413677363352891 0.37158314056209829 0 -0.16234657347154871 0.36015256631142162 0 -0.16413677363352891 0.37158314056209829 0 -0.1758484651531971 0.36209020946479442 0 -0.16413677363352891 0.37158314056209829 0 -0.17556941793498981 0.37336007291772211 0 -0.1758484651531971 0.36209020946479442 0 -0.17556941793498981 0.37336007291772211 0 -0.1758484651531971 0.36209020946479442 0 -0.18895487548730391 0.35717256656726237 0 -0.17556941793498981 0.37336007291772211 0 -0.18895487548730391 0.35717256656726237 0 -0.17556941793498981 0.37336007291772211 0 -0.1887085335126239 0.36947516734503449 0 -0.18895487548730391 0.35717256656726237 0 -0.1887085335126239 0.36947516734503449 0 -0.19403110810591151 0.36544491593512268 0 -0.19943229032995041 0.37312591810137219 0 -0.1887085335126239 0.36947516734503449 0 -0.19403110810591151 0.36544491593512268 0 -0.18895487548730391 0.35717256656726237 0 -0.19403110810591151 0.36544491593512268 0 -0.1990287330937679 0.36200601172682167 0 -0.18895487548730391 0.35717256656726237 0 -0.19403110810591151 0.36544491593512268 0 -0.1990287330937679 0.36200601172682167 0 -0.19943229032995041 0.37312591810137219 0 -0.1990287330937679 0.36200601172682167 0 -0.19943229032995041 0.37312591810137219 0 -0.20447906623287371 0.36726335424727902 0 -0.18895487548730391 0.35717256656726237 0 -0.19919131104944551 0.3476635769170362 0 -0.19683860913770521 0.34763848915284212 0 -0.18891152584081439 0.34755395961872609 0 -0.19683860913770521 0.34763848915284212 0 -0.18891152584081439 0.34755395961872609 0 -0.18895487548730391 0.35717256656726237 0 -0.19683860913770521 0.34763848915284212 0 -0.18895487548730391 0.35717256656726237 0 -0.19919131104944551 0.3476635769170362 0 -0.18895487548730391 0.35717256656726237 0 -0.19683860913770521 0.34763848915284212 0 -0.1990287330937679 0.36200601172682167 0 -0.19919131104944551 0.3476635769170362 0 -0.2063862942472999 0.35513297594545679 0 -0.1990287330937679 0.36200601172682167 0 -0.18895487548730391 0.35717256656726237 0 -0.19919131104944551 0.3476635769170362 0 -0.18891152584081439 0.34755395961872609 0 -0.19683860913770521 0.34763848915284212 0 -0.20206798448888391 0.34131442093363279 0 -0.18891152584081439 0.34755395961872609 0 -0.20206798448888391 0.34131442093363279 0 -0.19919131104944551 0.3476635769170362 0 -0.19683860913770521 0.34763848915284212 0 -0.20206798448888391 0.34131442093363279 0 -0.19683860913770521 0.34763848915284212 0 -0.20206798448888391 0.34131442093363279 0 -0.19919131104944551 0.3476635769170362 0 -0.19683860913770521 0.34763848915284212 0 -0.19919131104944551 0.3476635769170362 0 -0.21218322392106359 0.34780211467439331 0 -0.21015481537899311 0.33747918718810788 0 -0.19919131104944551 0.3476635769170362 0 -0.21218322392106359 0.34780211467439331 0 -0.19919131104944551 0.3476635769170362 0 -0.2063862942472999 0.35513297594545679 0 -0.21218322392106359 0.34780211467439331 0 -0.2063862942472999 0.35513297594545679 0 -0.21655684370411191 0.3535600745968992 0 -0.20991500494565829 0.36229611192001188 0 -0.2063862942472999 0.35513297594545679 0 -0.21655684370411191 0.3535600745968992 0 -0.21218322392106359 0.34780211467439331 0 -0.21655684370411191 0.3535600745968992 0 -0.21218322392106359 0.34780211467439331 0 -0.21763880722213191 0.34156719967384458 0 -0.21047234143722779 0.37204181356124832 0 -0.20447906623287371 0.36726335424727902 0 -0.20991500494565829 0.36229611192001188 0 -0.19943229032995041 0.37312591810137219 0 -0.21047234143722779 0.37204181356124832 0 -0.20447906623287371 0.36726335424727902 0 -0.1990287330937679 0.36200601172682167 0 -0.20447906623287371 0.36726335424727902 0 -0.20991500494565829 0.36229611192001188 0 -0.1990287330937679 0.36200601172682167 0 -0.2063862942472999 0.35513297594545679 0 -0.20991500494565829 0.36229611192001188 0 -0.21047234143722779 0.37204181356124832 0 -0.20991500494565829 0.36229611192001188 0 -0.21844689384747601 0.36418923709297391 0 -0.21655684370411191 0.3535600745968992 0 -0.20991500494565829 0.36229611192001188 0 -0.21844689384747601 0.36418923709297391 0 -0.21047234143722779 0.37204181356124832 0 -0.21844689384747601 0.36418923709297391 0 -0.22020829545972739 0.37274929056908179 0 -0.22020829545972739 0.37274929056908179 0 -0.22969731770877591 0.37447434519136508 0 -0.22751765044067249 0.36694176310520238 0 -0.21844689384747601 0.36418923709297391 0 -0.22020829545972739 0.37274929056908179 0 -0.22751765044067249 0.36694176310520238 0 -0.22969731770877591 0.37447434519136508 0 -0.22751765044067249 0.36694176310520238 0 -0.2363782431787369 0.37020284557565031 0 -0.22751765044067249 0.36694176310520238 0 -0.2363782431787369 0.37020284557565031 0 -0.23443223533832311 0.36170954208896672 0 -0.22751765044067249 0.36694176310520238 0 -0.2251783145570726 0.35767262075029632 0 -0.23443223533832311 0.36170954208896672 0 -0.21844689384747601 0.36418923709297391 0 -0.22751765044067249 0.36694176310520238 0 -0.2251783145570726 0.35767262075029632 0 -0.21655684370411191 0.3535600745968992 0 -0.21844689384747601 0.36418923709297391 0 -0.2251783145570726 0.35767262075029632 0 -0.21655684370411191 0.3535600745968992 0 -0.2251783145570726 0.35767262075029632 0 -0.2259415599017861 0.34541428636038352 0 -0.21655684370411191 0.3535600745968992 0 -0.2259415599017861 0.34541428636038352 0 -0.21763880722213191 0.34156719967384458 0 -0.2259415599017861 0.34541428636038352 0 -0.2319311782442918 0.35164072461913493 0 -0.23817818013140279 0.34125229153523851 0 -0.2251783145570726 0.35767262075029632 0 -0.2319311782442918 0.35164072461913493 0 -0.23443223533832311 0.36170954208896672 0 -0.2251783145570726 0.35767262075029632 0 -0.2259415599017861 0.34541428636038352 0 -0.2319311782442918 0.35164072461913493 0 -0.2319311782442918 0.35164072461913493 0 -0.2401512479996504 0.35485552222905631 0 -0.23443223533832311 0.36170954208896672 0 -0.2319311782442918 0.35164072461913493 0 -0.2401512479996504 0.35485552222905631 0 -0.23817818013140279 0.34125229153523851 0 -0.2401512479996504 0.35485552222905631 0 -0.24931110960080999 0.34956578338164179 0 -0.23817818013140279 0.34125229153523851 0 -0.25013698891243169 0.36042207492819578 0 -0.2401512479996504 0.35485552222905631 0 -0.24931110960080999 0.34956578338164179 0 -0.25013698891243169 0.36042207492819578 0 -0.2401512479996504 0.35485552222905631 0 -0.24109569930333549 0.36397402336092588 0 -0.25013698891243169 0.36042207492819578 0 -0.24437978108753519 0.37268013198276051 0 -0.24109569930333549 0.36397402336092588 0 -0.25290804108530268 0.3738556417100492 0 -0.25013698891243169 0.36042207492819578 0 -0.24437978108753519 0.37268013198276051 0 -0.24437978108753519 0.37268013198276051 0 -0.2363782431787369 0.37020284557565031 0 -0.24109569930333549 0.36397402336092588 0 -0.23756097464447151 0.37848409563832158 0 -0.24437978108753519 0.37268013198276051 0 -0.2363782431787369 0.37020284557565031 0 -0.23756097464447151 0.37848409563832158 0 -0.22969731770877591 0.37447434519136508 0 -0.2363782431787369 0.37020284557565031 0 -0.2363782431787369 0.37020284557565031 0 -0.23443223533832311 0.36170954208896672 0 -0.24109569930333549 0.36397402336092588 0 -0.2401512479996504 0.35485552222905631 0 -0.23443223533832311 0.36170954208896672 0 -0.24109569930333549 0.36397402336092588 0 -0.26361768802922342 0.31212406153912858 0 -0.24111720852450971 0.32279506473674557 0 -0.23779655217768911 0.3183518374477855 0 -0.26361768802922342 0.31212406153912858 0 -0.23779655217768911 0.3183518374477855 0 -0.23436961135623169 0.31498520059168772 0 -0.24111720852450971 0.32279506473674557 0 -0.23436961135623169 0.31498520059168772 0 -0.24111720852450971 0.32279506473674557 0 -0.23779655217768911 0.3183518374477855 0 -0.23436961135623169 0.31498520059168772 0 -0.23779655217768911 0.3183518374477855 0 -0.23436961135623169 0.31498520059168772 0 -0.25230409672890253 0.33574309273892178 0 -0.24111720852450971 0.32279506473674557 0 -0.23817818013140279 0.34125229153523851 0 -0.25230409672890253 0.33574309273892178 0 -0.24111720852450971 0.32279506473674557 0 -0.24111720852450971 0.32279506473674557 0 -0.23817818013140279 0.34125229153523851 0 -0.2273712029837818 0.32931419998667583 0 -0.25230409672890253 0.33574309273892178 0 -0.24931110960080999 0.34956578338164179 0 -0.23817818013140279 0.34125229153523851 0 -0.2259415599017861 0.34541428636038352 0 -0.2273712029837818 0.32931419998667583 0 -0.21763880722213191 0.34156719967384458 0 -0.2259415599017861 0.34541428636038352 0 -0.23817818013140279 0.34125229153523851 0 -0.2273712029837818 0.32931419998667583 0 -0.2273712029837818 0.32931419998667583 0 -0.21333009062427899 0.33452956089868618 0 -0.2273712029837818 0.32931419998667583 0 -0.21763880722213191 0.34156719967384458 0 -0.21333009062427899 0.33452956089868618 0 -0.2273712029837818 0.32931419998667583 0 -0.23436961135623169 0.31498520059168772 0 -0.21333009062427899 0.33452956089868618 0 -0.23436961135623169 0.31498520059168772 0 -0.21333009062427899 0.33452956089868618 0 -0.23095511348401401 0.31103316198585901 0 -0.23436961135623169 0.31498520059168772 0 -0.21333009062427899 0.33452956089868618 0 -0.24111720852450971 0.32279506473674557 0 -0.2273712029837818 0.32931419998667583 0 -0.23436961135623169 0.31498520059168772 0 -0.24111720852450971 0.32279506473674557 0 -0.2273712029837818 0.32931419998667583 0 -0.23436961135623169 0.31498520059168772 0 -0.23095511348401401 0.31103316198585901 0 -0.23436961135623169 0.31498520059168772 0 -0.23324890844559501 0.3111807439700171 0 -0.21333009062427899 0.33452956089868618 0 -0.20782105187013319 0.30954472436532471 0 -0.23095511348401401 0.31103316198585901 0 -0.21333009062427899 0.33452956089868618 0 -0.21108687226168621 0.3304075615658662 0 -0.20782105187013319 0.30954472436532471 0 -0.21333009062427899 0.33452956089868618 0 -0.20782105187013319 0.30954472436532471 0 -0.20324196905272149 0.32237139571303869 0 -0.21108687226168621 0.3304075615658662 0 -0.20782105187013319 0.30954472436532471 0 -0.20324196905272149 0.32237139571303869 0 -0.21108687226168621 0.3304075615658662 0 -0.20053484459300119 0.33086437552815651 0 -0.21218322392106359 0.34780211467439331 0 -0.21763880722213191 0.34156719967384458 0 -0.21015481537899311 0.33747918718810788 0 -0.21763880722213191 0.34156719967384458 0 -0.21333009062427899 0.33452956089868618 0 -0.21015481537899311 0.33747918718810788 0 -0.21333009062427899 0.33452956089868618 0 -0.21015481537899311 0.33747918718810788 0 -0.21333009062427899 0.33452956089868618 0 -0.21108687226168621 0.3304075615658662 0 -0.21015481537899311 0.33747918718810788 0 -0.21108687226168621 0.3304075615658662 0 -0.20206798448888391 0.34131442093363279 0 -0.20053484459300119 0.33086437552815651 0 -0.21108687226168621 0.3304075615658662 0 -0.20206798448888391 0.34131442093363279 0 -0.19919131104944551 0.3476635769170362 0 -0.21015481537899311 0.33747918718810788 0 -0.20206798448888391 0.34131442093363279 0 -0.21015481537899311 0.33747918718810788 0 -0.20206798448888391 0.34131442093363279 0 -0.19919131104944551 0.3476635769170362 0 -0.21015481537899311 0.33747918718810788 0 -0.21108687226168621 0.3304075615658662 0 -0.21015481537899311 0.33747918718810788 0 -0.20206798448888391 0.34131442093363279 0 -0.18891152584081439 0.34755395961872609 0 -0.20206798448888391 0.34131442093363279 0 -0.1952698731785362 0.33848423269302202 0 -0.20206798448888391 0.34131442093363279 0 -0.20053484459300119 0.33086437552815651 0 -0.1952698731785362 0.33848423269302202 0 -0.185145212308329 0.32705195644964369 0 -0.18956513779144579 0.33420417469157387 0 -0.1923952675718674 0.32413375498961278 0 -0.20053484459300119 0.33086437552815651 0 -0.18956513779144579 0.33420417469157387 0 -0.1952698731785362 0.33848423269302202 0 -0.20053484459300119 0.33086437552815651 0 -0.18956513779144579 0.33420417469157387 0 -0.1923952675718674 0.32413375498961278 0 -0.18891152584081439 0.34755395961872609 0 -0.18956513779144579 0.33420417469157387 0 -0.1952698731785362 0.33848423269302202 0 -0.1982137340385926 0.31841575160056651 0 -0.18983841364249041 0.3148084349979593 0 -0.20782105187013319 0.30954472436532471 0 -0.20324196905272149 0.32237139571303869 0 -0.1982137340385926 0.31841575160056651 0 -0.20782105187013319 0.30954472436532471 0 -0.20324196905272149 0.32237139571303869 0 -0.20053484459300119 0.33086437552815651 0 -0.1985964538140457 0.32394631945784358 0 -0.20324196905272149 0.32237139571303869 0 -0.1982137340385926 0.31841575160056651 0 -0.1985964538140457 0.32394631945784358 0 -0.20053484459300119 0.33086437552815651 0 -0.1985964538140457 0.32394631945784358 0 -0.1923952675718674 0.32413375498961278 0 -0.1982137340385926 0.31841575160056651 0 -0.1985964538140457 0.32394631945784358 0 -0.1923952675718674 0.32413375498961278 0 -0.1982137340385926 0.31841575160056651 0 -0.1923952675718674 0.32413375498961278 0 -0.18983841364249041 0.3148084349979593 0 -0.18085654929183709 0.32051846040107451 0 -0.1923952675718674 0.32413375498961278 0 -0.18983841364249041 0.3148084349979593 0 -0.20782105187013319 0.30954472436532471 0 -0.18129620578495889 0.30783812483036188 0 -0.20782105187013319 0.30954472436532471 0 -0.20512060648249131 0.29729754485027621 0 -0.18129620578495889 0.30783812483036188 0 -0.18983841364249041 0.3148084349979593 0 -0.20782105187013319 0.30954472436532471 0 -0.18129620578495889 0.30783812483036188 0 -0.20512060648249131 0.29729754485027621 0 -0.1770120885195243 0.29561212733020042 0 -0.18129620578495889 0.30783812483036188 0 -0.19888730759529799 0.29058631156216919 0 -0.20512060648249131 0.29729754485027621 0 -0.1770120885195243 0.29561212733020042 0 -0.20512060648249131 0.29729754485027621 0 -0.1770120885195243 0.29561212733020042 0 -0.19888730759529799 0.29058631156216919 0 -0.18971533855842251 0.28027900102146153 0 -0.1770120885195243 0.29561212733020042 0 -0.19888730759529799 0.29058631156216919 0 -0.20188151216473829 0.28260746085252603 0 -0.20512060648249131 0.29729754485027621 0 -0.19888730759529799 0.29058631156216919 0 -0.20188151216473829 0.28260746085252603 0 -0.18971533855842251 0.28027900102146153 0 -0.19888730759529799 0.29058631156216919 0 -0.20188151216473829 0.28260746085252603 0 -0.20188151216473829 0.28260746085252603 0 -0.20512060648249131 0.29729754485027621 0 -0.21985086836803661 0.29818078748476767 0 -0.20188151216473829 0.28260746085252603 0 -0.21985086836803661 0.29818078748476767 0 -0.20324850884328399 0.27896473632728491 0 -0.21985086836803661 0.29818078748476767 0 -0.20324850884328399 0.27896473632728491 0 -0.21985086836803661 0.29818078748476767 0 -0.2200276237484329 0.29033234993457691 0 -0.20324850884328399 0.27896473632728491 0 -0.20188151216473829 0.28260746085252603 0 -0.20512060648249131 0.29729754485027621 0 -0.20782105187013319 0.30954472436532471 0 -0.20512060648249131 0.29729754485027621 0 -0.21985086836803661 0.29818078748476767 0 -0.20782105187013319 0.30954472436532471 0 -0.20512060648249131 0.29729754485027621 0 -0.20512060648249131 0.29729754485027621 0 -0.21985086836803661 0.29818078748476767 0 -0.23324890844559501 0.3111807439700171 0 -0.2200276237484329 0.29033234993457691 0 -0.23694379911766311 0.29641863380189992 0 -0.23324890844559501 0.3111807439700171 0 -0.2200276237484329 0.29033234993457691 0 -0.23324890844559501 0.3111807439700171 0 -0.22252503121021719 0.29834113321739142 0 -0.2200276237484329 0.29033234993457691 0 -0.20782105187013319 0.30954472436532471 0 -0.23095511348401401 0.31103316198585901 0 -0.20782105187013319 0.30954472436532471 0 -0.23095511348401401 0.31103316198585901 0 -0.21985086836803661 0.29818078748476767 0 -0.23324890844559501 0.3111807439700171 0 -0.23095511348401401 0.31103316198585901 0 -0.22252503121021719 0.29834113321739142 0 -0.23436961135623169 0.31498520059168772 0 -0.23324890844559501 0.3111807439700171 0 -0.23095511348401401 0.31103316198585901 0 -0.23436961135623169 0.31498520059168772 0 -0.23324890844559501 0.3111807439700171 0 -0.23476681729957999 0.31127840570709142 0 -0.23324890844559501 0.3111807439700171 0 -0.23476681729957999 0.31127840570709142 0 -0.23324890844559501 0.3111807439700171 0 -0.23095511348401401 0.31103316198585901 0 -0.23095511348401401 0.31103316198585901 0 -0.22252503121021719 0.29834113321739142 0 -0.21985086836803661 0.29818078748476767 0 -0.23095511348401401 0.31103316198585901 0 -0.21985086836803661 0.29818078748476767 0 -0.22252503121021719 0.29834113321739142 0 -0.21985086836803661 0.29818078748476767 0 -0.2200276237484329 0.29033234993457691 0 -0.23694379911766311 0.29641863380189992 0 -0.24013215390960629 0.27688613297126707 0 -0.22252503121021719 0.29834113321739142 0 -0.21985086836803661 0.29818078748476767 0 -0.2200276237484329 0.29033234993457691 0 -0.25612174437497598 0.29477886934581687 0 -0.23694379911766311 0.29641863380189992 0 -0.24013215390960629 0.27688613297126707 0 -0.25612174437497598 0.29477886934581687 0 -0.23436961135623169 0.31498520059168772 0 -0.23476681729957999 0.31127840570709142 0 -0.25612174437497598 0.29477886934581687 0 -0.23694379911766311 0.29641863380189992 0 -0.23476681729957999 0.31127840570709142 0 -0.25612174437497598 0.29477886934581687 0 -0.23436961135623169 0.31498520059168772 0 -0.23324890844559501 0.3111807439700171 0 -0.23694379911766311 0.29641863380189992 0 -0.23476681729957999 0.31127840570709142 0 -0.2419990777252152 0.25293648704472099 0 -0.24013215390960629 0.27688613297126707 0 -0.22517260394651531 0.26614107237684492 0 -0.25952997509010678 0.26413212719712081 0 -0.2419990777252152 0.25293648704472099 0 -0.24013215390960629 0.27688613297126707 0 -0.2200276237484329 0.29033234993457691 0 -0.24013215390960629 0.27688613297126707 0 -0.22517260394651531 0.26614107237684492 0 -0.2419990777252152 0.25293648704472099 0 -0.21490162638859439 0.2479119197812811 0 -0.2419990777252152 0.25293648704472099 0 -0.22517260394651531 0.26614107237684492 0 -0.21490162638859439 0.2479119197812811 0 -0.20680633905127091 0.26948395589913671 0 -0.1969000237016991 0.25386287439473609 0 -0.21490162638859439 0.2479119197812811 0 -0.20680633905127091 0.26948395589913671 0 -0.21490162638859439 0.2479119197812811 0 -0.22517260394651531 0.26614107237684492 0 -0.20680633905127091 0.26948395589913671 0 -0.21490162638859439 0.2479119197812811 0 -0.2200276237484329 0.29033234993457691 0 -0.20680633905127091 0.26948395589913671 0 -0.2200276237484329 0.29033234993457691 0 -0.20680633905127091 0.26948395589913671 0 -0.20324850884328399 0.27896473632728491 0 -0.2200276237484329 0.29033234993457691 0 -0.22517260394651531 0.26614107237684492 0 -0.20680633905127091 0.26948395589913671 0 -0.20680633905127091 0.26948395589913671 0 -0.20324850884328399 0.27896473632728491 0 -0.20680633905127091 0.26948395589913671 0 -0.20324850884328399 0.27896473632728491 0 -0.20033467627648729 0.27559218222830578 0 -0.20033467627648729 0.27559218222830578 0 -0.18971533855842251 0.28027900102146153 0 -0.1872646715440206 0.2604645806850896 0 -0.20188151216473829 0.28260746085252603 0 -0.20033467627648729 0.27559218222830578 0 -0.18971533855842251 0.28027900102146153 0 -0.20188151216473829 0.28260746085252603 0 -0.20033467627648729 0.27559218222830578 0 -0.20188151216473829 0.28260746085252603 0 -0.20324850884328399 0.27896473632728491 0 -0.20033467627648729 0.27559218222830578 0 -0.20188151216473829 0.28260746085252603 0 -0.20324850884328399 0.27896473632728491 0 -0.20324850884328399 0.27896473632728491 0 -0.20033467627648729 0.27559218222830578 0 -0.20033467627648729 0.27559218222830578 0 -0.19699554568844041 0.26044840930728608 0 -0.20680633905127091 0.26948395589913671 0 -0.20033467627648729 0.27559218222830578 0 -0.19699554568844041 0.26044840930728608 0 -0.20033467627648729 0.27559218222830578 0 -0.1872646715440206 0.2604645806850896 0 -0.1969000237016991 0.25386287439473609 0 -0.19422753500318671 0.24927008917741861 0 -0.21490162638859439 0.2479119197812811 0 -0.1969000237016991 0.25386287439473609 0 -0.19699554568844041 0.26044840930728608 0 -0.19207355326670039 0.2563579636235741 0 -0.20680633905127091 0.26948395589913671 0 -0.1969000237016991 0.25386287439473609 0 -0.20680633905127091 0.26948395589913671 0 -0.1969000237016991 0.25386287439473609 0 -0.19699554568844041 0.26044840930728608 0 -0.20033467627648729 0.27559218222830578 0 -0.19699554568844041 0.26044840930728608 0 -0.1872646715440206 0.2604645806850896 0 -0.19699554568844041 0.26044840930728608 0 -0.19207355326670039 0.2563579636235741 0 -0.1872646715440206 0.2604645806850896 0 -0.19207355326670039 0.2563579636235741 0 -0.18950928732507449 0.25308855862167973 0 -0.1872646715440206 0.2604645806850896 0 -0.19207355326670039 0.2563579636235741 0 -0.18950928732507449 0.25308855862167973 0 -0.19422753500318671 0.24927008917741861 0 -0.1969000237016991 0.25386287439473609 0 -0.19207355326670039 0.2563579636235741 0 -0.19422753500318671 0.24927008917741861 0 -0.1872646715440206 0.2604645806850896 0 -0.16692061718588039 0.26216235265565202 0 -0.17419466681155291 0.24533697914187419 0 -0.1872646715440206 0.2604645806850896 0 -0.17419466681155291 0.24533697914187419 0 -0.18523891074017471 0.24700351220784261 0 -0.18950928732507449 0.25308855862167973 0 -0.1872646715440206 0.2604645806850896 0 -0.18523891074017471 0.24700351220784261 0 -0.1872646715440206 0.2604645806850896 0 -0.17419466681155291 0.24533697914187419 0 -0.15080605250994189 0.2509115815981382 0 -0.15020312497912239 0.2546436794913306 0 -0.17419466681155291 0.24533697914187419 0 -0.16692061718588039 0.26216235265565202 0 -0.15020312497912239 0.2546436794913306 0 -0.17419466681155291 0.24533697914187419 0 -0.16484959687625761 0.27726751789666942 0 -0.15676194440302049 0.28433257382407401 0 -0.1477491970139613 0.26983339785823662 0 -0.16692061718588039 0.26216235265565202 0 -0.16484959687625761 0.27726751789666942 0 -0.1477491970139613 0.26983339785823662 0 -0.16692061718588039 0.26216235265565202 0 -0.16484959687625761 0.27726751789666942 0 -0.17715246253682099 0.27515711591781461 0 -0.1872646715440206 0.2604645806850896 0 -0.16692061718588039 0.26216235265565202 0 -0.17715246253682099 0.27515711591781461 0 -0.18971533855842251 0.28027900102146153 0 -0.1872646715440206 0.2604645806850896 0 -0.17715246253682099 0.27515711591781461 0 -0.18971533855842251 0.28027900102146153 0 -0.17715246253682099 0.27515711591781461 0 -0.1770120885195243 0.29561212733020042 0 -0.16484959687625761 0.27726751789666942 0 -0.17715246253682099 0.27515711591781461 0 -0.1770120885195243 0.29561212733020042 0 -0.16741700534784271 0.313583066958524 0 -0.17421600553906061 0.31597224189195228 0 -0.18129620578495889 0.30783812483036188 0 -0.1770120885195243 0.29561212733020042 0 -0.18129620578495889 0.30783812483036188 0 -0.15477135969978459 0.30613152529539928 0 -0.18129620578495889 0.30783812483036188 0 -0.15477135969978459 0.30613152529539928 0 -0.16741700534784271 0.313583066958524 0 -0.18129620578495889 0.30783812483036188 0 -0.15477135969978459 0.30613152529539928 0 -0.1770120885195243 0.29561212733020042 0 -0.14890357055655751 0.29392670981012209 0 -0.15477135969978459 0.30613152529539928 0 -0.1579847350986246 0.31633475918929083 0 -0.16741700534784271 0.313583066958524 0 -0.15477135969978459 0.30613152529539928 0 -0.1770120885195243 0.29561212733020042 0 -0.14890357055655751 0.29392670981012209 0 -0.1770120885195243 0.29561212733020042 0 -0.15676194440302049 0.28433257382407401 0 -0.14890357055655751 0.29392670981012209 0 -0.16484959687625761 0.27726751789666942 0 -0.1770120885195243 0.29561212733020042 0 -0.15676194440302049 0.28433257382407401 0 -0.15676194440302049 0.28433257382407401 0 -0.14890357055655751 0.29392670981012209 0 -0.14529526904879969 0.28502311622514259 0 -0.14390529397997651 0.29362700767273542 0 -0.14529526904879969 0.28502311622514259 0 -0.14890357055655751 0.29392670981012209 0 -0.14529526904879969 0.28502311622514259 0 -0.14890357055655751 0.29392670981012209 0 -0.14390529397997651 0.29362700767273542 0 -0.14529526904879969 0.28502311622514259 0 -0.14890357055655751 0.29392670981012209 0 -0.14390529397997651 0.29362700767273542 0 -0.14390529397997651 0.29362700767273542 0 -0.14529526904879969 0.28502311622514259 0 -0.13423183353405599 0.28540722228863619 0 -0.1579847350986246 0.31633475918929083 0 -0.14153783749322921 0.30828147096186159 0 -0.1579847350986246 0.31633475918929083 0 -0.14890357055655751 0.29392670981012209 0 -0.15477135969978459 0.30613152529539928 0 -0.1579847350986246 0.31633475918929083 0 -0.14890357055655751 0.29392670981012209 0 -0.1579847350986246 0.31633475918929083 0 -0.14890357055655751 0.29392670981012209 0 -0.14153783749322921 0.30828147096186159 0 -0.14890357055655751 0.29392670981012209 0 -0.14390529397997651 0.29362700767273542 0 -0.14153783749322921 0.30828147096186159 0 -0.14390529397997651 0.29362700767273542 0 -0.14153783749322921 0.30828147096186159 0 -0.14153783749322921 0.30828147096186159 0 -0.1243204009912955 0.29985088532714921 0 -0.1200149295023538 0.32122124578067102 0 -0.14153783749322921 0.30828147096186159 0 -0.1243204009912955 0.29985088532714921 0 -0.14390529397997651 0.29362700767273542 0 -0.14153783749322921 0.30828147096186159 0 -0.1243204009912955 0.29985088532714921 0 -0.14390529397997651 0.29362700767273542 0 -0.12550412923466861 0.2925236536825867 0 -0.1243204009912955 0.29985088532714921 0 -0.14390529397997651 0.29362700767273542 0 -0.12550412923466861 0.2925236536825867 0 -0.14390529397997651 0.29362700767273542 0 -0.13423183353405599 0.28540722228863619 0 -0.12550412923466861 0.2925236536825867 0 -0.14529526904879969 0.28502311622514259 0 -0.13423183353405599 0.28540722228863619 0 -0.1330037197495082 0.27569099839950217 0 -0.13423183353405599 0.28540722228863619 0 -0.12550412923466861 0.2925236536825867 0 -0.1234507556573279 0.28017133546321421 0 -0.1355266931395111 0.26033690063920339 0 -0.11831606392684139 0.27095355460316778 0 -0.1330037197495082 0.27569099839950217 0 -0.1249246084536931 0.2743639077932753 0 -0.1234507556573279 0.28017133546321421 0 -0.14529526904879969 0.28502311622514259 0 -0.1355266931395111 0.26033690063920339 0 -0.13423183353405599 0.28540722228863619 0 -0.1330037197495082 0.27569099839950217 0 -0.1234507556573279 0.28017133546321421 0 -0.1290752114230965 0.26961104510022887 0 -0.1355266931395111 0.26033690063920339 0 -0.11831606392684139 0.27095355460316778 0 -0.14529526904879969 0.28502311622514259 0 -0.1330037197495082 0.27569099839950217 0 -0.1355266931395111 0.26033690063920339 0 -0.1330037197495082 0.27569099839950217 0 -0.1290752114230965 0.26961104510022887 0 -0.1355266931395111 0.26033690063920339 0 -0.1330037197495082 0.27569099839950217 0 -0.1290752114230965 0.26961104510022887 0 -0.1249246084536931 0.2743639077932753 0 -0.1355266931395111 0.26033690063920339 0 -0.1204693105274901 0.25832786696498372 0 -0.12654932572426339 0.23876693159931081 0 -0.1355266931395111 0.26033690063920339 0 -0.15020312497912239 0.2546436794913306 0 -0.1477491970139613 0.26983339785823662 0 -0.16692061718588039 0.26216235265565202 0 -0.15020312497912239 0.2546436794913306 0 -0.1477491970139613 0.26983339785823662 0 -0.1355266931395111 0.26033690063920339 0 -0.15080605250994189 0.2509115815981382 0 -0.13753920806889611 0.24804208742008771 0 -0.1355266931395111 0.26033690063920339 0 -0.15080605250994189 0.2509115815981382 0 -0.15020312497912239 0.2546436794913306 0 -0.1355266931395111 0.26033690063920339 0 -0.15020312497912239 0.2546436794913306 0 -0.1355266931395111 0.26033690063920339 0 -0.15080605250994189 0.2509115815981382 0 -0.15080605250994189 0.2509115815981382 0 -0.15020312497912239 0.2546436794913306 0 -0.15020312497912239 0.2546436794913306 0 -0.1477491970139613 0.26983339785823662 0 -0.14529526904879969 0.28502311622514259 0 -0.1355266931395111 0.26033690063920339 0 -0.1477491970139613 0.26983339785823662 0 -0.15676194440302049 0.28433257382407401 0 -0.14529526904879969 0.28502311622514259 0 -0.1477491970139613 0.26983339785823662 0 -0.14529526904879969 0.28502311622514259 0 -0.1477491970139613 0.26983339785823662 0 -0.1018839670273729 0.27188498094534558 0 -0.1041885249694095 0.2640934756760609 0 -0.1108986617350682 0.26989050540870929 0 -0.1018839670273729 0.27188498094534558 0 -0.1108986617350682 0.26989050540870929 0 -0.1012912518496599 0.28145558427282669 0 -0.09638562342688281 0.27531518231215307 0 -0.1012912518496599 0.28145558427282669 0 -0.093259782363701721 0.28092606518439278 0 -0.1018839670273729 0.27188498094534558 0 -0.09638562342688281 0.27531518231215307 0 -0.1012912518496599 0.28145558427282669 0 -0.1018839670273729 0.27188498094534558 0 -0.096164990964494629 0.26761781546297991 0 -0.1041885249694095 0.2640934756760609 0 -0.1018839670273729 0.27188498094534558 0 -0.09638562342688281 0.27531518231215307 0 -0.096164990964494629 0.26761781546297991 0 -0.096164990964494629 0.26761781546297991 0 -0.09737855826487482 0.25720975253264677 0 -0.08783196166619564 0.26043889480308002 0 -0.096164990964494629 0.26761781546297991 0 -0.09737855826487482 0.25720975253264677 0 -0.1041885249694095 0.2640934756760609 0 -0.09737855826487482 0.25720975253264677 0 -0.1000966024206025 0.24603533827206769 0 -0.09001103415809375 0.24995591684023821 0 -0.09737855826487482 0.25720975253264677 0 -0.1059782354104529 0.25511707414145401 0 -0.1000966024206025 0.24603533827206769 0 -0.1041885249694095 0.2640934756760609 0 -0.112085834079476 0.26045841366712852 0 -0.1108986617350682 0.26989050540870929 0 -0.1059782354104529 0.25511707414145401 0 -0.1041885249694095 0.2640934756760609 0 -0.112085834079476 0.26045841366712852 0 -0.09737855826487482 0.25720975253264677 0 -0.1059782354104529 0.25511707414145401 0 -0.1041885249694095 0.2640934756760609 0 -0.1355266931395111 0.26033690063920339 0 -0.1108986617350682 0.26989050540870929 0 -0.112085834079476 0.26045841366712852 0 -0.1204693105274901 0.25832786696498372 0 -0.1108986617350682 0.26989050540870929 0 -0.1355266931395111 0.26033690063920339 0 -0.1204693105274901 0.25832786696498372 0 -0.1108986617350682 0.26989050540870929 0 -0.1059782354104529 0.25511707414145401 0 -0.112085834079476 0.26045841366712852 0 -0.1118507546894966 0.24845023294428681 0 -0.112085834079476 0.26045841366712852 0 -0.1204693105274901 0.25832786696498372 0 -0.1118507546894966 0.24845023294428681 0 -0.11831606392684139 0.27095355460316778 0 -0.1108986617350682 0.26989050540870929 0 -0.1012912518496599 0.28145558427282669 0 -0.11831606392684139 0.27095355460316778 0 -0.1012912518496599 0.28145558427282669 0 -0.1355266931395111 0.26033690063920339 0 -0.11831606392684139 0.27095355460316778 0 -0.1108986617350682 0.26989050540870929 0 -0.11831606392684139 0.27095355460316778 0 -0.1129626587512412 0.28132561724835009 0 -0.1012912518496599 0.28145558427282669 0 -0.1290752114230965 0.26961104510022887 0 -0.11831606392684139 0.27095355460316778 0 -0.1249246084536931 0.2743639077932753 0 -0.11831606392684139 0.27095355460316778 0 -0.1193163840466625 0.27686455163511459 0 -0.1129626587512412 0.28132561724835009 0 -0.1193163840466625 0.27686455163511459 0 -0.1234507556573279 0.28017133546321421 0 -0.1129626587512412 0.28132561724835009 0 -0.11831606392684139 0.27095355460316778 0 -0.1193163840466625 0.27686455163511459 0 -0.1249246084536931 0.2743639077932753 0 -0.1193163840466625 0.27686455163511459 0 -0.1249246084536931 0.2743639077932753 0 -0.1234507556573279 0.28017133546321421 0 -0.12550412923466861 0.2925236536825867 0 -0.1129626587512412 0.28132561724835009 0 -0.1071029644893606 0.29142029969243921 0 -0.12550412923466861 0.2925236536825867 0 -0.1234507556573279 0.28017133546321421 0 -0.1129626587512412 0.28132561724835009 0 -0.12550412923466861 0.2925236536825867 0 -0.1071029644893606 0.29142029969243921 0 -0.1243204009912955 0.29985088532714921 0 -0.1071029644893606 0.29142029969243921 0 -0.12550412923466861 0.2925236536825867 0 -0.1243204009912955 0.29985088532714921 0 -0.1071029644893606 0.29142029969243921 0 -0.1243204009912955 0.29985088532714921 0 -0.1064512226489296 0.30589458580069567 0 -0.1071029644893606 0.29142029969243921 0 -0.1243204009912955 0.29985088532714921 0 -0.1064512226489296 0.30589458580069567 0 -0.1200149295023538 0.32122124578067102 0 -0.1064512226489296 0.30589458580069567 0 -0.092275405543860017 0.30640893924871992 0 -0.10105370920257301 0.32465452415714158 0 -0.1064512226489296 0.30589458580069567 0 -0.09288751579550529 0.29056792582072039 0 -0.092275405543860017 0.30640893924871992 0 -0.1064512226489296 0.30589458580069567 0 -0.09288751579550529 0.29056792582072039 0 -0.1071638920678781 0.28470762709100428 0 -0.1071029644893606 0.29142029969243921 0 -0.098997533701894735 0.28745144356497337 0 -0.1071638920678781 0.28470762709100428 0 -0.098997533701894735 0.28745144356497337 0 -0.1012912518496599 0.28145558427282669 0 -0.1129626587512412 0.28132561724835009 0 -0.1071638920678781 0.28470762709100428 0 -0.1071029644893606 0.29142029969243921 0 -0.1129626587512412 0.28132561724835009 0 -0.1071638920678781 0.28470762709100428 0 -0.1012912518496599 0.28145558427282669 0 -0.1071029644893606 0.29142029969243921 0 -0.098997533701894735 0.28745144356497337 0 -0.1064512226489296 0.30589458580069567 0 -0.1071029644893606 0.29142029969243921 0 -0.09288751579550529 0.29056792582072039 0 -0.1071029644893606 0.29142029969243921 0 -0.09288751579550529 0.29056792582072039 0 -0.1071029644893606 0.29142029969243921 0 -0.098997533701894735 0.28745144356497337 0 -0.09288751579550529 0.29056792582072039 0 -0.098997533701894735 0.28745144356497337 0 -0.1012912518496599 0.28145558427282669 0 -0.093259782363701721 0.28092606518439278 0 -0.098997533701894735 0.28745144356497337 0 -0.09288751579550529 0.29056792582072039 0 -0.093259782363701721 0.28092606518439278 0 -0.09288751579550529 0.29056792582072039 0 -0.081003241175594431 0.27713898355763678 0 -0.09288751579550529 0.29056792582072039 0 -0.069788545433559113 0.28918288626100219 0 -0.09288751579550529 0.29056792582072039 0 -0.069788545433559113 0.28918288626100219 0 -0.081003241175594431 0.27713898355763678 0 -0.09288751579550529 0.29056792582072039 0 -0.080651490978062235 0.30026763512215521 0 -0.069788545433559113 0.28918288626100219 0 -0.09288751579550529 0.29056792582072039 0 -0.081003241175594431 0.27713898355763678 0 -0.093259782363701721 0.28092606518439278 0 -0.09288751579550529 0.29056792582072039 0 -0.092275405543860017 0.30640893924871992 0 -0.080651490978062235 0.30026763512215521 0 -0.092275405543860017 0.30640893924871992 0 -0.080651490978062235 0.30026763512215521 0 -0.078004369378311414 0.31598930823932792 0 -0.068250117772607574 0.30162375820359011 0 -0.057990039490294798 0.31110589033109293 0 -0.078004369378311414 0.31598930823932792 0 -0.080651490978062235 0.30026763512215521 0 -0.068250117772607574 0.30162375820359011 0 -0.078004369378311414 0.31598930823932792 0 -0.080651490978062235 0.30026763512215521 0 -0.068250117772607574 0.30162375820359011 0 -0.069788545433559113 0.28918288626100219 0 -0.068250117772607574 0.30162375820359011 0 -0.069788545433559113 0.28918288626100219 0 -0.05788742368789801 0.29820619175006952 0 -0.064859725488673525 0.27335016847815591 0 -0.081003241175594431 0.27713898355763678 0 -0.076912573476577956 0.26486425980272982 0 -0.069788545433559113 0.28918288626100219 0 -0.064859725488673525 0.27335016847815591 0 -0.081003241175594431 0.27713898355763678 0 -0.088641776525075669 0.27216926309349659 0 -0.08783196166619564 0.26043889480308002 0 -0.076912573476577956 0.26486425980272982 0 -0.081003241175594431 0.27713898355763678 0 -0.088641776525075669 0.27216926309349659 0 -0.076912573476577956 0.26486425980272982 0 -0.096164990964494629 0.26761781546297991 0 -0.088641776525075669 0.27216926309349659 0 -0.08783196166619564 0.26043889480308002 0 -0.09638562342688281 0.27531518231215307 0 -0.096164990964494629 0.26761781546297991 0 -0.088641776525075669 0.27216926309349659 0 -0.081003241175594431 0.27713898355763678 0 -0.088641776525075669 0.27216926309349659 0 -0.093259782363701721 0.28092606518439278 0 -0.09638562342688281 0.27531518231215307 0 -0.088641776525075669 0.27216926309349659 0 -0.093259782363701721 0.28092606518439278 0 -0.08783196166619564 0.26043889480308002 0 -0.076912573476577956 0.26486425980272982 0 -0.077543192831836513 0.2490590682366626 0 -0.09737855826487482 0.25720975253264677 0 -0.08783196166619564 0.26043889480308002 0 -0.09001103415809375 0.24995591684023821 0 -0.08783196166619564 0.26043889480308002 0 -0.077543192831836513 0.2490590682366626 0 -0.09001103415809375 0.24995591684023821 0 -0.076912573476577956 0.26486425980272982 0 -0.062235378715942993 0.2575407036156 0 -0.077543192831836513 0.2490590682366626 0 -0.064859725488673525 0.27335016847815591 0 -0.076912573476577956 0.26486425980272982 0 -0.062235378715942993 0.2575407036156 0 -0.062235378715942993 0.2575407036156 0 -0.047541637402478777 0.25235478858570443 0 -0.046945053321640888 0.26834754077662148 0 -0.062235378715942993 0.2575407036156 0 -0.047541637402478777 0.25235478858570443 0 -0.063122606478691751 0.2425446012462259 0 -0.064859725488673525 0.27335016847815591 0 -0.046945053321640888 0.26834754077662148 0 -0.046689575071612921 0.287797846701284 0 -0.064859725488673525 0.27335016847815591 0 -0.062235378715942993 0.2575407036156 0 -0.046945053321640888 0.26834754077662148 0 -0.046945053321640888 0.26834754077662148 0 -0.033744549417732639 0.2791280462328477 0 -0.033158238182537131 0.25447225048241212 0 -0.046945053321640888 0.26834754077662148 0 -0.033744549417732639 0.2791280462328477 0 -0.046689575071612921 0.287797846701284 0 -0.047541637402478777 0.25235478858570443 0 -0.046945053321640888 0.26834754077662148 0 -0.033158238182537131 0.25447225048241212 0 -0.033158238182537131 0.25447225048241212 0 -0.019810624336267221 0.2755507448036309 0 -0.016725929346704929 0.2556928351502844 0 -0.019810624336267221 0.2755507448036309 0 -0.033158238182537131 0.25447225048241212 0 -0.016725929346704929 0.2556928351502844 0 -0.019810624336267221 0.2755507448036309 0 -0.033744549417732639 0.2791280462328477 0 -0.033158238182537131 0.25447225048241212 0 -0.019810624336267221 0.2755507448036309 0 -0.016725929346704929 0.2556928351502844 0 -0.019810624336267221 0.2755507448036309 0 -0.0086793527695252833 0.26659395542764408 0 -0.019810624336267221 0.2755507448036309 0 -0.0086793527695252833 0.26659395542764408 0 -0.002429867640735646 0.27818434943237969 0 -0.0086793527695252833 0.26659395542764408 0 -0.002429867640735646 0.27818434943237969 0 0.00013404393218866101 0.26668544968263141 0 -0.0086793527695252833 0.26659395542764408 0 -0.004564386456106905 0.25685639806929428 0 0.00013404393218866101 0.26668544968263141 0 -0.004564386456106905 0.25685639806929428 0 -0.0066167852236678039 0.24551400104462359 0 0.003791674785571924 0.24772290422529519 0 -0.016725929346704929 0.2556928351502844 0 -0.004564386456106905 0.25685639806929428 0 -0.0066167852236678039 0.24551400104462359 0 -0.016725929346704929 0.2556928351502844 0 -0.0086793527695252833 0.26659395542764408 0 -0.004564386456106905 0.25685639806929428 0 -0.00032039209777558631 0.30632963564433752 0 -0.024797042878766801 0.30765111428773101 0 -0.0073196809387918917 0.31630478116898952 0 -0.00032039209777558631 0.30632963564433752 0 -0.024797042878766801 0.30765111428773101 0 -0.00032039209777558631 0.30632963564433752 0 -0.010065508217021291 0.2909401902239841 0 -0.024797042878766801 0.30765111428773101 0 -0.00032039209777558631 0.30632963564433752 0 -0.010065508217021291 0.2909401902239841 0 0.002272398575433739 0.29367378081891471 0 -0.00032039209777558631 0.30632963564433752 0 -0.010065508217021291 0.2909401902239841 0 -0.019810624336267221 0.2755507448036309 0 -0.002429867640735646 0.27818434943237969 0 -0.010065508217021291 0.2909401902239841 0 -0.002429867640735646 0.27818434943237969 0 -0.010065508217021291 0.2909401902239841 0 0.002272398575433739 0.29367378081891471 0 -0.019810624336267221 0.2755507448036309 0 -0.010065508217021291 0.2909401902239841 0 -0.033744549417732639 0.2791280462328477 0 -0.022303833607517039 0.29160092954568101 0 -0.033559971986820293 0.29699896508745699 0 -0.033744549417732639 0.2791280462328477 0 -0.019810624336267221 0.2755507448036309 0 -0.022303833607517039 0.29160092954568101 0 -0.019810624336267221 0.2755507448036309 0 -0.022303833607517039 0.29160092954568101 0 -0.010065508217021291 0.2909401902239841 0 -0.022303833607517039 0.29160092954568101 0 -0.024797042878766801 0.30765111428773101 0 -0.019810624336267221 0.2755507448036309 0 -0.010065508217021291 0.2909401902239841 0 -0.022303833607517039 0.29160092954568101 0 -0.024797042878766801 0.30765111428773101 0 -0.035080465030515179 0.30820630964007201 0 -0.033559971986820293 0.29699896508745699 0 -0.022303833607517039 0.29160092954568101 0 -0.024797042878766801 0.30765111428773101 0 -0.033559971986820293 0.29699896508745699 0 -0.022303833607517039 0.29160092954568101 0 -0.024797042878766801 0.30765111428773101 0 -0.024797042878766801 0.30765111428773101 0 -0.035080465030515179 0.30820630964007201 0 -0.035080465030515179 0.30820630964007201 0 -0.033559971986820293 0.29699896508745699 0 -0.046718840671415643 0.30132057725337819 0 -0.035080465030515179 0.30820630964007201 0 -0.046718840671415643 0.30132057725337819 0 -0.046224983532875519 0.31095755650060808 0 -0.033744549417732639 0.2791280462328477 0 -0.033559971986820293 0.29699896508745699 0 -0.046689575071612921 0.287797846701284 0 -0.033559971986820293 0.29699896508745699 0 -0.046718840671415643 0.30132057725337819 0 -0.046689575071612921 0.287797846701284 0 -0.069788545433559113 0.28918288626100219 0 -0.064859725488673525 0.27335016847815591 0 -0.046689575071612921 0.287797846701284 0 -0.069788545433559113 0.28918288626100219 0 -0.046689575071612921 0.287797846701284 0 -0.069788545433559113 0.28918288626100219 0 -0.046689575071612921 0.287797846701284 0 -0.05788742368789801 0.29820619175006952 0 -0.046718840671415643 0.30132057725337819 0 -0.046689575071612921 0.287797846701284 0 -0.05788742368789801 0.29820619175006952 0 -0.046718840671415643 0.30132057725337819 0 -0.046224983532875519 0.31095755650060808 0 -0.057990039490294798 0.31110589033109293 0 -0.046718840671415643 0.30132057725337819 0 -0.05788742368789801 0.29820619175006952 0 -0.057990039490294798 0.31110589033109293 0 -0.068250117772607574 0.30162375820359011 0 -0.05788742368789801 0.29820619175006952 0 -0.057990039490294798 0.31110589033109293 0 -0.057990039490294798 0.31110589033109293 0 -0.045110588939276441 0.32319744877788908 0 -0.064047286880262039 0.32684540546392088 0 -0.046224983532875519 0.31095755650060808 0 -0.057990039490294798 0.31110589033109293 0 -0.045110588939276441 0.32319744877788908 0 -0.056408554639371847 0.34192227679241999 0 -0.045110588939276441 0.32319744877788908 0 -0.064047286880262039 0.32684540546392088 0 -0.056408554639371847 0.34192227679241999 0 -0.045110588939276441 0.32319744877788908 0 -0.029745462152803701 0.33950686119404511 0 -0.045110588939276441 0.32319744877788908 0 -0.027271252515784449 0.32357898774088822 0 -0.029745462152803701 0.33950686119404511 0 -0.056408554639371847 0.34192227679241999 0 -0.029745462152803701 0.33950686119404511 0 -0.035080465030515179 0.30820630964007201 0 -0.045110588939276441 0.32319744877788908 0 -0.027271252515784449 0.32357898774088822 0 -0.035080465030515179 0.30820630964007201 0 -0.046224983532875519 0.31095755650060808 0 -0.045110588939276441 0.32319744877788908 0 -0.024797042878766801 0.30765111428773101 0 -0.017017764890708761 0.32036778384122028 0 -0.027271252515784449 0.32357898774088822 0 -0.024797042878766801 0.30765111428773101 0 -0.027271252515784449 0.32357898774088822 0 -0.024797042878766801 0.30765111428773101 0 -0.035080465030515179 0.30820630964007201 0 -0.027271252515784449 0.32357898774088822 0 -0.024797042878766801 0.30765111428773101 0 -0.017017764890708761 0.32036778384122028 0 -0.0073196809387918917 0.31630478116898952 0 -0.017017764890708761 0.32036778384122028 0 -0.027271252515784449 0.32357898774088822 0 -0.01959498458670619 0.32968211546373433 0 -0.017017764890708761 0.32036778384122028 0 -0.01959498458670619 0.32968211546373433 0 -0.012145355212834301 0.32930739653553792 0 -0.027271252515784449 0.32357898774088822 0 -0.029745462152803701 0.33950686119404511 0 -0.02415363030457127 0.33900029587809288 0 -0.027271252515784449 0.32357898774088822 0 -0.02415363030457127 0.33900029587809288 0 -0.01959498458670619 0.32968211546373433 0 -0.027271252515784449 0.32357898774088822 0 -0.029745462152803701 0.33950686119404511 0 -0.029745462152803701 0.33950686119404511 0 -0.02415363030457127 0.33900029587809288 0 -0.029745462152803701 0.33950686119404511 0 -0.02415363030457127 0.33900029587809288 0 -0.025089257807807089 0.34635543622108239 0 -0.02415363030457127 0.33900029587809288 0 -0.016183554124338331 0.34221439479260951 0 -0.025089257807807089 0.34635543622108239 0 -0.02415363030457127 0.33900029587809288 0 -0.017887924409333809 0.33599171701546371 0 -0.016183554124338331 0.34221439479260951 0 -0.02415363030457127 0.33900029587809288 0 -0.017887924409333809 0.33599171701546371 0 -0.01959498458670619 0.32968211546373433 0 -0.017887924409333809 0.33599171701546371 0 -0.01959498458670619 0.32968211546373433 0 -0.012145355212834301 0.32930739653553792 0 -0.017887924409333809 0.33599171701546371 0 -0.012145355212834301 0.32930739653553792 0 -0.01018667915839656 0.33605890644529829 0 -0.012145355212834301 0.32930739653553792 0 -0.01018667915839656 0.33605890644529829 0 -0.0050053922650978933 0.32930959642776192 0 -0.016183554124338331 0.34221439479260951 0 -0.01018667915839656 0.33605890644529829 0 -0.0097171709973471829 0.34352630725604932 0 -0.017887924409333809 0.33599171701546371 0 -0.016183554124338331 0.34221439479260951 0 -0.01018667915839656 0.33605890644529829 0 -0.01018667915839656 0.33605890644529829 0 -0.0097171709973471829 0.34352630725604932 0 -0.0022169591028925739 0.34003475710261488 0 -0.01018667915839656 0.33605890644529829 0 -0.0022169591028925739 0.34003475710261488 0 -0.0050053922650978933 0.32930959642776192 0 -0.0022169591028925739 0.34003475710261488 0 -0.0050053922650978933 0.32930959642776192 0 0.0032683553199878181 0.33129555223838958 0 -0.0050053922650978933 0.32930959642776192 0 -0.00096930810877692583 0.32313220051569053 0 0.0032683553199878181 0.33129555223838958 0 -0.0050053922650978933 0.32930959642776192 0 -0.0073344624523362994 0.32321460206398672 0 -0.00096930810877692583 0.32313220051569053 0 -0.0073344624523362994 0.32321460206398672 0 -0.00096930810877692583 0.32313220051569053 0 -0.0073196809387918917 0.31630478116898952 0 -0.00096930810877692583 0.32313220051569053 0 -0.0073196809387918917 0.31630478116898952 0 0.0065208847956155381 0.31713335066096943 0 -0.00032039209777558631 0.30632963564433752 0 -0.0073196809387918917 0.31630478116898952 0 0.0065208847956155381 0.31713335066096943 0 -0.017017764890708761 0.32036778384122028 0 -0.0073344624523362994 0.32321460206398672 0 -0.0073196809387918917 0.31630478116898952 0 -0.017017764890708761 0.32036778384122028 0 -0.012145355212834301 0.32930739653553792 0 -0.0073344624523362994 0.32321460206398672 0 -0.012145355212834301 0.32930739653553792 0 -0.0050053922650978933 0.32930959642776192 0 -0.0073344624523362994 0.32321460206398672 0 -0.0076686872235991448 0.37344720763265937 0 -0.0073873219459194631 0.36168333091019972 0 -0.01861608957053662 0.36476063077242882 0 -0.0073873219459194631 0.36168333091019972 0 -0.014762174057493129 0.35750226177021799 0 -0.01861608957053662 0.36476063077242882 0 -0.0076686872235991448 0.37344720763265937 0 -0.0073873219459194631 0.36168333091019972 0 0.0030432833389739309 0.3686872213646244 0 -0.0073873219459194631 0.36168333091019972 0 0.001025247234433042 0.35787708659393203 0 0.0030432833389739309 0.3686872213646244 0 -0.0073873219459194631 0.36168333091019972 0 -0.0062651488388395593 0.35121833234929339 0 0.001025247234433042 0.35787708659393203 0 -0.0022169591028925739 0.34003475710261488 0 -0.0062651488388395593 0.35121833234929339 0 0.0066219711490996831 0.34891505666914191 0 -0.0097171709973471829 0.34352630725604932 0 -0.0022169591028925739 0.34003475710261488 0 -0.0062651488388395593 0.35121833234929339 0 -0.0097171709973471829 0.34352630725604932 0 -0.0062651488388395593 0.35121833234929339 0 -0.01688746127572234 0.34988561547910502 0 -0.016183554124338331 0.34221439479260951 0 -0.0097171709973471829 0.34352630725604932 0 -0.01688746127572234 0.34988561547910502 0 -0.0062651488388395593 0.35121833234929339 0 -0.014762174057493129 0.35750226177021799 0 -0.01688746127572234 0.34988561547910502 0 -0.0073873219459194631 0.36168333091019972 0 -0.0062651488388395593 0.35121833234929339 0 -0.014762174057493129 0.35750226177021799 0 -0.014762174057493129 0.35750226177021799 0 -0.01688746127572234 0.34988561547910502 0 -0.024405278689527549 0.35663257260671982 0 -0.01688746127572234 0.34988561547910502 0 -0.025089257807807089 0.34635543622108239 0 -0.024405278689527549 0.35663257260671982 0 -0.016183554124338331 0.34221439479260951 0 -0.01688746127572234 0.34988561547910502 0 -0.025089257807807089 0.34635543622108239 0 -0.025089257807807089 0.34635543622108239 0 -0.024405278689527549 0.35663257260671982 0 -0.031411090243902748 0.35022944227939129 0 -0.029745462152803701 0.33950686119404511 0 -0.031411090243902748 0.35022944227939129 0 -0.029745462152803701 0.33950686119404511 0 -0.025089257807807089 0.34635543622108239 0 -0.031411090243902748 0.35022944227939129 0 -0.024405278689527549 0.35663257260671982 0 -0.034943092971367017 0.3650212258081893 0 -0.031411090243902748 0.35022944227939129 0 -0.024163526534932981 0.37380641121506342 0 -0.01861608957053662 0.36476063077242882 0 -0.034943092971367017 0.3650212258081893 0 -0.0076686872235991448 0.37344720763265937 0 -0.024163526534932981 0.37380641121506342 0 -0.01861608957053662 0.36476063077242882 0 -0.024405278689527549 0.35663257260671982 0 -0.01861608957053662 0.36476063077242882 0 -0.034943092971367017 0.3650212258081893 0 -0.014762174057493129 0.35750226177021799 0 -0.024405278689527549 0.35663257260671982 0 -0.01861608957053662 0.36476063077242882 0 -0.034943092971367017 0.3650212258081893 0 -0.055339640862150583 0.36330732969928092 0 -0.043770308492812993 0.38053909799841701 0 -0.024163526534932981 0.37380641121506342 0 -0.034943092971367017 0.3650212258081893 0 -0.043770308492812993 0.38053909799841701 0 -0.034943092971367017 0.3650212258081893 0 -0.041569568173919193 0.35199742715466531 0 -0.055339640862150583 0.36330732969928092 0 -0.056408554639371847 0.34192227679241999 0 -0.029745462152803701 0.33950686119404511 0 -0.041569568173919193 0.35199742715466531 0 -0.029745462152803701 0.33950686119404511 0 -0.031411090243902748 0.35022944227939129 0 -0.041569568173919193 0.35199742715466531 0 -0.034943092971367017 0.3650212258081893 0 -0.031411090243902748 0.35022944227939129 0 -0.041569568173919193 0.35199742715466531 0 -0.056408554639371847 0.34192227679241999 0 -0.041569568173919193 0.35199742715466531 0 -0.055339640862150583 0.36330732969928092 0 -0.055339640862150583 0.36330732969928092 0 -0.071896364411212027 0.3771855066284231 0 -0.043770308492812993 0.38053909799841701 0 -0.055339640862150583 0.36330732969928092 0 -0.076761971411841837 0.36028292396265182 0 -0.071896364411212027 0.3771855066284231 0 -0.076761971411841837 0.36028292396265182 0 -0.085780831888840309 0.37252567947064358 0 -0.092595481949522357 0.36439707468599147 0 -0.085780831888840309 0.37252567947064358 0 -0.092595481949522357 0.36439707468599147 0 -0.10242827258793551 0.36785773789170878 0 -0.076761971411841837 0.36028292396265182 0 -0.092595481949522357 0.36439707468599147 0 -0.092698221134687661 0.35480053989376981 0 -0.076761971411841837 0.36028292396265182 0 -0.085780831888840309 0.37252567947064358 0 -0.071896364411212027 0.3771855066284231 0 -0.076761971411841837 0.36028292396265182 0 -0.083071647125939924 0.34433769239079531 0 -0.092698221134687661 0.35480053989376981 0 -0.056408554639371847 0.34192227679241999 0 -0.055339640862150583 0.36330732969928092 0 -0.076761971411841837 0.36028292396265182 0 -0.056408554639371847 0.34192227679241999 0 -0.076761971411841837 0.36028292396265182 0 -0.083071647125939924 0.34433769239079531 0 -0.083071647125939924 0.34433769239079531 0 -0.064047286880262039 0.32684540546392088 0 -0.078004369378311414 0.31598930823932792 0 -0.056408554639371847 0.34192227679241999 0 -0.083071647125939924 0.34433769239079531 0 -0.056408554639371847 0.34192227679241999 0 -0.083071647125939924 0.34433769239079531 0 -0.064047286880262039 0.32684540546392088 0 -0.057990039490294798 0.31110589033109293 0 -0.064047286880262039 0.32684540546392088 0 -0.078004369378311414 0.31598930823932792 0 -0.092275405543860017 0.30640893924871992 0 -0.078004369378311414 0.31598930823932792 0 -0.10105370920257301 0.32465452415714158 0 -0.083071647125939924 0.34433769239079531 0 -0.078004369378311414 0.31598930823932792 0 -0.10105370920257301 0.32465452415714158 0 -0.10105370920257301 0.32465452415714158 0 -0.1097347396125079 0.34675310798917058 0 -0.1066096221582484 0.34647000288988122 0 -0.083071647125939924 0.34433769239079531 0 -0.10105370920257301 0.32465452415714158 0 -0.1066096221582484 0.34647000288988122 0 -0.1064512226489296 0.30589458580069567 0 -0.10105370920257301 0.32465452415714158 0 -0.1200149295023538 0.32122124578067102 0 -0.10105370920257301 0.32465452415714158 0 -0.1200149295023538 0.32122124578067102 0 -0.1175413869550218 0.33519758545627881 0 -0.1064512226489296 0.30589458580069567 0 -0.1200149295023538 0.32122124578067102 0 -0.13357863635577469 0.33654790576064919 0 -0.1175413869550218 0.33519758545627881 0 -0.1233244569280421 0.34685457950984999 0 -0.13357863635577469 0.33654790576064919 0 -0.1200149295023538 0.32122124578067102 0 -0.1175413869550218 0.33519758545627881 0 -0.10105370920257301 0.32465452415714158 0 -0.1175413869550218 0.33519758545627881 0 -0.1097347396125079 0.34675310798917058 0 -0.1175413869550218 0.33519758545627881 0 -0.1233244569280421 0.34685457950984999 0 -0.1097347396125079 0.34675310798917058 0 -0.1233244569280421 0.34685457950984999 0 -0.10242827258793551 0.36785773789170878 0 -0.1045707468566409 0.35468806785020818 0 -0.12541893198456541 0.36256701212732789 0 -0.1233244569280421 0.34685457950984999 0 -0.10242827258793551 0.36785773789170878 0 -0.1233244569280421 0.34685457950984999 0 -0.1097347396125079 0.34675310798917058 0 -0.1045707468566409 0.35468806785020818 0 -0.1233244569280421 0.34685457950984999 0 -0.10242827258793551 0.36785773789170878 0 -0.1233244569280421 0.34685457950984999 0 -0.1097347396125079 0.34675310798917058 0 -0.12541893198456541 0.36256701212732789 0 -0.10242827258793551 0.36785773789170878 0 -0.1075889063767998 0.37765888989113172 0 -0.12541893198456541 0.36256701212732789 0 -0.1075889063767998 0.37765888989113172 0 -0.12541893198456541 0.36256701212732789 0 -0.12296577242776111 0.37403941816587571 0 -0.1075889063767998 0.37765888989113172 0 -0.092595481949522357 0.36439707468599147 0 -0.10242827258793551 0.36785773789170878 0 -0.1045707468566409 0.35468806785020818 0 -0.092698221134687661 0.35480053989376981 0 -0.1066096221582484 0.34647000288988122 0 -0.1045707468566409 0.35468806785020818 0 -0.083071647125939924 0.34433769239079531 0 -0.1066096221582484 0.34647000288988122 0 -0.092595481949522357 0.36439707468599147 0 -0.092698221134687661 0.35480053989376981 0 -0.1045707468566409 0.35468806785020818 0 -0.083071647125939924 0.34433769239079531 0 -0.092698221134687661 0.35480053989376981 0 -0.1066096221582484 0.34647000288988122 0 -0.1097347396125079 0.34675310798917058 0 -0.1066096221582484 0.34647000288988122 0 -0.1045707468566409 0.35468806785020818 0 -0.1097347396125079 0.34675310798917058 0 -0.1066096221582484 0.34647000288988122 0 -0.1037417565082928 0.39080808423435348 0 -0.1133160668901174 0.38884776321146919 0 -0.11048547401226411 0.39777954653306408 0 -0.1037417565082928 0.39080808423435348 0 -0.099471428486036476 0.40095149097095778 0 -0.11048547401226411 0.39777954653306408 0 -0.099471428486036476 0.40095149097095778 0 -0.11048547401226411 0.39777954653306408 0 -0.10756742271486661 0.40772702681560918 0 -0.099471428486036476 0.40095149097095778 0 -0.097342726513010625 0.4122462048574117 0 -0.08872943259465231 0.40254705436776678 0 -0.1037417565082928 0.39080808423435348 0 -0.099471428486036476 0.40095149097095778 0 -0.089758880769034238 0.3927507676549355 0 -0.10242827258793551 0.36785773789170878 0 -0.1075889063767998 0.37765888989113172 0 -0.089758880769034238 0.3927507676549355 0 -0.1037417565082928 0.39080808423435348 0 -0.1075889063767998 0.37765888989113172 0 -0.089758880769034238 0.3927507676549355 0 -0.1075889063767998 0.37765888989113172 0 -0.089758880769034238 0.3927507676549355 0 -0.1037417565082928 0.39080808423435348 0 -0.1075889063767998 0.37765888989113172 0 -0.1133160668901174 0.38884776321146919 0 -0.1075889063767998 0.37765888989113172 0 -0.1133160668901174 0.38884776321146919 0 -0.1230736302473963 0.38318059764092671 0 -0.12296577242776111 0.37403941816587571 0 -0.1075889063767998 0.37765888989113172 0 -0.1230736302473963 0.38318059764092671 0 -0.1133160668901174 0.38884776321146919 0 -0.1230736302473963 0.38318059764092671 0 -0.12169056730583371 0.39481169775787001 0 -0.1133160668901174 0.38884776321146919 0 -0.12169056730583371 0.39481169775787001 0 -0.11048547401226411 0.39777954653306408 0 -0.11048547401226411 0.39777954653306408 0 -0.12082572697990961 0.40660523088268802 0 -0.10756742271486661 0.40772702681560918 0 -0.12169056730583371 0.39481169775787001 0 -0.11048547401226411 0.39777954653306408 0 -0.12082572697990961 0.40660523088268802 0 -0.12626538229327941 0.41751927109444859 0 -0.12082572697990961 0.40660523088268802 0 -0.109711757583112 0.42105266083392501 0 -0.12082572697990961 0.40660523088268802 0 -0.109711757583112 0.42105266083392501 0 -0.10756742271486661 0.40772702681560918 0 -0.12774258126637361 0.43196655821060898 0 -0.109711757583112 0.42105266083392501 0 -0.1139830273234793 0.44205060688803338 0 -0.12774258126637361 0.43196655821060898 0 -0.12626538229327941 0.41751927109444859 0 -0.109711757583112 0.42105266083392501 0 -0.109711757583112 0.42105266083392501 0 -0.093402607744937 0.42613481156479688 0 -0.1014012365235671 0.43783226536693592 0 -0.109711757583112 0.42105266083392501 0 -0.1014012365235671 0.43783226536693592 0 -0.1139830273234793 0.44205060688803338 0 -0.109711757583112 0.42105266083392501 0 -0.097342726513010625 0.4122462048574117 0 -0.093402607744937 0.42613481156479688 0 -0.109711757583112 0.42105266083392501 0 -0.10756742271486661 0.40772702681560918 0 -0.097342726513010625 0.4122462048574117 0 -0.099471428486036476 0.40095149097095778 0 -0.10756742271486661 0.40772702681560918 0 -0.097342726513010625 0.4122462048574117 0 -0.097342726513010625 0.4122462048574117 0 -0.08792649551044196 0.41581777554148719 0 -0.08872943259465231 0.40254705436776678 0 -0.08792649551044196 0.41581777554148719 0 -0.093402607744937 0.42613481156479688 0 -0.077841435976202467 0.42223553683588982 0 -0.097342726513010625 0.4122462048574117 0 -0.08792649551044196 0.41581777554148719 0 -0.093402607744937 0.42613481156479688 0 -0.08792649551044196 0.41581777554148719 0 -0.078709576319330204 0.40700250786042902 0 -0.077841435976202467 0.42223553683588982 0 -0.08792649551044196 0.41581777554148719 0 -0.078709576319330204 0.40700250786042902 0 -0.08872943259465231 0.40254705436776678 0 -0.093402607744937 0.42613481156479688 0 -0.085256392578380802 0.44095976021253552 0 -0.1014012365235671 0.43783226536693592 0 -0.093402607744937 0.42613481156479688 0 -0.077841435976202467 0.42223553683588982 0 -0.085256392578380802 0.44095976021253552 0 -0.077841435976202467 0.42223553683588982 0 -0.070305114503580485 0.43484466263193511 0 -0.085256392578380802 0.44095976021253552 0 -0.077841435976202467 0.42223553683588982 0 -0.070305114503580485 0.43484466263193511 0 -0.060818557027946557 0.42663654893408298 0 -0.070305114503580485 0.43484466263193511 0 -0.060818557027946557 0.42663654893408298 0 -0.059037903421098631 0.43899232806748201 0 -0.077841435976202467 0.42223553683588982 0 -0.060635903907721563 0.40986405465542602 0 -0.060818557027946557 0.42663654893408298 0 -0.078709576319330204 0.40700250786042902 0 -0.077841435976202467 0.42223553683588982 0 -0.060635903907721563 0.40986405465542602 0 -0.08153208824782851 0.38886089627356751 0 -0.059700930103258269 0.39110300484557708 0 -0.060635903907721563 0.40986405465542602 0 -0.078709576319330204 0.40700250786042902 0 -0.08153208824782851 0.38886089627356751 0 -0.060635903907721563 0.40986405465542602 0 -0.08153208824782851 0.38886089627356751 0 -0.060635903907721563 0.40986405465542602 0 -0.078709576319330204 0.40700250786042902 0 -0.08872943259465231 0.40254705436776678 0 -0.08153208824782851 0.38886089627356751 0 -0.089758880769034238 0.3927507676549355 0 -0.08872943259465231 0.40254705436776678 0 -0.08153208824782851 0.38886089627356751 0 -0.099471428486036476 0.40095149097095778 0 -0.089758880769034238 0.3927507676549355 0 -0.08872943259465231 0.40254705436776678 0 -0.10242827258793551 0.36785773789170878 0 -0.089758880769034238 0.3927507676549355 0 -0.08153208824782851 0.38886089627356751 0 -0.10242827258793551 0.36785773789170878 0 -0.08153208824782851 0.38886089627356751 0 -0.085780831888840309 0.37252567947064358 0 -0.08153208824782851 0.38886089627356751 0 -0.071896364411212027 0.3771855066284231 0 -0.085780831888840309 0.37252567947064358 0 -0.10242827258793551 0.36785773789170878 0 -0.08153208824782851 0.38886089627356751 0 -0.08153208824782851 0.38886089627356751 0 -0.071896364411212027 0.3771855066284231 0 -0.059700930103258269 0.39110300484557708 0 -0.071896364411212027 0.3771855066284231 0 -0.043770308492812993 0.38053909799841701 0 -0.059700930103258269 0.39110300484557708 0 -0.040669985456716247 0.39906546867205211 0 -0.043770308492812993 0.38053909799841701 0 -0.071896364411212027 0.3771855066284231 0 -0.059700930103258269 0.39110300484557708 0 -0.043770308492812993 0.38053909799841701 0 -0.059700930103258269 0.39110300484557708 0 -0.040669985456716247 0.39906546867205211 0 -0.060635903907721563 0.40986405465542602 0 -0.040669985456716247 0.39906546867205211 0 -0.043770308492812993 0.38053909799841701 0 -0.023492557925130549 0.39481507974969032 0 -0.043770308492812993 0.38053909799841701 0 -0.015644252574413951 0.38389268936841081 0 -0.023492557925130549 0.39481507974969032 0 -0.0076686872235991448 0.37344720763265937 0 -0.024163526534932981 0.37380641121506342 0 -0.015644252574413951 0.38389268936841081 0 -0.024163526534932981 0.37380641121506342 0 -0.043770308492812993 0.38053909799841701 0 -0.015644252574413951 0.38389268936841081 0 -0.043770308492812993 0.38053909799841701 0 -0.015644252574413951 0.38389268936841081 0 -0.015644252574413951 0.38389268936841081 0 -0.023492557925130549 0.39481507974969032 0 -0.0103240943211206 0.38834871657323011 0 -0.0103240943211206 0.38834871657323011 0 -0.025031906944368042 0.40960796480525707 0 -0.040669985456716247 0.39906546867205211 0 -0.023492557925130549 0.39481507974969032 0 -0.025031906944368042 0.40960796480525707 0 -0.01280205951620886 0.40347902325538387 0 -0.0103240943211206 0.38834871657323011 0 -0.025031906944368042 0.40960796480525707 0 -0.023492557925130549 0.39481507974969032 0 -0.0103240943211206 0.38834871657323011 0 -0.025031906944368042 0.40960796480525707 0 -0.01280205951620886 0.40347902325538387 0 -0.0072461172275262997 0.39895558191686659 0 -0.0103240943211206 0.38834871657323011 0 -0.01280205951620886 0.40347902325538387 0 -0.0072461172275262997 0.39895558191686659 0 -0.0062698827988422884 0.40687083329545848 0 -0.0072461172275262997 0.39895558191686659 0 -0.0062698827988422884 0.40687083329545848 0 0.0019362671598315191 0.39720683037777738 0 -0.0072461172275262997 0.39895558191686659 0 -0.0103240943211206 0.38834871657323011 0 0.0019362671598315191 0.39720683037777738 0 -0.0076686872235991448 0.37344720763265937 0 -0.015644252574413951 0.38389268936841081 0 0.012481803343984891 0.38724628073840472 0 -0.015644252574413951 0.38389268936841081 0 -0.0103240943211206 0.38834871657323011 0 0.012481803343984891 0.38724628073840472 0 -0.015644252574413951 0.38389268936841081 0 0.012481803343984891 0.38724628073840472 0 -0.015439552706762789 0.42408249941583381 0 -0.01249245218021542 0.43142762754182712 0 -0.0080640383630453498 0.42020559079123732 0 -0.01249245218021542 0.43142762754182712 0 -0.0033847971853434139 0.43093556859388288 0 -0.0080640383630453498 0.42020559079123732 0 -0.01249245218021542 0.43142762754182712 0 -0.016846456926664179 0.44083414641674012 0 -0.0073226350732990709 0.4383012970811524 0 -0.01249245218021542 0.43142762754182712 0 -0.0033847971853434139 0.43093556859388288 0 -0.0073226350732990709 0.4383012970811524 0 -0.0033847971853434139 0.43093556859388288 0 -0.00033789435619270938 0.43757237590417902 0 -0.0073226350732990709 0.4383012970811524 0 -0.0033847971853434139 0.43093556859388288 0 -0.0080640383630453498 0.42020559079123732 0 0.0056028285917074346 0.42165407256078619 0 -0.00096918350646317563 0.41465633725833412 0 -0.0080640383630453498 0.42020559079123732 0 0.0056028285917074346 0.42165407256078619 0 -0.00096918350646317563 0.41465633725833412 0 -0.0062698827988422884 0.40687083329545848 0 -0.0080640383630453498 0.42020559079123732 0 -0.00096918350646317563 0.41465633725833412 0 -0.0062698827988422884 0.40687083329545848 0 0.0062110592726292973 0.41010007649745189 0 -0.0062698827988422884 0.40687083329545848 0 -0.01513829628918709 0.41361201968610678 0 -0.0080640383630453498 0.42020559079123732 0 -0.01280205951620886 0.40347902325538387 0 -0.0062698827988422884 0.40687083329545848 0 -0.01513829628918709 0.41361201968610678 0 -0.015439552706762789 0.42408249941583381 0 -0.01513829628918709 0.41361201968610678 0 -0.0080640383630453498 0.42020559079123732 0 -0.015439552706762789 0.42408249941583381 0 -0.01513829628918709 0.41361201968610678 0 -0.022103022583682911 0.42087581371226812 0 -0.01513829628918709 0.41361201968610678 0 -0.022103022583682911 0.42087581371226812 0 -0.025031906944368042 0.40960796480525707 0 -0.022103022583682911 0.42087581371226812 0 -0.025031906944368042 0.40960796480525707 0 -0.039739719567614677 0.4308672130372847 0 -0.01280205951620886 0.40347902325538387 0 -0.01513829628918709 0.41361201968610678 0 -0.025031906944368042 0.40960796480525707 0 -0.022103022583682911 0.42087581371226812 0 -0.02324651953077464 0.43184838008081999 0 -0.035855072897683311 0.43477174641707139 0 -0.022103022583682911 0.42087581371226812 0 -0.035855072897683311 0.43477174641707139 0 -0.015439552706762789 0.42408249941583381 0 -0.022103022583682911 0.42087581371226812 0 -0.02324651953077464 0.43184838008081999 0 -0.015439552706762789 0.42408249941583381 0 -0.01249245218021542 0.43142762754182712 0 -0.02324651953077464 0.43184838008081999 0 -0.01249245218021542 0.43142762754182712 0 -0.02324651953077464 0.43184838008081999 0 -0.016846456926664179 0.44083414641674012 0 -0.02324651953077464 0.43184838008081999 0 -0.02626313167212321 0.43750900095123268 0 -0.016846456926664179 0.44083414641674012 0 -0.02324651953077464 0.43184838008081999 0 -0.035855072897683311 0.43477174641707139 0 -0.02626313167212321 0.43750900095123268 0 -0.035855072897683311 0.43477174641707139 0 -0.031635147800528667 0.43901327461822742 0 -0.022103022583682911 0.42087581371226812 0 -0.035855072897683311 0.43477174641707139 0 -0.039739719567614677 0.4308672130372847 0 -0.035855072897683311 0.43477174641707139 0 -0.031635147800528667 0.43901327461822742 0 -0.02626313167212321 0.43750900095123268 0 -0.035855072897683311 0.43477174641707139 0 -0.039739719567614677 0.4308672130372847 0 -0.040669985456716247 0.39906546867205211 0 -0.025031906944368042 0.40960796480525707 0 -0.041184439137046593 0.41303076208244272 0 -0.025031906944368042 0.40960796480525707 0 -0.039739719567614677 0.4308672130372847 0 -0.025031906944368042 0.40960796480525707 0 -0.039739719567614677 0.4308672130372847 0 -0.041184439137046593 0.41303076208244272 0 -0.039739719567614677 0.4308672130372847 0 -0.041184439137046593 0.41303076208244272 0 -0.060635903907721563 0.40986405465542602 0 -0.040669985456716247 0.39906546867205211 0 -0.041184439137046593 0.41303076208244272 0 -0.060635903907721563 0.40986405465542602 0 -0.039739719567614677 0.4308672130372847 0 -0.060635903907721563 0.40986405465542602 0 -0.039739719567614677 0.4308672130372847 0 -0.060818557027946557 0.42663654893408298 0 -0.059037903421098631 0.43899232806748201 0 -0.039739719567614677 0.4308672130372847 0 -0.060635903907721563 0.40986405465542602 0 -0.060818557027946557 0.42663654893408298 0 -0.039739719567614677 0.4308672130372847 0 -0.059037903421098631 0.43899232806748201 0 -0.05632887096349537 0.45545975392418431 0 -0.039739719567614677 0.4308672130372847 0 -0.05632887096349537 0.45545975392418431 0 -0.059037903421098631 0.43899232806748201 0 -0.05632887096349537 0.45545975392418431 0 -0.070417933538512584 0.44550335176896072 0 -0.057740284855762672 0.45688593489485391 0 -0.052602622555938193 0.46562114260525023 0 -0.058749162537518329 0.47381198931568042 0 -0.05632887096349537 0.45545975392418431 0 -0.048190084851704083 0.46303305198939249 0 -0.040088203484183189 0.46056432170757777 0 -0.057740284855762672 0.45688593489485391 0 -0.05632887096349537 0.45545975392418431 0 -0.052602622555938193 0.46562114260525023 0 -0.057740284855762672 0.45688593489485391 0 -0.05632887096349537 0.45545975392418431 0 -0.05632887096349537 0.45545975392418431 0 -0.048190084851704083 0.46303305198939249 0 -0.052602622555938193 0.46562114260525023 0 -0.048190084851704083 0.46303305198939249 0 -0.052602622555938193 0.46562114260525023 0 -0.043740642403197708 0.47048698972055969 0 -0.05632887096349537 0.45545975392418431 0 -0.040088203484183189 0.46056432170757777 0 -0.033508988212780817 0.45380518126466751 0 -0.05632887096349537 0.45545975392418431 0 -0.033508988212780817 0.45380518126466751 0 -0.048190084851704083 0.46303305198939249 0 -0.040088203484183189 0.46056432170757777 0 -0.043740642403197708 0.47048698972055969 0 -0.040088203484183189 0.46056432170757777 0 -0.031665320753723358 0.46052837149624432 0 -0.033508988212780817 0.45380518126466751 0 -0.040088203484183189 0.46056432170757777 0 -0.031486775258480072 0.46757037194391682 0 -0.043740642403197708 0.47048698972055969 0 -0.040088203484183189 0.46056432170757777 0 -0.031665320753723358 0.46052837149624432 0 -0.031486775258480072 0.46757037194391682 0 -0.035855072897683311 0.43477174641707139 0 -0.05632887096349537 0.45545975392418431 0 -0.05632887096349537 0.45545975392418431 0 -0.033508988212780817 0.45380518126466751 0 -0.035003262161986813 0.44615934404612251 0 -0.035855072897683311 0.43477174641707139 0 -0.05632887096349537 0.45545975392418431 0 -0.035003262161986813 0.44615934404612251 0 -0.035855072897683311 0.43477174641707139 0 -0.039739719567614677 0.4308672130372847 0 -0.05632887096349537 0.45545975392418431 0 -0.033508988212780817 0.45380518126466751 0 -0.035003262161986813 0.44615934404612251 0 -0.028042397000470232 0.45066633222321673 0 -0.035855072897683311 0.43477174641707139 0 -0.035003262161986813 0.44615934404612251 0 -0.031635147800528667 0.43901327461822742 0 -0.035003262161986813 0.44615934404612251 0 -0.031635147800528667 0.43901327461822742 0 -0.027472302926090261 0.44279698103165038 0 -0.016846456926664179 0.44083414641674012 0 -0.028042397000470232 0.45066633222321673 0 -0.003662180686688134 0.44777646677072458 0 -0.027472302926090261 0.44279698103165038 0 -0.02626313167212321 0.43750900095123268 0 -0.016846456926664179 0.44083414641674012 0 -0.028042397000470232 0.45066633222321673 0 -0.003662180686688134 0.44777646677072458 0 -0.027472302926090261 0.44279698103165038 0 -0.016846456926664179 0.44083414641674012 0 -0.028042397000470232 0.45066633222321673 0 -0.033508988212780817 0.45380518126466751 0 -0.01068910546206637 0.45215060860514888 0 -0.031635147800528667 0.43901327461822742 0 -0.027472302926090261 0.44279698103165038 0 -0.02626313167212321 0.43750900095123268 0 -0.033508988212780817 0.45380518126466751 0 -0.028042397000470232 0.45066633222321673 0 -0.01068910546206637 0.45215060860514888 0 -0.035003262161986813 0.44615934404612251 0 -0.027472302926090261 0.44279698103165038 0 -0.028042397000470232 0.45066633222321673 0 -0.031665320753723358 0.46052837149624432 0 -0.033508988212780817 0.45380518126466751 0 -0.021577316059449372 0.46017361106881532 0 -0.033508988212780817 0.45380518126466751 0 -0.021577316059449372 0.46017361106881532 0 -0.01068910546206637 0.45215060860514888 0 -0.031486775258480072 0.46757037194391682 0 -0.021577316059449372 0.46017361106881532 0 -0.0205992538548363 0.47366305482565169 0 -0.031665320753723358 0.46052837149624432 0 -0.031486775258480072 0.46757037194391682 0 -0.021577316059449372 0.46017361106881532 0 -0.021577316059449372 0.46017361106881532 0 -0.0094517430675019921 0.46743856230645392 0 -0.0205992538548363 0.47366305482565169 0 -0.021577316059449372 0.46017361106881532 0 -0.0094517430675019921 0.46743856230645392 0 -0.01068910546206637 0.45215060860514888 0 -0.0094517430675019921 0.46743856230645392 0 0.002334760443109415 0.47154344293807721 0 0.0014539775662769251 0.46057763459147982 0 -0.0094517430675019921 0.46743856230645392 0 -0.01068910546206637 0.45215060860514888 0 0.0014539775662769251 0.46057763459147982 0 -0.003662180686688134 0.44777646677072458 0 -0.01068910546206637 0.45215060860514888 0 0.01213077728864808 0.4504960359456302 0 -0.028042397000470232 0.45066633222321673 0 -0.003662180686688134 0.44777646677072458 0 -0.01068910546206637 0.45215060860514888 0 -0.003662180686688134 0.44777646677072458 0 -0.00033789435619270938 0.43757237590417902 0 -0.0073226350732990709 0.4383012970811524 0 -0.016846456926664179 0.44083414641674012 0 -0.003662180686688134 0.44777646677072458 0 -0.0073226350732990709 0.4383012970811524 0 -0.0064975003056543766 0.48465894610548932 0 -0.02402931895542371 0.5 0 0.0046896294178049858 0.5 0 -0.0094517430675019921 0.46743856230645392 0 -0.0064975003056543766 0.48465894610548932 0 0.002334760443109415 0.47154344293807721 0 -0.0094517430675019921 0.46743856230645392 0 -0.0064975003056543766 0.48465894610548932 0 -0.0205992538548363 0.47366305482565169 0 -0.031486775258480072 0.46757037194391682 0 -0.0205992538548363 0.47366305482565169 0 -0.034088727847501818 0.48114040672817732 0 -0.0064975003056543766 0.48465894610548932 0 -0.0205992538548363 0.47366305482565169 0 -0.02402931895542371 0.5 0 -0.0205992538548363 0.47366305482565169 0 -0.02402931895542371 0.5 0 -0.034088727847501818 0.48114040672817732 0 -0.02402931895542371 0.5 0 -0.034088727847501818 0.48114040672817732 0 -0.052748267328652232 0.5 0 -0.034088727847501818 0.48114040672817732 0 -0.049626144380444812 0.48210042655998381 0 -0.052748267328652232 0.5 0 -0.031486775258480072 0.46757037194391682 0 -0.034088727847501818 0.48114040672817732 0 -0.043740642403197708 0.47048698972055969 0 -0.034088727847501818 0.48114040672817732 0 -0.043740642403197708 0.47048698972055969 0 -0.049626144380444812 0.48210042655998381 0 -0.049626144380444812 0.48210042655998381 0 -0.058749162537518329 0.47381198931568042 0 -0.065809656052592175 0.48780033096783959 0 -0.052602622555938193 0.46562114260525023 0 -0.043740642403197708 0.47048698972055969 0 -0.051088541014488113 0.47385125477368789 0 -0.052602622555938193 0.46562114260525023 0 -0.051088541014488113 0.47385125477368789 0 -0.058749162537518329 0.47381198931568042 0 -0.043740642403197708 0.47048698972055969 0 -0.051088541014488113 0.47385125477368789 0 -0.049626144380444812 0.48210042655998381 0 -0.051088541014488113 0.47385125477368789 0 -0.049626144380444812 0.48210042655998381 0 -0.058749162537518329 0.47381198931568042 0 -0.049626144380444812 0.48210042655998381 0 -0.052748267328652232 0.5 0 -0.065809656052592175 0.48780033096783959 0 -0.052748267328652232 0.5 0 -0.065809656052592175 0.48780033096783959 0 -0.081467215701880979 0.5 0 -0.065809656052592175 0.48780033096783959 0 -0.077379812790901226 0.48899417301105019 0 -0.081467215701880979 0.5 0 -0.065809656052592175 0.48780033096783959 0 -0.077379812790901226 0.48899417301105019 0 -0.074185840368506589 0.48065698473855317 0 -0.081467215701880979 0.5 0 -0.088056539040625159 0.48751937633780812 0 -0.11018616407510939 0.5 0 -0.077379812790901226 0.48899417301105019 0 -0.081467215701880979 0.5 0 -0.088056539040625159 0.48751937633780812 0 -0.077379812790901226 0.48899417301105019 0 -0.088056539040625159 0.48751937633780812 0 -0.074185840368506589 0.48065698473855317 0 -0.088056539040625159 0.48751937633780812 0 -0.090567936112822447 0.47131154054064323 0 -0.072898411948193964 0.47220265561633101 0 -0.088056539040625159 0.48751937633780812 0 -0.072898411948193964 0.47220265561633101 0 -0.088056539040625159 0.48751937633780812 0 -0.072898411948193964 0.47220265561633101 0 -0.074185840368506589 0.48065698473855317 0 -0.057740284855762672 0.45688593489485391 0 -0.072898411948193964 0.47220265561633101 0 -0.074185840368506589 0.48065698473855317 0 -0.057740284855762672 0.45688593489485391 0 -0.074185840368506589 0.48065698473855317 0 -0.057740284855762672 0.45688593489485391 0 -0.058749162537518329 0.47381198931568042 0 -0.074185840368506589 0.48065698473855317 0 -0.058749162537518329 0.47381198931568042 0 -0.065809656052592175 0.48780033096783959 0 -0.074185840368506589 0.48065698473855317 0 -0.057740284855762672 0.45688593489485391 0 -0.05632887096349537 0.45545975392418431 0 -0.080714218192476539 0.45722783175607951 0 -0.057740284855762672 0.45688593489485391 0 -0.072898411948193964 0.47220265561633101 0 -0.05632887096349537 0.45545975392418431 0 -0.080714218192476539 0.45722783175607951 0 -0.057740284855762672 0.45688593489485391 0 -0.072898411948193964 0.47220265561633101 0 -0.080714218192476539 0.45722783175607951 0 -0.05632887096349537 0.45545975392418431 0 -0.070417933538512584 0.44550335176896072 0 -0.080714218192476539 0.45722783175607951 0 -0.070305114503580485 0.43484466263193511 0 -0.059037903421098631 0.43899232806748201 0 -0.070417933538512584 0.44550335176896072 0 -0.070305114503580485 0.43484466263193511 0 -0.070417933538512584 0.44550335176896072 0 -0.085256392578380802 0.44095976021253552 0 -0.070417933538512584 0.44550335176896072 0 -0.085256392578380802 0.44095976021253552 0 -0.080714218192476539 0.45722783175607951 0 -0.085256392578380802 0.44095976021253552 0 -0.080714218192476539 0.45722783175607951 0 -0.1046523973879262 0.45896348733538828 0 -0.090567936112822447 0.47131154054064323 0 -0.072898411948193964 0.47220265561633101 0 -0.080714218192476539 0.45722783175607951 0 -0.080714218192476539 0.45722783175607951 0 -0.1046523973879262 0.45896348733538828 0 -0.090567936112822447 0.47131154054064323 0 -0.080714218192476539 0.45722783175607951 0 -0.1046523973879262 0.45896348733538828 0 -0.1046523973879262 0.45896348733538828 0 -0.1014012365235671 0.43783226536693592 0 -0.1139830273234793 0.44205060688803338 0 -0.085256392578380802 0.44095976021253552 0 -0.1046523973879262 0.45896348733538828 0 -0.1014012365235671 0.43783226536693592 0 -0.12859057658337589 0.46069914291469699 0 -0.12774258126637361 0.43196655821060898 0 -0.1139830273234793 0.44205060688803338 0 -0.12859057658337589 0.46069914291469699 0 -0.1046523973879262 0.45896348733538828 0 -0.12859057658337589 0.46069914291469699 0 -0.1046523973879262 0.45896348733538828 0 -0.1139830273234793 0.44205060688803338 0 -0.12859057658337589 0.46069914291469699 0 -0.1046523973879262 0.45896348733538828 0 -0.10756881977382 0.47766195749387652 0 -0.1251989796214896 0.48343113578115859 0 -0.12859057658337589 0.46069914291469699 0 -0.10756881977382 0.47766195749387652 0 -0.1389051124483377 0.5 0 -0.1251989796214896 0.48343113578115859 0 -0.11018616407510939 0.5 0 -0.1251989796214896 0.48343113578115859 0 -0.11018616407510939 0.5 0 -0.10756881977382 0.47766195749387652 0 -0.088056539040625159 0.48751937633780812 0 -0.11018616407510939 0.5 0 -0.10756881977382 0.47766195749387652 0 -0.090567936112822447 0.47131154054064323 0 -0.1046523973879262 0.45896348733538828 0 -0.10756881977382 0.47766195749387652 0 -0.088056539040625159 0.48751937633780812 0 -0.090567936112822447 0.47131154054064323 0 -0.10756881977382 0.47766195749387652 0 -0.16667453092926049 0.091067064751970003 0 -0.16526333526843739 0.068459433131343977 0 -0.14511349618049041 0.084123127738330833 0 -0.16667453092926049 0.091067064751970003 0 -0.16526333526843739 0.068459433131343977 0 -0.17782243958881219 0.08133434583691046 0 -0.16526333526843739 0.068459433131343977 0 -0.18334941338716551 0.069111255833377558 0 -0.17782243958881219 0.08133434583691046 0 -0.16526333526843739 0.068459433131343977 0 -0.18334941338716551 0.069111255833377558 0 -0.18541317435638441 0.052795738524357157 0 -0.18334941338716551 0.069111255833377558 0 -0.17782243958881219 0.08133434583691046 0 -0.1912471069594148 0.080798770948406221 0 -0.16667453092926049 0.091067064751970003 0 -0.17782243958881219 0.08133434583691046 0 -0.18257781139978299 0.097235204519454568 0 -0.17782243958881219 0.08133434583691046 0 -0.18257781139978299 0.097235204519454568 0 -0.1912471069594148 0.080798770948406221 0 -0.18257781139978299 0.097235204519454568 0 -0.17136278407969571 0.1114512224444392 0 -0.1895518980050237 0.1151226267716067 0 -0.16667453092926049 0.091067064751970003 0 -0.18257781139978299 0.097235204519454568 0 -0.17136278407969571 0.1114512224444392 0 -0.1895518980050237 0.1151226267716067 0 -0.19434096616379359 0.1315084048054635 0 -0.1774270875202196 0.12794909696787951 0 -0.17136278407969571 0.1114512224444392 0 -0.1895518980050237 0.1151226267716067 0 -0.1774270875202196 0.12794909696787951 0 -0.17136278407969571 0.1114512224444392 0 -0.15862950761492059 0.1082855062774002 0 -0.156711790986029 0.1266486597490438 0 -0.17136278407969571 0.1114512224444392 0 -0.156711790986029 0.1266486597490438 0 -0.1774270875202196 0.12794909696787951 0 -0.16667453092926049 0.091067064751970003 0 -0.17136278407969571 0.1114512224444392 0 -0.15862950761492059 0.1082855062774002 0 -0.16667453092926049 0.091067064751970003 0 -0.15862950761492059 0.1082855062774002 0 -0.15296810313452061 0.097596719298821452 0 -0.15296810313452061 0.097596719298821452 0 -0.14063334412426109 0.1006974005130126 0 -0.14511349618049041 0.084123127738330833 0 -0.15862950761492059 0.1082855062774002 0 -0.15296810313452061 0.097596719298821452 0 -0.14679787046225301 0.11078363960680029 0 -0.15296810313452061 0.097596719298821452 0 -0.14063334412426109 0.1006974005130126 0 -0.14679787046225301 0.11078363960680029 0 -0.14679787046225301 0.11078363960680029 0 -0.14056994565931541 0.1241699255409693 0 -0.156711790986029 0.1266486597490438 0 -0.15862950761492059 0.1082855062774002 0 -0.14679787046225301 0.11078363960680029 0 -0.156711790986029 0.1266486597490438 0 -0.14056994565931541 0.1241699255409693 0 -0.13283149307853759 0.1116874834401934 0 -0.12538013163551431 0.1235615211388761 0 -0.14679787046225301 0.11078363960680029 0 -0.14056994565931541 0.1241699255409693 0 -0.13283149307853759 0.1116874834401934 0 -0.13283149307853759 0.1116874834401934 0 -0.12538013163551431 0.1235615211388761 0 -0.1203286734786395 0.1140085367330374 0 -0.14063334412426109 0.1006974005130126 0 -0.13283149307853759 0.1116874834401934 0 -0.12496365709254351 0.099786822345317605 0 -0.14063334412426109 0.1006974005130126 0 -0.14511349618049041 0.084123127738330833 0 -0.12496365709254351 0.099786822345317605 0 -0.14063334412426109 0.1006974005130126 0 -0.14679787046225301 0.11078363960680029 0 -0.13283149307853759 0.1116874834401934 0 -0.13283149307853759 0.1116874834401934 0 -0.12496365709254351 0.099786822345317605 0 -0.1203286734786395 0.1140085367330374 0 -0.12819293178220359 0.086370742676851742 0 -0.14511349618049041 0.084123127738330833 0 -0.12496365709254351 0.099786822345317605 0 -0.14511349618049041 0.084123127738330833 0 -0.12496365709254351 0.099786822345317605 0 -0.12507013881000539 0.089626186415924514 0 -0.12819293178220359 0.086370742676851742 0 -0.12496365709254351 0.099786822345317605 0 -0.12819293178220359 0.086370742676851742 0 -0.1257527236209417 0.085016396217428403 0 -0.1216068506933829 0.089672221297597041 0 -0.12819293178220359 0.086370742676851742 0 -0.1218107812678077 0.091921798454556253 0 -0.12507013881000539 0.089626186415924514 0 -0.12819293178220359 0.086370742676851742 0 -0.1218107812678077 0.091921798454556253 0 -0.1274383000896771 0.080256685286637694 0 -0.12670438843014881 0.076799680774201962 0 -0.12485635251832949 0.078351939813024546 0 -0.1274383000896771 0.080256685286637694 0 -0.12487663512593079 0.081391171732444381 0 -0.12485635251832949 0.078351939813024546 0 -0.1274383000896771 0.080256685286637694 0 -0.12553973240708449 0.083487465722660095 0 -0.12487663512593079 0.081391171732444381 0 -0.1274383000896771 0.080256685286637694 0 -0.12795615124755361 0.082407051699447065 0 -0.13105527497339781 0.079543894337821205 0 -0.12819293178220359 0.086370742676851742 0 -0.12795615124755361 0.082407051699447065 0 -0.12553973240708449 0.083487465722660095 0 -0.1274383000896771 0.080256685286637694 0 -0.12795615124755361 0.082407051699447065 0 -0.12553973240708449 0.083487465722660095 0 -0.12819293178220359 0.086370742676851742 0 -0.12553973240708449 0.083487465722660095 0 -0.1257527236209417 0.085016396217428403 0 -0.12819293178220359 0.086370742676851742 0 -0.12795615124755361 0.082407051699447065 0 -0.13105527497339781 0.079543894337821205 0 -0.1274383000896771 0.080256685286637694 0 -0.13105527497339781 0.079543894337821205 0 -0.12925999599444521 0.077032649067396819 0 -0.12819293178220359 0.086370742676851742 0 -0.14511349618049041 0.084123127738330833 0 -0.1490118197004501 0.065565408412650905 0 -0.16667453092926049 0.091067064751970003 0 -0.15296810313452061 0.097596719298821452 0 -0.14511349618049041 0.084123127738330833 0 -0.12819293178220359 0.086370742676851742 0 -0.1490118197004501 0.065565408412650905 0 -0.14703098366294429 0.066514125147222658 0 -0.16526333526843739 0.068459433131343977 0 -0.14511349618049041 0.084123127738330833 0 -0.16526333526843739 0.068459433131343977 0 -0.14511349618049041 0.084123127738330833 0 -0.1490118197004501 0.065565408412650905 0 -0.14703098366294429 0.066514125147222658 0 -0.1419384174890034 0.065870714333301689 0 -0.1377808952583166 0.07060535669392895 0 -0.14703098366294429 0.066514125147222658 0 -0.14451951639672889 0.063702406861364566 0 -0.14775880618976051 0.060117427161460298 0 -0.14451951639672889 0.063702406861364566 0 -0.1419384174890034 0.065870714333301689 0 -0.14167870498430879 0.062059228787699407 0 -0.14703098366294429 0.066514125147222658 0 -0.14451951639672889 0.063702406861364566 0 -0.1419384174890034 0.065870714333301689 0 -0.1419384174890034 0.065870714333301689 0 -0.1373518483985352 0.065726389066509544 0 -0.14167870498430879 0.062059228787699407 0 -0.12819293178220359 0.086370742676851742 0 -0.13105527497339781 0.079543894337821205 0 -0.14703098366294429 0.066514125147222658 0 -0.12819293178220359 0.086370742676851742 0 -0.14703098366294429 0.066514125147222658 0 -0.13105527497339781 0.079543894337821205 0 -0.14703098366294429 0.066514125147222658 0 -0.1377808952583166 0.07060535669392895 0 -0.12819293178220359 0.086370742676851742 0 -0.1490118197004501 0.065565408412650905 0 -0.1373518483985352 0.065726389066509544 0 -0.12987677580399101 0.066971745259348264 0 -0.13557407051914391 0.05738375743153358 0 -0.1419384174890034 0.065870714333301689 0 -0.1373518483985352 0.065726389066509544 0 -0.1377808952583166 0.07060535669392895 0 -0.1373518483985352 0.065726389066509544 0 -0.13353133164218031 0.070685430785599954 0 -0.12987677580399101 0.066971745259348264 0 -0.1373518483985352 0.065726389066509544 0 -0.1377808952583166 0.07060535669392895 0 -0.13353133164218031 0.070685430785599954 0 -0.13105527497339781 0.079543894337821205 0 -0.1377808952583166 0.07060535669392895 0 -0.1321122724136011 0.075096229777755763 0 -0.1377808952583166 0.07060535669392895 0 -0.13353133164218031 0.070685430785599954 0 -0.1321122724136011 0.075096229777755763 0 -0.13105527497339781 0.079543894337821205 0 -0.12925999599444521 0.077032649067396819 0 -0.1321122724136011 0.075096229777755763 0 -0.12925999599444521 0.077032649067396819 0 -0.1321122724136011 0.075096229777755763 0 -0.1289897440654012 0.073466755160567443 0 -0.13353133164218031 0.070685430785599954 0 -0.1289897440654012 0.073466755160567443 0 -0.12987677580399101 0.066971745259348264 0 -0.13353133164218031 0.070685430785599954 0 -0.1321122724136011 0.075096229777755763 0 -0.1289897440654012 0.073466755160567443 0 -0.1289897440654012 0.073466755160567443 0 -0.12987677580399101 0.066971745259348264 0 -0.1226215052325052 0.073936349983915309 0 -0.1289897440654012 0.073466755160567443 0 -0.12670438843014881 0.076799680774201962 0 -0.1226215052325052 0.073936349983915309 0 -0.12925999599444521 0.077032649067396819 0 -0.1289897440654012 0.073466755160567443 0 -0.12670438843014881 0.076799680774201962 0 -0.1274383000896771 0.080256685286637694 0 -0.12925999599444521 0.077032649067396819 0 -0.12670438843014881 0.076799680774201962 0 -0.13557407051914391 0.05738375743153358 0 -0.13430865049500881 0.045465367544568022 0 -0.1197864358152651 0.053282202866922403 0 -0.12987677580399101 0.066971745259348264 0 -0.13557407051914391 0.05738375743153358 0 -0.1197864358152651 0.053282202866922403 0 -0.1373518483985352 0.065726389066509544 0 -0.13557407051914391 0.05738375743153358 0 -0.14167870498430879 0.062059228787699407 0 -0.13557407051914391 0.05738375743153358 0 -0.14264962174837839 0.057176221125366133 0 -0.14269659830178691 0.051420214059066167 0 -0.13557407051914391 0.05738375743153358 0 -0.14167870498430879 0.062059228787699407 0 -0.14264962174837839 0.057176221125366133 0 -0.13557407051914391 0.05738375743153358 0 -0.13430865049500881 0.045465367544568022 0 -0.14269659830178691 0.051420214059066167 0 -0.128895210172768 0.032880780971351282 0 -0.13430865049500881 0.045465367544568022 0 -0.1197864358152651 0.053282202866922403 0 -0.128895210172768 0.032880780971351282 0 -0.1390257380427467 0.037204695217623672 0 -0.13430865049500881 0.045465367544568022 0 -0.128895210172768 0.032880780971351282 0 -0.1390257380427467 0.037204695217623672 0 -0.1391655650141633 0.029395878277285691 0 -0.1390257380427467 0.037204695217623672 0 -0.13430865049500881 0.045465367544568022 0 -0.14545664780969769 0.043655247382139842 0 -0.13430865049500881 0.045465367544568022 0 -0.14545664780969769 0.043655247382139842 0 -0.14269659830178691 0.051420214059066167 0 -0.14545664780969769 0.043655247382139842 0 -0.14730261672209591 0.03462620191277356 0 -0.1519875103267323 0.040138102807254328 0 -0.1390257380427467 0.037204695217623672 0 -0.14545664780969769 0.043655247382139842 0 -0.14730261672209591 0.03462620191277356 0 -0.1390257380427467 0.037204695217623672 0 -0.14730261672209591 0.03462620191277356 0 -0.1391655650141633 0.029395878277285691 0 -0.14730261672209591 0.03462620191277356 0 -0.1519875103267323 0.040138102807254328 0 -0.15719461041450569 0.035005091616041317 0 -0.14730261672209591 0.03462620191277356 0 -0.15295002147725789 0.02943269054907274 0 -0.15719461041450569 0.035005091616041317 0 -0.14545664780969769 0.043655247382139842 0 -0.15198701724311961 0.045138124839463681 0 -0.1519875103267323 0.040138102807254328 0 -0.14545664780969769 0.043655247382139842 0 -0.15198701724311961 0.045138124839463681 0 -0.14986068991450849 0.049684027915639903 0 -0.1519875103267323 0.040138102807254328 0 -0.15666668185469079 0.04229589094091641 0 -0.15719461041450569 0.035005091616041317 0 -0.15198701724311961 0.045138124839463681 0 -0.1519875103267323 0.040138102807254328 0 -0.15666668185469079 0.04229589094091641 0 -0.15198701724311961 0.045138124839463681 0 -0.1553432811445972 0.047690691994382382 0 -0.15666668185469079 0.04229589094091641 0 -0.14703098366294429 0.066514125147222658 0 -0.1542481713148034 0.054214291431465687 0 -0.16690953771003481 0.047679342297204927 0 -0.1490118197004501 0.065565408412650905 0 -0.14703098366294429 0.066514125147222658 0 -0.16690953771003481 0.047679342297204927 0 -0.15198701724311961 0.045138124839463681 0 -0.1553432811445972 0.047690691994382382 0 -0.14986068991450849 0.049684027915639903 0 -0.1553432811445972 0.047690691994382382 0 -0.14986068991450849 0.049684027915639903 0 -0.1542481713148034 0.054214291431465687 0 -0.14986068991450849 0.049684027915639903 0 -0.1542481713148034 0.054214291431465687 0 -0.1481782216428216 0.055725866464508132 0 -0.14703098366294429 0.066514125147222658 0 -0.1542481713148034 0.054214291431465687 0 -0.14775880618976051 0.060117427161460298 0 -0.1542481713148034 0.054214291431465687 0 -0.1481782216428216 0.055725866464508132 0 -0.14775880618976051 0.060117427161460298 0 -0.1481782216428216 0.055725866464508132 0 -0.1448171379315045 0.060430445902740527 0 -0.14264962174837839 0.057176221125366133 0 -0.1481782216428216 0.055725866464508132 0 -0.14775880618976051 0.060117427161460298 0 -0.1448171379315045 0.060430445902740527 0 -0.14451951639672889 0.063702406861364566 0 -0.14775880618976051 0.060117427161460298 0 -0.1448171379315045 0.060430445902740527 0 -0.1448171379315045 0.060430445902740527 0 -0.14167870498430879 0.062059228787699407 0 -0.14264962174837839 0.057176221125366133 0 -0.14451951639672889 0.063702406861364566 0 -0.1448171379315045 0.060430445902740527 0 -0.14167870498430879 0.062059228787699407 0 -0.1481782216428216 0.055725866464508132 0 -0.14264962174837839 0.057176221125366133 0 -0.14269659830178691 0.051420214059066167 0 -0.14545664780969769 0.043655247382139842 0 -0.14986068991450849 0.049684027915639903 0 -0.14269659830178691 0.051420214059066167 0 -0.14986068991450849 0.049684027915639903 0 -0.1481782216428216 0.055725866464508132 0 -0.14269659830178691 0.051420214059066167 0 -0.14263431330638721 -0.0026543475024554258 0 -0.1296905307002188 -0.00029615891624961121 0 -0.13737113239023321 0.0066873079309429807 0 -0.1296905307002188 -0.00029615891624961121 0 -0.13737113239023321 0.0066873079309429807 0 -0.12688342370485001 0.01070171800265522 0 -0.1195315168135004 -0.0024303773624146621 0 -0.1296905307002188 -0.00029615891624961121 0 -0.12688342370485001 0.01070171800265522 0 -0.13737113239023321 0.0066873079309429807 0 -0.13451732322943211 0.0201794642440477 0 -0.14286676982687729 0.015003223074219189 0 -0.13737113239023321 0.0066873079309429807 0 -0.12688342370485001 0.01070171800265522 0 -0.13451732322943211 0.0201794642440477 0 -0.12688342370485001 0.01070171800265522 0 -0.13451732322943211 0.0201794642440477 0 -0.1242230929734665 0.023393682950198631 0 -0.128895210172768 0.032880780971351282 0 -0.13451732322943211 0.0201794642440477 0 -0.1242230929734665 0.023393682950198631 0 -0.128895210172768 0.032880780971351282 0 -0.13451732322943211 0.0201794642440477 0 -0.1391655650141633 0.029395878277285691 0 -0.13451732322943211 0.0201794642440477 0 -0.1391655650141633 0.029395878277285691 0 -0.1473711077332375 0.02355402125048545 0 -0.14730261672209591 0.03462620191277356 0 -0.1391655650141633 0.029395878277285691 0 -0.1473711077332375 0.02355402125048545 0 -0.1473711077332375 0.02355402125048545 0 -0.15295002147725789 0.02943269054907274 0 -0.15993175103919269 0.024545447416990641 0 -0.14730261672209591 0.03462620191277356 0 -0.1473711077332375 0.02355402125048545 0 -0.15295002147725789 0.02943269054907274 0 -0.1473711077332375 0.02355402125048545 0 -0.1522075159546063 0.0095920988714006342 0 -0.15993175103919269 0.024545447416990641 0 -0.1473711077332375 0.02355402125048545 0 -0.14286676982687729 0.015003223074219189 0 -0.1522075159546063 0.0095920988714006342 0 -0.13451732322943211 0.0201794642440477 0 -0.1473711077332375 0.02355402125048545 0 -0.14286676982687729 0.015003223074219189 0 -0.13737113239023321 0.0066873079309429807 0 -0.14286676982687729 0.015003223074219189 0 -0.1522075159546063 0.0095920988714006342 0 -0.15288594458857521 -0.0057362803360174394 0 -0.14263431330638721 -0.0026543475024554258 0 -0.1522075159546063 0.0095920988714006342 0 -0.14263431330638721 -0.0026543475024554258 0 -0.13737113239023321 0.0066873079309429807 0 -0.1522075159546063 0.0095920988714006342 0 -0.16664299870092189 -0.00098725277767185864 0 -0.1522075159546063 0.0095920988714006342 0 -0.17060107900225699 0.015300224281148829 0 -0.15288594458857521 -0.0057362803360174394 0 -0.16664299870092189 -0.00098725277767185864 0 -0.1522075159546063 0.0095920988714006342 0 -0.1522075159546063 0.0095920988714006342 0 -0.17060107900225699 0.015300224281148829 0 -0.15993175103919269 0.024545447416990641 0 -0.17060107900225699 0.015300224281148829 0 -0.15993175103919269 0.024545447416990641 0 -0.17471210158793971 0.02940441131841641 0 -0.15993175103919269 0.024545447416990641 0 -0.15719461041450569 0.035005091616041317 0 -0.16444464809090731 0.033382629238682307 0 -0.15295002147725789 0.02943269054907274 0 -0.15993175103919269 0.024545447416990641 0 -0.15719461041450569 0.035005091616041317 0 -0.15993175103919269 0.024545447416990641 0 -0.17471210158793971 0.02940441131841641 0 -0.16444464809090731 0.033382629238682307 0 -0.17060107900225699 0.015300224281148829 0 -0.17471210158793971 0.02940441131841641 0 -0.19064959553694311 0.023954739884249229 0 -0.17060107900225699 0.015300224281148829 0 -0.18590658937504029 0.0026401256165909611 0 -0.19064959553694311 0.023954739884249229 0 -0.16664299870092189 -0.00098725277767185864 0 -0.17060107900225699 0.015300224281148829 0 -0.18590658937504029 0.0026401256165909611 0 -0.16526333526843739 0.068459433131343977 0 -0.16690953771003481 0.047679342297204927 0 -0.16983070761869659 0.044760074148450069 0 -0.1490118197004501 0.065565408412650905 0 -0.16690953771003481 0.047679342297204927 0 -0.14703098366294429 0.066514125147222658 0 -0.16690953771003481 0.047679342297204927 0 -0.16526333526843739 0.068459433131343977 0 -0.1490118197004501 0.065565408412650905 0 -0.16690953771003481 0.047679342297204927 0 -0.1553432811445972 0.047690691994382382 0 -0.1542481713148034 0.054214291431465687 0 -0.1605154985578609 0.045755128638589701 0 -0.1542481713148034 0.054214291431465687 0 -0.16690953771003481 0.047679342297204927 0 -0.1605154985578609 0.045755128638589701 0 -0.1553432811445972 0.047690691994382382 0 -0.15666668185469079 0.04229589094091641 0 -0.1605154985578609 0.045755128638589701 0 -0.15666668185469079 0.04229589094091641 0 -0.16284294944854361 0.039584317592061768 0 -0.1605154985578609 0.045755128638589701 0 -0.16284294944854361 0.039584317592061768 0 -0.1605154985578609 0.045755128638589701 0 -0.16550768156407261 0.043210112185032221 0 -0.15666668185469079 0.04229589094091641 0 -0.16284294944854361 0.039584317592061768 0 -0.15719461041450569 0.035005091616041317 0 -0.16284294944854361 0.039584317592061768 0 -0.15719461041450569 0.035005091616041317 0 -0.16444464809090731 0.033382629238682307 0 -0.17471210158793971 0.02940441131841641 0 -0.16754182796435471 0.03837387824990144 0 -0.16983070761869659 0.044760074148450069 0 -0.17471210158793971 0.02940441131841641 0 -0.16444464809090731 0.033382629238682307 0 -0.16754182796435471 0.03837387824990144 0 -0.16284294944854361 0.039584317592061768 0 -0.16444464809090731 0.033382629238682307 0 -0.16754182796435471 0.03837387824990144 0 -0.16690953771003481 0.047679342297204927 0 -0.1605154985578609 0.045755128638589701 0 -0.16550768156407261 0.043210112185032221 0 -0.16690953771003481 0.047679342297204927 0 -0.16550768156407261 0.043210112185032221 0 -0.16983070761869659 0.044760074148450069 0 -0.16754182796435471 0.03837387824990144 0 -0.16550768156407261 0.043210112185032221 0 -0.16983070761869659 0.044760074148450069 0 -0.16284294944854361 0.039584317592061768 0 -0.16754182796435471 0.03837387824990144 0 -0.16550768156407261 0.043210112185032221 0 -0.16690953771003481 0.047679342297204927 0 -0.16983070761869659 0.044760074148450069 0 -0.16983070761869659 0.044760074148450069 0 -0.18541317435638441 0.052795738524357157 0 -0.19064959553694311 0.023954739884249229 0 -0.16983070761869659 0.044760074148450069 0 -0.19064959553694311 0.023954739884249229 0 -0.17471210158793971 0.02940441131841641 0 -0.16983070761869659 0.044760074148450069 0 -0.19064959553694311 0.023954739884249229 0 -0.16526333526843739 0.068459433131343977 0 -0.16983070761869659 0.044760074148450069 0 -0.18541317435638441 0.052795738524357157 0 -0.16526333526843739 0.068459433131343977 0 -0.18541317435638441 0.052795738524357157 0 -0.18541317435638441 0.052795738524357157 0 -0.212003188180026 0.045459358316512939 0 -0.20084988603359241 0.064238746366122021 0 -0.18334941338716551 0.069111255833377558 0 -0.18541317435638441 0.052795738524357157 0 -0.20084988603359241 0.064238746366122021 0 -0.18541317435638441 0.052795738524357157 0 -0.212003188180026 0.045459358316512939 0 -0.19064959553694311 0.023954739884249229 0 -0.212003188180026 0.045459358316512939 0 -0.2202950493619435 0.065540231179995606 0 -0.20084988603359241 0.064238746366122021 0 -0.18590658937504029 0.0026401256165909611 0 -0.19064959553694311 0.023954739884249229 0 -0.21146848345518951 0.003149405620048396 0 -0.19064959553694311 0.023954739884249229 0 -0.21146848345518951 0.003149405620048396 0 -0.19064959553694311 0.023954739884249229 0 -0.21836653901732489 0.023447964772470659 0 -0.21146848345518951 0.003149405620048396 0 -0.212003188180026 0.045459358316512939 0 -0.19064959553694311 0.023954739884249229 0 -0.21836653901732489 0.023447964772470659 0 -0.21836653901732489 0.023447964772470659 0 -0.21146848345518951 0.003149405620048396 0 -0.24496178883302311 0.01237944270509766 0 -0.21836653901732489 0.023447964772470659 0 -0.24496178883302311 0.01237944270509766 0 -0.23243935723684681 0.034580329818073442 0 -0.25457044692415531 0.039847410896771858 0 -0.24496178883302311 0.01237944270509766 0 -0.23243935723684681 0.034580329818073442 0 -0.212003188180026 0.045459358316512939 0 -0.23593583031384649 0.054100596417343112 0 -0.2202950493619435 0.065540231179995606 0 -0.212003188180026 0.045459358316512939 0 -0.23243935723684681 0.034580329818073442 0 -0.23593583031384649 0.054100596417343112 0 -0.212003188180026 0.045459358316512939 0 -0.21836653901732489 0.023447964772470659 0 -0.23243935723684681 0.034580329818073442 0 -0.25457044692415531 0.039847410896771858 0 -0.23243935723684681 0.034580329818073442 0 -0.23593583031384649 0.054100596417343112 0 -0.25797894661879511 0.062645041705594595 0 -0.25457044692415531 0.039847410896771858 0 -0.23593583031384649 0.054100596417343112 0 -0.25797894661879511 0.062645041705594595 0 -0.23593583031384649 0.054100596417343112 0 -0.24155975252329931 0.073837244407682759 0 -0.24155975252329931 0.073837244407682759 0 -0.22740017521243619 0.083596905565955004 0 -0.24211114701042519 0.09453997081764981 0 -0.22740017521243619 0.083596905565955004 0 -0.2226730059828548 0.1015290852565431 0 -0.24211114701042519 0.09453997081764981 0 -0.22740017521243619 0.083596905565955004 0 -0.21036192118365829 0.082537996167903832 0 -0.2226730059828548 0.1015290852565431 0 -0.22740017521243619 0.083596905565955004 0 -0.2202950493619435 0.065540231179995606 0 -0.21036192118365829 0.082537996167903832 0 -0.24155975252329931 0.073837244407682759 0 -0.22740017521243619 0.083596905565955004 0 -0.2202950493619435 0.065540231179995606 0 -0.23593583031384649 0.054100596417343112 0 -0.24155975252329931 0.073837244407682759 0 -0.2202950493619435 0.065540231179995606 0 -0.2202950493619435 0.065540231179995606 0 -0.21036192118365829 0.082537996167903832 0 -0.20084988603359241 0.064238746366122021 0 -0.18257781139978299 0.097235204519454568 0 -0.1912471069594148 0.080798770948406221 0 -0.20161825686011489 0.099426740396407046 0 -0.21036192118365829 0.082537996167903832 0 -0.1912471069594148 0.080798770948406221 0 -0.20161825686011489 0.099426740396407046 0 -0.18334941338716551 0.069111255833377558 0 -0.1912471069594148 0.080798770948406221 0 -0.20084988603359241 0.064238746366122021 0 -0.21036192118365829 0.082537996167903832 0 -0.1912471069594148 0.080798770948406221 0 -0.20084988603359241 0.064238746366122021 0 -0.1895518980050237 0.1151226267716067 0 -0.20998448200653561 0.12316509149599671 0 -0.19434096616379359 0.1315084048054635 0 -0.1895518980050237 0.1151226267716067 0 -0.20161825686011489 0.099426740396407046 0 -0.20998448200653561 0.12316509149599671 0 -0.18257781139978299 0.097235204519454568 0 -0.1895518980050237 0.1151226267716067 0 -0.20161825686011489 0.099426740396407046 0 -0.20161825686011489 0.099426740396407046 0 -0.20998448200653561 0.12316509149599671 0 -0.2226730059828548 0.1015290852565431 0 -0.21036192118365829 0.082537996167903832 0 -0.20161825686011489 0.099426740396407046 0 -0.2226730059828548 0.1015290852565431 0 -0.22892009829693391 0.1206968140226765 0 -0.2226730059828548 0.1015290852565431 0 -0.24007097381998019 0.1107183825947216 0 -0.20998448200653561 0.12316509149599671 0 -0.22892009829693391 0.1206968140226765 0 -0.2226730059828548 0.1015290852565431 0 -0.2226730059828548 0.1015290852565431 0 -0.24211114701042519 0.09453997081764981 0 -0.24007097381998019 0.1107183825947216 0 -0.25813148535304709 0.1137235584372733 0 -0.24211114701042519 0.09453997081764981 0 -0.24007097381998019 0.1107183825947216 0 -0.25813148535304709 0.1137235584372733 0 -0.24007097381998019 0.1107183825947216 0 -0.24645927362986639 0.1322616828522806 0 -0.22892009829693391 0.1206968140226765 0 -0.24007097381998019 0.1107183825947216 0 -0.24645927362986639 0.1322616828522806 0 -0.22892009829693391 0.1206968140226765 0 -0.24645927362986639 0.1322616828522806 0 -0.22727076960377021 0.1407272603990129 0 -0.20998448200653561 0.12316509149599671 0 -0.22892009829693391 0.1206968140226765 0 -0.22727076960377021 0.1407272603990129 0 -0.22727076960377021 0.1407272603990129 0 -0.24172537073617961 0.1498083737734853 0 -0.2327985481080396 0.1657027679543413 0 -0.22727076960377021 0.1407272603990129 0 -0.2327985481080396 0.1657027679543413 0 -0.21083925957963481 0.14978172045773511 0 -0.25799286945900141 0.15886893947765879 0 -0.24645927362986639 0.1322616828522806 0 -0.24172537073617961 0.1498083737734853 0 -0.24645927362986639 0.1322616828522806 0 -0.22727076960377021 0.1407272603990129 0 -0.24172537073617961 0.1498083737734853 0 -0.25799286945900141 0.15886893947765879 0 -0.24172537073617961 0.1498083737734853 0 -0.2327985481080396 0.1657027679543413 0 -0.25771628892770448 0.1781885867772483 0 -0.25799286945900141 0.15886893947765879 0 -0.2327985481080396 0.1657027679543413 0 -0.25771628892770448 0.1781885867772483 0 -0.23807852779806479 0.18615093052029949 0 -0.2327985481080396 0.1657027679543413 0 -0.23807852779806479 0.18615093052029949 0 -0.2327985481080396 0.1657027679543413 0 -0.2122352646949715 0.17861803039921961 0 -0.2327985481080396 0.1657027679543413 0 -0.2122352646949715 0.17861803039921961 0 -0.21083925957963481 0.14978172045773511 0 -0.2122352646949715 0.17861803039921961 0 -0.19344280684722351 0.16730730133756089 0 -0.21083925957963481 0.14978172045773511 0 -0.1939016413080776 0.184184334175128 0 -0.19344280684722351 0.16730730133756089 0 -0.1760463541148122 0.18483288221738681 0 -0.2122352646949715 0.17861803039921961 0 -0.1939016413080776 0.184184334175128 0 -0.19344280684722351 0.16730730133756089 0 -0.2122352646949715 0.17861803039921961 0 -0.1939016413080776 0.184184334175128 0 -0.20109745657390221 0.19819464053519739 0 -0.19344280684722351 0.16730730133756089 0 -0.21083925957963481 0.14978172045773511 0 -0.19344280684722351 0.16730730133756089 0 -0.1897292010882938 0.1474887291484186 0 -0.21083925957963481 0.14978172045773511 0 -0.1897292010882938 0.1474887291484186 0 -0.19434096616379359 0.1315084048054635 0 -0.21083925957963481 0.14978172045773511 0 -0.20998448200653561 0.12316509149599671 0 -0.19434096616379359 0.1315084048054635 0 -0.21083925957963481 0.14978172045773511 0 -0.20998448200653561 0.12316509149599671 0 -0.22727076960377021 0.1407272603990129 0 -0.21083925957963481 0.14978172045773511 0 -0.2419990777252152 0.25293648704472099 0 -0.22075493884011671 0.23936948420655149 0 -0.22262726019175141 0.22732492336095411 0 -0.21490162638859439 0.2479119197812811 0 -0.2419990777252152 0.25293648704472099 0 -0.22075493884011671 0.23936948420655149 0 -0.21490162638859439 0.2479119197812811 0 -0.22075493884011671 0.23936948420655149 0 -0.22262726019175141 0.22732492336095411 0 -0.21490162638859439 0.2479119197812811 0 -0.25825314838481339 0.2425458797231245 0 -0.2419990777252152 0.25293648704472099 0 -0.2408074769917862 0.23465833815203779 0 -0.2419990777252152 0.25293648704472099 0 -0.22075493884011671 0.23936948420655149 0 -0.2408074769917862 0.23465833815203779 0 -0.26474309448668609 0.22322285005153111 0 -0.2408074769917862 0.23465833815203779 0 -0.2417097275862935 0.21883514260066619 0 -0.2408074769917862 0.23465833815203779 0 -0.2417097275862935 0.21883514260066619 0 -0.22262726019175141 0.22732492336095411 0 -0.22075493884011671 0.23936948420655149 0 -0.2408074769917862 0.23465833815203779 0 -0.22262726019175141 0.22732492336095411 0 -0.22262726019175141 0.22732492336095411 0 -0.2303528939949081 0.20673792694062679 0 -0.2172976349730853 0.21361451564698869 0 -0.22262726019175141 0.22732492336095411 0 -0.2303528939949081 0.20673792694062679 0 -0.2417097275862935 0.21883514260066619 0 -0.22262726019175141 0.22732492336095411 0 -0.2303528939949081 0.20673792694062679 0 -0.2303528939949081 0.20673792694062679 0 -0.2168908574661382 0.19801621008371681 0 -0.2172976349730853 0.21361451564698869 0 -0.25001791226633591 0.20223167449818141 0 -0.2417097275862935 0.21883514260066619 0 -0.2303528939949081 0.20673792694062679 0 -0.25001791226633591 0.20223167449818141 0 -0.25771628892770448 0.1781885867772483 0 -0.23807852779806479 0.18615093052029949 0 -0.25001791226633591 0.20223167449818141 0 -0.23807852779806479 0.18615093052029949 0 -0.2303528939949081 0.20673792694062679 0 -0.23807852779806479 0.18615093052029949 0 -0.2122352646949715 0.17861803039921961 0 -0.2168908574661382 0.19801621008371681 0 -0.23807852779806479 0.18615093052029949 0 -0.2303528939949081 0.20673792694062679 0 -0.23807852779806479 0.18615093052029949 0 -0.2303528939949081 0.20673792694062679 0 -0.2168908574661382 0.19801621008371681 0 -0.2168908574661382 0.19801621008371681 0 -0.20109745657390221 0.19819464053519739 0 -0.20633716536348279 0.210271938072049 0 -0.2122352646949715 0.17861803039921961 0 -0.2168908574661382 0.19801621008371681 0 -0.20109745657390221 0.19819464053519739 0 -0.1939016413080776 0.184184334175128 0 -0.20109745657390221 0.19819464053519739 0 -0.18613787467600559 0.19822009325801199 0 -0.20109745657390221 0.19819464053519739 0 -0.1939603052279267 0.20882006281885979 0 -0.18613787467600559 0.19822009325801199 0 -0.20109745657390221 0.19819464053519739 0 -0.1939603052279267 0.20882006281885979 0 -0.20633716536348279 0.210271938072049 0 -0.1939603052279267 0.20882006281885979 0 -0.18847779311200399 0.21792875794108491 0 -0.19811422496977341 0.21947291992985701 0 -0.1939603052279267 0.20882006281885979 0 -0.18847779311200399 0.21792875794108491 0 -0.18222167222780239 0.21020269739657929 0 -0.1939603052279267 0.20882006281885979 0 -0.20633716536348279 0.210271938072049 0 -0.19811422496977341 0.21947291992985701 0 -0.20633716536348279 0.210271938072049 0 -0.20865288678017779 0.22409257537152411 0 -0.19811422496977341 0.21947291992985701 0 -0.20633716536348279 0.210271938072049 0 -0.2172976349730853 0.21361451564698869 0 -0.20865288678017779 0.22409257537152411 0 -0.2168908574661382 0.19801621008371681 0 -0.20633716536348279 0.210271938072049 0 -0.2172976349730853 0.21361451564698869 0 -0.22262726019175141 0.22732492336095411 0 -0.2172976349730853 0.21361451564698869 0 -0.20865288678017779 0.22409257537152411 0 -0.22262726019175141 0.22732492336095411 0 -0.2130663116774654 0.23367141518584331 0 -0.20865288678017779 0.22409257537152411 0 -0.20865288678017779 0.22409257537152411 0 -0.19917816863304411 0.2293848171664909 0 -0.20608347334933769 0.2353562422296161 0 -0.2130663116774654 0.23367141518584331 0 -0.20865288678017779 0.22409257537152411 0 -0.20608347334933769 0.2353562422296161 0 -0.19811422496977341 0.21947291992985701 0 -0.19207903070200519 0.226339368209133 0 -0.19917816863304411 0.2293848171664909 0 -0.20865288678017779 0.22409257537152411 0 -0.19811422496977341 0.21947291992985701 0 -0.19917816863304411 0.2293848171664909 0 -0.18847779311200399 0.21792875794108491 0 -0.19811422496977341 0.21947291992985701 0 -0.19207903070200519 0.226339368209133 0 -0.18847779311200399 0.21792875794108491 0 -0.19207903070200519 0.226339368209133 0 -0.18383749952494771 0.22732102123223061 0 -0.19207903070200519 0.226339368209133 0 -0.1903100476331743 0.23316716615974639 0 -0.19917816863304411 0.2293848171664909 0 -0.19207903070200519 0.226339368209133 0 -0.1903100476331743 0.23316716615974639 0 -0.18383749952494771 0.22732102123223061 0 -0.1903100476331743 0.23316716615974639 0 -0.19917816863304411 0.2293848171664909 0 -0.1978197221739024 0.2384599270529186 0 -0.18964531453629549 0.24322874732524691 0 -0.21490162638859439 0.2479119197812811 0 -0.18964531453629549 0.24322874732524691 0 -0.19422753500318671 0.24927008917741861 0 -0.21490162638859439 0.2479119197812811 0 -0.19917816863304411 0.2293848171664909 0 -0.1978197221739024 0.2384599270529186 0 -0.20608347334933769 0.2353562422296161 0 -0.1978197221739024 0.2384599270529186 0 -0.18964531453629549 0.24322874732524691 0 -0.21490162638859439 0.2479119197812811 0 -0.1978197221739024 0.2384599270529186 0 -0.1893173920268863 0.2382955116118049 0 -0.18964531453629549 0.24322874732524691 0 -0.1903100476331743 0.23316716615974639 0 -0.1978197221739024 0.2384599270529186 0 -0.1893173920268863 0.2382955116118049 0 -0.1893173920268863 0.2382955116118049 0 -0.18964531453629549 0.24322874732524691 0 -0.18481608155232521 0.24121676356881799 0 -0.1903100476331743 0.23316716615974639 0 -0.1893173920268863 0.2382955116118049 0 -0.1839957942387343 0.2354049539522946 0 -0.18964531453629549 0.24322874732524691 0 -0.19422753500318671 0.24927008917741861 0 -0.18523891074017471 0.24700351220784261 0 -0.18950928732507449 0.25308855862167973 0 -0.19422753500318671 0.24927008917741861 0 -0.18523891074017471 0.24700351220784261 0 -0.1978197221739024 0.2384599270529186 0 -0.20608347334933769 0.2353562422296161 0 -0.21490162638859439 0.2479119197812811 0 -0.22262726019175141 0.22732492336095411 0 -0.2130663116774654 0.23367141518584331 0 -0.21490162638859439 0.2479119197812811 0 -0.2130663116774654 0.23367141518584331 0 -0.20608347334933769 0.2353562422296161 0 -0.21490162638859439 0.2479119197812811 0 -0.15080605250994189 0.2509115815981382 0 -0.15930165715754269 0.23591263980146401 0 -0.168909596971867 0.23974411847412649 0 -0.15080605250994189 0.2509115815981382 0 -0.168909596971867 0.23974411847412649 0 -0.15020312497912239 0.2546436794913306 0 -0.17419466681155291 0.24533697914187419 0 -0.15080605250994189 0.2509115815981382 0 -0.168909596971867 0.23974411847412649 0 -0.17202190357501451 0.24282216012207219 0 -0.15080605250994189 0.2509115815981382 0 -0.17202190357501451 0.24282216012207219 0 -0.17419466681155291 0.24533697914187419 0 -0.15930165715754269 0.23591263980146401 0 -0.168909596971867 0.23974411847412649 0 -0.1660143559521027 0.23433630842767669 0 -0.168909596971867 0.23974411847412649 0 -0.16936268573043661 0.23351088203887591 0 -0.1660143559521027 0.23433630842767669 0 -0.168909596971867 0.23974411847412649 0 -0.17382324073125771 0.23767057170070849 0 -0.16936268573043661 0.23351088203887591 0 -0.168909596971867 0.23974411847412649 0 -0.17202190357501451 0.24282216012207219 0 -0.17382324073125771 0.23767057170070849 0 -0.17419466681155291 0.24533697914187419 0 -0.18481608155232521 0.24121676356881799 0 -0.17202190357501451 0.24282216012207219 0 -0.17419466681155291 0.24533697914187419 0 -0.17482613322758561 0.24138010050451131 0 -0.17202190357501451 0.24282216012207219 0 -0.17419466681155291 0.24533697914187419 0 -0.17419466681155291 0.24533697914187419 0 -0.18523891074017471 0.24700351220784261 0 -0.18481608155232521 0.24121676356881799 0 -0.18964531453629549 0.24322874732524691 0 -0.18523891074017471 0.24700351220784261 0 -0.18481608155232521 0.24121676356881799 0 -0.1893173920268863 0.2382955116118049 0 -0.1839957942387343 0.2354049539522946 0 -0.18481608155232521 0.24121676356881799 0 -0.1839957942387343 0.2354049539522946 0 -0.18481608155232521 0.24121676356881799 0 -0.17926472179251679 0.23969069105339089 0 -0.1839957942387343 0.2354049539522946 0 -0.17926472179251679 0.23969069105339089 0 -0.17830126745910169 0.23272013781420789 0 -0.17926472179251679 0.23969069105339089 0 -0.17382324073125771 0.23767057170070849 0 -0.17830126745910169 0.23272013781420789 0 -0.17419466681155291 0.24533697914187419 0 -0.18481608155232521 0.24121676356881799 0 -0.17926472179251679 0.23969069105339089 0 -0.17419466681155291 0.24533697914187419 0 -0.17926472179251679 0.23969069105339089 0 -0.17482613322758561 0.24138010050451131 0 -0.17926472179251679 0.23969069105339089 0 -0.17482613322758561 0.24138010050451131 0 -0.17382324073125771 0.23767057170070849 0 -0.17202190357501451 0.24282216012207219 0 -0.17482613322758561 0.24138010050451131 0 -0.17382324073125771 0.23767057170070849 0 -0.17830126745910169 0.23272013781420789 0 -0.18383749952494771 0.22732102123223061 0 -0.17554200255941491 0.2258592730727971 0 -0.17382324073125771 0.23767057170070849 0 -0.17318416260149039 0.23114371662499139 0 -0.17830126745910169 0.23272013781420789 0 -0.17382324073125771 0.23767057170070849 0 -0.17318416260149039 0.23114371662499139 0 -0.16936268573043661 0.23351088203887591 0 -0.17318416260149039 0.23114371662499139 0 -0.17830126745910169 0.23272013781420789 0 -0.17554200255941491 0.2258592730727971 0 -0.1903100476331743 0.23316716615974639 0 -0.1839957942387343 0.2354049539522946 0 -0.18383749952494771 0.22732102123223061 0 -0.1839957942387343 0.2354049539522946 0 -0.17830126745910169 0.23272013781420789 0 -0.18383749952494771 0.22732102123223061 0 -0.18847779311200399 0.21792875794108491 0 -0.18383749952494771 0.22732102123223061 0 -0.17871268680567601 0.21882546242884421 0 -0.18383749952494771 0.22732102123223061 0 -0.17871268680567601 0.21882546242884421 0 -0.17554200255941491 0.2258592730727971 0 -0.17871268680567601 0.21882546242884421 0 -0.17554200255941491 0.2258592730727971 0 -0.17144747170191799 0.22031686639816009 0 -0.17554200255941491 0.2258592730727971 0 -0.17144747170191799 0.22031686639816009 0 -0.1664834839485646 0.22817759339624061 0 -0.17144747170191799 0.22031686639816009 0 -0.1664834839485646 0.22817759339624061 0 -0.16448058214886341 0.21575549750331341 0 -0.17318416260149039 0.23114371662499139 0 -0.17554200255941491 0.2258592730727971 0 -0.1664834839485646 0.22817759339624061 0 -0.17318416260149039 0.23114371662499139 0 -0.16936268573043661 0.23351088203887591 0 -0.1664834839485646 0.22817759339624061 0 -0.16936268573043661 0.23351088203887591 0 -0.1660143559521027 0.23433630842767669 0 -0.1664834839485646 0.22817759339624061 0 -0.15930165715754269 0.23591263980146401 0 -0.1664834839485646 0.22817759339624061 0 -0.15472797694617119 0.2266350223476751 0 -0.15930165715754269 0.23591263980146401 0 -0.1660143559521027 0.23433630842767669 0 -0.1664834839485646 0.22817759339624061 0 -0.1664834839485646 0.22817759339624061 0 -0.16448058214886341 0.21575549750331341 0 -0.15472797694617119 0.2266350223476751 0 -0.16448058214886341 0.21575549750331341 0 -0.1586499013824004 0.20235846309721189 0 -0.15472797694617119 0.2266350223476751 0 -0.1586499013824004 0.20235846309721189 0 -0.15472797694617119 0.2266350223476751 0 -0.15625209502719051 0.20477406758042471 0 -0.1586499013824004 0.20235846309721189 0 -0.15671433240212579 0.20283502727580779 0 -0.15625209502719051 0.20477406758042471 0 -0.1586499013824004 0.20235846309721189 0 -0.16448058214886341 0.21575549750331341 0 -0.1726822853517519 0.2042186011297204 0 -0.1586499013824004 0.20235846309721189 0 -0.17144747170191799 0.22031686639816009 0 -0.16448058214886341 0.21575549750331341 0 -0.17335908819345039 0.21320320680295471 0 -0.16448058214886341 0.21575549750331341 0 -0.17335908819345039 0.21320320680295471 0 -0.1726822853517519 0.2042186011297204 0 -0.17871268680567601 0.21882546242884421 0 -0.17144747170191799 0.22031686639816009 0 -0.17335908819345039 0.21320320680295471 0 -0.17871268680567601 0.21882546242884421 0 -0.17335908819345039 0.21320320680295471 0 -0.18222167222780239 0.21020269739657929 0 -0.18847779311200399 0.21792875794108491 0 -0.17871268680567601 0.21882546242884421 0 -0.18222167222780239 0.21020269739657929 0 -0.1939603052279267 0.20882006281885979 0 -0.18222167222780239 0.21020269739657929 0 -0.18613787467600559 0.19822009325801199 0 -0.18222167222780239 0.21020269739657929 0 -0.1726822853517519 0.2042186011297204 0 -0.18613787467600559 0.19822009325801199 0 -0.17335908819345039 0.21320320680295471 0 -0.18222167222780239 0.21020269739657929 0 -0.1726822853517519 0.2042186011297204 0 -0.1939016413080776 0.184184334175128 0 -0.18613787467600559 0.19822009325801199 0 -0.1760463541148122 0.18483288221738681 0 -0.1726822853517519 0.2042186011297204 0 -0.18613787467600559 0.19822009325801199 0 -0.1760463541148122 0.18483288221738681 0 -0.1726822853517519 0.2042186011297204 0 -0.1586499013824004 0.20235846309721189 0 -0.1760463541148122 0.18483288221738681 0 -0.1586499013824004 0.20235846309721189 0 -0.1760463541148122 0.18483288221738681 0 -0.1586499013824004 0.20235846309721189 0 -0.15872483237309171 0.19258522385612789 0 -0.1760463541148122 0.18483288221738681 0 -0.1586499013824004 0.20235846309721189 0 -0.1566993159213764 0.19868883267045079 0 -0.15872483237309171 0.19258522385612789 0 -0.1586499013824004 0.20235846309721189 0 -0.1570333757816342 0.20109971380806679 0 -0.1566993159213764 0.19868883267045079 0 -0.1570333757816342 0.20109971380806679 0 -0.1566993159213764 0.19868883267045079 0 -0.15521841888297569 0.20054085502647021 0 -0.1570333757816342 0.20109971380806679 0 -0.15671433240212579 0.20283502727580779 0 -0.15521841888297569 0.20054085502647021 0 -0.1586499013824004 0.20235846309721189 0 -0.1570333757816342 0.20109971380806679 0 -0.15671433240212579 0.20283502727580779 0 -0.1566993159213764 0.19868883267045079 0 -0.15872483237309171 0.19258522385612789 0 -0.1537238295927088 0.19763880642858139 0 -0.15872483237309171 0.19258522385612789 0 -0.15102720710703721 0.18870604719475539 0 -0.1624985338649263 0.18351522854017871 0 -0.15222182225810399 0.19366855523670479 0 -0.15102720710703721 0.18870604719475539 0 -0.1469088543994384 0.19508168871727349 0 -0.15872483237309171 0.19258522385612789 0 -0.15222182225810399 0.19366855523670479 0 -0.1537238295927088 0.19763880642858139 0 -0.15872483237309171 0.19258522385612789 0 -0.15222182225810399 0.19366855523670479 0 -0.15102720710703721 0.18870604719475539 0 -0.1566993159213764 0.19868883267045079 0 -0.1537238295927088 0.19763880642858139 0 -0.15521841888297569 0.20054085502647021 0 -0.15439841449526701 0.20270277200284051 0 -0.15183164926568571 0.2005874979001443 0 -0.15197557689835731 0.2047764122313557 0 -0.15671433240212579 0.20283502727580779 0 -0.15439841449526701 0.20270277200284051 0 -0.15521841888297569 0.20054085502647021 0 -0.1537238295927088 0.19763880642858139 0 -0.15521841888297569 0.20054085502647021 0 -0.15183164926568571 0.2005874979001443 0 -0.15439841449526701 0.20270277200284051 0 -0.15521841888297569 0.20054085502647021 0 -0.15183164926568571 0.2005874979001443 0 -0.15183164926568571 0.2005874979001443 0 -0.1475730844213943 0.2012818992841762 0 -0.15197557689835731 0.2047764122313557 0 -0.15183164926568571 0.2005874979001443 0 -0.15024157900641241 0.1975023220007403 0 -0.1475730844213943 0.2012818992841762 0 -0.15222182225810399 0.19366855523670479 0 -0.1537238295927088 0.19763880642858139 0 -0.15024157900641241 0.1975023220007403 0 -0.15222182225810399 0.19366855523670479 0 -0.15024157900641241 0.1975023220007403 0 -0.1469088543994384 0.19508168871727349 0 -0.1537238295927088 0.19763880642858139 0 -0.15183164926568571 0.2005874979001443 0 -0.15024157900641241 0.1975023220007403 0 -0.1475730844213943 0.2012818992841762 0 -0.142459758460356 0.19861630251190041 0 -0.1469088543994384 0.19508168871727349 0 -0.15024157900641241 0.1975023220007403 0 -0.1475730844213943 0.2012818992841762 0 -0.1469088543994384 0.19508168871727349 0 -0.1475730844213943 0.2012818992841762 0 -0.142459758460356 0.19861630251190041 0 -0.1422524041805979 0.20557671918207521 0 -0.142459758460356 0.19861630251190041 0 -0.14277473457382139 0.19147263870309431 0 -0.1469088543994384 0.19508168871727349 0 -0.15102720710703721 0.18870604719475539 0 -0.14277473457382139 0.19147263870309431 0 -0.14510958151321579 0.18473702583469009 0 -0.15102720710703721 0.18870604719475539 0 -0.14277473457382139 0.19147263870309431 0 -0.1469088543994384 0.19508168871727349 0 -0.14277473457382139 0.19147263870309431 0 -0.14510958151321579 0.18473702583469009 0 -0.13738299589340741 0.18684063542023191 0 -0.14277473457382139 0.19147263870309431 0 -0.13663742332151391 0.19504812727950649 0 -0.13738299589340741 0.18684063542023191 0 -0.13663742332151391 0.19504812727950649 0 -0.13021038504640209 0.1899495558224244 0 -0.13738299589340741 0.18684063542023191 0 -0.142459758460356 0.19861630251190041 0 -0.14277473457382139 0.19147263870309431 0 -0.13663742332151391 0.19504812727950649 0 -0.13021038504640209 0.1899495558224244 0 -0.12628518295623711 0.1986577485311721 0 -0.1203201157405142 0.18832216793770121 0 -0.13663742332151391 0.19504812727950649 0 -0.13021038504640209 0.1899495558224244 0 -0.12628518295623711 0.1986577485311721 0 -0.13663742332151391 0.19504812727950649 0 -0.12628518295623711 0.1986577485311721 0 -0.13575416762199999 0.20338220950197691 0 -0.142459758460356 0.19861630251190041 0 -0.13663742332151391 0.19504812727950649 0 -0.13575416762199999 0.20338220950197691 0 -0.142459758460356 0.19861630251190041 0 -0.13575416762199999 0.20338220950197691 0 -0.1422524041805979 0.20557671918207521 0 -0.13575416762199999 0.20338220950197691 0 -0.13715251862486369 0.2142629011141817 0 -0.1422524041805979 0.20557671918207521 0 -0.13575416762199999 0.20338220950197691 0 -0.12720779712011451 0.2115545862877653 0 -0.13715251862486369 0.2142629011141817 0 -0.12628518295623711 0.1986577485311721 0 -0.13575416762199999 0.20338220950197691 0 -0.12720779712011451 0.2115545862877653 0 -0.12720779712011451 0.2115545862877653 0 -0.13715251862486369 0.2142629011141817 0 -0.1296598984145699 0.22322764612401089 0 -0.13715251862486369 0.2142629011141817 0 -0.14582200189910571 0.2157621105174789 0 -0.1422524041805979 0.20557671918207521 0 -0.1586499013824004 0.20235846309721189 0 -0.15312676923622531 0.21141248737819321 0 -0.15472797694617119 0.2266350223476751 0 -0.14582200189910571 0.2157621105174789 0 -0.1422524041805979 0.20557671918207521 0 -0.14855187711415421 0.20764050282341801 0 -0.1475730844213943 0.2012818992841762 0 -0.1422524041805979 0.20557671918207521 0 -0.14855187711415421 0.20764050282341801 0 -0.15625209502719051 0.20477406758042471 0 -0.1586499013824004 0.20235846309721189 0 -0.15312676923622531 0.21141248737819321 0 -0.14855187711415421 0.20764050282341801 0 -0.15197557689835731 0.2047764122313557 0 -0.15312676923622531 0.21141248737819321 0 -0.1475730844213943 0.2012818992841762 0 -0.14855187711415421 0.20764050282341801 0 -0.15197557689835731 0.2047764122313557 0 -0.15625209502719051 0.20477406758042471 0 -0.15197557689835731 0.2047764122313557 0 -0.15312676923622531 0.21141248737819321 0 -0.15625209502719051 0.20477406758042471 0 -0.15439841449526701 0.20270277200284051 0 -0.15197557689835731 0.2047764122313557 0 -0.15625209502719051 0.20477406758042471 0 -0.15671433240212579 0.20283502727580779 0 -0.15439841449526701 0.20270277200284051 0 -0.14582200189910571 0.2157621105174789 0 -0.14855187711415421 0.20764050282341801 0 -0.15312676923622531 0.21141248737819321 0 -0.14582200189910571 0.2157621105174789 0 -0.15312676923622531 0.21141248737819321 0 -0.15472797694617119 0.2266350223476751 0 -0.13715251862486369 0.2142629011141817 0 -0.14582200189910571 0.2157621105174789 0 -0.13948351795492009 0.22976039825060321 0 -0.14582200189910571 0.2157621105174789 0 -0.15472797694617119 0.2266350223476751 0 -0.13948351795492009 0.22976039825060321 0 -0.13715251862486369 0.2142629011141817 0 -0.1296598984145699 0.22322764612401089 0 -0.13948351795492009 0.22976039825060321 0 -0.1296598984145699 0.22322764612401089 0 -0.13948351795492009 0.22976039825060321 0 -0.12654932572426339 0.23876693159931081 0 -0.13948351795492009 0.22976039825060321 0 -0.12654932572426339 0.23876693159931081 0 -0.13753920806889611 0.24804208742008771 0 -0.1355266931395111 0.26033690063920339 0 -0.12654932572426339 0.23876693159931081 0 -0.1355266931395111 0.26033690063920339 0 -0.12654932572426339 0.23876693159931081 0 -0.13753920806889611 0.24804208742008771 0 -0.15080605250994189 0.2509115815981382 0 -0.15472797694617119 0.2266350223476751 0 -0.15080605250994189 0.2509115815981382 0 -0.15472797694617119 0.2266350223476751 0 -0.13948351795492009 0.22976039825060321 0 -0.15080605250994189 0.2509115815981382 0 -0.13948351795492009 0.22976039825060321 0 -0.13753920806889611 0.24804208742008771 0 -0.15080605250994189 0.2509115815981382 0 -0.15930165715754269 0.23591263980146401 0 -0.15472797694617119 0.2266350223476751 0 -0.17016966632502151 0.1425906406239692 0 -0.1727078759886217 0.1635159625805189 0 -0.15479480147704111 0.14877441537490779 0 -0.17016966632502151 0.1425906406239692 0 -0.156711790986029 0.1266486597490438 0 -0.15479480147704111 0.14877441537490779 0 -0.17016966632502151 0.1425906406239692 0 -0.156711790986029 0.1266486597490438 0 -0.1774270875202196 0.12794909696787951 0 -0.1897292010882938 0.1474887291484186 0 -0.17016966632502151 0.1425906406239692 0 -0.1774270875202196 0.12794909696787951 0 -0.1897292010882938 0.1474887291484186 0 -0.19434096616379359 0.1315084048054635 0 -0.1774270875202196 0.12794909696787951 0 -0.1897292010882938 0.1474887291484186 0 -0.17016966632502151 0.1425906406239692 0 -0.1727078759886217 0.1635159625805189 0 -0.19344280684722351 0.16730730133756089 0 -0.1897292010882938 0.1474887291484186 0 -0.1727078759886217 0.1635159625805189 0 -0.19344280684722351 0.16730730133756089 0 -0.1760463541148122 0.18483288221738681 0 -0.19344280684722351 0.16730730133756089 0 -0.1727078759886217 0.1635159625805189 0 -0.1760463541148122 0.18483288221738681 0 -0.1727078759886217 0.1635159625805189 0 -0.1760463541148122 0.18483288221738681 0 -0.1627814863248977 0.17229025068481149 0 -0.15872483237309171 0.19258522385612789 0 -0.1760463541148122 0.18483288221738681 0 -0.1624985338649263 0.18351522854017871 0 -0.1760463541148122 0.18483288221738681 0 -0.1627814863248977 0.17229025068481149 0 -0.1624985338649263 0.18351522854017871 0 -0.1627814863248977 0.17229025068481149 0 -0.1624985338649263 0.18351522854017871 0 -0.1510981177836104 0.17841622344843561 0 -0.1727078759886217 0.1635159625805189 0 -0.1627814863248977 0.17229025068481149 0 -0.1516852083633734 0.16505188354202269 0 -0.1727078759886217 0.1635159625805189 0 -0.1516852083633734 0.16505188354202269 0 -0.15479480147704111 0.14877441537490779 0 -0.1516852083633734 0.16505188354202269 0 -0.1436479678556514 0.15651666866212771 0 -0.15479480147704111 0.14877441537490779 0 -0.1516852083633734 0.16505188354202269 0 -0.1427650808483264 0.16988633757392221 0 -0.1510981177836104 0.17841622344843561 0 -0.1516852083633734 0.16505188354202269 0 -0.1427650808483264 0.16988633757392221 0 -0.1436479678556514 0.15651666866212771 0 -0.15102720710703721 0.18870604719475539 0 -0.1510981177836104 0.17841622344843561 0 -0.14510958151321579 0.18473702583469009 0 -0.15102720710703721 0.18870604719475539 0 -0.1624985338649263 0.18351522854017871 0 -0.1510981177836104 0.17841622344843561 0 -0.1627814863248977 0.17229025068481149 0 -0.1516852083633734 0.16505188354202269 0 -0.1510981177836104 0.17841622344843561 0 -0.1427650808483264 0.16988633757392221 0 -0.1510981177836104 0.17841622344843561 0 -0.14005406830228401 0.17897193226320099 0 -0.14510958151321579 0.18473702583469009 0 -0.13738299589340741 0.18684063542023191 0 -0.14005406830228401 0.17897193226320099 0 -0.1510981177836104 0.17841622344843561 0 -0.14510958151321579 0.18473702583469009 0 -0.14005406830228401 0.17897193226320099 0 -0.13738299589340741 0.18684063542023191 0 -0.14005406830228401 0.17897193226320099 0 -0.12951178260320709 0.1808645326184754 0 -0.1427650808483264 0.16988633757392221 0 -0.14005406830228401 0.17897193226320099 0 -0.1340479657066237 0.1729312702008465 0 -0.14005406830228401 0.17897193226320099 0 -0.1340479657066237 0.1729312702008465 0 -0.12951178260320709 0.1808645326184754 0 -0.1340479657066237 0.1729312702008465 0 -0.12951178260320709 0.1808645326184754 0 -0.1247956241436135 0.17006290188343631 0 -0.13021038504640209 0.1899495558224244 0 -0.12951178260320709 0.1808645326184754 0 -0.1203201157405142 0.18832216793770121 0 -0.13021038504640209 0.1899495558224244 0 -0.13738299589340741 0.18684063542023191 0 -0.12951178260320709 0.1808645326184754 0 -0.1436479678556514 0.15651666866212771 0 -0.13342151489906609 0.1626312772112001 0 -0.13294798084696621 0.15093404654434869 0 -0.1427650808483264 0.16988633757392221 0 -0.1436479678556514 0.15651666866212771 0 -0.13342151489906609 0.1626312772112001 0 -0.1427650808483264 0.16988633757392221 0 -0.1340479657066237 0.1729312702008465 0 -0.13342151489906609 0.1626312772112001 0 -0.1340479657066237 0.1729312702008465 0 -0.13342151489906609 0.1626312772112001 0 -0.1247956241436135 0.17006290188343631 0 -0.13342151489906609 0.1626312772112001 0 -0.1214987380049684 0.15644039856243491 0 -0.1247956241436135 0.17006290188343631 0 -0.13342151489906609 0.1626312772112001 0 -0.13294798084696621 0.15093404654434869 0 -0.1214987380049684 0.15644039856243491 0 -0.13294798084696621 0.15093404654434869 0 -0.14094508899050701 0.13963414602223739 0 -0.1252265944846383 0.13944774226374321 0 -0.1436479678556514 0.15651666866212771 0 -0.13294798084696621 0.15093404654434869 0 -0.14094508899050701 0.13963414602223739 0 -0.13294798084696621 0.15093404654434869 0 -0.1252265944846383 0.13944774226374321 0 -0.1214987380049684 0.15644039856243491 0 -0.1436479678556514 0.15651666866212771 0 -0.15479480147704111 0.14877441537490779 0 -0.14094508899050701 0.13963414602223739 0 -0.14056994565931541 0.1241699255409693 0 -0.156711790986029 0.1266486597490438 0 -0.14094508899050701 0.13963414602223739 0 -0.156711790986029 0.1266486597490438 0 -0.15479480147704111 0.14877441537490779 0 -0.14094508899050701 0.13963414602223739 0 -0.14056994565931541 0.1241699255409693 0 -0.12538013163551431 0.1235615211388761 0 -0.13290305712755529 0.13159023000872161 0 -0.12538013163551431 0.1235615211388761 0 -0.13290305712755529 0.13159023000872161 0 -0.1252265944846383 0.13944774226374321 0 -0.14056994565931541 0.1241699255409693 0 -0.14094508899050701 0.13963414602223739 0 -0.13290305712755529 0.13159023000872161 0 -0.14094508899050701 0.13963414602223739 0 -0.13290305712755529 0.13159023000872161 0 -0.1252265944846383 0.13944774226374321 0 -0.12538013163551431 0.1235615211388761 0 -0.1252265944846383 0.13944774226374321 0 -0.11181489964393899 0.13061983955501469 0 -0.1252265944846383 0.13944774226374321 0 -0.11181489964393899 0.13061983955501469 0 -0.1125643846587014 0.14499842961927459 0 -0.098675296712537372 0.14093847934672071 0 -0.088954900836533152 0.1277786171536919 0 -0.1048138180045957 0.11545051695230341 0 -0.098675296712537372 0.14093847934672071 0 -0.1048138180045957 0.11545051695230341 0 -0.11181489964393899 0.13061983955501469 0 -0.098675296712537372 0.14093847934672071 0 -0.1048138180045957 0.11545051695230341 0 -0.11181489964393899 0.13061983955501469 0 -0.098675296712537372 0.14093847934672071 0 -0.1125643846587014 0.14499842961927459 0 -0.098675296712537372 0.14093847934672071 0 -0.10692124939154329 0.15605533526566129 0 -0.092536775420480694 0.16642644174113849 0 -0.098675296712537372 0.14093847934672071 0 -0.092536775420480694 0.16642644174113849 0 -0.098675296712537372 0.14093847934672071 0 -0.10692124939154329 0.15605533526566129 0 -0.1125643846587014 0.14499842961927459 0 -0.1252265944846383 0.13944774226374321 0 -0.1125643846587014 0.14499842961927459 0 -0.1214987380049684 0.15644039856243491 0 -0.10692124939154329 0.15605533526566129 0 -0.1125643846587014 0.14499842961927459 0 -0.1214987380049684 0.15644039856243491 0 -0.1214987380049684 0.15644039856243491 0 -0.1247956241436135 0.17006290188343631 0 -0.1119607620492676 0.16849222085314161 0 -0.10692124939154329 0.15605533526566129 0 -0.1214987380049684 0.15644039856243491 0 -0.1119607620492676 0.16849222085314161 0 -0.12951178260320709 0.1808645326184754 0 -0.1188874919739711 0.17829513798277949 0 -0.1203201157405142 0.18832216793770121 0 -0.1247956241436135 0.17006290188343631 0 -0.1119607620492676 0.16849222085314161 0 -0.1188874919739711 0.17829513798277949 0 -0.12951178260320709 0.1808645326184754 0 -0.1247956241436135 0.17006290188343631 0 -0.1188874919739711 0.17829513798277949 0 -0.1119607620492676 0.16849222085314161 0 -0.1188874919739711 0.17829513798277949 0 -0.1089148061258528 0.18260394543368769 0 -0.1188874919739711 0.17829513798277949 0 -0.1089148061258528 0.18260394543368769 0 -0.1203201157405142 0.18832216793770121 0 -0.1089148061258528 0.18260394543368769 0 -0.092536775420480694 0.16642644174113849 0 -0.095233025263948209 0.18962245195312349 0 -0.1119607620492676 0.16849222085314161 0 -0.1089148061258528 0.18260394543368769 0 -0.092536775420480694 0.16642644174113849 0 -0.10692124939154329 0.15605533526566129 0 -0.1119607620492676 0.16849222085314161 0 -0.092536775420480694 0.16642644174113849 0 -0.092536775420480694 0.16642644174113849 0 -0.078689711957602437 0.16119924808953071 0 -0.082523425647492196 0.17920335578055269 0 -0.092536775420480694 0.16642644174113849 0 -0.078689711957602437 0.16119924808953071 0 -0.086283654562253106 0.1544634671161238 0 -0.092536775420480694 0.16642644174113849 0 -0.082523425647492196 0.17920335578055269 0 -0.095233025263948209 0.18962245195312349 0 -0.082523425647492196 0.17920335578055269 0 -0.095233025263948209 0.18962245195312349 0 -0.082652546369612043 0.19225848759055891 0 -0.082523425647492196 0.17920335578055269 0 -0.072652816779257348 0.18551595552690289 0 -0.082652546369612043 0.19225848759055891 0 -0.072652816779257348 0.18551595552690289 0 -0.06325286245422429 0.17640452023889161 0 -0.062892950309537093 0.1921629392189097 0 -0.082523425647492196 0.17920335578055269 0 -0.072652816779257348 0.18551595552690289 0 -0.071762506402018422 0.1739008197561655 0 -0.072652816779257348 0.18551595552690289 0 -0.071762506402018422 0.1739008197561655 0 -0.06325286245422429 0.17640452023889161 0 -0.078689711957602437 0.16119924808953071 0 -0.082523425647492196 0.17920335578055269 0 -0.071762506402018422 0.1739008197561655 0 -0.078689711957602437 0.16119924808953071 0 -0.068732386464718478 0.1642711893310555 0 -0.072170112182664517 0.15369097573594701 0 -0.078689711957602437 0.16119924808953071 0 -0.071762506402018422 0.1739008197561655 0 -0.068732386464718478 0.1642711893310555 0 -0.071762506402018422 0.1739008197561655 0 -0.06325286245422429 0.17640452023889161 0 -0.068732386464718478 0.1642711893310555 0 -0.06325286245422429 0.17640452023889161 0 -0.068732386464718478 0.1642711893310555 0 -0.060459637862541403 0.16318967354390851 0 -0.068732386464718478 0.1642711893310555 0 -0.066156987922566995 0.15804526239776689 0 -0.060459637862541403 0.16318967354390851 0 -0.066156987922566995 0.15804526239776689 0 -0.061596475178262222 0.15480559796366139 0 -0.060459637862541403 0.16318967354390851 0 -0.068732386464718478 0.1642711893310555 0 -0.066156987922566995 0.15804526239776689 0 -0.072170112182664517 0.15369097573594701 0 -0.066156987922566995 0.15804526239776689 0 -0.067393933209380918 0.15369557567401601 0 -0.061596475178262222 0.15480559796366139 0 -0.073095983668468742 0.14010671735507799 0 -0.057927073871760222 0.15189843288886329 0 -0.061596475178262222 0.15480559796366139 0 -0.067393933209380918 0.15369557567401601 0 -0.069562075321682654 0.1481210291528044 0 -0.061596475178262222 0.15480559796366139 0 -0.067393933209380918 0.15369557567401601 0 -0.072170112182664517 0.15369097573594701 0 -0.069562075321682654 0.1481210291528044 0 -0.066156987922566995 0.15804526239776689 0 -0.067393933209380918 0.15369557567401601 0 -0.072170112182664517 0.15369097573594701 0 -0.078689711957602437 0.16119924808953071 0 -0.072170112182664517 0.15369097573594701 0 -0.078708042233962799 0.1495635652378309 0 -0.072170112182664517 0.15369097573594701 0 -0.073954558753691585 0.14822108798279271 0 -0.069562075321682654 0.1481210291528044 0 -0.072170112182664517 0.15369097573594701 0 -0.073954558753691585 0.14822108798279271 0 -0.078708042233962799 0.1495635652378309 0 -0.072652622459931718 0.14533802261107659 0 -0.069562075321682654 0.1481210291528044 0 -0.073095983668468742 0.14010671735507799 0 -0.075096912384927661 0.14392977076255911 0 -0.073095983668468742 0.14010671735507799 0 -0.079291386284776735 0.1429169322817179 0 -0.073095983668468742 0.14010671735507799 0 -0.079291386284776735 0.1429169322817179 0 -0.075096912384927661 0.14392977076255911 0 -0.073954558753691585 0.14822108798279271 0 -0.078708042233962799 0.1495635652378309 0 -0.075096912384927661 0.14392977076255911 0 -0.078708042233962799 0.1495635652378309 0 -0.079291386284776735 0.1429169322817179 0 -0.075096912384927661 0.14392977076255911 0 -0.072652622459931718 0.14533802261107659 0 -0.073954558753691585 0.14822108798279271 0 -0.072652622459931718 0.14533802261107659 0 -0.073954558753691585 0.14822108798279271 0 -0.069562075321682654 0.1481210291528044 0 -0.075096912384927661 0.14392977076255911 0 -0.072652622459931718 0.14533802261107659 0 -0.073095983668468742 0.14010671735507799 0 -0.073095983668468742 0.14010671735507799 0 -0.057927073871760222 0.15189843288886329 0 -0.073095983668468742 0.14010671735507799 0 -0.061596475178262222 0.15480559796366139 0 -0.066013549276071365 0.14127858148192371 0 -0.063609121398287671 0.14396039451383719 0 -0.073095983668468742 0.14010671735507799 0 -0.069562075321682654 0.1481210291528044 0 -0.073095983668468742 0.14010671735507799 0 -0.061596475178262222 0.15480559796366139 0 -0.063609121398287671 0.14396039451383719 0 -0.073095983668468742 0.14010671735507799 0 -0.057927073871760222 0.15189843288886329 0 -0.066013549276071365 0.14127858148192371 0 -0.063318768110466758 0.14108651402025579 0 -0.065206669672699766 0.13958700273497759 0 -0.063609121398287671 0.14396039451383719 0 -0.063318768110466758 0.14108651402025579 0 -0.061398733784099171 0.1419338591134465 0 -0.066013549276071365 0.14127858148192371 0 -0.063609121398287671 0.14396039451383719 0 -0.063318768110466758 0.14108651402025579 0 -0.065206669672699766 0.13958700273497759 0 -0.073095983668468742 0.14010671735507799 0 -0.057285523882284708 0.1361478487512002 0 -0.066013549276071365 0.14127858148192371 0 -0.065206669672699766 0.13958700273497759 0 -0.073095983668468742 0.14010671735507799 0 -0.068613208653190552 0.12988713064543181 0 -0.073095983668468742 0.14010671735507799 0 -0.050142980039125443 0.12969530789466091 0 -0.063318768110466758 0.14108651402025579 0 -0.065206669672699766 0.13958700273497759 0 -0.060882603078859822 0.13920726406735609 0 -0.068613208653190552 0.12988713064543181 0 -0.076141641869118704 0.12724262890974189 0 -0.074446782334335812 0.1201945938608048 0 -0.068613208653190552 0.12988713064543181 0 -0.076141641869118704 0.12724262890974189 0 -0.073095983668468742 0.14010671735507799 0 -0.073095983668468742 0.14010671735507799 0 -0.085418019862415318 0.1229528176220613 0 -0.076141641869118704 0.12724262890974189 0 -0.073095983668468742 0.14010671735507799 0 -0.085418019862415318 0.1229528176220613 0 -0.073095983668468742 0.14010671735507799 0 -0.085367930406962805 0.1395975446511481 0 -0.088954900836533152 0.1277786171536919 0 -0.073095983668468742 0.14010671735507799 0 -0.088954900836533152 0.1277786171536919 0 -0.085418019862415318 0.1229528176220613 0 -0.073095983668468742 0.14010671735507799 0 -0.088954900836533152 0.1277786171536919 0 -0.098675296712537372 0.14093847934672071 0 -0.085367930406962805 0.1395975446511481 0 -0.088954900836533152 0.1277786171536919 0 -0.098675296712537372 0.14093847934672071 0 -0.092536775420480694 0.16642644174113849 0 -0.086283654562253106 0.1544634671161238 0 -0.098675296712537372 0.14093847934672071 0 -0.085367930406962805 0.1395975446511481 0 -0.085995782752212369 0.145710563267229 0 -0.098675296712537372 0.14093847934672071 0 -0.085995782752212369 0.145710563267229 0 -0.086283654562253106 0.1544634671161238 0 -0.078689711957602437 0.16119924808953071 0 -0.086283654562253106 0.1544634671161238 0 -0.078708042233962799 0.1495635652378309 0 -0.085995782752212369 0.145710563267229 0 -0.086283654562253106 0.1544634671161238 0 -0.078708042233962799 0.1495635652378309 0 -0.085995782752212369 0.145710563267229 0 -0.078708042233962799 0.1495635652378309 0 -0.079291386284776735 0.1429169322817179 0 -0.073095983668468742 0.14010671735507799 0 -0.085367930406962805 0.1395975446511481 0 -0.079291386284776735 0.1429169322817179 0 -0.085367930406962805 0.1395975446511481 0 -0.085995782752212369 0.145710563267229 0 -0.079291386284776735 0.1429169322817179 0 -0.1000966024206025 0.24603533827206769 0 -0.1059265219145431 0.2325567605954193 0 -0.089125644819594091 0.2374289880770758 0 -0.1000966024206025 0.24603533827206769 0 -0.1118507546894966 0.24845023294428681 0 -0.1059265219145431 0.2325567605954193 0 -0.1059782354104529 0.25511707414145401 0 -0.1000966024206025 0.24603533827206769 0 -0.1118507546894966 0.24845023294428681 0 -0.12654932572426339 0.23876693159931081 0 -0.1118507546894966 0.24845023294428681 0 -0.1059265219145431 0.2325567605954193 0 -0.1204693105274901 0.25832786696498372 0 -0.12654932572426339 0.23876693159931081 0 -0.1118507546894966 0.24845023294428681 0 -0.12654932572426339 0.23876693159931081 0 -0.11790633264868761 0.22179341336819339 0 -0.1059265219145431 0.2325567605954193 0 -0.1296598984145699 0.22322764612401089 0 -0.12654932572426339 0.23876693159931081 0 -0.11790633264868761 0.22179341336819339 0 -0.12720779712011451 0.2115545862877653 0 -0.1296598984145699 0.22322764612401089 0 -0.11790633264868761 0.22179341336819339 0 -0.11790633264868761 0.22179341336819339 0 -0.1059265219145431 0.2325567605954193 0 -0.1067122161343947 0.21778822184191951 0 -0.1059265219145431 0.2325567605954193 0 -0.1067122161343947 0.21778822184191951 0 -0.090685116858437734 0.22057533849017749 0 -0.1059265219145431 0.2325567605954193 0 -0.090685116858437734 0.22057533849017749 0 -0.089125644819594091 0.2374289880770758 0 -0.1010041363312659 0.20655127276092941 0 -0.1067122161343947 0.21778822184191951 0 -0.090685116858437734 0.22057533849017749 0 -0.1010041363312659 0.20655127276092941 0 -0.1151733327202607 0.20873360476419869 0 -0.11192433113086429 0.19605638579521281 0 -0.1010041363312659 0.20655127276092941 0 -0.1067122161343947 0.21778822184191951 0 -0.1151733327202607 0.20873360476419869 0 -0.11790633264868761 0.22179341336819339 0 -0.1067122161343947 0.21778822184191951 0 -0.1151733327202607 0.20873360476419869 0 -0.12720779712011451 0.2115545862877653 0 -0.11790633264868761 0.22179341336819339 0 -0.1151733327202607 0.20873360476419869 0 -0.12628518295623711 0.1986577485311721 0 -0.12720779712011451 0.2115545862877653 0 -0.1151733327202607 0.20873360476419869 0 -0.12628518295623711 0.1986577485311721 0 -0.1151733327202607 0.20873360476419869 0 -0.11192433113086429 0.19605638579521281 0 -0.12628518295623711 0.1986577485311721 0 -0.11192433113086429 0.19605638579521281 0 -0.1203201157405142 0.18832216793770121 0 -0.1089148061258528 0.18260394543368769 0 -0.11192433113086429 0.19605638579521281 0 -0.1203201157405142 0.18832216793770121 0 -0.1089148061258528 0.18260394543368769 0 -0.11192433113086429 0.19605638579521281 0 -0.095233025263948209 0.18962245195312349 0 -0.1010041363312659 0.20655127276092941 0 -0.095233025263948209 0.18962245195312349 0 -0.086819117877388552 0.20387273598036529 0 -0.1010041363312659 0.20655127276092941 0 -0.11192433113086429 0.19605638579521281 0 -0.095233025263948209 0.18962245195312349 0 -0.095233025263948209 0.18962245195312349 0 -0.082652546369612043 0.19225848759055891 0 -0.086819117877388552 0.20387273598036529 0 -0.082652546369612043 0.19225848759055891 0 -0.074155684386979698 0.19898303356642 0 -0.086819117877388552 0.20387273598036529 0 -0.072652816779257348 0.18551595552690289 0 -0.082652546369612043 0.19225848759055891 0 -0.074155684386979698 0.19898303356642 0 -0.072652816779257348 0.18551595552690289 0 -0.062892950309537093 0.1921629392189097 0 -0.074155684386979698 0.19898303356642 0 -0.062892950309537093 0.1921629392189097 0 -0.074155684386979698 0.19898303356642 0 -0.064116017013221421 0.20669599525243099 0 -0.074155684386979698 0.19898303356642 0 -0.064116017013221421 0.20669599525243099 0 -0.075800657972861701 0.2133920878293524 0 -0.064116017013221421 0.20669599525243099 0 -0.075800657972861701 0.2133920878293524 0 -0.065188024070148662 0.2189827111984082 0 -0.1010041363312659 0.20655127276092941 0 -0.086819117877388552 0.20387273598036529 0 -0.090685116858437734 0.22057533849017749 0 -0.075800657972861701 0.2133920878293524 0 -0.086819117877388552 0.20387273598036529 0 -0.090685116858437734 0.22057533849017749 0 -0.074155684386979698 0.19898303356642 0 -0.075800657972861701 0.2133920878293524 0 -0.086819117877388552 0.20387273598036529 0 -0.090685116858437734 0.22057533849017749 0 -0.074258404447879178 0.22959650565582951 0 -0.089125644819594091 0.2374289880770758 0 -0.075800657972861701 0.2133920878293524 0 -0.090685116858437734 0.22057533849017749 0 -0.074258404447879178 0.22959650565582951 0 -0.074258404447879178 0.22959650565582951 0 -0.065188024070148662 0.2189827111984082 0 -0.058529759729243423 0.22916273311840141 0 -0.074258404447879178 0.22959650565582951 0 -0.063122606478691751 0.2425446012462259 0 -0.058529759729243423 0.22916273311840141 0 -0.075800657972861701 0.2133920878293524 0 -0.074258404447879178 0.22959650565582951 0 -0.065188024070148662 0.2189827111984082 0 -0.074258404447879178 0.22959650565582951 0 -0.063122606478691751 0.2425446012462259 0 -0.077543192831836513 0.2490590682366626 0 -0.062235378715942993 0.2575407036156 0 -0.063122606478691751 0.2425446012462259 0 -0.077543192831836513 0.2490590682366626 0 -0.077543192831836513 0.2490590682366626 0 -0.089125644819594091 0.2374289880770758 0 -0.09001103415809375 0.24995591684023821 0 -0.074258404447879178 0.22959650565582951 0 -0.077543192831836513 0.2490590682366626 0 -0.089125644819594091 0.2374289880770758 0 -0.1000966024206025 0.24603533827206769 0 -0.089125644819594091 0.2374289880770758 0 -0.09001103415809375 0.24995591684023821 0 -0.047541637402478777 0.25235478858570443 0 -0.033158238182537131 0.25447225048241212 0 -0.033085366406212867 0.23876012578048469 0 -0.033085366406212867 0.23876012578048469 0 -0.048837352944825121 0.23811101009733529 0 -0.04234686416137521 0.2264640537768042 0 -0.047541637402478777 0.25235478858570443 0 -0.033085366406212867 0.23876012578048469 0 -0.048837352944825121 0.23811101009733529 0 -0.047541637402478777 0.25235478858570443 0 -0.063122606478691751 0.2425446012462259 0 -0.048837352944825121 0.23811101009733529 0 -0.063122606478691751 0.2425446012462259 0 -0.048837352944825121 0.23811101009733529 0 -0.058529759729243423 0.22916273311840141 0 -0.058529759729243423 0.22916273311840141 0 -0.04234686416137521 0.2264640537768042 0 -0.053235281187537647 0.21606623413602671 0 -0.048837352944825121 0.23811101009733529 0 -0.058529759729243423 0.22916273311840141 0 -0.04234686416137521 0.2264640537768042 0 -0.065188024070148662 0.2189827111984082 0 -0.058529759729243423 0.22916273311840141 0 -0.053235281187537647 0.21606623413602671 0 -0.04234686416137521 0.2264640537768042 0 -0.038435250742214572 0.21070572751982269 0 -0.027831305290541019 0.2239523232852631 0 -0.033085366406212867 0.23876012578048469 0 -0.04234686416137521 0.2264640537768042 0 -0.027831305290541019 0.2239523232852631 0 -0.04234686416137521 0.2264640537768042 0 -0.038435250742214572 0.21070572751982269 0 -0.053235281187537647 0.21606623413602671 0 -0.064116017013221421 0.20669599525243099 0 -0.065188024070148662 0.2189827111984082 0 -0.053235281187537647 0.21606623413602671 0 -0.064116017013221421 0.20669599525243099 0 -0.053235281187537647 0.21606623413602671 0 -0.05208351099898792 0.20063422860096039 0 -0.038435250742214572 0.21070572751982269 0 -0.053235281187537647 0.21606623413602671 0 -0.05208351099898792 0.20063422860096039 0 -0.062892950309537093 0.1921629392189097 0 -0.064116017013221421 0.20669599525243099 0 -0.05208351099898792 0.20063422860096039 0 -0.062892950309537093 0.1921629392189097 0 -0.05208351099898792 0.20063422860096039 0 -0.052267988714031578 0.1852279051183541 0 -0.05208351099898792 0.20063422860096039 0 -0.039872067672989578 0.19628936175125089 0 -0.052267988714031578 0.1852279051183541 0 -0.038435250742214572 0.21070572751982269 0 -0.039872067672989578 0.19628936175125089 0 -0.016939116554871191 0.1959990679102552 0 -0.038435250742214572 0.21070572751982269 0 -0.05208351099898792 0.20063422860096039 0 -0.039872067672989578 0.19628936175125089 0 -0.039872067672989578 0.19628936175125089 0 -0.016939116554871191 0.1959990679102552 0 -0.031471652138452051 0.18527326181809359 0 -0.016939116554871191 0.1959990679102552 0 0.00573739542641201 0.21085128121663901 0 0.0032606068272224781 0.1901318216684702 0 -0.016939116554871191 0.1959990679102552 0 -0.0099845809253535419 0.21944673001565129 0 0.00573739542641201 0.21085128121663901 0 -0.016939116554871191 0.1959990679102552 0 -0.027831305290541019 0.2239523232852631 0 -0.0099845809253535419 0.21944673001565129 0 -0.016939116554871191 0.1959990679102552 0 -0.027831305290541019 0.2239523232852631 0 -0.038435250742214572 0.21070572751982269 0 -0.016939116554871191 0.1959990679102552 0 -0.027831305290541019 0.2239523232852631 0 -0.033085366406212867 0.23876012578048469 0 -0.027831305290541019 0.2239523232852631 0 -0.013641234357142269 0.23583492549693799 0 -0.027831305290541019 0.2239523232852631 0 -0.0099845809253535419 0.21944673001565129 0 -0.013641234357142269 0.23583492549693799 0 -0.0099845809253535419 0.21944673001565129 0 -0.013641234357142269 0.23583492549693799 0 0.002751356149374766 0.2305960521691611 0 -0.0099845809253535419 0.21944673001565129 0 0.002751356149374766 0.2305960521691611 0 0.00573739542641201 0.21085128121663901 0 -0.016725929346704929 0.2556928351502844 0 -0.013641234357142269 0.23583492549693799 0 -0.0066167852236678039 0.24551400104462359 0 0.003791674785571924 0.24772290422529519 0 0.002751356149374766 0.2305960521691611 0 -0.013641234357142269 0.23583492549693799 0 -0.0066167852236678039 0.24551400104462359 0 0.002751356149374766 0.2305960521691611 0 -0.016725929346704929 0.2556928351502844 0 -0.013641234357142269 0.23583492549693799 0 -0.0066167852236678039 0.24551400104462359 0 -0.033158238182537131 0.25447225048241212 0 -0.016725929346704929 0.2556928351502844 0 -0.033085366406212867 0.23876012578048469 0 -0.016725929346704929 0.2556928351502844 0 -0.033085366406212867 0.23876012578048469 0 -0.013641234357142269 0.23583492549693799 0 -0.044337925263059637 0.14457543423579111 0 -0.041423394377863937 0.15084618800460309 0 -0.036443618539109428 0.14362502091179979 0 -0.044337925263059637 0.14457543423579111 0 -0.036443618539109428 0.14362502091179979 0 -0.04415317337721502 0.13790331021974439 0 -0.044337925263059637 0.14457543423579111 0 -0.04415317337721502 0.13790331021974439 0 -0.049720376744925111 0.14191225340005009 0 -0.044337925263059637 0.14457543423579111 0 -0.041423394377863937 0.15084618800460309 0 -0.048945289872966868 0.14782974822067441 0 -0.041423394377863937 0.15084618800460309 0 -0.050318961739572662 0.1540783556775161 0 -0.045554580821105917 0.15875852874296409 0 -0.041423394377863937 0.15084618800460309 0 -0.036443618539109428 0.14362502091179979 0 -0.028558016532013501 0.15427881982697761 0 -0.041423394377863937 0.15084618800460309 0 -0.037162976241824783 0.16324392053475739 0 -0.028558016532013501 0.15427881982697761 0 -0.03554102789105397 0.13487916664293129 0 -0.042660964834944352 0.12961760334818559 0 -0.020238980638423301 0.1293847395988435 0 -0.036443618539109428 0.14362502091179979 0 -0.03554102789105397 0.13487916664293129 0 -0.04415317337721502 0.13790331021974439 0 -0.042660964834944352 0.12961760334818559 0 -0.020238980638423301 0.1293847395988435 0 -0.042660964834944352 0.12961760334818559 0 -0.045441570218125227 0.12756276334937661 0 -0.027138786001938388 0.1192606786280228 0 -0.036443618539109428 0.14362502091179979 0 -0.03554102789105397 0.13487916664293129 0 -0.025038953161321251 0.14007216569520231 0 -0.03554102789105397 0.13487916664293129 0 -0.042660964834944352 0.12961760334818559 0 -0.042660964834944352 0.12961760334818559 0 -0.047810849383085573 0.13386011054201141 0 -0.050142980039125443 0.12969530789466091 0 -0.042660964834944352 0.12961760334818559 0 -0.045441570218125227 0.12756276334937661 0 -0.050142980039125443 0.12969530789466091 0 -0.042660964834944352 0.12961760334818559 0 -0.050142980039125443 0.12969530789466091 0 -0.042660964834944352 0.12961760334818559 0 -0.045441570218125227 0.12756276334937661 0 -0.03554102789105397 0.13487916664293129 0 -0.042660964834944352 0.12961760334818559 0 -0.04415317337721502 0.13790331021974439 0 -0.042660964834944352 0.12961760334818559 0 -0.04415317337721502 0.13790331021974439 0 -0.047810849383085573 0.13386011054201141 0 -0.068613208653190552 0.12988713064543181 0 -0.050142980039125443 0.12969530789466091 0 -0.073095983668468742 0.14010671735507799 0 -0.050142980039125443 0.12969530789466091 0 -0.04415317337721502 0.13790331021974439 0 -0.051004799636549782 0.1368223647585477 0 -0.049720376744925111 0.14191225340005009 0 -0.073095983668468742 0.14010671735507799 0 -0.050142980039125443 0.12969530789466091 0 -0.057285523882284708 0.1361478487512002 0 -0.04415317337721502 0.13790331021974439 0 -0.047810849383085573 0.13386011054201141 0 -0.051004799636549782 0.1368223647585477 0 -0.047810849383085573 0.13386011054201141 0 -0.051345151094591618 0.13383616934516801 0 -0.051004799636549782 0.1368223647585477 0 -0.051345151094591618 0.13383616934516801 0 -0.050142980039125443 0.12969530789466091 0 -0.057285523882284708 0.1361478487512002 0 -0.051345151094591618 0.13383616934516801 0 -0.051004799636549782 0.1368223647585477 0 -0.057285523882284708 0.1361478487512002 0 -0.051004799636549782 0.1368223647585477 0 -0.054961269516098199 0.1396039224943515 0 -0.049720376744925111 0.14191225340005009 0 -0.051004799636549782 0.1368223647585477 0 -0.054961269516098199 0.1396039224943515 0 -0.057285523882284708 0.1361478487512002 0 -0.045441570218125227 0.12756276334937661 0 -0.050142980039125443 0.12969530789466091 0 -0.047810849383085573 0.13386011054201141 0 -0.051345151094591618 0.13383616934516801 0 -0.050142980039125443 0.12969530789466091 0 -0.065206669672699766 0.13958700273497759 0 -0.057285523882284708 0.1361478487512002 0 -0.060882603078859822 0.13920726406735609 0 -0.054961269516098199 0.1396039224943515 0 -0.057285523882284708 0.1361478487512002 0 -0.058655173952209767 0.1395654074006473 0 -0.057285523882284708 0.1361478487512002 0 -0.058655173952209767 0.1395654074006473 0 -0.060882603078859822 0.13920726406735609 0 -0.058655173952209767 0.1395654074006473 0 -0.060882603078859822 0.13920726406735609 0 -0.061398733784099171 0.1419338591134465 0 -0.063318768110466758 0.14108651402025579 0 -0.060882603078859822 0.13920726406735609 0 -0.061398733784099171 0.1419338591134465 0 -0.063609121398287671 0.14396039451383719 0 -0.059688743362501941 0.1457995050088291 0 -0.057927073871760222 0.15189843288886329 0 -0.063609121398287671 0.14396039451383719 0 -0.061398733784099171 0.1419338591134465 0 -0.059688743362501941 0.1457995050088291 0 -0.061398733784099171 0.1419338591134465 0 -0.059688743362501941 0.1457995050088291 0 -0.057646774114007412 0.1432845138968189 0 -0.058655173952209767 0.1395654074006473 0 -0.061398733784099171 0.1419338591134465 0 -0.057646774114007412 0.1432845138968189 0 -0.056568916683532949 0.147325569141152 0 -0.054053686597514097 0.1450292408489913 0 -0.053817394514865752 0.15053701715709489 0 -0.059688743362501941 0.1457995050088291 0 -0.056568916683532949 0.147325569141152 0 -0.057927073871760222 0.15189843288886329 0 -0.059688743362501941 0.1457995050088291 0 -0.056568916683532949 0.147325569141152 0 -0.057646774114007412 0.1432845138968189 0 -0.056568916683532949 0.147325569141152 0 -0.057646774114007412 0.1432845138968189 0 -0.054053686597514097 0.1450292408489913 0 -0.054961269516098199 0.1396039224943515 0 -0.057646774114007412 0.1432845138968189 0 -0.054053686597514097 0.1450292408489913 0 -0.054961269516098199 0.1396039224943515 0 -0.058655173952209767 0.1395654074006473 0 -0.057646774114007412 0.1432845138968189 0 -0.054961269516098199 0.1396039224943515 0 -0.054053686597514097 0.1450292408489913 0 -0.049720376744925111 0.14191225340005009 0 -0.054053686597514097 0.1450292408489913 0 -0.048945289872966868 0.14782974822067441 0 -0.049720376744925111 0.14191225340005009 0 -0.054053686597514097 0.1450292408489913 0 -0.048945289872966868 0.14782974822067441 0 -0.053817394514865752 0.15053701715709489 0 -0.044337925263059637 0.14457543423579111 0 -0.048945289872966868 0.14782974822067441 0 -0.049720376744925111 0.14191225340005009 0 -0.041423394377863937 0.15084618800460309 0 -0.048945289872966868 0.14782974822067441 0 -0.050318961739572662 0.1540783556775161 0 -0.048945289872966868 0.14782974822067441 0 -0.050318961739572662 0.1540783556775161 0 -0.053817394514865752 0.15053701715709489 0 -0.050318961739572662 0.1540783556775161 0 -0.053817394514865752 0.15053701715709489 0 -0.056248158309316239 0.15592677857655091 0 -0.053817394514865752 0.15053701715709489 0 -0.056248158309316239 0.15592677857655091 0 -0.057927073871760222 0.15189843288886329 0 -0.056248158309316239 0.15592677857655091 0 -0.057927073871760222 0.15189843288886329 0 -0.061596475178262222 0.15480559796366139 0 -0.056568916683532949 0.147325569141152 0 -0.053817394514865752 0.15053701715709489 0 -0.057927073871760222 0.15189843288886329 0 -0.056248158309316239 0.15592677857655091 0 -0.061596475178262222 0.15480559796366139 0 -0.060459637862541403 0.16318967354390851 0 -0.056248158309316239 0.15592677857655091 0 -0.060459637862541403 0.16318967354390851 0 -0.053369406688895199 0.16105159422826101 0 -0.060459637862541403 0.16318967354390851 0 -0.054001750647465832 0.17056315917694501 0 -0.053369406688895199 0.16105159422826101 0 -0.06325286245422429 0.17640452023889161 0 -0.060459637862541403 0.16318967354390851 0 -0.054001750647465832 0.17056315917694501 0 -0.054001750647465832 0.17056315917694501 0 -0.042638001993217767 0.1749655088756388 0 -0.046545343278501898 0.16571654231171329 0 -0.054001750647465832 0.17056315917694501 0 -0.053369406688895199 0.16105159422826101 0 -0.046545343278501898 0.16571654231171329 0 -0.050318961739572662 0.1540783556775161 0 -0.053369406688895199 0.16105159422826101 0 -0.045554580821105917 0.15875852874296409 0 -0.053369406688895199 0.16105159422826101 0 -0.045554580821105917 0.15875852874296409 0 -0.046545343278501898 0.16571654231171329 0 -0.050318961739572662 0.1540783556775161 0 -0.056248158309316239 0.15592677857655091 0 -0.053369406688895199 0.16105159422826101 0 -0.06325286245422429 0.17640452023889161 0 -0.062892950309537093 0.1921629392189097 0 -0.052267988714031578 0.1852279051183541 0 -0.06325286245422429 0.17640452023889161 0 -0.054001750647465832 0.17056315917694501 0 -0.052267988714031578 0.1852279051183541 0 -0.054001750647465832 0.17056315917694501 0 -0.052267988714031578 0.1852279051183541 0 -0.042638001993217767 0.1749655088756388 0 -0.039872067672989578 0.19628936175125089 0 -0.031471652138452051 0.18527326181809359 0 -0.042638001993217767 0.1749655088756388 0 -0.031471652138452051 0.18527326181809359 0 -0.042638001993217767 0.1749655088756388 0 -0.024269456675860741 0.17189172527252669 0 -0.039872067672989578 0.19628936175125089 0 -0.052267988714031578 0.1852279051183541 0 -0.042638001993217767 0.1749655088756388 0 -0.042638001993217767 0.1749655088756388 0 -0.037162976241824783 0.16324392053475739 0 -0.024269456675860741 0.17189172527252669 0 -0.041423394377863937 0.15084618800460309 0 -0.045554580821105917 0.15875852874296409 0 -0.037162976241824783 0.16324392053475739 0 -0.045554580821105917 0.15875852874296409 0 -0.046545343278501898 0.16571654231171329 0 -0.037162976241824783 0.16324392053475739 0 -0.042638001993217767 0.1749655088756388 0 -0.046545343278501898 0.16571654231171329 0 -0.037162976241824783 0.16324392053475739 0 -0.024269456675860741 0.17189172527252669 0 -0.01439483312764874 0.15542621048378391 0 -0.028558016532013501 0.15427881982697761 0 -0.037162976241824783 0.16324392053475739 0 -0.024269456675860741 0.17189172527252669 0 -0.028558016532013501 0.15427881982697761 0 -0.016939116554871191 0.1959990679102552 0 -0.031471652138452051 0.18527326181809359 0 -0.024269456675860741 0.17189172527252669 0 -0.016939116554871191 0.1959990679102552 0 -0.024269456675860741 0.17189172527252669 0 -0.0060469278192012664 0.16804581253524711 0 -0.016939116554871191 0.1959990679102552 0 -0.0060469278192012664 0.16804581253524711 0 -0.016939116554871191 0.1959990679102552 0 -0.0060469278192012664 0.16804581253524711 0 0.0032606068272224781 0.1901318216684702 0 -0.024269456675860741 0.17189172527252669 0 -0.0060469278192012664 0.16804581253524711 0 -0.01439483312764874 0.15542621048378391 0 -0.0060469278192012664 0.16804581253524711 0 -0.01439483312764874 0.15542621048378391 0 0.0048452609164686524 0.140092557160239 0 -0.0060469278192012664 0.16804581253524711 0 0.0048452609164686524 0.140092557160239 0 -0.01137128241224456 0.14239628308200561 0 -0.01439483312764874 0.15542621048378391 0 0.0048452609164686524 0.140092557160239 0 -0.01439483312764874 0.15542621048378391 0 -0.028558016532013501 0.15427881982697761 0 -0.025038953161321251 0.14007216569520231 0 -0.01137128241224456 0.14239628308200561 0 -0.01439483312764874 0.15542621048378391 0 -0.025038953161321251 0.14007216569520231 0 -0.036443618539109428 0.14362502091179979 0 -0.028558016532013501 0.15427881982697761 0 -0.025038953161321251 0.14007216569520231 0 -0.042660964834944352 0.12961760334818559 0 -0.020238980638423301 0.1293847395988435 0 -0.027138786001938388 0.1192606786280228 0 -0.03554102789105397 0.13487916664293129 0 -0.025038953161321251 0.14007216569520231 0 -0.020238980638423301 0.1293847395988435 0 -0.01137128241224456 0.14239628308200561 0 -0.025038953161321251 0.14007216569520231 0 -0.020238980638423301 0.1293847395988435 0 -0.01137128241224456 0.14239628308200561 0 -0.020238980638423301 0.1293847395988435 0 -0.01137128241224456 0.14239628308200561 0 -0.0034601198776373419 0.12921048256644549 0 0.0048452609164686524 0.140092557160239 0 -0.01137128241224456 0.14239628308200561 0 -0.020238980638423301 0.1293847395988435 0 -0.0034601198776373419 0.12921048256644549 0 -0.020238980638423301 0.1293847395988435 0 -0.0034601198776373419 0.12921048256644549 0 -0.020238980638423301 0.1293847395988435 0 -0.0034601198776373419 0.12921048256644549 0 -0.010515535131794519 0.1117204248918658 0 -0.0034601198776373419 0.12921048256644549 0 -0.010515535131794519 0.1117204248918658 0 0.0013627004030162689 0.1185368260370173 0 -0.010515535131794519 0.1117204248918658 0 0.006107715738348357 0.1041801711557067 0 0.0013627004030162689 0.1185368260370173 0 -0.010515535131794519 0.1117204248918658 0 0.006107715738348357 0.1041801711557067 0 -0.0083279745294388089 0.097834444903363946 0 0.00037005245518714931 0.084402723746065167 0 0.006107715738348357 0.1041801711557067 0 -0.010515535131794519 0.1117204248918658 0 -0.0083279745294388089 0.097834444903363946 0 0.006107715738348357 0.1041801711557067 0 -0.010515535131794519 0.1117204248918658 0 -0.0083279745294388089 0.097834444903363946 0 -0.022413439261593809 0.1029774544450017 0 -0.022413439261593809 0.1029774544450017 0 -0.021341737843158421 0.088575661153132368 0 -0.042353274809232802 0.096936510885628491 0 -0.022413439261593809 0.1029774544450017 0 -0.027138786001938388 0.1192606786280228 0 -0.042353274809232802 0.096936510885628491 0 -0.0083279745294388089 0.097834444903363946 0 -0.022413439261593809 0.1029774544450017 0 -0.021341737843158421 0.088575661153132368 0 -0.010515535131794519 0.1117204248918658 0 -0.022413439261593809 0.1029774544450017 0 -0.027138786001938388 0.1192606786280228 0 -0.010515535131794519 0.1117204248918658 0 -0.027138786001938388 0.1192606786280228 0 -0.020238980638423301 0.1293847395988435 0 -0.010515535131794519 0.1117204248918658 0 -0.027138786001938388 0.1192606786280228 0 -0.020238980638423301 0.1293847395988435 0 -0.027138786001938388 0.1192606786280228 0 -0.0053676108279740262 0.064625276336423676 0 -0.01532891332521525 0.074951768036590316 0 -0.016265395509468841 0.05675055313603064 0 -0.0053676108279740262 0.064625276336423676 0 0.00037005245518714931 0.084402723746065167 0 -0.0053676108279740262 0.064625276336423676 0 -0.01532891332521525 0.074951768036590316 0 0.00037005245518714931 0.084402723746065167 0 -0.01532891332521525 0.074951768036590316 0 -0.021341737843158421 0.088575661153132368 0 0.00037005245518714931 0.084402723746065167 0 -0.0083279745294388089 0.097834444903363946 0 -0.021341737843158421 0.088575661153132368 0 0.00037005245518714931 0.084402723746065167 0 -0.01532891332521525 0.074951768036590316 0 -0.021341737843158421 0.088575661153132368 0 -0.036492494119237759 0.079220873351185328 0 -0.01532891332521525 0.074951768036590316 0 -0.026297438582637139 0.065702150101104945 0 -0.016265395509468841 0.05675055313603064 0 -0.01532891332521525 0.074951768036590316 0 -0.026297438582637139 0.065702150101104945 0 -0.036492494119237759 0.079220873351185328 0 -0.026297438582637139 0.065702150101104945 0 -0.047250261561067187 0.066145496669263351 0 -0.036962816676788267 0.056993149040489133 0 -0.026297438582637139 0.065702150101104945 0 -0.036492494119237759 0.079220873351185328 0 -0.047250261561067187 0.066145496669263351 0 -0.036492494119237759 0.079220873351185328 0 -0.057567763616527518 0.074612343143234339 0 -0.042353274809232802 0.096936510885628491 0 -0.021341737843158421 0.088575661153132368 0 -0.036492494119237759 0.079220873351185328 0 -0.042353274809232802 0.096936510885628491 0 -0.057567763616527518 0.074612343143234339 0 -0.042353274809232802 0.096936510885628491 0 -0.058195033979556977 0.098359774558933022 0 -0.057567763616527518 0.074612343143234339 0 -0.042353274809232802 0.096936510885628491 0 -0.057567763616527518 0.074612343143234339 0 -0.058195033979556977 0.098359774558933022 0 -0.069992063618862399 0.090801042719595493 0 -0.057567763616527518 0.074612343143234339 0 -0.047250261561067187 0.066145496669263351 0 -0.057532226660207159 0.05464003229954064 0 -0.036492494119237759 0.079220873351185328 0 -0.057567763616527518 0.074612343143234339 0 -0.047250261561067187 0.066145496669263351 0 -0.045441570218125227 0.12756276334937661 0 -0.027138786001938388 0.1192606786280228 0 -0.045441570218125227 0.12756276334937661 0 -0.027138786001938388 0.1192606786280228 0 -0.049562877740072057 0.11123703521795709 0 -0.027138786001938388 0.1192606786280228 0 -0.042353274809232802 0.096936510885628491 0 -0.027138786001938388 0.1192606786280228 0 -0.042353274809232802 0.096936510885628491 0 -0.049562877740072057 0.11123703521795709 0 -0.058195033979556977 0.098359774558933022 0 -0.049562877740072057 0.11123703521795709 0 -0.067741476357105201 0.1110833522897335 0 -0.042353274809232802 0.096936510885628491 0 -0.058195033979556977 0.098359774558933022 0 -0.049562877740072057 0.11123703521795709 0 -0.045441570218125227 0.12756276334937661 0 -0.067741476357105201 0.1110833522897335 0 -0.045441570218125227 0.12756276334937661 0 -0.050142980039125443 0.12969530789466091 0 -0.067741476357105201 0.1110833522897335 0 -0.045441570218125227 0.12756276334937661 0 -0.049562877740072057 0.11123703521795709 0 -0.067741476357105201 0.1110833522897335 0 -0.068613208653190552 0.12988713064543181 0 -0.050142980039125443 0.12969530789466091 0 -0.067741476357105201 0.1110833522897335 0 -0.068613208653190552 0.12988713064543181 0 -0.067741476357105201 0.1110833522897335 0 -0.074446782334335812 0.1201945938608048 0 -0.067741476357105201 0.1110833522897335 0 -0.081411571639234084 0.1155497484440247 0 -0.083590089728109412 0.1076213640038662 0 -0.067741476357105201 0.1110833522897335 0 -0.074446782334335812 0.1201945938608048 0 -0.081411571639234084 0.1155497484440247 0 -0.076141641869118704 0.12724262890974189 0 -0.074446782334335812 0.1201945938608048 0 -0.079354503926275979 0.1214849472091582 0 -0.081411571639234084 0.1155497484440247 0 -0.083590089728109412 0.1076213640038662 0 -0.09811844269531228 0.1059705528652832 0 -0.085418019862415318 0.1229528176220613 0 -0.095465393046778188 0.1166667054728838 0 -0.09811844269531228 0.1059705528652832 0 -0.085418019862415318 0.1229528176220613 0 -0.09811844269531228 0.1059705528652832 0 -0.085418019862415318 0.1229528176220613 0 -0.081411571639234084 0.1155497484440247 0 -0.09811844269531228 0.1059705528652832 0 -0.076141641869118704 0.12724262890974189 0 -0.079354503926275979 0.1214849472091582 0 -0.085418019862415318 0.1229528176220613 0 -0.079354503926275979 0.1214849472091582 0 -0.085418019862415318 0.1229528176220613 0 -0.081411571639234084 0.1155497484440247 0 -0.074446782334335812 0.1201945938608048 0 -0.079354503926275979 0.1214849472091582 0 -0.081411571639234084 0.1155497484440247 0 -0.088954900836533152 0.1277786171536919 0 -0.085418019862415318 0.1229528176220613 0 -0.095465393046778188 0.1166667054728838 0 -0.067741476357105201 0.1110833522897335 0 -0.090041382496085426 0.094603941230090513 0 -0.083590089728109412 0.1076213640038662 0 -0.067741476357105201 0.1110833522897335 0 -0.090041382496085426 0.094603941230090513 0 -0.090041382496085426 0.094603941230090513 0 -0.083590089728109412 0.1076213640038662 0 -0.09811844269531228 0.1059705528652832 0 -0.058195033979556977 0.098359774558933022 0 -0.067741476357105201 0.1110833522897335 0 -0.069992063618862399 0.090801042719595493 0 -0.067741476357105201 0.1110833522897335 0 -0.090041382496085426 0.094603941230090513 0 -0.069992063618862399 0.090801042719595493 0 -0.057567763616527518 0.074612343143234339 0 -0.069992063618862399 0.090801042719595493 0 -0.077531315938522416 0.078548610220147586 0 -0.057567763616527518 0.074612343143234339 0 -0.072782252423822316 0.052288175400840069 0 -0.057567763616527518 0.074612343143234339 0 -0.077531315938522416 0.078548610220147586 0 -0.072782252423822316 0.052288175400840069 0 -0.077531315938522416 0.078548610220147586 0 -0.089274923487953489 0.070238970672130377 0 -0.072782252423822316 0.052288175400840069 0 -0.089274923487953489 0.070238970672130377 0 -0.091372747124010709 0.07935852700424946 0 -0.099646588525249657 0.073603033747595997 0 -0.077531315938522416 0.078548610220147586 0 -0.089274923487953489 0.070238970672130377 0 -0.091372747124010709 0.07935852700424946 0 -0.090041382496085426 0.094603941230090513 0 -0.077531315938522416 0.078548610220147586 0 -0.091372747124010709 0.07935852700424946 0 -0.090041382496085426 0.094603941230090513 0 -0.069992063618862399 0.090801042719595493 0 -0.077531315938522416 0.078548610220147586 0 -0.090041382496085426 0.094603941230090513 0 -0.11234128863506559 0.078124530170447515 0 -0.11034587660406039 0.088900705289990195 0 -0.090041382496085426 0.094603941230090513 0 -0.1003695251722425 0.079798079151282841 0 -0.11234128863506559 0.078124530170447515 0 -0.090041382496085426 0.094603941230090513 0 -0.11234128863506559 0.078124530170447515 0 -0.090041382496085426 0.094603941230090513 0 -0.091372747124010709 0.07935852700424946 0 -0.1003695251722425 0.079798079151282841 0 -0.089274923487953489 0.070238970672130377 0 -0.09920452150476039 0.067048460864157791 0 -0.099646588525249657 0.073603033747595997 0 -0.089274923487953489 0.070238970672130377 0 -0.09920452150476039 0.067048460864157791 0 -0.094163924989242462 0.060669630188739908 0 -0.09920452150476039 0.067048460864157791 0 -0.1045204229746596 0.060438390130880558 0 -0.094163924989242462 0.060669630188739908 0 -0.091372747124010709 0.07935852700424946 0 -0.1003695251722425 0.079798079151282841 0 -0.099646588525249657 0.073603033747595997 0 -0.09920452150476039 0.067048460864157791 0 -0.099646588525249657 0.073603033747595997 0 -0.1084167475466967 0.070292279581442102 0 -0.1003695251722425 0.079798079151282841 0 -0.1084167475466967 0.070292279581442102 0 -0.11234128863506559 0.078124530170447515 0 -0.1003695251722425 0.079798079151282841 0 -0.099646588525249657 0.073603033747595997 0 -0.1084167475466967 0.070292279581442102 0 -0.09920452150476039 0.067048460864157791 0 -0.1084167475466967 0.070292279581442102 0 -0.1045204229746596 0.060438390130880558 0 -0.1084167475466967 0.070292279581442102 0 -0.11234128863506559 0.078124530170447515 0 -0.1197864358152651 0.053282202866922403 0 -0.11234128863506559 0.078124530170447515 0 -0.1226215052325052 0.073936349983915309 0 -0.1197864358152651 0.053282202866922403 0 -0.12987677580399101 0.066971745259348264 0 -0.1226215052325052 0.073936349983915309 0 -0.1197864358152651 0.053282202866922403 0 -0.11234128863506559 0.078124530170447515 0 -0.1197864358152651 0.053282202866922403 0 -0.11234128863506559 0.078124530170447515 0 -0.1226215052325052 0.073936349983915309 0 -0.1175470653554001 0.0788765013925143 0 -0.1226215052325052 0.073936349983915309 0 -0.1175470653554001 0.0788765013925143 0 -0.1202172161668984 0.07877946373430833 0 -0.1226215052325052 0.073936349983915309 0 -0.12263842300944321 0.079533008487134071 0 -0.12485635251832949 0.078351939813024546 0 -0.1226215052325052 0.073936349983915309 0 -0.1202172161668984 0.07877946373430833 0 -0.12263842300944321 0.079533008487134071 0 -0.12670438843014881 0.076799680774201962 0 -0.1226215052325052 0.073936349983915309 0 -0.12485635251832949 0.078351939813024546 0 -0.1132958581690087 0.089498212194009413 0 -0.111201319362597 0.092158650511771273 0 -0.1140227235076972 0.082704393195051767 0 -0.11234128863506559 0.078124530170447515 0 -0.11034587660406039 0.088900705289990195 0 -0.111201319362597 0.092158650511771273 0 -0.1132958581690087 0.089498212194009413 0 -0.11378085232143639 0.086441902608053053 0 -0.1132108403912115 0.084392763848658361 0 -0.1132958581690087 0.089498212194009413 0 -0.1162100372664229 0.088093727355605222 0 -0.1147576002707448 0.090098345760499604 0 -0.1132958581690087 0.089498212194009413 0 -0.11378085232143639 0.086441902608053053 0 -0.1162100372664229 0.088093727355605222 0 -0.11378085232143639 0.086441902608053053 0 -0.1162100372664229 0.088093727355605222 0 -0.1171147246949405 0.085298117077510796 0 -0.1162100372664229 0.088093727355605222 0 -0.11646971391085489 0.090265707578524743 0 -0.1185762933299014 0.090379701665158199 0 -0.1162100372664229 0.088093727355605222 0 -0.11646971391085489 0.090265707578524743 0 -0.1147576002707448 0.090098345760499604 0 -0.11646971391085489 0.090265707578524743 0 -0.1171006642709333 0.092221866620121273 0 -0.1149177106288306 0.091703158515746411 0 -0.11646971391085489 0.090265707578524743 0 -0.1147576002707448 0.090098345760499604 0 -0.1149177106288306 0.091703158515746411 0 -0.1171006642709333 0.092221866620121273 0 -0.113227287030465 0.093543737967718643 0 -0.11559188789181241 0.094006220936823787 0 -0.1149177106288306 0.091703158515746411 0 -0.1132429924652662 0.091266624887511222 0 -0.113227287030465 0.093543737967718643 0 -0.1171006642709333 0.092221866620121273 0 -0.1149177106288306 0.091703158515746411 0 -0.113227287030465 0.093543737967718643 0 -0.1147576002707448 0.090098345760499604 0 -0.1149177106288306 0.091703158515746411 0 -0.1132429924652662 0.091266624887511222 0 -0.1132958581690087 0.089498212194009413 0 -0.1147576002707448 0.090098345760499604 0 -0.1132429924652662 0.091266624887511222 0 -0.1132958581690087 0.089498212194009413 0 -0.1132429924652662 0.091266624887511222 0 -0.111201319362597 0.092158650511771273 0 -0.1132429924652662 0.091266624887511222 0 -0.113227287030465 0.093543737967718643 0 -0.111201319362597 0.092158650511771273 0 -0.113227287030465 0.093543737967718643 0 -0.111201319362597 0.092158650511771273 0 -0.1118040116283671 0.095408335197246341 0 -0.11234128863506559 0.078124530170447515 0 -0.11034587660406039 0.088900705289990195 0 -0.11234128863506559 0.078124530170447515 0 -0.111201319362597 0.092158650511771273 0 -0.1140227235076972 0.082704393195051767 0 -0.11234128863506559 0.078124530170447515 0 -0.1147547694703366 0.080514347215115772 0 -0.1175470653554001 0.0788765013925143 0 -0.11234128863506559 0.078124530170447515 0 -0.1147547694703366 0.080514347215115772 0 -0.1140227235076972 0.082704393195051767 0 -0.1147547694703366 0.080514347215115772 0 -0.1169613932321613 0.080605075161227752 0 -0.1140227235076972 0.082704393195051767 0 -0.1169613932321613 0.080605075161227752 0 -0.11592459920130049 0.082728136852895096 0 -0.11787252522746269 0.082612983941153934 0 -0.1169613932321613 0.080605075161227752 0 -0.1140227235076972 0.082704393195051767 0 -0.11592459920130049 0.082728136852895096 0 -0.1147547694703366 0.080514347215115772 0 -0.1169613932321613 0.080605075161227752 0 -0.1175470653554001 0.0788765013925143 0 -0.1132958581690087 0.089498212194009413 0 -0.1132108403912115 0.084392763848658361 0 -0.1140227235076972 0.082704393195051767 0 -0.11378085232143639 0.086441902608053053 0 -0.11522389832659891 0.085099225807041046 0 -0.1140227235076972 0.082704393195051767 0 -0.11378085232143639 0.086441902608053053 0 -0.1132108403912115 0.084392763848658361 0 -0.1140227235076972 0.082704393195051767 0 -0.1140227235076972 0.082704393195051767 0 -0.11592459920130049 0.082728136852895096 0 -0.1171147246949405 0.085298117077510796 0 -0.11592459920130049 0.082728136852895096 0 -0.1171147246949405 0.085298117077510796 0 -0.11787252522746269 0.082612983941153934 0 -0.11522389832659891 0.085099225807041046 0 -0.1140227235076972 0.082704393195051767 0 -0.1171147246949405 0.085298117077510796 0 -0.11378085232143639 0.086441902608053053 0 -0.11522389832659891 0.085099225807041046 0 -0.1171147246949405 0.085298117077510796 0 -0.1171147246949405 0.085298117077510796 0 -0.1200206832845218 0.082719624809560327 0 -0.1192038596807011 0.084802365787214229 0 -0.1171147246949405 0.085298117077510796 0 -0.1192038596807011 0.084802365787214229 0 -0.1203389290860734 0.08696472212682127 0 -0.1171147246949405 0.085298117077510796 0 -0.11787252522746269 0.082612983941153934 0 -0.1200206832845218 0.082719624809560327 0 -0.1192038596807011 0.084802365787214229 0 -0.1212926759793669 0.084742084687313451 0 -0.1203389290860734 0.08696472212682127 0 -0.1200206832845218 0.082719624809560327 0 -0.1192038596807011 0.084802365787214229 0 -0.1212926759793669 0.084742084687313451 0 -0.1169613932321613 0.080605075161227752 0 -0.1175470653554001 0.0788765013925143 0 -0.1202172161668984 0.07877946373430833 0 -0.1169613932321613 0.080605075161227752 0 -0.11787252522746269 0.082612983941153934 0 -0.1200206832845218 0.082719624809560327 0 -0.1169613932321613 0.080605075161227752 0 -0.1194641382938227 0.081020210509610238 0 -0.1202172161668984 0.07877946373430833 0 -0.1169613932321613 0.080605075161227752 0 -0.1200206832845218 0.082719624809560327 0 -0.1194641382938227 0.081020210509610238 0 -0.1210087889670472 0.081279234188838631 0 -0.1194641382938227 0.081020210509610238 0 -0.1202172161668984 0.07877946373430833 0 -0.1200206832845218 0.082719624809560327 0 -0.1210087889670472 0.081279234188838631 0 -0.1194641382938227 0.081020210509610238 0 -0.1210087889670472 0.081279234188838631 0 -0.1202172161668984 0.07877946373430833 0 -0.12263842300944321 0.079533008487134071 0 -0.1210087889670472 0.081279234188838631 0 -0.12263842300944321 0.079533008487134071 0 -0.1225639624650177 0.082212402110561023 0 -0.12263842300944321 0.079533008487134071 0 -0.12487663512593079 0.081391171732444381 0 -0.1225639624650177 0.082212402110561023 0 -0.12263842300944321 0.079533008487134071 0 -0.12487663512593079 0.081391171732444381 0 -0.12485635251832949 0.078351939813024546 0 -0.1212926759793669 0.084742084687313451 0 -0.1234240149047192 0.08464872897060495 0 -0.1226034513081532 0.086743946682511008 0 -0.1200206832845218 0.082719624809560327 0 -0.1212926759793669 0.084742084687313451 0 -0.1225639624650177 0.082212402110561023 0 -0.1212926759793669 0.084742084687313451 0 -0.1225639624650177 0.082212402110561023 0 -0.1234240149047192 0.08464872897060495 0 -0.1200206832845218 0.082719624809560327 0 -0.1210087889670472 0.081279234188838631 0 -0.1225639624650177 0.082212402110561023 0 -0.12487663512593079 0.081391171732444381 0 -0.1225639624650177 0.082212402110561023 0 -0.1234240149047192 0.08464872897060495 0 -0.12553973240708449 0.083487465722660095 0 -0.12487663512593079 0.081391171732444381 0 -0.1234240149047192 0.08464872897060495 0 -0.1257527236209417 0.085016396217428403 0 -0.1234240149047192 0.08464872897060495 0 -0.1226034513081532 0.086743946682511008 0 -0.12553973240708449 0.083487465722660095 0 -0.1257527236209417 0.085016396217428403 0 -0.1234240149047192 0.08464872897060495 0 -0.12819293178220359 0.086370742676851742 0 -0.1216068506933829 0.089672221297597041 0 -0.1189381939685949 0.091995365943585011 0 -0.12819293178220359 0.086370742676851742 0 -0.1189381939685949 0.091995365943585011 0 -0.1218107812678077 0.091921798454556253 0 -0.1257527236209417 0.085016396217428403 0 -0.1216068506933829 0.089672221297597041 0 -0.1226034513081532 0.086743946682511008 0 -0.1212926759793669 0.084742084687313451 0 -0.1226034513081532 0.086743946682511008 0 -0.1203389290860734 0.08696472212682127 0 -0.1216068506933829 0.089672221297597041 0 -0.1226034513081532 0.086743946682511008 0 -0.1203389290860734 0.08696472212682127 0 -0.1203389290860734 0.08696472212682127 0 -0.1200711894585632 0.088490938926863952 0 -0.1184596449732859 0.088111810974922933 0 -0.1216068506933829 0.089672221297597041 0 -0.1200711894585632 0.088490938926863952 0 -0.1185762933299014 0.090379701665158199 0 -0.1216068506933829 0.089672221297597041 0 -0.1203389290860734 0.08696472212682127 0 -0.1200711894585632 0.088490938926863952 0 -0.1162100372664229 0.088093727355605222 0 -0.1184596449732859 0.088111810974922933 0 -0.1185762933299014 0.090379701665158199 0 -0.1200711894585632 0.088490938926863952 0 -0.1184596449732859 0.088111810974922933 0 -0.1185762933299014 0.090379701665158199 0 -0.1162100372664229 0.088093727355605222 0 -0.1171147246949405 0.085298117077510796 0 -0.1184596449732859 0.088111810974922933 0 -0.1171147246949405 0.085298117077510796 0 -0.1203389290860734 0.08696472212682127 0 -0.1184596449732859 0.088111810974922933 0 -0.1171006642709333 0.092221866620121273 0 -0.1189381939685949 0.091995365943585011 0 -0.11559188789181241 0.094006220936823787 0 -0.11646971391085489 0.090265707578524743 0 -0.1171006642709333 0.092221866620121273 0 -0.1185762933299014 0.090379701665158199 0 -0.1171006642709333 0.092221866620121273 0 -0.1189381939685949 0.091995365943585011 0 -0.1185762933299014 0.090379701665158199 0 -0.1216068506933829 0.089672221297597041 0 -0.1189381939685949 0.091995365943585011 0 -0.1185762933299014 0.090379701665158199 0 -0.1218107812678077 0.091921798454556253 0 -0.12496365709254351 0.099786822345317605 0 -0.1149555794736646 0.10179266978620501 0 -0.12507013881000539 0.089626186415924514 0 -0.1218107812678077 0.091921798454556253 0 -0.12496365709254351 0.099786822345317605 0 -0.12496365709254351 0.099786822345317605 0 -0.1048138180045957 0.11545051695230341 0 -0.12496365709254351 0.099786822345317605 0 -0.1149555794736646 0.10179266978620501 0 -0.1048138180045957 0.11545051695230341 0 -0.1218107812678077 0.091921798454556253 0 -0.1149555794736646 0.10179266978620501 0 -0.1074781025270187 0.1043880508493526 0 -0.11034587660406039 0.088900705289990195 0 -0.111201319362597 0.092158650511771273 0 -0.1074781025270187 0.1043880508493526 0 -0.1189381939685949 0.091995365943585011 0 -0.1218107812678077 0.091921798454556253 0 -0.1074781025270187 0.1043880508493526 0 -0.111201319362597 0.092158650511771273 0 -0.1118040116283671 0.095408335197246341 0 -0.1074781025270187 0.1043880508493526 0 -0.11559188789181241 0.094006220936823787 0 -0.1118040116283671 0.095408335197246341 0 -0.1074781025270187 0.1043880508493526 0 -0.1189381939685949 0.091995365943585011 0 -0.11559188789181241 0.094006220936823787 0 -0.1074781025270187 0.1043880508493526 0 -0.1218107812678077 0.091921798454556253 0 -0.1074781025270187 0.1043880508493526 0 -0.113227287030465 0.093543737967718643 0 -0.11559188789181241 0.094006220936823787 0 -0.1118040116283671 0.095408335197246341 0 -0.12496365709254351 0.099786822345317605 0 -0.1203286734786395 0.1140085367330374 0 -0.1048138180045957 0.11545051695230341 0 -0.12538013163551431 0.1235615211388761 0 -0.1203286734786395 0.1140085367330374 0 -0.114054858854355 0.1207060156786082 0 -0.11181489964393899 0.13061983955501469 0 -0.114054858854355 0.1207060156786082 0 -0.1048138180045957 0.11545051695230341 0 -0.12538013163551431 0.1235615211388761 0 -0.11181489964393899 0.13061983955501469 0 -0.114054858854355 0.1207060156786082 0 -0.1203286734786395 0.1140085367330374 0 -0.114054858854355 0.1207060156786082 0 -0.1048138180045957 0.11545051695230341 0 -0.1048138180045957 0.11545051695230341 0 -0.10227800434990381 0.110137135992551 0 -0.1074781025270187 0.1043880508493526 0 -0.088954900836533152 0.1277786171536919 0 -0.1048138180045957 0.11545051695230341 0 -0.095465393046778188 0.1166667054728838 0 -0.1048138180045957 0.11545051695230341 0 -0.1074781025270187 0.1043880508493526 0 -0.088954900836533152 0.1277786171536919 0 -0.1048138180045957 0.11545051695230341 0 -0.1048138180045957 0.11545051695230341 0 -0.10227800434990381 0.110137135992551 0 -0.095465393046778188 0.1166667054728838 0 -0.10227800434990381 0.110137135992551 0 -0.095465393046778188 0.1166667054728838 0 -0.09811844269531228 0.1059705528652832 0 -0.11034587660406039 0.088900705289990195 0 -0.09811844269531228 0.1059705528652832 0 -0.11034587660406039 0.088900705289990195 0 -0.09811844269531228 0.1059705528652832 0 -0.1074781025270187 0.1043880508493526 0 -0.090041382496085426 0.094603941230090513 0 -0.11034587660406039 0.088900705289990195 0 -0.09811844269531228 0.1059705528652832 0 -0.11034587660406039 0.088900705289990195 0 -0.1074781025270187 0.1043880508493526 0 -0.10227800434990381 0.110137135992551 0 -0.09811844269531228 0.1059705528652832 0 -0.1074781025270187 0.1043880508493526 0 -0.1149555794736646 0.10179266978620501 0 -0.1048138180045957 0.11545051695230341 0 -0.1074781025270187 0.1043880508493526 0 -0.099696523322329381 0.012796957140885631 0 -0.1027340189904121 0.031457353993626119 0 -0.087996741231116365 0.029964007658445341 0 -0.099696523322329381 0.012796957140885631 0 -0.087996741231116365 0.029964007658445341 0 -0.099696523322329381 0.012796957140885631 0 -0.11596694612224891 0.016676389169406291 0 -0.1027340189904121 0.031457353993626119 0 -0.1027340189904121 0.031457353993626119 0 -0.087996741231116365 0.029964007658445341 0 -0.1113963054135417 -0.0043700933766745859 0 -0.099696523322329381 0.012796957140885631 0 -0.11596694612224891 0.016676389169406291 0 -0.1113963054135417 -0.0043700933766745859 0 -0.099696523322329381 0.012796957140885631 0 -0.1113963054135417 -0.0043700933766745859 0 -0.099696523322329381 0.012796957140885631 0 -0.095042178018154802 0.0009823759069313182 0 -0.1195315168135004 -0.0024303773624146621 0 -0.12688342370485001 0.01070171800265522 0 -0.11596694612224891 0.016676389169406291 0 -0.1195315168135004 -0.0024303773624146621 0 -0.11596694612224891 0.016676389169406291 0 -0.1113963054135417 -0.0043700933766745859 0 -0.1195315168135004 -0.0024303773624146621 0 -0.11596694612224891 0.016676389169406291 0 -0.12688342370485001 0.01070171800265522 0 -0.1242230929734665 0.023393682950198631 0 -0.11596694612224891 0.016676389169406291 0 -0.11596694612224891 0.016676389169406291 0 -0.1164988123418689 0.033847720949779107 0 -0.1027340189904121 0.031457353993626119 0 -0.1242230929734665 0.023393682950198631 0 -0.11596694612224891 0.016676389169406291 0 -0.1164988123418689 0.033847720949779107 0 -0.128895210172768 0.032880780971351282 0 -0.1242230929734665 0.023393682950198631 0 -0.1164988123418689 0.033847720949779107 0 -0.128895210172768 0.032880780971351282 0 -0.1164988123418689 0.033847720949779107 0 -0.1197864358152651 0.053282202866922403 0 -0.1164988123418689 0.033847720949779107 0 -0.1197864358152651 0.053282202866922403 0 -0.1053044231539355 0.044738838161835721 0 -0.1197864358152651 0.053282202866922403 0 -0.1045204229746596 0.060438390130880558 0 -0.1053044231539355 0.044738838161835721 0 -0.1084167475466967 0.070292279581442102 0 -0.1197864358152651 0.053282202866922403 0 -0.1045204229746596 0.060438390130880558 0 -0.1045204229746596 0.060438390130880558 0 -0.093753240721328956 0.050488232397772552 0 -0.1053044231539355 0.044738838161835721 0 -0.1045204229746596 0.060438390130880558 0 -0.093753240721328956 0.050488232397772552 0 -0.094163924989242462 0.060669630188739908 0 -0.1164988123418689 0.033847720949779107 0 -0.1027340189904121 0.031457353993626119 0 -0.1053044231539355 0.044738838161835721 0 -0.093753240721328956 0.050488232397772552 0 -0.1053044231539355 0.044738838161835721 0 -0.093797648613622608 0.03996438843176757 0 -0.1027340189904121 0.031457353993626119 0 -0.093797648613622608 0.03996438843176757 0 -0.087996741231116365 0.029964007658445341 0 -0.1027340189904121 0.031457353993626119 0 -0.1053044231539355 0.044738838161835721 0 -0.093797648613622608 0.03996438843176757 0 -0.093797648613622608 0.03996438843176757 0 -0.072782252423822316 0.052288175400840069 0 -0.087996741231116365 0.029964007658445341 0 -0.072782252423822316 0.052288175400840069 0 -0.087996741231116365 0.029964007658445341 0 -0.093753240721328956 0.050488232397772552 0 -0.093797648613622608 0.03996438843176757 0 -0.072782252423822316 0.052288175400840069 0 -0.093753240721328956 0.050488232397772552 0 -0.094163924989242462 0.060669630188739908 0 -0.072782252423822316 0.052288175400840069 0 -0.089274923487953489 0.070238970672130377 0 -0.094163924989242462 0.060669630188739908 0 -0.072782252423822316 0.052288175400840069 0 -0.057567763616527518 0.074612343143234339 0 -0.072782252423822316 0.052288175400840069 0 -0.057532226660207159 0.05464003229954064 0 -0.072782252423822316 0.052288175400840069 0 -0.065290729066978942 0.02766317974397078 0 -0.057532226660207159 0.05464003229954064 0 -0.072782252423822316 0.052288175400840069 0 -0.065290729066978942 0.02766317974397078 0 -0.087996741231116365 0.029964007658445341 0 -0.065290729066978942 0.02766317974397078 0 -0.067939656911554083 0.01055717571291113 0 -0.054547717246899663 0.016202824831207469 0 -0.065290729066978942 0.02766317974397078 0 -0.087996741231116365 0.029964007658445341 0 -0.065290729066978942 0.02766317974397078 0 -0.083574623097334794 0.01381806606100805 0 -0.067939656911554083 0.01055717571291113 0 -0.065290729066978942 0.02766317974397078 0 -0.087996741231116365 0.029964007658445341 0 -0.083574623097334794 0.01381806606100805 0 -0.099696523322329381 0.012796957140885631 0 -0.087996741231116365 0.029964007658445341 0 -0.083574623097334794 0.01381806606100805 0 -0.099696523322329381 0.012796957140885631 0 -0.095042178018154802 0.0009823759069313182 0 -0.083574623097334794 0.01381806606100805 0 -0.095042178018154802 0.0009823759069313182 0 -0.083574623097334794 0.01381806606100805 0 -0.082085834664370957 0.00072418305549578471 0 -0.083574623097334794 0.01381806606100805 0 -0.082085834664370957 0.00072418305549578471 0 -0.067939656911554083 0.01055717571291113 0 -0.070517512630694557 -0.002546413074365927 0 -0.082085834664370957 0.00072418305549578471 0 -0.067939656911554083 0.01055717571291113 0 -0.070517512630694557 -0.002546413074365927 0 -0.067939656911554083 0.01055717571291113 0 -0.055813665327939861 0.004961667931764239 0 -0.070517512630694557 -0.002546413074365927 0 -0.055813665327939861 0.004961667931764239 0 -0.055813665327939861 0.004961667931764239 0 -0.054547717246899663 0.016202824831207469 0 -0.041109818025184541 0.01246974893789313 0 -0.055813665327939861 0.004961667931764239 0 -0.041109818025184541 0.01246974893789313 0 -0.067939656911554083 0.01055717571291113 0 -0.055813665327939861 0.004961667931764239 0 -0.054547717246899663 0.016202824831207469 0 -0.065290729066978942 0.02766317974397078 0 -0.054547717246899663 0.016202824831207469 0 -0.042584716902841602 0.02536235182949604 0 -0.065290729066978942 0.02766317974397078 0 -0.042584716902841602 0.02536235182949604 0 -0.042584716902841602 0.02536235182949604 0 -0.041109818025184541 0.01246974893789313 0 -0.042584716902841602 0.02536235182949604 0 -0.031187306778866161 0.034255068436600089 0 -0.020286024172819061 0.023102798090223149 0 -0.042584716902841602 0.02536235182949604 0 -0.020286024172819061 0.023102798090223149 0 -0.042584716902841602 0.02536235182949604 0 -0.041109818025184541 0.01246974893789313 0 -0.020286024172819061 0.023102798090223149 0 -0.054547717246899663 0.016202824831207469 0 -0.042584716902841602 0.02536235182949604 0 -0.041109818025184541 0.01246974893789313 0 -0.038065540254775793 -0.01414133944257338 0 -0.041109818025184541 0.01246974893789313 0 -0.02332930609282181 0.002293464424054465 0 -0.038065540254775793 -0.01414133944257338 0 -0.055813665327939861 0.004961667931764239 0 -0.041109818025184541 0.01246974893789313 0 -0.047250261561067187 0.066145496669263351 0 -0.057532226660207159 0.05464003229954064 0 -0.044917489231954613 0.045753924249379671 0 -0.065290729066978942 0.02766317974397078 0 -0.057532226660207159 0.05464003229954064 0 -0.044917489231954613 0.045753924249379671 0 -0.065290729066978942 0.02766317974397078 0 -0.042584716902841602 0.02536235182949604 0 -0.044917489231954613 0.045753924249379671 0 -0.044917489231954613 0.045753924249379671 0 -0.025594665142677619 0.045775131773195393 0 -0.031187306778866161 0.034255068436600089 0 -0.042584716902841602 0.02536235182949604 0 -0.044917489231954613 0.045753924249379671 0 -0.031187306778866161 0.034255068436600089 0 -0.042584716902841602 0.02536235182949604 0 -0.044917489231954613 0.045753924249379671 0 -0.047250261561067187 0.066145496669263351 0 -0.044917489231954613 0.045753924249379671 0 -0.044917489231954613 0.045753924249379671 0 -0.036962816676788267 0.056993149040489133 0 -0.025594665142677619 0.045775131773195393 0 -0.047250261561067187 0.066145496669263351 0 -0.044917489231954613 0.045753924249379671 0 -0.036962816676788267 0.056993149040489133 0 -0.016265395509468841 0.05675055313603064 0 -0.025594665142677619 0.045775131773195393 0 -0.0079846579159902707 0.046004899858118183 0 -0.026297438582637139 0.065702150101104945 0 -0.036962816676788267 0.056993149040489133 0 -0.016265395509468841 0.05675055313603064 0 -0.036962816676788267 0.056993149040489133 0 -0.016265395509468841 0.05675055313603064 0 -0.025594665142677619 0.045775131773195393 0 -0.025594665142677619 0.045775131773195393 0 -0.01782538559736848 0.034998743738524393 0 -0.0079846579159902707 0.046004899858118183 0 -0.025594665142677619 0.045775131773195393 0 -0.031187306778866161 0.034255068436600089 0 -0.01782538559736848 0.034998743738524393 0 -0.0079846579159902707 0.046004899858118183 0 -0.0065963088486021594 0.03009304285329403 0 0.007093406475614579 0.037083287616365312 0 -0.01782538559736848 0.034998743738524393 0 -0.0079846579159902707 0.046004899858118183 0 -0.0065963088486021594 0.03009304285329403 0 -0.0053676108279740262 0.064625276336423676 0 -0.0079846579159902707 0.046004899858118183 0 0.0083359660868863178 0.053164177129333939 0 -0.0053676108279740262 0.064625276336423676 0 -0.016265395509468841 0.05675055313603064 0 -0.0079846579159902707 0.046004899858118183 0 -0.041109818025184541 0.01246974893789313 0 -0.02332930609282181 0.002293464424054465 0 -0.020286024172819061 0.023102798090223149 0 -0.02332930609282181 0.002293464424054465 0 -0.020286024172819061 0.023102798090223149 0 -0.0092612235771873889 0.0088429520238121149 0 -0.041109818025184541 0.01246974893789313 0 -0.020286024172819061 0.023102798090223149 0 -0.031187306778866161 0.034255068436600089 0 -0.01782538559736848 0.034998743738524393 0 -0.020286024172819061 0.023102798090223149 0 -0.020286024172819061 0.023102798090223149 0 -0.0003554366514492216 0.021083207340887321 0 -0.020286024172819061 0.023102798090223149 0 -0.0003554366514492216 0.021083207340887321 0 -0.0092612235771873889 0.0088429520238121149 0 -0.020286024172819061 0.023102798090223149 0 -0.0065963088486021594 0.03009304285329403 0 -0.0003554366514492216 0.021083207340887321 0 -0.01782538559736848 0.034998743738524393 0 -0.020286024172819061 0.023102798090223149 0 -0.0065963088486021594 0.03009304285329403 0 -0.020286024172819061 0.023102798090223149 0 -0.0065963088486021594 0.03009304285329403 0 -0.008081950935871246 -0.0078643453545879025 0 -0.02332930609282181 0.002293464424054465 0 -0.0092612235771873889 0.0088429520238121149 0 -0.0003554366514492216 0.021083207340887321 0 -0.0092612235771873889 0.0088429520238121149 0 0.0057465999670243432 0.0055996356184830438 0 -0.008081950935871246 -0.0078643453545879025 0 -0.0092612235771873889 0.0088429520238121149 0 0.0057465999670243432 0.0055996356184830438 0 -0.0003554366514492216 0.021083207340887321 0 0.0057465999670243432 0.0055996356184830438 0 0.019575150869920791 0.01906361659155301 0 0.0057465999670243432 0.0055996356184830438 0 0.019575150869920791 0.01906361659155301 0 -0.0065963088486021594 0.03009304285329403 0 -0.0003554366514492216 0.021083207340887321 0 0.007093406475614579 0.037083287616365312 0 -0.0003554366514492216 0.021083207340887321 0 0.019575150869920791 0.01906361659155301 0 -0.0003554366514492216 0.021083207340887321 0 0.019575150869920791 0.01906361659155301 0 0.007093406475614579 0.037083287616365312 0 0.019575150869920791 0.01906361659155301 0 0.038027581739484957 0.037029575561463732 0 0.0057465999670243432 0.0055996356184830438 0 0.019575150869920791 0.01906361659155301 0 0.0217108161930991 -0.001085578434556951 0 0.019575150869920791 0.01906361659155301 0 0.033346761524343363 0.0085600828216045571 0 0.0217108161930991 -0.001085578434556951 0 -0.0079846579159902707 0.046004899858118183 0 0.0083359660868863178 0.053164177129333939 0 0.007093406475614579 0.037083287616365312 0 0.0083359660868863178 0.053164177129333939 0 0.007093406475614579 0.037083287616365312 0 0.020675756113537169 0.042675366093126027 0 -0.0065963088486021594 0.03009304285329403 0 0.007093406475614579 0.037083287616365312 0 0.020675756113537169 0.042675366093126027 0 0.022601529255734991 0.060689645180655158 0 0.038027581739484957 0.037029575561463732 0 0.019575150869920791 0.01906361659155301 0 0.020675756113537169 0.042675366093126027 0 0.038027581739484957 0.037029575561463732 0 0.019575150869920791 0.01906361659155301 0 0.007093406475614579 0.037083287616365312 0 0.020675756113537169 0.042675366093126027 0 0.0083359660868863178 0.053164177129333939 0 0.020675756113537169 0.042675366093126027 0 0.022601529255734991 0.060689645180655158 0 0.038027581739484957 0.037029575561463732 0 0.056480012609050119 0.054995534531373597 0 0.041097184394933158 0.067102846782740977 0 0.022601529255734991 0.060689645180655158 0 0.038027581739484957 0.037029575561463732 0 0.041097184394933158 0.067102846782740977 0 0.038027581739484957 0.037029575561463732 0 0.056480012609050119 0.054995534531373597 0 0.038027581739484957 0.037029575561463732 0 0.06071961074176252 0.039633191280357111 0 0.058250974068895692 0.023888934693705351 0 0.038027581739484957 0.037029575561463732 0 0.06071961074176252 0.039633191280357111 0 0.056480012609050119 0.054995534531373597 0 0.033346761524343363 0.0085600828216045571 0 0.045430384837266212 0.01644367418963286 0 0.049251502315066371 -0.0027485426273138819 0 0.033346761524343363 0.0085600828216045571 0 0.0217108161930991 -0.001085578434556951 0 0.049251502315066371 -0.0027485426273138819 0 0.019575150869920791 0.01906361659155301 0 0.033346761524343363 0.0085600828216045571 0 0.045430384837266212 0.01644367418963286 0 0.019575150869920791 0.01906361659155301 0 0.045430384837266212 0.01644367418963286 0 0.019575150869920791 0.01906361659155301 0 0.038027581739484957 0.037029575561463732 0 0.045430384837266212 0.01644367418963286 0 0.045430384837266212 0.01644367418963286 0 0.058250974068895692 0.023888934693705351 0 0.071285618804611872 0.01382373178771471 0 0.038027581739484957 0.037029575561463732 0 0.045430384837266212 0.01644367418963286 0 0.058250974068895692 0.023888934693705351 0 0.045430384837266212 0.01644367418963286 0 0.071285618804611872 0.01382373178771471 0 0.045430384837266212 0.01644367418963286 0 0.061392891900666088 0.0054489801558786077 0 0.049251502315066371 -0.0027485426273138819 0 0.045430384837266212 0.01644367418963286 0 0.061392891900666088 0.0054489801558786077 0 0.071285618804611872 0.01382373178771471 0 0.061392891900666088 0.0054489801558786077 0 0.072484892700189124 0.0053911574084547194 0 0.076792188437033629 -0.0044115068200708124 0 0.061392891900666088 0.0054489801558786077 0 0.071285618804611872 0.01382373178771471 0 0.072484892700189124 0.0053911574084547194 0 0.071285618804611872 0.01382373178771471 0 0.072484892700189124 0.0053911574084547194 0 0.081418427574825286 0.0068471874872487338 0 0.072484892700189124 0.0053911574084547194 0 0.081418427574825286 0.0068471874872487338 0 0.076792188437033629 -0.0044115068200708124 0 0.071285618804611872 0.01382373178771471 0 0.081418427574825286 0.0068471874872487338 0 0.089324723077758031 0.016857771619795771 0 0.081418427574825286 0.0068471874872487338 0 0.095468603896129905 0.0032048388713090512 0 0.076792188437033629 -0.0044115068200708124 0 0.081418427574825286 0.0068471874872487338 0 0.089324723077758031 0.016857771619795771 0 0.095468603896129905 0.0032048388713090512 0 0.071285618804611872 0.01382373178771471 0 0.089324723077758031 0.016857771619795771 0 0.075894653646098487 0.034765557836833112 0 0.089324723077758031 0.016857771619795771 0 0.075894653646098487 0.034765557836833112 0 0.09711597722390361 0.031971018110036643 0 0.058250974068895692 0.023888934693705351 0 0.075894653646098487 0.034765557836833112 0 0.058250974068895692 0.023888934693705351 0 0.071285618804611872 0.01382373178771471 0 0.075894653646098487 0.034765557836833112 0 0.06071961074176252 0.039633191280357111 0 0.058250974068895692 0.023888934693705351 0 0.075894653646098487 0.034765557836833112 0 0.06071961074176252 0.039633191280357111 0 0.075894653646098487 0.034765557836833112 0 0.075770380306397822 0.052123017823665387 0 0.06071961074176252 0.039633191280357111 0 0.056480012609050119 0.054995534531373597 0 0.075770380306397822 0.052123017823665387 0 0.056480012609050119 0.054995534531373597 0 0.075770380306397822 0.052123017823665387 0 0.074932443478615982 0.072961493501282768 0 0.075770380306397822 0.052123017823665387 0 0.09353833322330124 0.045642180979960853 0 0.093057228139559356 0.064740148812184178 0 0.075894653646098487 0.034765557836833112 0 0.09353833322330124 0.045642180979960853 0 0.075894653646098487 0.034765557836833112 0 0.075770380306397822 0.052123017823665387 0 0.09353833322330124 0.045642180979960853 0 0.075894653646098487 0.034765557836833112 0 0.09353833322330124 0.045642180979960853 0 0.09711597722390361 0.031971018110036643 0 0.09353833322330124 0.045642180979960853 0 0.09711597722390361 0.031971018110036643 0 0.104163157296742 0.044052917207578958 0 0.104163157296742 0.044052917207578958 0 0.1116578811532748 0.048800742543271353 0 0.11192403100538539 0.040918745799924258 0 0.104163157296742 0.044052917207578958 0 0.1063181118891925 0.035164439489281551 0 0.11192403100538539 0.040918745799924258 0 0.09711597722390361 0.031971018110036643 0 0.1063181118891925 0.035164439489281551 0 0.1090227107347949 0.02685747211808313 0 0.09711597722390361 0.031971018110036643 0 0.104163157296742 0.044052917207578958 0 0.1063181118891925 0.035164439489281551 0 0.09353833322330124 0.045642180979960853 0 0.104163157296742 0.044052917207578958 0 0.1111820128005041 0.056518804123088393 0 0.09353833322330124 0.045642180979960853 0 0.1111820128005041 0.056518804123088393 0 0.093057228139559356 0.064740148812184178 0 0.1111820128005041 0.056518804123088393 0 0.093057228139559356 0.064740148812184178 0 0.09353833322330124 0.045642180979960853 0 0.1111820128005041 0.056518804123088393 0 0.104163157296742 0.044052917207578958 0 0.1111820128005041 0.056518804123088393 0 0.1116578811532748 0.048800742543271353 0 0.1111820128005041 0.056518804123088393 0 0.1261065257329215 0.049749092513842547 0 0.13254865804091981 0.063927211530657252 0 0.1111820128005041 0.056518804123088393 0 0.1116578811532748 0.048800742543271353 0 0.1261065257329215 0.049749092513842547 0 0.1116578811532748 0.048800742543271353 0 0.1261065257329215 0.049749092513842547 0 0.1111820128005041 0.056518804123088393 0 0.1261065257329215 0.049749092513842547 0 0.1116578811532748 0.048800742543271353 0 0.11786086695957811 0.044471261592249352 0 0.1261065257329215 0.049749092513842547 0 0.1063181118891925 0.035164439489281551 0 0.1146679654700743 0.03303800539707423 0 0.1090227107347949 0.02685747211808313 0 0.1146679654700743 0.03303800539707423 0 0.11192403100538539 0.040918745799924258 0 0.1190748011161495 0.038704259001877551 0 0.1063181118891925 0.035164439489281551 0 0.1146679654700743 0.03303800539707423 0 0.11192403100538539 0.040918745799924258 0 0.1116578811532748 0.048800742543271353 0 0.11192403100538539 0.040918745799924258 0 0.11786086695957811 0.044471261592249352 0 0.11192403100538539 0.040918745799924258 0 0.11786086695957811 0.044471261592249352 0 0.1190748011161495 0.038704259001877551 0 0.1243370536324033 0.043963734158083689 0 0.1190748011161495 0.038704259001877551 0 0.12728113781280981 0.039528802799818748 0 0.11786086695957811 0.044471261592249352 0 0.1243370536324033 0.043963734158083689 0 0.1190748011161495 0.038704259001877551 0 0.11786086695957811 0.044471261592249352 0 0.1243370536324033 0.043963734158083689 0 0.1261065257329215 0.049749092513842547 0 0.1146679654700743 0.03303800539707423 0 0.1231174754830366 0.032788360966042172 0 0.1190748011161495 0.038704259001877551 0 0.1231174754830366 0.032788360966042172 0 0.1190748011161495 0.038704259001877551 0 0.12728113781280981 0.039528802799818748 0 0.1185514890641938 0.026165687640265261 0 0.1237376642652656 0.01976859365491428 0 0.1276628884147202 0.026504186973196051 0 0.1231174754830366 0.032788360966042172 0 0.1185514890641938 0.026165687640265261 0 0.1276628884147202 0.026504186973196051 0 0.1146679654700743 0.03303800539707423 0 0.1231174754830366 0.032788360966042172 0 0.1185514890641938 0.026165687640265261 0 0.1185514890641938 0.026165687640265261 0 0.11449648569988199 0.019496935314629212 0 0.1090227107347949 0.02685747211808313 0 0.1146679654700743 0.03303800539707423 0 0.1185514890641938 0.026165687640265261 0 0.1090227107347949 0.02685747211808313 0 0.11449648569988199 0.019496935314629212 0 0.11167150213888349 0.01199423986095109 0 0.1027069290641726 0.0197997859143078 0 0.1185514890641938 0.026165687640265261 0 0.11449648569988199 0.019496935314629212 0 0.1237376642652656 0.01976859365491428 0 0.11449648569988199 0.019496935314629212 0 0.1237376642652656 0.01976859365491428 0 0.1203284510390845 0.013104948594594349 0 0.1203284510390845 0.013104948594594349 0 0.1184275669931147 0.005740314440356489 0 0.13132033129498641 0.0092488423746995806 0 0.1184275669931147 0.005740314440356489 0 0.13132033129498641 0.0092488423746995806 0 0.1241013306504634 -0.00126979730434574 0 0.1184275669931147 0.005740314440356489 0 0.11616446291822149 0.0009867659353553224 0 0.1241013306504634 -0.00126979730434574 0 0.11616446291822149 0.0009867659353553224 0 0.1110642626353554 0.0038342857635015049 0 0.11106469139395241 -0.0043577391580909642 0 0.1184275669931147 0.005740314440356489 0 0.1110642626353554 0.0038342857635015049 0 0.11167150213888349 0.01199423986095109 0 0.1184275669931147 0.005740314440356489 0 0.11616446291822149 0.0009867659353553224 0 0.1110642626353554 0.0038342857635015049 0 0.1203284510390845 0.013104948594594349 0 0.1184275669931147 0.005740314440356489 0 0.11167150213888349 0.01199423986095109 0 0.11449648569988199 0.019496935314629212 0 0.1203284510390845 0.013104948594594349 0 0.11167150213888349 0.01199423986095109 0 0.1110642626353554 0.0038342857635015049 0 0.11167150213888349 0.01199423986095109 0 0.10300531740169221 0.0099891691383171746 0 0.11167150213888349 0.01199423986095109 0 0.10300531740169221 0.0099891691383171746 0 0.1027069290641726 0.0197997859143078 0 0.1110642626353554 0.0038342857635015049 0 0.095468603896129905 0.0032048388713090512 0 0.11106469139395241 -0.0043577391580909642 0 0.1110642626353554 0.0038342857635015049 0 0.10300531740169221 0.0099891691383171746 0 0.095468603896129905 0.0032048388713090512 0 0.089324723077758031 0.016857771619795771 0 0.10300531740169221 0.0099891691383171746 0 0.095468603896129905 0.0032048388713090512 0 0.089324723077758031 0.016857771619795771 0 0.10300531740169221 0.0099891691383171746 0 0.1027069290641726 0.0197997859143078 0 0.089324723077758031 0.016857771619795771 0 0.09711597722390361 0.031971018110036643 0 0.1027069290641726 0.0197997859143078 0 0.09711597722390361 0.031971018110036643 0 0.1090227107347949 0.02685747211808313 0 0.1027069290641726 0.0197997859143078 0 0.11449648569988199 0.019496935314629212 0 0.1090227107347949 0.02685747211808313 0 0.1027069290641726 0.0197997859143078 0 0.1024990330499561 0.1037514056296809 0 0.10856667821163669 0.086897768267990574 0 0.089175291647175997 0.09228385866007352 0 0.1024990330499561 0.1037514056296809 0 0.099821751196421782 0.1191423519601547 0 0.1221416529332626 0.11202310548697909 0 0.1024990330499561 0.1037514056296809 0 0.099821751196421782 0.1191423519601547 0 0.08323109774477136 0.1082653446622857 0 0.099821751196421782 0.1191423519601547 0 0.1221416529332626 0.11202310548697909 0 0.1104396205736143 0.1275896196336693 0 0.1221416529332626 0.11202310548697909 0 0.1104396205736143 0.1275896196336693 0 0.1216198161367525 0.1284461376911499 0 0.1024990330499561 0.1037514056296809 0 0.1221416529332626 0.11202310548697909 0 0.10856667821163669 0.086897768267990574 0 0.1221416529332626 0.11202310548697909 0 0.10856667821163669 0.086897768267990574 0 0.1221416529332626 0.11202310548697909 0 0.10856667821163669 0.086897768267990574 0 0.12711182105801849 0.096271416258485329 0 0.1187519132559962 0.073330070717771242 0 0.10856667821163669 0.086897768267990574 0 0.13222229848423689 0.082740643567558239 0 0.10856667821163669 0.086897768267990574 0 0.13222229848423689 0.082740643567558239 0 0.12711182105801849 0.096271416258485329 0 0.1187519132559962 0.073330070717771242 0 0.10576148555758889 0.068658335854073577 0 0.10856667821163669 0.086897768267990574 0 0.1111820128005041 0.056518804123088393 0 0.13602709122601439 0.071834801776145749 0 0.1111820128005041 0.056518804123088393 0 0.1187519132559962 0.073330070717771242 0 0.13602709122601439 0.071834801776145749 0 0.1111820128005041 0.056518804123088393 0 0.1187519132559962 0.073330070717771242 0 0.10576148555758889 0.068658335854073577 0 0.10576148555758889 0.068658335854073577 0 0.10856667821163669 0.086897768267990574 0 0.090081714657470197 0.07753354160467707 0 0.10576148555758889 0.068658335854073577 0 0.093057228139559356 0.064740148812184178 0 0.090081714657470197 0.07753354160467707 0 0.1111820128005041 0.056518804123088393 0 0.10576148555758889 0.068658335854073577 0 0.093057228139559356 0.064740148812184178 0 0.10856667821163669 0.086897768267990574 0 0.089175291647175997 0.09228385866007352 0 0.090081714657470197 0.07753354160467707 0 0.089175291647175997 0.09228385866007352 0 0.078042380094003064 0.085281887196875086 0 0.069605977849525796 0.093056262500169198 0 0.089175291647175997 0.09228385866007352 0 0.090081714657470197 0.07753354160467707 0 0.078042380094003064 0.085281887196875086 0 0.090081714657470197 0.07753354160467707 0 0.074932443478615982 0.072961493501282768 0 0.078042380094003064 0.085281887196875086 0 0.093057228139559356 0.064740148812184178 0 0.074932443478615982 0.072961493501282768 0 0.075770380306397822 0.052123017823665387 0 0.093057228139559356 0.064740148812184178 0 0.074932443478615982 0.072961493501282768 0 0.093057228139559356 0.064740148812184178 0 0.090081714657470197 0.07753354160467707 0 0.074932443478615982 0.072961493501282768 0 0.056480012609050119 0.054995534531373597 0 0.074932443478615982 0.072961493501282768 0 0.074932443478615982 0.072961493501282768 0 0.078042380094003064 0.085281887196875086 0 0.069605977849525796 0.093056262500169198 0 0.074932443478615982 0.072961493501282768 0 0.051990867565192722 0.083367719386089167 0 0.074932443478615982 0.072961493501282768 0 0.069605977849525796 0.093056262500169198 0 0.051990867565192722 0.083367719386089167 0 0.069605977849525796 0.093056262500169198 0 0.067834897750723794 0.1071738645561903 0 0.052138827861517661 0.1061354753627997 0 0.069605977849525796 0.093056262500169198 0 0.067834897750723794 0.1071738645561903 0 0.08323109774477136 0.1082653446622857 0 0.1024990330499561 0.1037514056296809 0 0.089175291647175997 0.09228385866007352 0 0.08323109774477136 0.1082653446622857 0 0.089175291647175997 0.09228385866007352 0 0.069605977849525796 0.093056262500169198 0 0.08323109774477136 0.1082653446622857 0 0.099821751196421782 0.1191423519601547 0 0.08323109774477136 0.1082653446622857 0 0.084113506929892889 0.1243933264674657 0 0.067834897750723794 0.1071738645561903 0 0.08323109774477136 0.1082653446622857 0 0.066363687547080344 0.1212383756995067 0 0.08323109774477136 0.1082653446622857 0 0.084113506929892889 0.1243933264674657 0 0.066363687547080344 0.1212383756995067 0 0.066363687547080344 0.1212383756995067 0 0.052138827861517661 0.1061354753627997 0 0.049706882500586871 0.12865831611201059 0 0.067834897750723794 0.1071738645561903 0 0.066363687547080344 0.1212383756995067 0 0.052138827861517661 0.1061354753627997 0 0.069605977849525796 0.093056262500169198 0 0.052138827861517661 0.1061354753627997 0 0.051990867565192722 0.083367719386089167 0 0.052138827861517661 0.1061354753627997 0 0.051990867565192722 0.083367719386089167 0 0.02904929165177058 0.093773945270898038 0 0.052138827861517661 0.1061354753627997 0 0.036931545462674832 0.1140772340767347 0 0.02904929165177058 0.093773945270898038 0 0.036931545462674832 0.1140772340767347 0 0.049706882500586871 0.12865831611201059 0 0.031512811691867752 0.1288472708230308 0 0.052138827861517661 0.1061354753627997 0 0.036931545462674832 0.1140772340767347 0 0.049706882500586871 0.12865831611201059 0 0.056480012609050119 0.054995534531373597 0 0.051990867565192722 0.083367719386089167 0 0.041097184394933158 0.067102846782740977 0 0.056480012609050119 0.054995534531373597 0 0.074932443478615982 0.072961493501282768 0 0.051990867565192722 0.083367719386089167 0 0.051990867565192722 0.083367719386089167 0 0.02904929165177058 0.093773945270898038 0 0.051990867565192722 0.083367719386089167 0 0.041097184394933158 0.067102846782740977 0 0.02904929165177058 0.093773945270898038 0 0.0083359660868863178 0.053164177129333939 0 0.022601529255734991 0.060689645180655158 0 0.016818715523989929 0.077529432361723633 0 0.022601529255734991 0.060689645180655158 0 0.041097184394933158 0.067102846782740977 0 0.016818715523989929 0.077529432361723633 0 0.016818715523989929 0.077529432361723633 0 0.02904929165177058 0.093773945270898038 0 0.006107715738348357 0.1041801711557067 0 0.041097184394933158 0.067102846782740977 0 0.016818715523989929 0.077529432361723633 0 0.02904929165177058 0.093773945270898038 0 0.016818715523989929 0.077529432361723633 0 0.00037005245518714931 0.084402723746065167 0 0.006107715738348357 0.1041801711557067 0 -0.0053676108279740262 0.064625276336423676 0 0.016818715523989929 0.077529432361723633 0 0.00037005245518714931 0.084402723746065167 0 -0.0053676108279740262 0.064625276336423676 0 0.0083359660868863178 0.053164177129333939 0 0.016818715523989929 0.077529432361723633 0 0.022249913607631251 0.1129711628149344 0 0.01331874088314863 0.12903622553405161 0 0.031512811691867752 0.1288472708230308 0 0.036931545462674832 0.1140772340767347 0 0.022249913607631251 0.1129711628149344 0 0.031512811691867752 0.1288472708230308 0 0.022249913607631251 0.1129711628149344 0 0.02904929165177058 0.093773945270898038 0 0.006107715738348357 0.1041801711557067 0 0.02904929165177058 0.093773945270898038 0 0.006107715738348357 0.1041801711557067 0 0.036931545462674832 0.1140772340767347 0 0.022249913607631251 0.1129711628149344 0 0.02904929165177058 0.093773945270898038 0 0.00037005245518714931 0.084402723746065167 0 0.006107715738348357 0.1041801711557067 0 0.006107715738348357 0.1041801711557067 0 0.01331874088314863 0.12903622553405161 0 0.006107715738348357 0.1041801711557067 0 0.0013627004030162689 0.1185368260370173 0 0.01331874088314863 0.12903622553405161 0 0.022249913607631251 0.1129711628149344 0 0.006107715738348357 0.1041801711557067 0 0.01331874088314863 0.12903622553405161 0 -0.0034601198776373419 0.12921048256644549 0 0.01331874088314863 0.12903622553405161 0 -0.0034601198776373419 0.12921048256644549 0 0.0048452609164686524 0.140092557160239 0 0.01331874088314863 0.12903622553405161 0 -0.0034601198776373419 0.12921048256644549 0 0.0013627004030162689 0.1185368260370173 0 0.01331874088314863 0.12903622553405161 0 0.01331874088314863 0.12903622553405161 0 0.016141510526689249 0.13876617576283221 0 0.0048452609164686524 0.140092557160239 0 0.01331874088314863 0.12903622553405161 0 0.016141510526689249 0.13876617576283221 0 0.01331874088314863 0.12903622553405161 0 0.02683887859367624 0.13859203348933979 0 0.031512811691867752 0.1288472708230308 0 0.01331874088314863 0.12903622553405161 0 0.031512811691867752 0.1288472708230308 0 0.01331874088314863 0.12903622553405161 0 0.016141510526689249 0.13876617576283221 0 0.02683887859367624 0.13859203348933979 0 0.02683887859367624 0.13859203348933979 0 0.027064835881335531 0.150466310211611 0 0.039548018845340031 0.14080250919449169 0 0.016141510526689249 0.13876617576283221 0 0.02683887859367624 0.13859203348933979 0 0.027064835881335531 0.150466310211611 0 0.016141510526689249 0.13876617576283221 0 0.027064835881335531 0.150466310211611 0 0.011544650612731621 0.15196121243723551 0 0.027064835881335531 0.150466310211611 0 0.011544650612731621 0.15196121243723551 0 0.015718573558365909 0.16243520651624821 0 -0.0060469278192012664 0.16804581253524711 0 0.0048452609164686524 0.140092557160239 0 0.011544650612731621 0.15196121243723551 0 0.0048452609164686524 0.140092557160239 0 0.016141510526689249 0.13876617576283221 0 0.011544650612731621 0.15196121243723551 0 -0.0060469278192012664 0.16804581253524711 0 0.01530233219100406 0.17737751971440449 0 0.015718573558365909 0.16243520651624821 0 -0.0060469278192012664 0.16804581253524711 0 0.011544650612731621 0.15196121243723551 0 0.015718573558365909 0.16243520651624821 0 -0.0060469278192012664 0.16804581253524711 0 0.01530233219100406 0.17737751971440449 0 0.0032606068272224781 0.1901318216684702 0 0.01530233219100406 0.17737751971440449 0 0.037050872365878958 0.1841993245850265 0 0.01824935089276878 0.19838542696580491 0 0.01530233219100406 0.17737751971440449 0 0.0277282456794508 0.16611534543410539 0 0.037050872365878958 0.1841993245850265 0 0.027064835881335531 0.150466310211611 0 0.015718573558365909 0.16243520651624821 0 0.0277282456794508 0.16611534543410539 0 0.01530233219100406 0.17737751971440449 0 0.015718573558365909 0.16243520651624821 0 0.0277282456794508 0.16611534543410539 0 0.037050872365878958 0.1841993245850265 0 0.04350461440066955 0.15609836614323691 0 0.0277282456794508 0.16611534543410539 0 0.037050872365878958 0.1841993245850265 0 0.04350461440066955 0.15609836614323691 0 0.027064835881335531 0.150466310211611 0 0.0277282456794508 0.16611534543410539 0 0.04350461440066955 0.15609836614323691 0 0.037050872365878958 0.1841993245850265 0 0.057079125968549263 0.18134874893025979 0 0.04350461440066955 0.15609836614323691 0 0.057079125968549263 0.18134874893025979 0 0.04350461440066955 0.15609836614323691 0 0.072136521482715529 0.16129176688364191 0 0.058660090003904292 0.14215275838772121 0 0.04350461440066955 0.15609836614323691 0 0.039548018845340031 0.14080250919449169 0 0.058660090003904292 0.14215275838772121 0 0.04350461440066955 0.15609836614323691 0 0.072136521482715529 0.16129176688364191 0 0.066363687547080344 0.1212383756995067 0 0.058660090003904292 0.14215275838772121 0 0.049706882500586871 0.12865831611201059 0 0.058660090003904292 0.14215275838772121 0 0.049706882500586871 0.12865831611201059 0 0.039548018845340031 0.14080250919449169 0 0.049706882500586871 0.12865831611201059 0 0.031512811691867752 0.1288472708230308 0 0.039548018845340031 0.14080250919449169 0 0.049706882500586871 0.12865831611201059 0 0.031512811691867752 0.1288472708230308 0 0.02683887859367624 0.13859203348933979 0 0.031512811691867752 0.1288472708230308 0 0.039548018845340031 0.14080250919449169 0 0.027064835881335531 0.150466310211611 0 0.04350461440066955 0.15609836614323691 0 0.039548018845340031 0.14080250919449169 0 0.024143388296297971 0.24040124146860589 0 0.026404545020734992 0.25651996196379739 0 0.024143388296297971 0.24040124146860589 0 0.031434663195222673 0.2478948043304843 0 0.026404545020734992 0.25651996196379739 0 0.024143388296297971 0.24040124146860589 0 0.0351501728243485 0.23783453938710039 0 0.031434663195222673 0.2478948043304843 0 0.024143388296297971 0.24040124146860589 0 0.01164476986855471 0.23984946530394721 0 0.014286299040141229 0.23057735670592269 0 0.024143388296297971 0.24040124146860589 0 0.01325113107138765 0.24994977195075141 0 0.01164476986855471 0.23984946530394721 0 0.003791674785571924 0.24772290422529519 0 0.01164476986855471 0.23984946530394721 0 0.002751356149374766 0.2305960521691611 0 0.01325113107138765 0.24994977195075141 0 0.003791674785571924 0.24772290422529519 0 0.01164476986855471 0.23984946530394721 0 0.002751356149374766 0.2305960521691611 0 0.011444242233787771 0.2223592881155087 0 0.00573739542641201 0.21085128121663901 0 0.014286299040141229 0.23057735670592269 0 0.002751356149374766 0.2305960521691611 0 0.011444242233787771 0.2223592881155087 0 0.01164476986855471 0.23984946530394721 0 0.014286299040141229 0.23057735670592269 0 0.002751356149374766 0.2305960521691611 0 0.024143388296297971 0.24040124146860589 0 0.021196369594533498 0.21939333421720539 0 0.024143388296297971 0.24040124146860589 0 0.030597130331088369 0.21230028302681611 0 0.024143388296297971 0.24040124146860589 0 0.021196369594533498 0.21939333421720539 0 0.030597130331088369 0.21230028302681611 0 0.024143388296297971 0.24040124146860589 0 0.030597130331088369 0.21230028302681611 0 0.035796579344390657 0.22661575461677841 0 0.024143388296297971 0.24040124146860589 0 0.014286299040141229 0.23057735670592269 0 0.021196369594533498 0.21939333421720539 0 0.014286299040141229 0.23057735670592269 0 0.011444242233787771 0.2223592881155087 0 0.021196369594533498 0.21939333421720539 0 0.021196369594533498 0.21939333421720539 0 0.030597130331088369 0.21230028302681611 0 0.01824935089276878 0.19838542696580491 0 0.021196369594533498 0.21939333421720539 0 0.01824935089276878 0.19838542696580491 0 0.011444242233787771 0.2223592881155087 0 0.021196369594533498 0.21939333421720539 0 0.00573739542641201 0.21085128121663901 0 0.021196369594533498 0.21939333421720539 0 0.00573739542641201 0.21085128121663901 0 0.01824935089276878 0.19838542696580491 0 0.00573739542641201 0.21085128121663901 0 0.0032606068272224781 0.1901318216684702 0 0.01824935089276878 0.19838542696580491 0 0.01530233219100406 0.17737751971440449 0 0.0032606068272224781 0.1901318216684702 0 0.01824935089276878 0.19838542696580491 0 0.037050872365878958 0.1841993245850265 0 0.030597130331088369 0.21230028302681611 0 0.01824935089276878 0.19838542696580491 0 0.01530233219100406 0.17737751971440449 0 0.01824935089276878 0.19838542696580491 0 0.037050872365878958 0.1841993245850265 0 0.030597130331088369 0.21230028302681611 0 0.037050872365878958 0.1841993245850265 0 0.030597130331088369 0.21230028302681611 0 0.04648278701446109 0.20115705472162071 0 0.037050872365878958 0.1841993245850265 0 0.057079125968549263 0.18134874893025979 0 0.04648278701446109 0.20115705472162071 0 0.057079125968549263 0.18134874893025979 0 0.04648278701446109 0.20115705472162071 0 0.061464732193553889 0.1972920125660905 0 0.04648278701446109 0.20115705472162071 0 0.061464732193553889 0.1972920125660905 0 0.062626220323705656 0.2119234462393797 0 0.045048820496616487 0.21600762659644829 0 0.060819143908510759 0.22822043645282289 0 0.062626220323705656 0.2119234462393797 0 0.04648278701446109 0.20115705472162071 0 0.045048820496616487 0.21600762659644829 0 0.062626220323705656 0.2119234462393797 0 0.030597130331088369 0.21230028302681611 0 0.04648278701446109 0.20115705472162071 0 0.045048820496616487 0.21600762659644829 0 0.030597130331088369 0.21230028302681611 0 0.045048820496616487 0.21600762659644829 0 0.035796579344390657 0.22661575461677841 0 0.045048820496616487 0.21600762659644829 0 0.035796579344390657 0.22661575461677841 0 0.045751989415847211 0.23198431414296281 0 0.035796579344390657 0.22661575461677841 0 0.045751989415847211 0.23198431414296281 0 0.0351501728243485 0.23783453938710039 0 0.045048820496616487 0.21600762659644829 0 0.045751989415847211 0.23198431414296281 0 0.060819143908510759 0.22822043645282289 0 0.045751989415847211 0.23198431414296281 0 0.060819143908510759 0.22822043645282289 0 0.054054209473331151 0.24323771215732229 0 0.060819143908510759 0.22822043645282289 0 0.054054209473331151 0.24323771215732229 0 0.068418000694839998 0.24342677767991289 0 0.054054209473331151 0.24323771215732229 0 0.040285344304628143 0.24574221750912931 0 0.03971489177810212 0.2603825011339278 0 0.045751989415847211 0.23198431414296281 0 0.040285344304628143 0.24574221750912931 0 0.0351501728243485 0.23783453938710039 0 0.045751989415847211 0.23198431414296281 0 0.054054209473331151 0.24323771215732229 0 0.040285344304628143 0.24574221750912931 0 0.024143388296297971 0.24040124146860589 0 0.035796579344390657 0.22661575461677841 0 0.0351501728243485 0.23783453938710039 0 0.040285344304628143 0.24574221750912931 0 0.0351501728243485 0.23783453938710039 0 0.031434663195222673 0.2478948043304843 0 0.088558722698074119 0.2391029110657821 0 0.068418000694839998 0.24342677767991289 0 0.07727963203695061 0.22306119637167879 0 0.088558722698074119 0.2391029110657821 0 0.068418000694839998 0.24342677767991289 0 0.075266083395755037 0.25763888860009909 0 0.060819143908510759 0.22822043645282289 0 0.068418000694839998 0.24342677767991289 0 0.07727963203695061 0.22306119637167879 0 0.060819143908510759 0.22822043645282289 0 0.07727963203695061 0.22306119637167879 0 0.062626220323705656 0.2119234462393797 0 0.088558722698074119 0.2391029110657821 0 0.07727963203695061 0.22306119637167879 0 0.094515793453094604 0.20891350648169379 0 0.07727963203695061 0.22306119637167879 0 0.075710740814530358 0.20377392555457319 0 0.094515793453094604 0.20891350648169379 0 0.07727963203695061 0.22306119637167879 0 0.062626220323705656 0.2119234462393797 0 0.075710740814530358 0.20377392555457319 0 0.061464732193553889 0.1972920125660905 0 0.062626220323705656 0.2119234462393797 0 0.075710740814530358 0.20377392555457319 0 0.061464732193553889 0.1972920125660905 0 0.075710740814530358 0.20377392555457319 0 0.07971300976309062 0.1826484269891803 0 0.1052200831281638 0.19155831152114661 0 0.094515793453094604 0.20891350648169379 0 0.07971300976309062 0.1826484269891803 0 0.075710740814530358 0.20377392555457319 0 0.094515793453094604 0.20891350648169379 0 0.07971300976309062 0.1826484269891803 0 0.094515793453094604 0.20891350648169379 0 0.07971300976309062 0.1826484269891803 0 0.1052200831281638 0.19155831152114661 0 0.1184256887641624 0.18731790689384781 0 0.12765144586200919 0.1961643632105933 0 0.1052200831281638 0.19155831152114661 0 0.1232786919981925 0.21446069991376029 0 0.12765144586200919 0.1961643632105933 0 0.1052200831281638 0.19155831152114661 0 0.1232786919981925 0.21446069991376029 0 0.1052200831281638 0.19155831152114661 0 0.1232786919981925 0.21446069991376029 0 0.094515793453094604 0.20891350648169379 0 0.1232786919981925 0.21446069991376029 0 0.094515793453094604 0.20891350648169379 0 0.10931857714309789 0.23517858597420771 0 0.094515793453094604 0.20891350648169379 0 0.10931857714309789 0.23517858597420771 0 0.088558722698074119 0.2391029110657821 0 0.094515793453094604 0.20891350648169379 0 0.10931857714309789 0.23517858597420771 0 0.1232786919981925 0.21446069991376029 0 0.10931857714309789 0.23517858597420771 0 0.1232786919981925 0.21446069991376029 0 0.10931857714309789 0.23517858597420771 0 0.1362473755571138 0.23090791519734191 0 0.10931857714309789 0.23517858597420771 0 0.1265113843998063 0.24481906103984011 0 0.1233757836889447 0.26012076273645052 0 0.10931857714309789 0.23517858597420771 0 0.1233757836889447 0.26012076273645052 0 0.10931857714309789 0.23517858597420771 0 0.1265113843998063 0.24481906103984011 0 0.1362473755571138 0.23090791519734191 0 0.10931857714309789 0.23517858597420771 0 0.093382952469636155 0.25882828081653358 0 0.088558722698074119 0.2391029110657821 0 0.10931857714309789 0.23517858597420771 0 0.093382952469636155 0.25882828081653358 0 0.078985356358764247 0.13999032650239621 0 0.072136521482715529 0.16129176688364191 0 0.095286670639568499 0.15335985162574159 0 0.078985356358764247 0.13999032650239621 0 0.095286670639568499 0.15335985162574159 0 0.096475036301647846 0.1350993077839632 0 0.084113506929892889 0.1243933264674657 0 0.078985356358764247 0.13999032650239621 0 0.096475036301647846 0.1350993077839632 0 0.099821751196421782 0.1191423519601547 0 0.084113506929892889 0.1243933264674657 0 0.096475036301647846 0.1350993077839632 0 0.084113506929892889 0.1243933264674657 0 0.066363687547080344 0.1212383756995067 0 0.078985356358764247 0.13999032650239621 0 0.066363687547080344 0.1212383756995067 0 0.058660090003904292 0.14215275838772121 0 0.078985356358764247 0.13999032650239621 0 0.058660090003904292 0.14215275838772121 0 0.078985356358764247 0.13999032650239621 0 0.072136521482715529 0.16129176688364191 0 0.057079125968549263 0.18134874893025979 0 0.072136521482715529 0.16129176688364191 0 0.07971300976309062 0.1826484269891803 0 0.057079125968549263 0.18134874893025979 0 0.061464732193553889 0.1972920125660905 0 0.07971300976309062 0.1826484269891803 0 0.1052200831281638 0.19155831152114661 0 0.07971300976309062 0.1826484269891803 0 0.090193052896619497 0.16835374335447131 0 0.072136521482715529 0.16129176688364191 0 0.07971300976309062 0.1826484269891803 0 0.090193052896619497 0.16835374335447131 0 0.072136521482715529 0.16129176688364191 0 0.090193052896619497 0.16835374335447131 0 0.095286670639568499 0.15335985162574159 0 0.10980208042603 0.17240058203628039 0 0.11369432800444761 0.15780990029968919 0 0.095286670639568499 0.15335985162574159 0 0.090193052896619497 0.16835374335447131 0 0.10980208042603 0.17240058203628039 0 0.095286670639568499 0.15335985162574159 0 0.1052200831281638 0.19155831152114661 0 0.090193052896619497 0.16835374335447131 0 0.10980208042603 0.17240058203628039 0 0.1052200831281638 0.19155831152114661 0 0.10980208042603 0.17240058203628039 0 0.1184256887641624 0.18731790689384781 0 0.10980208042603 0.17240058203628039 0 0.12081008437017619 0.1775340045624943 0 0.1261731150163696 0.16842145928336619 0 0.10980208042603 0.17240058203628039 0 0.12081008437017619 0.1775340045624943 0 0.1184256887641624 0.18731790689384781 0 0.12081008437017619 0.1775340045624943 0 0.1184256887641624 0.18731790689384781 0 0.12883945327414301 0.1819960700364828 0 0.11369432800444761 0.15780990029968919 0 0.12506992764028299 0.15163041330695859 0 0.1261731150163696 0.16842145928336619 0 0.10980208042603 0.17240058203628039 0 0.11369432800444761 0.15780990029968919 0 0.1261731150163696 0.16842145928336619 0 0.1121398462999868 0.14323719524609929 0 0.1236365544329777 0.1401155472375438 0 0.12506992764028299 0.15163041330695859 0 0.11369432800444761 0.15780990029968919 0 0.1121398462999868 0.14323719524609929 0 0.12506992764028299 0.15163041330695859 0 0.1121398462999868 0.14323719524609929 0 0.095286670639568499 0.15335985162574159 0 0.096475036301647846 0.1350993077839632 0 0.11369432800444761 0.15780990029968919 0 0.1121398462999868 0.14323719524609929 0 0.095286670639568499 0.15335985162574159 0 0.099821751196421782 0.1191423519601547 0 0.096475036301647846 0.1350993077839632 0 0.1104396205736143 0.1275896196336693 0 0.1121398462999868 0.14323719524609929 0 0.096475036301647846 0.1350993077839632 0 0.1104396205736143 0.1275896196336693 0 0.1121398462999868 0.14323719524609929 0 0.1104396205736143 0.1275896196336693 0 0.1216198161367525 0.1284461376911499 0 0.1121398462999868 0.14323719524609929 0 0.1236365544329777 0.1401155472375438 0 0.1216198161367525 0.1284461376911499 0 0.1216198161367525 0.1284461376911499 0 0.13571662765488851 0.13714844270596749 0 0.1221416529332626 0.11202310548697909 0 0.1216198161367525 0.1284461376911499 0 0.13571662765488851 0.13714844270596749 0 0.13571662765488851 0.13714844270596749 0 0.13936926068676661 0.12870466425705479 0 0.13324057158529529 0.1194771381521421 0 0.1236365544329777 0.1401155472375438 0 0.1216198161367525 0.1284461376911499 0 0.13571662765488851 0.13714844270596749 0 0.13571662765488851 0.13714844270596749 0 0.13936926068676661 0.12870466425705479 0 0.14329411321795579 0.13345420913476319 0 0.13936926068676661 0.12870466425705479 0 0.14329411321795579 0.13345420913476319 0 0.14522573028892691 0.12473886703534651 0 0.14329411321795579 0.13345420913476319 0 0.14912036984857599 0.1302833519891736 0 0.14522573028892691 0.12473886703534651 0 0.14329411321795579 0.13345420913476319 0 0.14912036984857599 0.1302833519891736 0 0.14844774066403929 0.14068990259312991 0 0.13571662765488851 0.13714844270596749 0 0.14329411321795579 0.13345420913476319 0 0.14844774066403929 0.14068990259312991 0 0.1539606084885391 0.12851381335764001 0 0.14912036984857599 0.1302833519891736 0 0.14844774066403929 0.14068990259312991 0 0.1539606084885391 0.12851381335764001 0 0.14844774066403929 0.14068990259312991 0 0.16169096308237399 0.1256621397921292 0 0.1539606084885391 0.12851381335764001 0 0.14912036984857599 0.1302833519891736 0 0.15222669915792181 0.1232562258046947 0 0.14912036984857599 0.1302833519891736 0 0.14522573028892691 0.12473886703534651 0 0.15222669915792181 0.1232562258046947 0 0.13571662765488851 0.13714844270596749 0 0.14844774066403929 0.14068990259312991 0 0.153328808984387 0.14802087110641721 0 0.13571662765488851 0.13714844270596749 0 0.153328808984387 0.14802087110641721 0 0.14496195103571691 0.1542602143597189 0 0.13571662765488851 0.13714844270596749 0 0.153328808984387 0.14802087110641721 0 0.153328808984387 0.14802087110641721 0 0.14496195103571691 0.1542602143597189 0 0.15703432015980001 0.16171948332326139 0 0.14844774066403929 0.14068990259312991 0 0.153328808984387 0.14802087110641721 0 0.1592050758033843 0.14296664651929919 0 0.13571662765488851 0.13714844270596749 0 0.14496195103571691 0.1542602143597189 0 0.13571662765488851 0.13714844270596749 0 0.13440999773846049 0.15587644489449931 0 0.12506992764028299 0.15163041330695859 0 0.13571662765488851 0.13714844270596749 0 0.14496195103571691 0.1542602143597189 0 0.13440999773846049 0.15587644489449931 0 0.1236365544329777 0.1401155472375438 0 0.13571662765488851 0.13714844270596749 0 0.12506992764028299 0.15163041330695859 0 0.13440999773846049 0.15587644489449931 0 0.12506992764028299 0.15163041330695859 0 0.1261731150163696 0.16842145928336619 0 0.13440999773846049 0.15587644489449931 0 0.1261731150163696 0.16842145928336619 0 0.14012836734504441 0.16792169481648531 0 0.1261731150163696 0.16842145928336619 0 0.14012836734504441 0.16792169481648531 0 0.13603203421495541 0.17620373834506281 0 0.14496195103571691 0.1542602143597189 0 0.13440999773846049 0.15587644489449931 0 0.14012836734504441 0.16792169481648531 0 0.1184256887641624 0.18731790689384781 0 0.12883945327414301 0.1819960700364828 0 0.13127465110536179 0.19037537811081401 0 0.12081008437017619 0.1775340045624943 0 0.1261731150163696 0.16842145928336619 0 0.12883945327414301 0.1819960700364828 0 0.1261731150163696 0.16842145928336619 0 0.12883945327414301 0.1819960700364828 0 0.13603203421495541 0.17620373834506281 0 0.12883945327414301 0.1819960700364828 0 0.13603203421495541 0.17620373834506281 0 0.13834913459217391 0.185691071546431 0 0.12883945327414301 0.1819960700364828 0 0.13834913459217391 0.185691071546431 0 0.13127465110536179 0.19037537811081401 0 0.13603203421495541 0.17620373834506281 0 0.13834913459217391 0.185691071546431 0 0.1470562251153395 0.17906708874781019 0 0.1470562251153395 0.17906708874781019 0 0.16052914209303101 0.17735221748262139 0 0.15593531817651651 0.19651364110895339 0 0.13834913459217391 0.185691071546431 0 0.1470562251153395 0.17906708874781019 0 0.15593531817651651 0.19651364110895339 0 0.14012836734504441 0.16792169481648531 0 0.13603203421495541 0.17620373834506281 0 0.1470562251153395 0.17906708874781019 0 0.14012836734504441 0.16792169481648531 0 0.1470562251153395 0.17906708874781019 0 0.15102773004612141 0.17114078039402211 0 0.1470562251153395 0.17906708874781019 0 0.15102773004612141 0.17114078039402211 0 0.16052914209303101 0.17735221748262139 0 0.14496195103571691 0.1542602143597189 0 0.14012836734504441 0.16792169481648531 0 0.15102773004612141 0.17114078039402211 0 0.14496195103571691 0.1542602143597189 0 0.15102773004612141 0.17114078039402211 0 0.15703432015980001 0.16171948332326139 0 0.15102773004612141 0.17114078039402211 0 0.15703432015980001 0.16171948332326139 0 0.16052914209303101 0.17735221748262139 0 0.15703432015980001 0.16171948332326139 0 0.17094099031388549 0.1588932995068669 0 0.16052914209303101 0.17735221748262139 0 0.16052914209303101 0.17735221748262139 0 0.17321496971303901 0.18404201690737329 0 0.15593531817651651 0.19651364110895339 0 0.16052914209303101 0.17735221748262139 0 0.17321496971303901 0.18404201690737329 0 0.1885531716433835 0.16976572790731731 0 0.17321496971303901 0.18404201690737329 0 0.1859125568206797 0.18060543354925371 0 0.1763291694917426 0.19676548503780589 0 0.16052914209303101 0.17735221748262139 0 0.1885531716433835 0.16976572790731731 0 0.17321496971303901 0.18404201690737329 0 0.1859125568206797 0.18060543354925371 0 0.1885531716433835 0.16976572790731731 0 0.17094099031388549 0.1588932995068669 0 0.1885531716433835 0.16976572790731731 0 0.17094099031388549 0.1588932995068669 0 0.16052914209303101 0.17735221748262139 0 0.1885531716433835 0.16976572790731731 0 0.17094099031388549 0.1588932995068669 0 0.18519572333179959 0.15831698425018439 0 0.1885531716433835 0.16976572790731731 0 0.18519572333179959 0.15831698425018439 0 0.1843777300276882 0.14641416620376729 0 0.19097145069846799 0.15361741821736741 0 0.18519572333179959 0.15831698425018439 0 0.17552971693898661 0.15069266297704431 0 0.1843777300276882 0.14641416620376729 0 0.17094099031388549 0.1588932995068669 0 0.18519572333179959 0.15831698425018439 0 0.17552971693898661 0.15069266297704431 0 0.17552971693898661 0.15069266297704431 0 0.1723007799423848 0.14309376550397779 0 0.1843777300276882 0.14641416620376729 0 0.1723007799423848 0.14309376550397779 0 0.1843777300276882 0.14641416620376729 0 0.17305578062883931 0.1356414587100459 0 0.1843777300276882 0.14641416620376729 0 0.1682630287230793 0.12076731232177421 0 0.1843777300276882 0.14641416620376729 0 0.17305578062883931 0.1356414587100459 0 0.1682630287230793 0.12076731232177421 0 0.1843777300276882 0.14641416620376729 0 0.18259827505216891 0.13287814276120899 0 0.1682630287230793 0.12076731232177421 0 0.18259827505216891 0.13287814276120899 0 0.1682630287230793 0.12076731232177421 0 0.1723007799423848 0.14309376550397779 0 0.1686969596210493 0.13670611562830889 0 0.1656890076848597 0.1416352286451697 0 0.14844774066403929 0.14068990259312991 0 0.16339350925379581 0.13244122804202141 0 0.1654659697027335 0.1235795177593695 0 0.14844774066403929 0.14068990259312991 0 0.16169096308237399 0.1256621397921292 0 0.1654659697027335 0.1235795177593695 0 0.14844774066403929 0.14068990259312991 0 0.1654659697027335 0.1235795177593695 0 0.1723007799423848 0.14309376550397779 0 0.17305578062883931 0.1356414587100459 0 0.1686969596210493 0.13670611562830889 0 0.1686969596210493 0.13670611562830889 0 0.16923763542303891 0.1307764371333778 0 0.16714131138227731 0.13270909619394369 0 0.17305578062883931 0.1356414587100459 0 0.1686969596210493 0.13670611562830889 0 0.16923763542303891 0.1307764371333778 0 0.1686969596210493 0.13670611562830889 0 0.16714131138227731 0.13270909619394369 0 0.16318823561782539 0.1361658892598705 0 0.16714131138227731 0.13270909619394369 0 0.16339350925379581 0.13244122804202141 0 0.16318823561782539 0.1361658892598705 0 0.1686969596210493 0.13670611562830889 0 0.16318823561782539 0.1361658892598705 0 0.1656890076848597 0.1416352286451697 0 0.16339350925379581 0.13244122804202141 0 0.1682630287230793 0.12076731232177421 0 0.1654659697027335 0.1235795177593695 0 0.17305578062883931 0.1356414587100459 0 0.16923763542303891 0.1307764371333778 0 0.1682630287230793 0.12076731232177421 0 0.16923763542303891 0.1307764371333778 0 0.16339350925379581 0.13244122804202141 0 0.1682630287230793 0.12076731232177421 0 0.16923763542303891 0.1307764371333778 0 0.16714131138227731 0.13270909619394369 0 0.16339350925379581 0.13244122804202141 0 0.1539606084885391 0.12851381335764001 0 0.16169096308237399 0.1256621397921292 0 0.15831726968978449 0.1226774466090724 0 0.14844774066403929 0.14068990259312991 0 0.16318823561782539 0.1361658892598705 0 0.1592050758033843 0.14296664651929919 0 0.14844774066403929 0.14068990259312991 0 0.16339350925379581 0.13244122804202141 0 0.16318823561782539 0.1361658892598705 0 0.16318823561782539 0.1361658892598705 0 0.1592050758033843 0.14296664651929919 0 0.1656890076848597 0.1416352286451697 0 0.153328808984387 0.14802087110641721 0 0.1592050758033843 0.14296664651929919 0 0.1654551646516404 0.1480786080123081 0 0.153328808984387 0.14802087110641721 0 0.17094099031388549 0.1588932995068669 0 0.153328808984387 0.14802087110641721 0 0.15703432015980001 0.16171948332326139 0 0.17094099031388549 0.1588932995068669 0 0.153328808984387 0.14802087110641721 0 0.17094099031388549 0.1588932995068669 0 0.1654551646516404 0.1480786080123081 0 0.1592050758033843 0.14296664651929919 0 0.1656890076848597 0.1416352286451697 0 0.1654551646516404 0.1480786080123081 0 0.17094099031388549 0.1588932995068669 0 0.17552971693898661 0.15069266297704431 0 0.1654551646516404 0.1480786080123081 0 0.17552971693898661 0.15069266297704431 0 0.1723007799423848 0.14309376550397779 0 0.1654551646516404 0.1480786080123081 0 0.1723007799423848 0.14309376550397779 0 0.1656890076848597 0.1416352286451697 0 0.1654551646516404 0.1480786080123081 0 0.14921605911603561 0.24735513048092289 0 0.1362473755571138 0.23090791519734191 0 0.13710380121006871 0.25306898025136071 0 0.14921605911603561 0.24735513048092289 0 0.1543964987802772 0.22828698424891411 0 0.16032144212323371 0.23902245971375929 0 0.14921605911603561 0.24735513048092289 0 0.1362473755571138 0.23090791519734191 0 0.14921605911603561 0.24735513048092289 0 0.1362473755571138 0.23090791519734191 0 0.1543964987802772 0.22828698424891411 0 0.1265113843998063 0.24481906103984011 0 0.1362473755571138 0.23090791519734191 0 0.13710380121006871 0.25306898025136071 0 0.1232786919981925 0.21446069991376029 0 0.1362473755571138 0.23090791519734191 0 0.1232786919981925 0.21446069991376029 0 0.1362473755571138 0.23090791519734191 0 0.14480827197076471 0.2133525265797761 0 0.1362473755571138 0.23090791519734191 0 0.1543964987802772 0.22828698424891411 0 0.14480827197076471 0.2133525265797761 0 0.1543964987802772 0.22828698424891411 0 0.14480827197076471 0.2133525265797761 0 0.1634502804511985 0.21368412182958571 0 0.14480827197076471 0.2133525265797761 0 0.15593531817651651 0.19651364110895339 0 0.1634502804511985 0.21368412182958571 0 0.1232786919981925 0.21446069991376029 0 0.1355414668612904 0.1962617971801012 0 0.1232786919981925 0.21446069991376029 0 0.14480827197076471 0.2133525265797761 0 0.1355414668612904 0.1962617971801012 0 0.1232786919981925 0.21446069991376029 0 0.1355414668612904 0.1962617971801012 0 0.12765144586200919 0.1961643632105933 0 0.1355414668612904 0.1962617971801012 0 0.12765144586200919 0.1961643632105933 0 0.1355414668612904 0.1962617971801012 0 0.12765144586200919 0.1961643632105933 0 0.13127465110536179 0.19037537811081401 0 0.1184256887641624 0.18731790689384781 0 0.12765144586200919 0.1961643632105933 0 0.13127465110536179 0.19037537811081401 0 0.13834913459217391 0.185691071546431 0 0.13127465110536179 0.19037537811081401 0 0.13701784869560019 0.19407073278396811 0 0.1355414668612904 0.1962617971801012 0 0.13127465110536179 0.19037537811081401 0 0.13701784869560019 0.19407073278396811 0 0.1355414668612904 0.1962617971801012 0 0.13701784869560019 0.19407073278396811 0 0.13834913459217391 0.185691071546431 0 0.13701784869560019 0.19407073278396811 0 0.15593531817651651 0.19651364110895339 0 0.14480827197076471 0.2133525265797761 0 0.1355414668612904 0.1962617971801012 0 0.15593531817651651 0.19651364110895339 0 0.1355414668612904 0.1962617971801012 0 0.13701784869560019 0.19407073278396811 0 0.15593531817651651 0.19651364110895339 0 0.1355414668612904 0.1962617971801012 0 0.15593531817651651 0.19651364110895339 0 0.17321496971303901 0.18404201690737329 0 0.15593531817651651 0.19651364110895339 0 0.1763291694917426 0.19676548503780589 0 0.15593531817651651 0.19651364110895339 0 0.1763291694917426 0.19676548503780589 0 0.1634502804511985 0.21368412182958571 0 0.15593531817651651 0.19651364110895339 0 0.1763291694917426 0.19676548503780589 0 0.1763291694917426 0.19676548503780589 0 0.18482111569933921 0.21098956880982611 0 0.19672302080696871 0.19701732896665841 0 0.1763291694917426 0.19676548503780589 0 0.19672302080696871 0.19701732896665841 0 0.1859125568206797 0.18060543354925371 0 0.1763291694917426 0.19676548503780589 0 0.19152638988642701 0.1902468516687861 0 0.1763291694917426 0.19676548503780589 0 0.18482111569933921 0.21098956880982611 0 0.17607049303942271 0.2157004785803881 0 0.1763291694917426 0.19676548503780589 0 0.17607049303942271 0.2157004785803881 0 0.1634502804511985 0.21368412182958571 0 0.18482111569933921 0.21098956880982611 0 0.17607049303942271 0.2157004785803881 0 0.18406170550628209 0.22506132203916629 0 0.18482111569933921 0.21098956880982611 0 0.18406170550628209 0.22506132203916629 0 0.19068774872800001 0.21475480020647009 0 0.1543964987802772 0.22828698424891411 0 0.1634502804511985 0.21368412182958571 0 0.17169019404855099 0.23200189518555661 0 0.1543964987802772 0.22828698424891411 0 0.17169019404855099 0.23200189518555661 0 0.16032144212323371 0.23902245971375929 0 0.17607049303942271 0.2157004785803881 0 0.1634502804511985 0.21368412182958571 0 0.17169019404855099 0.23200189518555661 0 0.17607049303942271 0.2157004785803881 0 0.17169019404855099 0.23200189518555661 0 0.18406170550628209 0.22506132203916629 0 0.17169019404855099 0.23200189518555661 0 0.18406170550628209 0.22506132203916629 0 0.1847630310773084 0.23825071805973949 0 0.18406170550628209 0.22506132203916629 0 0.1847630310773084 0.23825071805973949 0 0.19279287320365179 0.23483990368842589 0 0.17169019404855099 0.23200189518555661 0 0.1847630310773084 0.23825071805973949 0 0.17793358433637771 0.24774911183132969 0 0.1847630310773084 0.23825071805973949 0 0.17793358433637771 0.24774911183132969 0 0.19675200613609869 0.25387006042305549 0 0.14921605911603561 0.24735513048092289 0 0.16032144212323371 0.23902245971375929 0 0.16598301654807079 0.24844582893964351 0 0.17169019404855099 0.23200189518555661 0 0.17793358433637771 0.24774911183132969 0 0.16598301654807079 0.24844582893964351 0 0.17169019404855099 0.23200189518555661 0 0.16032144212323371 0.23902245971375929 0 0.16598301654807079 0.24844582893964351 0 0.2154941529563075 0.2467231945984566 0 0.21201697739720379 0.23620202763772449 0 0.19675200613609869 0.25387006042305549 0 0.21201697739720379 0.23620202763772449 0 0.20124247039915971 0.23106643690993861 0 0.19675200613609869 0.25387006042305549 0 0.20124247039915971 0.23106643690993861 0 0.19675200613609869 0.25387006042305549 0 0.1847630310773084 0.23825071805973949 0 0.19279287320365179 0.23483990368842589 0 0.19675200613609869 0.25387006042305549 0 0.19279287320365179 0.23483990368842589 0 0.20124247039915971 0.23106643690993861 0 0.19675200613609869 0.25387006042305549 0 0.19279287320365179 0.23483990368842589 0 0.20124247039915971 0.23106643690993861 0 0.1971451528994102 0.22595098101022951 0 0.18406170550628209 0.22506132203916629 0 0.19279287320365179 0.23483990368842589 0 0.1971451528994102 0.22595098101022951 0 0.18406170550628209 0.22506132203916629 0 0.1971451528994102 0.22595098101022951 0 0.19068774872800001 0.21475480020647009 0 0.21201697739720379 0.23620202763772449 0 0.20124247039915971 0.23106643690993861 0 0.21713132459565171 0.22538753349480001 0 0.20124247039915971 0.23106643690993861 0 0.1971451528994102 0.22595098101022951 0 0.21713132459565171 0.22538753349480001 0 0.1971451528994102 0.22595098101022951 0 0.21713132459565171 0.22538753349480001 0 0.19946060819873609 0.21107206757127431 0 0.21713132459565171 0.22538753349480001 0 0.208815004938286 0.20639486478049979 0 0.21879821460266771 0.20327773643795011 0 0.21713132459565171 0.22538753349480001 0 0.19946060819873609 0.21107206757127431 0 0.21713132459565171 0.22538753349480001 0 0.208815004938286 0.20639486478049979 0 0.19946060819873609 0.21107206757127431 0 0.208815004938286 0.20639486478049979 0 0.19946060819873609 0.21107206757127431 0 0.20400651231687239 0.19710727289579991 0 0.1971451528994102 0.22595098101022951 0 0.19672302080696871 0.19701732896665841 0 0.1971451528994102 0.22595098101022951 0 0.19946060819873609 0.21107206757127431 0 0.19672302080696871 0.19701732896665841 0 0.1971451528994102 0.22595098101022951 0 0.19068774872800001 0.21475480020647009 0 0.19672302080696871 0.19701732896665841 0 0.18482111569933921 0.21098956880982611 0 0.19068774872800001 0.21475480020647009 0 0.19672302080696871 0.19701732896665841 0 0.19946060819873609 0.21107206757127431 0 0.19672302080696871 0.19701732896665841 0 0.20400651231687239 0.19710727289579991 0 0.1763291694917426 0.19676548503780589 0 0.19672302080696871 0.19701732896665841 0 0.19152638988642701 0.1902468516687861 0 0.19672302080696871 0.19701732896665841 0 0.20400651231687239 0.19710727289579991 0 0.19672302080696871 0.19701732896665841 0 0.20400651231687239 0.19710727289579991 0 0.2006047522002776 0.18317190715000359 0 0.2160579439519269 0.18824214617332191 0 0.21879821460266771 0.20327773643795011 0 0.2006047522002776 0.18317190715000359 0 0.21879821460266771 0.20327773643795011 0 0.2006047522002776 0.18317190715000359 0 0.20400651231687239 0.19710727289579991 0 0.21879821460266771 0.20327773643795011 0 0.2006047522002776 0.18317190715000359 0 0.208815004938286 0.20639486478049979 0 0.20400651231687239 0.19710727289579991 0 0.21879821460266771 0.20327773643795011 0 0.22985714386758441 0.19138063243626199 0 0.23778494038061621 0.2043813437981955 0 0.21879821460266771 0.20327773643795011 0 0.2160579439519269 0.18824214617332191 0 0.22985714386758441 0.19138063243626199 0 0.21879821460266771 0.20327773643795011 0 0.22985714386758441 0.19138063243626199 0 0.23778494038061621 0.2043813437981955 0 0.25059494158165901 0.19032369199564031 0 0.23778494038061621 0.2043813437981955 0 0.25254676704563311 0.20930692990743879 0 0.25059494158165901 0.19032369199564031 0 0.23778494038061621 0.2043813437981955 0 0.23699167700505769 0.22338356572589649 0 0.25254676704563311 0.20930692990743879 0 0.21713132459565171 0.22538753349480001 0 0.21879821460266771 0.20327773643795011 0 0.23699167700505769 0.22338356572589649 0 0.21879821460266771 0.20327773643795011 0 0.23699167700505769 0.22338356572589649 0 0.23778494038061621 0.2043813437981955 0 0.21879821460266771 0.20327773643795011 0 0.23699167700505769 0.22338356572589649 0 0.21713132459565171 0.22538753349480001 0 0.23699167700505769 0.22338356572589649 0 0.2348020409925673 0.2397029994183256 0 0.21713132459565171 0.22538753349480001 0 0.2348020409925673 0.2397029994183256 0 0.21201697739720379 0.23620202763772449 0 0.21713132459565171 0.22538753349480001 0 0.2348020409925673 0.2397029994183256 0 0.23699167700505769 0.22338356572589649 0 0.2551851394074478 0.2434893950138429 0 0.23699167700505769 0.22338356572589649 0 0.25538970474944028 0.22639472194977939 0 0.25254676704563311 0.20930692990743879 0 0.23699167700505769 0.22338356572589649 0 0.2551851394074478 0.2434893950138429 0 0.25538970474944028 0.22639472194977939 0 0.2348020409925673 0.2397029994183256 0 0.25247275738948288 0.25401846534185119 0 0.23699167700505769 0.22338356572589649 0 0.2348020409925673 0.2397029994183256 0 0.2551851394074478 0.2434893950138429 0 0.2348020409925673 0.2397029994183256 0 0.23738978373314901 0.25532225906031991 0 0.25247275738948288 0.25401846534185119 0 0.2348020409925673 0.2397029994183256 0 0.25247275738948288 0.25401846534185119 0 0.2551851394074478 0.2434893950138429 0 0.2154941529563075 0.2467231945984566 0 0.2348020409925673 0.2397029994183256 0 0.22589877104413841 0.25456972674656159 0 0.2154941529563075 0.2467231945984566 0 0.21201697739720379 0.23620202763772449 0 0.2348020409925673 0.2397029994183256 0 0.2348020409925673 0.2397029994183256 0 0.22589877104413841 0.25456972674656159 0 0.23738978373314901 0.25532225906031991 0 0.21532915256762819 0.13902016540993559 0 0.19899404249107791 0.14672976099075491 0 0.21711031990578089 0.16203491577682841 0 0.19899404249107791 0.14672976099075491 0 0.21711031990578089 0.16203491577682841 0 0.21532915256762819 0.13902016540993559 0 0.20168882168756139 0.1310261715418089 0 0.19899404249107791 0.14672976099075491 0 0.21532915256762819 0.13902016540993559 0 0.21431840299969121 0.12511043198613631 0 0.20168882168756139 0.1310261715418089 0 0.19595184496941109 0.14415962459390491 0 0.19553778957291831 0.1157795630361771 0 0.18259827505216891 0.13287814276120899 0 0.19595184496941109 0.14415962459390491 0 0.19553778957291831 0.1157795630361771 0 0.20168882168756139 0.1310261715418089 0 0.19595184496941109 0.14415962459390491 0 0.19553778957291831 0.1157795630361771 0 0.20168882168756139 0.1310261715418089 0 0.19899404249107791 0.14672976099075491 0 0.18259827505216891 0.13287814276120899 0 0.19595184496941109 0.14415962459390491 0 0.19899404249107791 0.14672976099075491 0 0.19622478456113779 0.1628673687274789 0 0.20168882168756139 0.1310261715418089 0 0.19595184496941109 0.14415962459390491 0 0.19899404249107791 0.14672976099075491 0 0.19595184496941109 0.14415962459390491 0 0.19899404249107791 0.14672976099075491 0 0.19622478456113779 0.1628673687274789 0 0.19595184496941109 0.14415962459390491 0 0.19097145069846799 0.15361741821736741 0 0.19622478456113779 0.1628673687274789 0 0.19595184496941109 0.14415962459390491 0 0.19622478456113779 0.1628673687274789 0 0.1843777300276882 0.14641416620376729 0 0.18259827505216891 0.13287814276120899 0 0.19595184496941109 0.14415962459390491 0 0.1843777300276882 0.14641416620376729 0 0.19595184496941109 0.14415962459390491 0 0.19097145069846799 0.15361741821736741 0 0.19595184496941109 0.14415962459390491 0 0.19899404249107791 0.14672976099075491 0 0.18519572333179959 0.15831698425018439 0 0.19097145069846799 0.15361741821736741 0 0.19096082316110141 0.16379417902111501 0 0.19097145069846799 0.15361741821736741 0 0.19096082316110141 0.16379417902111501 0 0.19622478456113779 0.1628673687274789 0 0.18519572333179959 0.15831698425018439 0 0.19096082316110141 0.16379417902111501 0 0.1885531716433835 0.16976572790731731 0 0.1885531716433835 0.16976572790731731 0 0.19629485255956111 0.16766994858834469 0 0.1885531716433835 0.16976572790731731 0 0.19629485255956111 0.16766994858834469 0 0.19441955445422579 0.17338718886591339 0 0.1885531716433835 0.16976572790731731 0 0.19441955445422579 0.17338718886591339 0 0.19096082316110141 0.16379417902111501 0 0.19629485255956111 0.16766994858834469 0 0.19622478456113779 0.1628673687274789 0 0.19096082316110141 0.16379417902111501 0 0.1885531716433835 0.16976572790731731 0 0.19629485255956111 0.16766994858834469 0 0.19629485255956111 0.16766994858834469 0 0.19622478456113779 0.1628673687274789 0 0.19629485255956111 0.16766994858834469 0 0.19441955445422579 0.17338718886591339 0 0.19629485255956111 0.16766994858834469 0 0.19639606669961279 0.17460733800409101 0 0.19672302080696871 0.19701732896665841 0 0.19152638988642701 0.1902468516687861 0 0.19639606669961279 0.17460733800409101 0 0.19152638988642701 0.1902468516687861 0 0.19441955445422579 0.17338718886591339 0 0.19672302080696871 0.19701732896665841 0 0.19639606669961279 0.17460733800409101 0 0.2006047522002776 0.18317190715000359 0 0.19672302080696871 0.19701732896665841 0 0.19639606669961279 0.17460733800409101 0 0.19152638988642701 0.1902468516687861 0 0.19441955445422579 0.17338718886591339 0 0.19639606669961279 0.17460733800409101 0 0.19152638988642701 0.1902468516687861 0 0.18928235039088259 0.17636595891238899 0 0.19441955445422579 0.17338718886591339 0 0.1859125568206797 0.18060543354925371 0 0.19152638988642701 0.1902468516687861 0 0.18928235039088259 0.17636595891238899 0 0.1859125568206797 0.18060543354925371 0 0.1885531716433835 0.16976572790731731 0 0.18928235039088259 0.17636595891238899 0 0.1885531716433835 0.16976572790731731 0 0.18928235039088259 0.17636595891238899 0 0.19441955445422579 0.17338718886591339 0 0.19639606669961279 0.17460733800409101 0 0.2007045122857867 0.1772670463773191 0 0.2006047522002776 0.18317190715000359 0 0.19629485255956111 0.16766994858834469 0 0.19639606669961279 0.17460733800409101 0 0.2007045122857867 0.1772670463773191 0 0.19629485255956111 0.16766994858834469 0 0.19441955445422579 0.17338718886591339 0 0.19639606669961279 0.17460733800409101 0 0.19441955445422579 0.17338718886591339 0 0.19639606669961279 0.17460733800409101 0 0.19639606669961279 0.17460733800409101 0 0.2007045122857867 0.1772670463773191 0 0.19629485255956111 0.16766994858834469 0 0.2007045122857867 0.1772670463773191 0 0.2131864215785759 0.17353917446638159 0 0.2007045122857867 0.1772670463773191 0 0.2006047522002776 0.18317190715000359 0 0.21053211479958861 0.18117858407591539 0 0.2160579439519269 0.18824214617332191 0 0.2006047522002776 0.18317190715000359 0 0.21053211479958861 0.18117858407591539 0 0.2007045122857867 0.1772670463773191 0 0.21053211479958861 0.18117858407591539 0 0.2131864215785759 0.17353917446638159 0 0.21053211479958861 0.18117858407591539 0 0.2131864215785759 0.17353917446638159 0 0.22049749428951629 0.18220187076647851 0 0.2160579439519269 0.18824214617332191 0 0.21053211479958861 0.18117858407591539 0 0.22049749428951629 0.18220187076647851 0 0.19629485255956111 0.16766994858834469 0 0.2131864215785759 0.17353917446638159 0 0.21711031990578089 0.16203491577682841 0 0.19629485255956111 0.16766994858834469 0 0.21711031990578089 0.16203491577682841 0 0.19899404249107791 0.14672976099075491 0 0.19622478456113779 0.1628673687274789 0 0.21711031990578089 0.16203491577682841 0 0.19629485255956111 0.16766994858834469 0 0.19622478456113779 0.1628673687274789 0 0.21711031990578089 0.16203491577682841 0 0.21711031990578089 0.16203491577682841 0 0.23385263074372009 0.17617930388623421 0 0.2131864215785759 0.17353917446638159 0 0.21711031990578089 0.16203491577682841 0 0.23385263074372009 0.17617930388623421 0 0.21711031990578089 0.16203491577682841 0 0.23385263074372009 0.17617930388623421 0 0.2366147484439379 0.15675479917150301 0 0.21711031990578089 0.16203491577682841 0 0.2366147484439379 0.15675479917150301 0 0.2131864215785759 0.17353917446638159 0 0.22049749428951629 0.18220187076647851 0 0.23385263074372009 0.17617930388623421 0 0.2160579439519269 0.18824214617332191 0 0.22985714386758441 0.19138063243626199 0 0.22049749428951629 0.18220187076647851 0 0.22985714386758441 0.19138063243626199 0 0.22049749428951629 0.18220187076647851 0 0.23385263074372009 0.17617930388623421 0 0.22985714386758441 0.19138063243626199 0 0.23385263074372009 0.17617930388623421 0 0.25059494158165901 0.19032369199564031 0 0.23385263074372009 0.17617930388623421 0 0.25059494158165901 0.19032369199564031 0 0.23385263074372009 0.17617930388623421 0 0.24908873164767151 0.1770288671046478 0 0.25059494158165901 0.19032369199564031 0 0.23385263074372009 0.17617930388623421 0 0.24908873164767151 0.1770288671046478 0 0.2434466942022622 0.16760513981834169 0 0.23385263074372009 0.17617930388623421 0 0.2366147484439379 0.15675479917150301 0 0.2434466942022622 0.16760513981834169 0 0.24908873164767151 0.1770288671046478 0 0.2434466942022622 0.16760513981834169 0 0.25108078632114311 0.16784635495939959 0 0.2434466942022622 0.16760513981834169 0 0.2480117625504723 0.15988161517611299 0 0.25108078632114311 0.16784635495939959 0 0.2366147484439379 0.15675479917150301 0 0.2434466942022622 0.16760513981834169 0 0.2480117625504723 0.15988161517611299 0 0.2366147484439379 0.15675479917150301 0 0.2480117625504723 0.15988161517611299 0 0.24723516224861489 0.14891452097535199 0 0.2480117625504723 0.15988161517611299 0 0.24723516224861489 0.14891452097535199 0 0.25438166837756182 0.15569588162337331 0 0.24723516224861489 0.14891452097535199 0 0.23741156149712281 0.14557233949426759 0 0.25092432003414827 0.13271121164369881 0 0.2366147484439379 0.15675479917150301 0 0.24723516224861489 0.14891452097535199 0 0.23741156149712281 0.14557233949426759 0 0.21532915256762819 0.13902016540993559 0 0.21711031990578089 0.16203491577682841 0 0.22695240112191109 0.14785753051487069 0 0.21532915256762819 0.13902016540993559 0 0.22695240112191109 0.14785753051487069 0 0.2331267363008884 0.13586568852681841 0 0.21711031990578089 0.16203491577682841 0 0.2366147484439379 0.15675479917150301 0 0.22695240112191109 0.14785753051487069 0 0.2366147484439379 0.15675479917150301 0 0.23741156149712281 0.14557233949426759 0 0.22695240112191109 0.14785753051487069 0 0.23741156149712281 0.14557233949426759 0 0.22695240112191109 0.14785753051487069 0 0.2331267363008884 0.13586568852681841 0 0.21532915256762819 0.13902016540993559 0 0.2331267363008884 0.13586568852681841 0 0.21431840299969121 0.12511043198613631 0 0.2331267363008884 0.13586568852681841 0 0.22617681327162201 0.11419672914343711 0 0.21532915256762819 0.13902016540993559 0 0.21431840299969121 0.12511043198613631 0 0.2331267363008884 0.13586568852681841 0 0.2331267363008884 0.13586568852681841 0 0.25092432003414827 0.13271121164369881 0 0.23741156149712281 0.14557233949426759 0 0.2331267363008884 0.13586568852681841 0 0.25092432003414827 0.13271121164369881 0 0.2331267363008884 0.13586568852681841 0 0.24025061707603931 0.1242743875512349 0 0.25092432003414827 0.13271121164369881 0 0.2479700256591971 0.1130708761940131 0 0.22617681327162201 0.11419672914343711 0 0.2479700256591971 0.1130708761940131 0 0.23608090964314951 0.1067670359926208 0 0.22617681327162201 0.11419672914343711 0 0.24025061707603931 0.1242743875512349 0 0.2479700256591971 0.1130708761940131 0 0.25092432003414827 0.13271121164369881 0 0.24025061707603931 0.1242743875512349 0 0.2479700256591971 0.1130708761940131 0 0.22617681327162201 0.11419672914343711 0 0.2479700256591971 0.1130708761940131 0 0.25092432003414827 0.13271121164369881 0 0.2479700256591971 0.1130708761940131 0 0.24508603879494281 0.093897949512535828 0 0.24428406228899291 0.10268919226356391 0 0.2479700256591971 0.1130708761940131 0 0.24508603879494281 0.093897949512535828 0 0.25226680708541338 0.1039611020870571 0 0.2479700256591971 0.1130708761940131 0 0.24508603879494281 0.093897949512535828 0 0.24508603879494281 0.093897949512535828 0 0.24428406228899291 0.10268919226356391 0 0.2402269910602404 0.087977302688239598 0 0.24428406228899291 0.10268919226356391 0 0.2402269910602404 0.087977302688239598 0 0.2479700256591971 0.1130708761940131 0 0.24428406228899291 0.10268919226356391 0 0.23608090964314951 0.1067670359926208 0 0.24428406228899291 0.10268919226356391 0 0.23608090964314951 0.1067670359926208 0 0.23200732431085841 0.098738769200690829 0 0.24428406228899291 0.10268919226356391 0 0.2370962774146316 0.094901034611979379 0 0.23200732431085841 0.098738769200690829 0 0.24428406228899291 0.10268919226356391 0 0.2370962774146316 0.094901034611979379 0 0.2402269910602404 0.087977302688239598 0 0.2370962774146316 0.094901034611979379 0 0.23200732431085841 0.098738769200690829 0 0.2318667319984348 0.09019887429542317 0 0.23200732431085841 0.098738769200690829 0 0.21978851026224011 0.094612666801969364 0 0.2318667319984348 0.09019887429542317 0 0.23200732431085841 0.098738769200690829 0 0.22996632268507741 0.1051396131613991 0 0.21978851026224011 0.094612666801969364 0 0.23608090964314951 0.1067670359926208 0 0.23200732431085841 0.098738769200690829 0 0.22996632268507741 0.1051396131613991 0 0.23608090964314951 0.1067670359926208 0 0.22996632268507741 0.1051396131613991 0 0.22617681327162201 0.11419672914343711 0 0.21978851026224011 0.094612666801969364 0 0.22479832933621799 0.1094324369164492 0 0.2146377234768897 0.1081380908155699 0 0.22996632268507741 0.1051396131613991 0 0.21978851026224011 0.094612666801969364 0 0.22479832933621799 0.1094324369164492 0 0.21978851026224011 0.094612666801969364 0 0.22479832933621799 0.1094324369164492 0 0.2331267363008884 0.13586568852681841 0 0.24025061707603931 0.1242743875512349 0 0.22617681327162201 0.11419672914343711 0 0.22996632268507741 0.1051396131613991 0 0.22617681327162201 0.11419672914343711 0 0.22479832933621799 0.1094324369164492 0 0.22617681327162201 0.11419672914343711 0 0.22479832933621799 0.1094324369164492 0 0.2146377234768897 0.1081380908155699 0 0.21431840299969121 0.12511043198613631 0 0.22617681327162201 0.11419672914343711 0 0.204383600884047 0.1153225820928631 0 0.21431840299969121 0.12511043198613631 0 0.20168882168756139 0.1310261715418089 0 0.204383600884047 0.1153225820928631 0 0.22617681327162201 0.11419672914343711 0 0.204383600884047 0.1153225820928631 0 0.22617681327162201 0.11419672914343711 0 0.204383600884047 0.1153225820928631 0 0.2146377234768897 0.1081380908155699 0 0.21978851026224011 0.094612666801969364 0 0.2146377234768897 0.1081380908155699 0 0.20703021023816939 0.099899698176039511 0 0.204383600884047 0.1153225820928631 0 0.2146377234768897 0.1081380908155699 0 0.20703021023816939 0.099899698176039511 0 0.204383600884047 0.1153225820928631 0 0.20703021023816939 0.099899698176039511 0 0.204383600884047 0.1153225820928631 0 0.20703021023816939 0.099899698176039511 0 0.19544036093106401 0.10910163810938769 0 0.20703021023816939 0.099899698176039511 0 0.1920338740150849 0.1006744196382556 0 0.20967681959229101 0.084476814259215743 0 0.20703021023816939 0.099899698176039511 0 0.19544036093106401 0.10910163810938769 0 0.1920338740150849 0.1006744196382556 0 0.20168882168756139 0.1310261715418089 0 0.204383600884047 0.1153225820928631 0 0.19544036093106401 0.10910163810938769 0 0.19553778957291831 0.1157795630361771 0 0.17439092843787959 0.11687202501729629 0 0.20168882168756139 0.1310261715418089 0 0.204383600884047 0.1153225820928631 0 0.19553778957291831 0.1157795630361771 0 0.204383600884047 0.1153225820928631 0 0.19553778957291831 0.1157795630361771 0 0.204383600884047 0.1153225820928631 0 0.19544036093106401 0.10910163810938769 0 0.19553778957291831 0.1157795630361771 0 0.19544036093106401 0.10910163810938769 0 0.19553778957291831 0.1157795630361771 0 0.20128521019502341 0.07379450533905671 0 0.1936621890328773 0.066397547560447079 0 0.1924488894800904 0.076623514339729831 0 0.20128521019502341 0.07379450533905671 0 0.2005594978377965 0.063648499810781536 0 0.1936621890328773 0.066397547560447079 0 0.2005594978377965 0.063648499810781536 0 0.1936621890328773 0.066397547560447079 0 0.19324326832570099 0.059632024961241099 0 0.1936621890328773 0.066397547560447079 0 0.19324326832570099 0.059632024961241099 0 0.18850806674705861 0.061753896183571369 0 0.1936621890328773 0.066397547560447079 0 0.18850806674705861 0.061753896183571369 0 0.18619802793009621 0.065635902333457161 0 0.1936621890328773 0.066397547560447079 0 0.18693067397280491 0.071538532439119618 0 0.18619802793009621 0.065635902333457161 0 0.1936621890328773 0.066397547560447079 0 0.1924488894800904 0.076623514339729831 0 0.18693067397280491 0.071538532439119618 0 0.1924488894800904 0.076623514339729831 0 0.18897382172743879 0.08598516360148141 0 0.19758754291227151 0.084060206596948364 0 0.1924488894800904 0.076623514339729831 0 0.18897382172743879 0.08598516360148141 0 0.1822567200742731 0.078338044409950694 0 0.1920338740150849 0.1006744196382556 0 0.19758754291227151 0.084060206596948364 0 0.20967681959229101 0.084476814259215743 0 0.1920338740150849 0.1006744196382556 0 0.20967681959229101 0.084476814259215743 0 0.1920338740150849 0.1006744196382556 0 0.18897382172743879 0.08598516360148141 0 0.19758754291227151 0.084060206596948364 0 0.20128521019502341 0.07379450533905671 0 0.1924488894800904 0.076623514339729831 0 0.19758754291227151 0.084060206596948364 0 0.20128521019502341 0.07379450533905671 0 0.19758754291227151 0.084060206596948364 0 0.20967681959229101 0.084476814259215743 0 0.20703021023816939 0.099899698176039511 0 0.20967681959229101 0.084476814259215743 0 0.21978851026224011 0.094612666801969364 0 0.20703021023816939 0.099899698176039511 0 0.20967681959229101 0.084476814259215743 0 0.21978851026224011 0.094612666801969364 0 0.21477869118826221 0.079792896687489526 0 0.21978851026224011 0.094612666801969364 0 0.20967681959229101 0.084476814259215743 0 0.21477869118826221 0.079792896687489526 0 0.20967681959229101 0.084476814259215743 0 0.21477869118826221 0.079792896687489526 0 0.21192778583088759 0.071359505902199999 0 0.20967681959229101 0.084476814259215743 0 0.21477869118826221 0.079792896687489526 0 0.21477869118826221 0.079792896687489526 0 0.21192778583088759 0.071359505902199999 0 0.21477869118826221 0.079792896687489526 0 0.21192778583088759 0.071359505902199999 0 0.2220602503957135 0.069935130224083417 0 0.20967681959229101 0.084476814259215743 0 0.21192778583088759 0.071359505902199999 0 0.20128521019502341 0.07379450533905671 0 0.20967681959229101 0.084476814259215743 0 0.21192778583088759 0.071359505902199999 0 0.2005594978377965 0.063648499810781536 0 0.21192778583088759 0.071359505902199999 0 0.20685228818292911 0.05634544905731214 0 0.20128521019502341 0.07379450533905671 0 0.2005594978377965 0.063648499810781536 0 0.21192778583088759 0.071359505902199999 0 0.21192778583088759 0.071359505902199999 0 0.20685228818292911 0.05634544905731214 0 0.21192778583088759 0.071359505902199999 0 0.2220602503957135 0.069935130224083417 0 0.22193250966700001 0.058055788201142357 0 0.22537901916776959 0.064827045533677713 0 0.2220602503957135 0.069935130224083417 0 0.22193250966700001 0.058055788201142357 0 0.22537901916776959 0.064827045533677713 0 0.2220602503957135 0.069935130224083417 0 0.2248093246253289 0.070583989852490814 0 0.2220602503957135 0.069935130224083417 0 0.2248093246253289 0.070583989852490814 0 0.21477869118826221 0.079792896687489526 0 0.22232536899360941 0.077945682062133093 0 0.2248093246253289 0.070583989852490814 0 0.21477869118826221 0.079792896687489526 0 0.2220602503957135 0.069935130224083417 0 0.2248093246253289 0.070583989852490814 0 0.21477869118826221 0.079792896687489526 0 0.2248093246253289 0.070583989852490814 0 0.22232536899360941 0.077945682062133093 0 0.2248093246253289 0.070583989852490814 0 0.22889539399467321 0.077371890329518786 0 0.2248093246253289 0.070583989852490814 0 0.22889539399467321 0.077371890329518786 0 0.23616991983148811 0.073265413112915193 0 0.22889539399467321 0.077371890329518786 0 0.2325709680091054 0.08245471698499561 0 0.23616991983148811 0.073265413112915193 0 0.2248093246253289 0.070583989852490814 0 0.23616991983148811 0.073265413112915193 0 0.22537901916776959 0.064827045533677713 0 0.2248093246253289 0.070583989852490814 0 0.23328470017271949 0.062802931527789041 0 0.2248093246253289 0.070583989852490814 0 0.23328470017271949 0.062802931527789041 0 0.2248093246253289 0.070583989852490814 0 0.23328470017271949 0.062802931527789041 0 0.23616991983148811 0.073265413112915193 0 0.21978851026224011 0.094612666801969364 0 0.22569580316069029 0.083460104498881665 0 0.2318667319984348 0.09019887429542317 0 0.21978851026224011 0.094612666801969364 0 0.21477869118826221 0.079792896687489526 0 0.22569580316069029 0.083460104498881665 0 0.21477869118826221 0.079792896687489526 0 0.22232536899360941 0.077945682062133093 0 0.22569580316069029 0.083460104498881665 0 0.22232536899360941 0.077945682062133093 0 0.22889539399467321 0.077371890329518786 0 0.22569580316069029 0.083460104498881665 0 0.22889539399467321 0.077371890329518786 0 0.22569580316069029 0.083460104498881665 0 0.2325709680091054 0.08245471698499561 0 0.22569580316069029 0.083460104498881665 0 0.2325709680091054 0.08245471698499561 0 0.2318667319984348 0.09019887429542317 0 0.24508603879494281 0.093897949512535828 0 0.2402269910602404 0.087977302688239598 0 0.2422020519306885 0.074725022831058613 0 0.24508603879494281 0.093897949512535828 0 0.2422020519306885 0.074725022831058613 0 0.25276512444811011 0.086159760048941617 0 0.24508603879494281 0.093897949512535828 0 0.2422020519306885 0.074725022831058613 0 0.2370962774146316 0.094901034611979379 0 0.2318667319984348 0.09019887429542317 0 0.2402269910602404 0.087977302688239598 0 0.2325709680091054 0.08245471698499561 0 0.2318667319984348 0.09019887429542317 0 0.2402269910602404 0.087977302688239598 0 0.2402269910602404 0.087977302688239598 0 0.23616991983148811 0.073265413112915193 0 0.2402269910602404 0.087977302688239598 0 0.23616991983148811 0.073265413112915193 0 0.2422020519306885 0.074725022831058613 0 0.2325709680091054 0.08245471698499561 0 0.2402269910602404 0.087977302688239598 0 0.23616991983148811 0.073265413112915193 0 0.23328470017271949 0.062802931527789041 0 0.23616991983148811 0.073265413112915193 0 0.23884430461559769 0.066898836148216345 0 0.24505343214577241 0.065757195551324824 0 0.23828530331132999 0.058211986328647193 0 0.23328470017271949 0.062802931527789041 0 0.23884430461559769 0.066898836148216345 0 0.23828530331132999 0.058211986328647193 0 0.23884430461559769 0.066898836148216345 0 0.2422020519306885 0.074725022831058613 0 0.24505343214577241 0.065757195551324824 0 0.23328470017271949 0.062802931527789041 0 0.23884430461559769 0.066898836148216345 0 0.23616991983148811 0.073265413112915193 0 0.23884430461559769 0.066898836148216345 0 0.23616991983148811 0.073265413112915193 0 0.2422020519306885 0.074725022831058613 0 0.23616991983148811 0.073265413112915193 0 0.2422020519306885 0.074725022831058613 0 0.2422020519306885 0.074725022831058613 0 0.24505343214577241 0.065757195551324824 0 0.25324795101967462 0.071649882576700283 0 0.24505343214577241 0.065757195551324824 0 0.25153334416912049 0.065266287609551596 0 0.25324795101967462 0.071649882576700283 0 0.24505343214577241 0.065757195551324824 0 0.24750813816218201 0.057765830816462041 0 0.25153334416912049 0.065266287609551596 0 0.24505343214577241 0.065757195551324824 0 0.24750813816218201 0.057765830816462041 0 0.23828530331132999 0.058211986328647193 0 0.24750813816218201 0.057765830816462041 0 0.23828530331132999 0.058211986328647193 0 0.24161013331070469 0.052520643980459088 0 0.23328470017271949 0.062802931527789041 0 0.23828530331132999 0.058211986328647193 0 0.2366518662350732 0.047206261638174332 0 0.23328470017271949 0.062802931527789041 0 0.23828530331132999 0.058211986328647193 0 0.23828530331132999 0.058211986328647193 0 0.2366518662350732 0.047206261638174332 0 0.24161013331070469 0.052520643980459088 0 0.2366518662350732 0.047206261638174332 0 0.24161013331070469 0.052520643980459088 0 0.24751805561965559 0.049597918156775722 0 0.24750813816218201 0.057765830816462041 0 0.24751805561965559 0.049597918156775722 0 0.25395058035011481 0.052534716696235842 0 0.24750813816218201 0.057765830816462041 0 0.24161013331070469 0.052520643980459088 0 0.24751805561965559 0.049597918156775722 0 0.2366518662350732 0.047206261638174332 0 0.24753356181782099 0.032752362629513393 0 0.25021864521095732 0.042714426536890518 0 0.24753356181782099 0.032752362629513393 0 0.2273149341790825 0.041155163190256708 0 0.23819930518764881 0.019934231074903431 0 0.2366518662350732 0.047206261638174332 0 0.24753356181782099 0.032752362629513393 0 0.2273149341790825 0.041155163190256708 0 0.2366518662350732 0.047206261638174332 0 0.24751805561965559 0.049597918156775722 0 0.25021864521095732 0.042714426536890518 0 0.2213451681854442 0.019507394852724711 0 0.21631530060087581 0.045791648343071353 0 0.2273149341790825 0.041155163190256708 0 0.2213451681854442 0.019507394852724711 0 0.21631530060087581 0.045791648343071353 0 0.2273149341790825 0.041155163190256708 0 0.22471186115491951 0.051951382815564932 0 0.21631530060087581 0.045791648343071353 0 0.23328470017271949 0.062802931527789041 0 0.2273149341790825 0.041155163190256708 0 0.23328470017271949 0.062802931527789041 0 0.2366518662350732 0.047206261638174332 0 0.2273149341790825 0.041155163190256708 0 0.23328470017271949 0.062802931527789041 0 0.2273149341790825 0.041155163190256708 0 0.22471186115491951 0.051951382815564932 0 0.22471186115491951 0.051951382815564932 0 0.22193250966700001 0.058055788201142357 0 0.21631530060087581 0.045791648343071353 0 0.23328470017271949 0.062802931527789041 0 0.22471186115491951 0.051951382815564932 0 0.22193250966700001 0.058055788201142357 0 0.22537901916776959 0.064827045533677713 0 0.23328470017271949 0.062802931527789041 0 0.22193250966700001 0.058055788201142357 0 0.23486169414593761 0.0044328377206448756 0 0.25380370120803358 0.017117199263192131 0 0.24837822010643121 -0.01064171941143479 0 0.23486169414593761 0.0044328377206448756 0 0.23819930518764881 0.019934231074903431 0 0.25380370120803358 0.017117199263192131 0 0.24753356181782099 0.032752362629513393 0 0.23819930518764881 0.019934231074903431 0 0.25380370120803358 0.017117199263192131 0 0.2273149341790825 0.041155163190256708 0 0.2213451681854442 0.019507394852724711 0 0.2273149341790825 0.041155163190256708 0 0.23819930518764881 0.019934231074903431 0 0.2213451681854442 0.019507394852724711 0 0.2213451681854442 0.019507394852724711 0 0.2201226506097064 0.015074260070491501 0 0.2213451681854442 0.019507394852724711 0 0.2218305993854004 0.013651728340205709 0 0.2213451681854442 0.019507394852724711 0 0.2201226506097064 0.015074260070491501 0 0.2153146619010459 0.01365383695144402 0 0.2213451681854442 0.019507394852724711 0 0.2218305993854004 0.013651728340205709 0 0.2201226506097064 0.015074260070491501 0 0.23486169414593761 0.0044328377206448756 0 0.23819930518764881 0.019934231074903431 0 0.2213451681854442 0.019507394852724711 0 0.23486169414593761 0.0044328377206448756 0 0.2213451681854442 0.019507394852724711 0 0.2218305993854004 0.013651728340205709 0 0.22338412304093311 0.0045358756082133408 0 0.218635476953562 0.01050456931136433 0 0.23486169414593761 0.0044328377206448756 0 0.2213451681854442 0.019507394852724711 0 0.2218305993854004 0.013651728340205709 0 0.2218305993854004 0.013651728340205709 0 0.2201226506097064 0.015074260070491501 0 0.218635476953562 0.01050456931136433 0 0.22338412304093311 0.0045358756082133408 0 0.2148085754180758 0.0052537978973309406 0 0.218635476953562 0.01050456931136433 0 0.22338412304093311 0.0045358756082133408 0 0.2148085754180758 0.0052537978973309406 0 0.2227394312342845 -0.0066353046367786921 0 0.23486169414593761 0.0044328377206448756 0 0.22338412304093311 0.0045358756082133408 0 0.2227394312342845 -0.0066353046367786921 0 0.23486169414593761 0.0044328377206448756 0 0.2218305993854004 0.013651728340205709 0 0.22338412304093311 0.0045358756082133408 0 0.2148085754180758 0.0052537978973309406 0 0.20436409518542389 0.0084756352553653977 0 0.20658404310945239 -0.0047970488307741092 0 0.2148085754180758 0.0052537978973309406 0 0.2153146619010459 0.01365383695144402 0 0.20436409518542389 0.0084756352553653977 0 0.2148085754180758 0.0052537978973309406 0 0.218635476953562 0.01050456931136433 0 0.2153146619010459 0.01365383695144402 0 0.2201226506097064 0.015074260070491501 0 0.218635476953562 0.01050456931136433 0 0.2153146619010459 0.01365383695144402 0 0.2153146619010459 0.01365383695144402 0 0.20436409518542389 0.0084756352553653977 0 0.2073351326176138 0.01741853016031511 0 0.2213451681854442 0.019507394852724711 0 0.2073351326176138 0.01741853016031511 0 0.2017767905349715 0.041331392212423948 0 0.2213451681854442 0.019507394852724711 0 0.2017767905349715 0.041331392212423948 0 0.2213451681854442 0.019507394852724711 0 0.2153146619010459 0.01365383695144402 0 0.2073351326176138 0.01741853016031511 0 0.2073351326176138 0.01741853016031511 0 0.1946396495337758 0.0202186958554334 0 0.2017767905349715 0.041331392212423948 0 0.1946396495337758 0.0202186958554334 0 0.2017767905349715 0.041331392212423948 0 0.20436409518542389 0.0084756352553653977 0 0.20658404310945239 -0.0047970488307741092 0 0.1875025085325798 -0.00089400050155696853 0 0.20436409518542389 0.0084756352553653977 0 0.1946396495337758 0.0202186958554334 0 0.1875025085325798 -0.00089400050155696853 0 0.1946396495337758 0.0202186958554334 0 0.1875025085325798 -0.00089400050155696853 0 0.20436409518542389 0.0084756352553653977 0 0.2073351326176138 0.01741853016031511 0 0.1946396495337758 0.0202186958554334 0 0.21192778583088759 0.071359505902199999 0 0.20685228818292911 0.05634544905731214 0 0.21631530060087581 0.045791648343071353 0 0.21192778583088759 0.071359505902199999 0 0.22193250966700001 0.058055788201142357 0 0.21631530060087581 0.045791648343071353 0 0.21192778583088759 0.071359505902199999 0 0.21631530060087581 0.045791648343071353 0 0.20685228818292911 0.05634544905731214 0 0.2017767905349715 0.041331392212423948 0 0.20685228818292911 0.05634544905731214 0 0.21631530060087581 0.045791648343071353 0 0.2017767905349715 0.041331392212423948 0 0.2213451681854442 0.019507394852724711 0 0.21631530060087581 0.045791648343071353 0 0.2017767905349715 0.041331392212423948 0 0.1946396495337758 0.0202186958554334 0 0.2017767905349715 0.041331392212423948 0 0.1850599233774822 0.038472908451804982 0 0.2017767905349715 0.041331392212423948 0 0.19044277757110281 0.05397186110649916 0 0.1850599233774822 0.038472908451804982 0 0.19044277757110281 0.05397186110649916 0 0.19638624545936201 0.054361966044431803 0 0.2017767905349715 0.041331392212423948 0 0.19044277757110281 0.05397186110649916 0 0.2017767905349715 0.041331392212423948 0 0.19044277757110281 0.05397186110649916 0 0.19638624545936201 0.054361966044431803 0 0.20685228818292911 0.05634544905731214 0 0.2017767905349715 0.041331392212423948 0 0.19638624545936201 0.054361966044431803 0 0.2005594978377965 0.063648499810781536 0 0.20685228818292911 0.05634544905731214 0 0.19638624545936201 0.054361966044431803 0 0.2005594978377965 0.063648499810781536 0 0.19638624545936201 0.054361966044431803 0 0.19324326832570099 0.059632024961241099 0 0.19044277757110281 0.05397186110649916 0 0.19638624545936201 0.054361966044431803 0 0.19324326832570099 0.059632024961241099 0 0.19044277757110281 0.05397186110649916 0 0.19324326832570099 0.059632024961241099 0 0.1876705439393212 0.057063646258089053 0 0.19044277757110281 0.05397186110649916 0 0.1876705439393212 0.057063646258089053 0 0.19324326832570099 0.059632024961241099 0 0.1876705439393212 0.057063646258089053 0 0.18850806674705861 0.061753896183571369 0 0.19044277757110281 0.05397186110649916 0 0.16899736029170889 0.052564271575615128 0 0.19044277757110281 0.05397186110649916 0 0.1850599233774822 0.038472908451804982 0 0.16899736029170889 0.052564271575615128 0 0.1876705439393212 0.057063646258089053 0 0.1802771677385204 0.061626561295648898 0 0.16899736029170889 0.052564271575615128 0 0.19044277757110281 0.05397186110649916 0 0.1876705439393212 0.057063646258089053 0 0.16899736029170889 0.052564271575615128 0 0.1876705439393212 0.057063646258089053 0 0.18850806674705861 0.061753896183571369 0 0.1802771677385204 0.061626561295648898 0 0.1802771677385204 0.061626561295648898 0 0.16899736029170889 0.052564271575615128 0 0.16944756491539131 0.065212986598974301 0 0.1850599233774822 0.038472908451804982 0 0.16899736029170889 0.052564271575615128 0 0.1709506488759952 0.027088280141575171 0 0.16899736029170889 0.052564271575615128 0 0.1709506488759952 0.027088280141575171 0 0.15549037628383749 0.036375420031438413 0 0.16899736029170889 0.052564271575615128 0 0.1475519430123152 0.051156682044728972 0 0.15549037628383749 0.036375420031438413 0 0.16899736029170889 0.052564271575615128 0 0.1475519430123152 0.051156682044728972 0 0.16899736029170889 0.052564271575615128 0 0.1475519430123152 0.051156682044728972 0 0.1552543716581426 0.064225174814300401 0 0.16899736029170889 0.052564271575615128 0 0.1552543716581426 0.064225174814300401 0 0.16944756491539131 0.065212986598974301 0 0.1946396495337758 0.0202186958554334 0 0.1778804953238837 0.01201039303616982 0 0.1875025085325798 -0.00089400050155696853 0 0.1778804953238837 0.01201039303616982 0 0.17522714050184721 -0.0049488647019317131 0 0.1875025085325798 -0.00089400050155696853 0 0.1946396495337758 0.0202186958554334 0 0.1778804953238837 0.01201039303616982 0 0.1709506488759952 0.027088280141575171 0 0.1946396495337758 0.0202186958554334 0 0.1850599233774822 0.038472908451804982 0 0.1709506488759952 0.027088280141575171 0 0.1709506488759952 0.027088280141575171 0 0.15966997586013809 0.019495045236748741 0 0.15549037628383749 0.036375420031438413 0 0.1778804953238837 0.01201039303616982 0 0.1709506488759952 0.027088280141575171 0 0.15966997586013809 0.019495045236748741 0 0.1778804953238837 0.01201039303616982 0 0.15966997586013809 0.019495045236748741 0 0.1601032952255865 0.003960831588106911 0 0.1778804953238837 0.01201039303616982 0 0.1601032952255865 0.003960831588106911 0 0.17522714050184721 -0.0049488647019317131 0 0.14692995984517801 0.011745136005002651 0 0.13132033129498641 0.0092488423746995806 0 0.1454712798881049 -0.003730971849526866 0 0.1601032952255865 0.003960831588106911 0 0.14692995984517801 0.011745136005002651 0 0.1454712798881049 -0.003730971849526866 0 0.15966997586013809 0.019495045236748741 0 0.1601032952255865 0.003960831588106911 0 0.14692995984517801 0.011745136005002651 0 0.15966997586013809 0.019495045236748741 0 0.1466650796063477 0.025790210618199489 0 0.15549037628383749 0.036375420031438413 0 0.14692995984517801 0.011745136005002651 0 0.1466650796063477 0.025790210618199489 0 0.13929842407154591 0.018229141148497718 0 0.15966997586013809 0.019495045236748741 0 0.14692995984517801 0.011745136005002651 0 0.1466650796063477 0.025790210618199489 0 0.1466650796063477 0.025790210618199489 0 0.13676489184814311 0.026489974163780541 0 0.13929842407154591 0.018229141148497718 0 0.1466650796063477 0.025790210618199489 0 0.13676489184814311 0.026489974163780541 0 0.1414130029808221 0.040908262586919632 0 0.13676489184814311 0.026489974163780541 0 0.1276628884147202 0.026504186973196051 0 0.1320687024438848 0.033890144439081622 0 0.13676489184814311 0.026489974163780541 0 0.1276628884147202 0.026504186973196051 0 0.13173710738379721 0.019922360975092462 0 0.1231174754830366 0.032788360966042172 0 0.1276628884147202 0.026504186973196051 0 0.1320687024438848 0.033890144439081622 0 0.1237376642652656 0.01976859365491428 0 0.13173710738379721 0.019922360975092462 0 0.13132033129498641 0.0092488423746995806 0 0.1237376642652656 0.01976859365491428 0 0.1276628884147202 0.026504186973196051 0 0.13173710738379721 0.019922360975092462 0 0.13173710738379721 0.019922360975092462 0 0.13929842407154591 0.018229141148497718 0 0.13132033129498641 0.0092488423746995806 0 0.13676489184814311 0.026489974163780541 0 0.13173710738379721 0.019922360975092462 0 0.13929842407154591 0.018229141148497718 0 0.14692995984517801 0.011745136005002651 0 0.13929842407154591 0.018229141148497718 0 0.13132033129498641 0.0092488423746995806 0 0.1237376642652656 0.01976859365491428 0 0.1203284510390845 0.013104948594594349 0 0.13132033129498641 0.0092488423746995806 0 0.13132033129498641 0.0092488423746995806 0 0.1241013306504634 -0.00126979730434574 0 0.13373112663479869 -0.0028115886610750019 0 0.13132033129498641 0.0092488423746995806 0 0.1454712798881049 -0.003730971849526866 0 0.13373112663479869 -0.0028115886610750019 0 0.1475519430123152 0.051156682044728972 0 0.14131291853074829 0.05964926751543153 0 0.1552543716581426 0.064225174814300401 0 0.1466650796063477 0.025790210618199489 0 0.15549037628383749 0.036375420031438413 0 0.1414130029808221 0.040908262586919632 0 0.1475519430123152 0.051156682044728972 0 0.15549037628383749 0.036375420031438413 0 0.1414130029808221 0.040908262586919632 0 0.1475519430123152 0.051156682044728972 0 0.1414130029808221 0.040908262586919632 0 0.13136193654055769 0.047365254882629958 0 0.1414130029808221 0.040908262586919632 0 0.13341023791294371 0.040581485861968657 0 0.13136193654055769 0.047365254882629958 0 0.1414130029808221 0.040908262586919632 0 0.13341023791294371 0.040581485861968657 0 0.1320687024438848 0.033890144439081622 0 0.13676489184814311 0.026489974163780541 0 0.1414130029808221 0.040908262586919632 0 0.1320687024438848 0.033890144439081622 0 0.1231174754830366 0.032788360966042172 0 0.1320687024438848 0.033890144439081622 0 0.12728113781280981 0.039528802799818748 0 0.13341023791294371 0.040581485861968657 0 0.1320687024438848 0.033890144439081622 0 0.12728113781280981 0.039528802799818748 0 0.13341023791294371 0.040581485861968657 0 0.12728113781280981 0.039528802799818748 0 0.13136193654055769 0.047365254882629958 0 0.1243370536324033 0.043963734158083689 0 0.12728113781280981 0.039528802799818748 0 0.13136193654055769 0.047365254882629958 0 0.1261065257329215 0.049749092513842547 0 0.13136193654055769 0.047365254882629958 0 0.1475519430123152 0.051156682044728972 0 0.1261065257329215 0.049749092513842547 0 0.1475519430123152 0.051156682044728972 0 0.14131291853074829 0.05964926751543153 0 0.1261065257329215 0.049749092513842547 0 0.1243370536324033 0.043963734158083689 0 0.1261065257329215 0.049749092513842547 0 0.13136193654055769 0.047365254882629958 0 0.1475519430123152 0.051156682044728972 0 0.1261065257329215 0.049749092513842547 0 0.13136193654055769 0.047365254882629958 0 0.14131291853074829 0.05964926751543153 0 0.1261065257329215 0.049749092513842547 0 0.13254865804091981 0.063927211530657252 0 0.13254865804091981 0.063927211530657252 0 0.14372747461544541 0.081718510906368919 0 0.13254865804091981 0.063927211530657252 0 0.13602709122601439 0.071834801776145749 0 0.14372747461544541 0.081718510906368919 0 0.1187519132559962 0.073330070717771242 0 0.13602709122601439 0.071834801776145749 0 0.13222229848423689 0.082740643567558239 0 0.13254865804091981 0.063927211530657252 0 0.14510309420944251 0.069188176673628199 0 0.14372747461544541 0.081718510906368919 0 0.1111820128005041 0.056518804123088393 0 0.13254865804091981 0.063927211530657252 0 0.13602709122601439 0.071834801776145749 0 0.14131291853074829 0.05964926751543153 0 0.13254865804091981 0.063927211530657252 0 0.14510309420944251 0.069188176673628199 0 0.14131291853074829 0.05964926751543153 0 0.14510309420944251 0.069188176673628199 0 0.1552543716581426 0.064225174814300401 0 0.14510309420944251 0.069188176673628199 0 0.1527879353780339 0.076129433935451976 0 0.14372747461544541 0.081718510906368919 0 0.14510309420944251 0.069188176673628199 0 0.1527879353780339 0.076129433935451976 0 0.1552543716581426 0.064225174814300401 0 0.14372747461544541 0.081718510906368919 0 0.1415899664807789 0.095619888859691943 0 0.15490629118997101 0.099509810282080557 0 0.14372747461544541 0.081718510906368919 0 0.15490629118997101 0.099509810282080557 0 0.15719042717434659 0.086014544169863996 0 0.14372747461544541 0.081718510906368919 0 0.15490629118997101 0.099509810282080557 0 0.1527879353780339 0.076129433935451976 0 0.14372747461544541 0.081718510906368919 0 0.15719042717434659 0.086014544169863996 0 0.14372747461544541 0.081718510906368919 0 0.13222229848423689 0.082740643567558239 0 0.1415899664807789 0.095619888859691943 0 0.13222229848423689 0.082740643567558239 0 0.12711182105801849 0.096271416258485329 0 0.1415899664807789 0.095619888859691943 0 0.13602709122601439 0.071834801776145749 0 0.14372747461544541 0.081718510906368919 0 0.13222229848423689 0.082740643567558239 0 0.1221416529332626 0.11202310548697909 0 0.12711182105801849 0.096271416258485329 0 0.13174476597186691 0.10547100609616469 0 0.13174476597186691 0.10547100609616469 0 0.1415899664807789 0.095619888859691943 0 0.14084677671012061 0.10816788995310871 0 0.12711182105801849 0.096271416258485329 0 0.13174476597186691 0.10547100609616469 0 0.1415899664807789 0.095619888859691943 0 0.1221416529332626 0.11202310548697909 0 0.13571662765488851 0.13714844270596749 0 0.13324057158529529 0.1194771381521421 0 0.1221416529332626 0.11202310548697909 0 0.13571662765488851 0.13714844270596749 0 0.1221416529332626 0.11202310548697909 0 0.13174476597186691 0.10547100609616469 0 0.13324057158529529 0.1194771381521421 0 0.13174476597186691 0.10547100609616469 0 0.13324057158529529 0.1194771381521421 0 0.14084677671012061 0.10816788995310871 0 0.13936926068676661 0.12870466425705479 0 0.13324057158529529 0.1194771381521421 0 0.14522573028892691 0.12473886703534651 0 0.13324057158529529 0.1194771381521421 0 0.14522573028892691 0.12473886703534651 0 0.14817472514985039 0.1149991443037693 0 0.14817472514985039 0.1149991443037693 0 0.14084677671012061 0.10816788995310871 0 0.14902522424222869 0.1061598970378705 0 0.13324057158529529 0.1194771381521421 0 0.14817472514985039 0.1149991443037693 0 0.14084677671012061 0.10816788995310871 0 0.14817472514985039 0.1149991443037693 0 0.15490857156609569 0.1176502363253572 0 0.15727858785587759 0.1114873391869758 0 0.14817472514985039 0.1149991443037693 0 0.14902522424222869 0.1061598970378705 0 0.15727858785587759 0.1114873391869758 0 0.14522573028892691 0.12473886703534651 0 0.14817472514985039 0.1149991443037693 0 0.15222669915792181 0.1232562258046947 0 0.14817472514985039 0.1149991443037693 0 0.15490857156609569 0.1176502363253572 0 0.15222669915792181 0.1232562258046947 0 0.15490857156609569 0.1176502363253572 0 0.15222669915792181 0.1232562258046947 0 0.15831726968978449 0.1226774466090724 0 0.1539606084885391 0.12851381335764001 0 0.15222669915792181 0.1232562258046947 0 0.15831726968978449 0.1226774466090724 0 0.1415899664807789 0.095619888859691943 0 0.14084677671012061 0.10816788995310871 0 0.14902522424222869 0.1061598970378705 0 0.14902522424222869 0.1061598970378705 0 0.15490629118997101 0.099509810282080557 0 0.15727858785587759 0.1114873391869758 0 0.1415899664807789 0.095619888859691943 0 0.14902522424222869 0.1061598970378705 0 0.15490629118997101 0.099509810282080557 0 0.15490629118997101 0.099509810282080557 0 0.16608510776449789 0.11730110965779141 0 0.15490629118997101 0.099509810282080557 0 0.16163051669624701 0.093754237438085281 0 0.16949735219027701 0.1027494467456245 0 0.15490629118997101 0.099509810282080557 0 0.16949735219027701 0.1027494467456245 0 0.16608510776449789 0.11730110965779141 0 0.16163051669624701 0.093754237438085281 0 0.16949735219027701 0.1027494467456245 0 0.1682860742632015 0.088971475782037679 0 0.15490629118997101 0.099509810282080557 0 0.15727858785587759 0.1114873391869758 0 0.16608510776449789 0.11730110965779141 0 0.1625989365485889 0.1231856797113153 0 0.15831726968978449 0.1226774466090724 0 0.16202304580935031 0.12090959406874929 0 0.16169096308237399 0.1256621397921292 0 0.1625989365485889 0.1231856797113153 0 0.15831726968978449 0.1226774466090724 0 0.16169096308237399 0.1256621397921292 0 0.1625989365485889 0.1231856797113153 0 0.1654659697027335 0.1235795177593695 0 0.1625989365485889 0.1231856797113153 0 0.16202304580935031 0.12090959406874929 0 0.16428922190805931 0.1213828280971832 0 0.15490857156609569 0.1176502363253572 0 0.15831726968978449 0.1226774466090724 0 0.16019390297771921 0.1176054535134327 0 0.15831726968978449 0.1226774466090724 0 0.16019390297771921 0.1176054535134327 0 0.16202304580935031 0.12090959406874929 0 0.16019390297771921 0.1176054535134327 0 0.1642711078549732 0.117394822191404 0 0.16019390297771921 0.1176054535134327 0 0.163400692794298 0.11942726786590591 0 0.1642711078549732 0.117394822191404 0 0.16019390297771921 0.1176054535134327 0 0.16202304580935031 0.12090959406874929 0 0.163400692794298 0.11942726786590591 0 0.16202304580935031 0.12090959406874929 0 0.163400692794298 0.11942726786590591 0 0.16428922190805931 0.1213828280971832 0 0.15727858785587759 0.1114873391869758 0 0.1642711078549732 0.117394822191404 0 0.16608510776449789 0.11730110965779141 0 0.15727858785587759 0.1114873391869758 0 0.1642711078549732 0.117394822191404 0 0.16019390297771921 0.1176054535134327 0 0.15727858785587759 0.1114873391869758 0 0.1642711078549732 0.117394822191404 0 0.15490857156609569 0.1176502363253572 0 0.16019390297771921 0.1176054535134327 0 0.15727858785587759 0.1114873391869758 0 0.16949735219027701 0.1027494467456245 0 0.16608510776449789 0.11730110965779141 0 0.17439092843787959 0.11687202501729629 0 0.16608510776449789 0.11730110965779141 0 0.17439092843787959 0.11687202501729629 0 0.16608510776449789 0.11730110965779141 0 0.1682630287230793 0.12076731232177421 0 0.17439092843787959 0.11687202501729629 0 0.163400692794298 0.11942726786590591 0 0.1642711078549732 0.117394822191404 0 0.16664150975385739 0.1214978305503798 0 0.1642711078549732 0.117394822191404 0 0.1682630287230793 0.12076731232177421 0 0.1642711078549732 0.117394822191404 0 0.16608510776449789 0.11730110965779141 0 0.1682630287230793 0.12076731232177421 0 0.1642711078549732 0.117394822191404 0 0.1682630287230793 0.12076731232177421 0 0.16664150975385739 0.1214978305503798 0 0.1642711078549732 0.117394822191404 0 0.16608510776449789 0.11730110965779141 0 0.163400692794298 0.11942726786590591 0 0.16664150975385739 0.1214978305503798 0 0.16428922190805931 0.1213828280971832 0 0.16608510776449789 0.11730110965779141 0 0.1682630287230793 0.12076731232177421 0 0.1682630287230793 0.12076731232177421 0 0.17439092843787959 0.11687202501729629 0 0.1682630287230793 0.12076731232177421 0 0.16664150975385739 0.1214978305503798 0 0.1654659697027335 0.1235795177593695 0 0.1682630287230793 0.12076731232177421 0 0.1654659697027335 0.1235795177593695 0 0.1625989365485889 0.1231856797113153 0 0.16428922190805931 0.1213828280971832 0 0.1654659697027335 0.1235795177593695 0 0.16664150975385739 0.1214978305503798 0 0.16428922190805931 0.1213828280971832 0 0.1654659697027335 0.1235795177593695 0 0.18259827505216891 0.13287814276120899 0 0.1682630287230793 0.12076731232177421 0 0.17439092843787959 0.11687202501729629 0 0.18259827505216891 0.13287814276120899 0 0.19553778957291831 0.1157795630361771 0 0.17439092843787959 0.11687202501729629 0 0.19553778957291831 0.1157795630361771 0 0.17439092843787959 0.11687202501729629 0 0.1920338740150849 0.1006744196382556 0 0.17439092843787959 0.11687202501729629 0 0.1920338740150849 0.1006744196382556 0 0.16949735219027701 0.1027494467456245 0 0.17878253237975991 0.090856325119021183 0 0.19544036093106401 0.10910163810938769 0 0.1920338740150849 0.1006744196382556 0 0.17439092843787959 0.11687202501729629 0 0.1920338740150849 0.1006744196382556 0 0.16949735219027701 0.1027494467456245 0 0.17439092843787959 0.11687202501729629 0 0.16949735219027701 0.1027494467456245 0 0.17878253237975991 0.090856325119021183 0 0.1682860742632015 0.088971475782037679 0 0.1920338740150849 0.1006744196382556 0 0.18897382172743879 0.08598516360148141 0 0.17878253237975991 0.090856325119021183 0 0.17878253237975991 0.090856325119021183 0 0.17291220633134199 0.080700119901877754 0 0.1682860742632015 0.088971475782037679 0 0.17878253237975991 0.090856325119021183 0 0.17291220633134199 0.080700119901877754 0 0.1822567200742731 0.078338044409950694 0 0.18897382172743879 0.08598516360148141 0 0.17878253237975991 0.090856325119021183 0 0.1822567200742731 0.078338044409950694 0 0.1822567200742731 0.078338044409950694 0 0.18693067397280491 0.071538532439119618 0 0.18055744970368279 0.068612557687756967 0 0.1924488894800904 0.076623514339729831 0 0.1822567200742731 0.078338044409950694 0 0.18693067397280491 0.071538532439119618 0 0.18850806674705861 0.061753896183571369 0 0.1802771677385204 0.061626561295648898 0 0.18619802793009621 0.065635902333457161 0 0.18693067397280491 0.071538532439119618 0 0.18619802793009621 0.065635902333457161 0 0.18055744970368279 0.068612557687756967 0 0.1802771677385204 0.061626561295648898 0 0.18619802793009621 0.065635902333457161 0 0.18055744970368279 0.068612557687756967 0 0.18055744970368279 0.068612557687756967 0 0.17374005379295421 0.07312147285618599 0 0.16944756491539131 0.065212986598974301 0 0.1802771677385204 0.061626561295648898 0 0.18055744970368279 0.068612557687756967 0 0.16944756491539131 0.065212986598974301 0 0.1822567200742731 0.078338044409950694 0 0.18055744970368279 0.068612557687756967 0 0.17374005379295421 0.07312147285618599 0 0.17291220633134199 0.080700119901877754 0 0.1822567200742731 0.078338044409950694 0 0.17374005379295421 0.07312147285618599 0 0.17374005379295421 0.07312147285618599 0 0.1641431604636045 0.076191527984662388 0 0.16944756491539131 0.065212986598974301 0 0.17291220633134199 0.080700119901877754 0 0.17374005379295421 0.07312147285618599 0 0.1641431604636045 0.076191527984662388 0 0.1552543716581426 0.064225174814300401 0 0.1641431604636045 0.076191527984662388 0 0.16944756491539131 0.065212986598974301 0 0.1527879353780339 0.076129433935451976 0 0.1552543716581426 0.064225174814300401 0 0.1641431604636045 0.076191527984662388 0 0.1641431604636045 0.076191527984662388 0 0.15719042717434659 0.086014544169863996 0 0.1682860742632015 0.088971475782037679 0 0.1527879353780339 0.076129433935451976 0 0.1641431604636045 0.076191527984662388 0 0.15719042717434659 0.086014544169863996 0 0.16163051669624701 0.093754237438085281 0 0.15719042717434659 0.086014544169863996 0 0.1682860742632015 0.088971475782037679 0 0.15490629118997101 0.099509810282080557 0 0.16163051669624701 0.093754237438085281 0 0.15719042717434659 0.086014544169863996 0 0.17291220633134199 0.080700119901877754 0 0.1641431604636045 0.076191527984662388 0 0.1682860742632015 0.088971475782037679 0 0.10731540006457251 0.48236950590895772 0 0.1238956110980738 0.46838162262076383 0 0.094529155156288069 0.46204114376849448 0 0.10731540006457251 0.48236950590895772 0 0.1195654229107193 0.5 0 0.090846474537490673 0.5 0 0.10731540006457251 0.48236950590895772 0 0.1195654229107193 0.5 0 0.13580201835749661 0.48441293847055811 0 0.10731540006457251 0.48236950590895772 0 0.1238956110980738 0.46838162262076383 0 0.13580201835749661 0.48441293847055811 0 0.1238956110980738 0.46838162262076383 0 0.12125214206241119 0.44582005051402618 0 0.094529155156288069 0.46204114376849448 0 0.12125214206241119 0.44582005051402618 0 0.094529155156288069 0.46204114376849448 0 0.095775154673509083 0.43523483693817772 0 0.1238956110980738 0.46838162262076383 0 0.094529155156288069 0.46204114376849448 0 0.094529155156288069 0.46204114376849448 0 0.07413213581707985 0.45917209454787578 0 0.079253718327366607 0.47938133059393018 0 0.094529155156288069 0.46204114376849448 0 0.07413213581707985 0.45917209454787578 0 0.095775154673509083 0.43523483693817772 0 0.069478468254658587 0.43910687041324842 0 0.07413213581707985 0.45917209454787578 0 0.095775154673509083 0.43523483693817772 0 0.069478468254658587 0.43910687041324842 0 0.07413213581707985 0.45917209454787578 0 0.052688003006837403 0.45351301623094309 0 0.07413213581707985 0.45917209454787578 0 0.079253718327366607 0.47938133059393018 0 0.056672262029243393 0.47010016156209061 0 0.079253718327366607 0.47938133059393018 0 0.062127526164262148 0.5 0 0.056672262029243393 0.47010016156209061 0 0.10731540006457251 0.48236950590895772 0 0.094529155156288069 0.46204114376849448 0 0.079253718327366607 0.47938133059393018 0 0.10731540006457251 0.48236950590895772 0 0.079253718327366607 0.47938133059393018 0 0.090846474537490673 0.5 0 0.079253718327366607 0.47938133059393018 0 0.090846474537490673 0.5 0 0.062127526164262148 0.5 0 0.062127526164262148 0.5 0 0.056672262029243393 0.47010016156209061 0 0.038951528059004668 0.48087356550278099 0 0.038951528059004668 0.48087356550278099 0 0.025438453352630171 0.4693518981789524 0 0.037487523677357221 0.4627105832370656 0 0.056672262029243393 0.47010016156209061 0 0.038951528059004668 0.48087356550278099 0 0.037487523677357221 0.4627105832370656 0 0.062127526164262148 0.5 0 0.038951528059004668 0.48087356550278099 0 0.033408577791033622 0.5 0 0.033408577791033622 0.5 0 0.015562134544051949 0.48246729820795181 0 0.0046896294178049858 0.5 0 0.038951528059004668 0.48087356550278099 0 0.033408577791033622 0.5 0 0.015562134544051949 0.48246729820795181 0 0.025438453352630171 0.4693518981789524 0 0.015562134544051949 0.48246729820795181 0 0.013263139689584509 0.46495135629202961 0 0.038951528059004668 0.48087356550278099 0 0.025438453352630171 0.4693518981789524 0 0.015562134544051949 0.48246729820795181 0 0.015562134544051949 0.48246729820795181 0 0.002334760443109415 0.47154344293807721 0 0.013263139689584509 0.46495135629202961 0 -0.0064975003056543766 0.48465894610548932 0 0.015562134544051949 0.48246729820795181 0 0.002334760443109415 0.47154344293807721 0 -0.0064975003056543766 0.48465894610548932 0 0.015562134544051949 0.48246729820795181 0 0.0046896294178049858 0.5 0 -0.003662180686688134 0.44777646677072458 0 0.0077625963234152062 0.4398748531999524 0 0.020718035627094081 0.44488660131823249 0 -0.003662180686688134 0.44777646677072458 0 0.01213077728864808 0.4504960359456302 0 0.020718035627094081 0.44488660131823249 0 -0.003662180686688134 0.44777646677072458 0 0.020718035627094081 0.44488660131823249 0 -0.01068910546206637 0.45215060860514888 0 0.01213077728864808 0.4504960359456302 0 0.0077625963234152062 0.4398748531999524 0 0.020718035627094081 0.44488660131823249 0 0.0157202877687217 0.43718228454496511 0 -0.003662180686688134 0.44777646677072458 0 -0.00033789435619270938 0.43757237590417902 0 0.0077625963234152062 0.4398748531999524 0 -0.01068910546206637 0.45215060860514888 0 0.01213077728864808 0.4504960359456302 0 0.0014539775662769251 0.46057763459147982 0 0.002334760443109415 0.47154344293807721 0 0.0014539775662769251 0.46057763459147982 0 0.013263139689584509 0.46495135629202961 0 0.01213077728864808 0.4504960359456302 0 0.0014539775662769251 0.46057763459147982 0 0.013263139689584509 0.46495135629202961 0 0.01213077728864808 0.4504960359456302 0 0.013263139689584509 0.46495135629202961 0 0.024315854066005799 0.45910030508266308 0 0.025438453352630171 0.4693518981789524 0 0.013263139689584509 0.46495135629202961 0 0.024315854066005799 0.45910030508266308 0 0.025438453352630171 0.4693518981789524 0 0.024315854066005799 0.45910030508266308 0 0.037487523677357221 0.4627105832370656 0 0.01213077728864808 0.4504960359456302 0 0.034950660039362577 0.44884146328611152 0 0.01213077728864808 0.4504960359456302 0 0.024315854066005799 0.45910030508266308 0 0.034950660039362577 0.44884146328611152 0 0.01213077728864808 0.4504960359456302 0 0.020718035627094081 0.44488660131823249 0 0.034950660039362577 0.44884146328611152 0 0.020718035627094081 0.44488660131823249 0 0.023398750843442308 0.43733685118356902 0 0.0157202877687217 0.43718228454496511 0 0.020718035627094081 0.44488660131823249 0 0.032053640216607303 0.43623268874290277 0 0.023398750843442308 0.43733685118356902 0 0.034950660039362577 0.44884146328611152 0 0.045098251940876369 0.44199673586574051 0 0.052688003006837403 0.45351301623094309 0 0.020718035627094081 0.44488660131823249 0 0.034950660039362577 0.44884146328611152 0 0.045098251940876369 0.44199673586574051 0 0.020718035627094081 0.44488660131823249 0 0.045098251940876369 0.44199673586574051 0 0.032053640216607303 0.43623268874290277 0 0.020718035627094081 0.44488660131823249 0 0.045098251940876369 0.44199673586574051 0 0.034950660039362577 0.44884146328611152 0 0.037487523677357221 0.4627105832370656 0 0.052688003006837403 0.45351301623094309 0 0.024315854066005799 0.45910030508266308 0 0.034950660039362577 0.44884146328611152 0 0.037487523677357221 0.4627105832370656 0 0.07413213581707985 0.45917209454787578 0 0.056672262029243393 0.47010016156209061 0 0.052688003006837403 0.45351301623094309 0 0.056672262029243393 0.47010016156209061 0 0.037487523677357221 0.4627105832370656 0 0.052688003006837403 0.45351301623094309 0 0.069478468254658587 0.43910687041324842 0 0.045098251940876369 0.44199673586574051 0 0.052688003006837403 0.45351301623094309 0 0.069478468254658587 0.43910687041324842 0 0.045098251940876369 0.44199673586574051 0 0.069478468254658587 0.43910687041324842 0 0.045098251940876369 0.44199673586574051 0 0.044609877271669728 0.42718665510689963 0 0.069478468254658587 0.43910687041324842 0 0.05690153667620769 0.4180080119249352 0 0.044609877271669728 0.42718665510689963 0 0.05690153667620769 0.4180080119249352 0 0.039688255053039738 0.40906392068859199 0 0.044609877271669728 0.42718665510689963 0 0.05690153667620769 0.4180080119249352 0 0.039688255053039738 0.40906392068859199 0 0.05809601590797759 0.39990522439332649 0 0.039688255053039738 0.40906392068859199 0 0.044609877271669728 0.42718665510689963 0 0.029316000412602732 0.42166156659220128 0 0.045098251940876369 0.44199673586574051 0 0.044609877271669728 0.42718665510689963 0 0.032053640216607303 0.43623268874290277 0 0.044609877271669728 0.42718665510689963 0 0.032053640216607303 0.43623268874290277 0 0.029316000412602732 0.42166156659220128 0 0.032053640216607303 0.43623268874290277 0 0.023398750843442308 0.43733685118356902 0 0.01879028956571439 0.43061898159802442 0 0.023398750843442308 0.43733685118356902 0 0.01879028956571439 0.43061898159802442 0 0.0157202877687217 0.43718228454496511 0 0.01879028956571439 0.43061898159802442 0 0.029316000412602732 0.42166156659220128 0 0.016044590409517692 0.4176273127722378 0 0.032053640216607303 0.43623268874290277 0 0.01879028956571439 0.43061898159802442 0 0.029316000412602732 0.42166156659220128 0 0.039688255053039738 0.40906392068859199 0 0.029316000412602732 0.42166156659220128 0 0.0203027742049346 0.40410186661272529 0 0.029316000412602732 0.42166156659220128 0 0.016044590409517692 0.4176273127722378 0 0.0203027742049346 0.40410186661272529 0 0.016044590409517692 0.4176273127722378 0 0.0062110592726292973 0.41010007649745189 0 0.0056028285917074346 0.42165407256078619 0 0.016044590409517692 0.4176273127722378 0 0.0062110592726292973 0.41010007649745189 0 0.0203027742049346 0.40410186661272529 0 -0.00096918350646317563 0.41465633725833412 0 0.0062110592726292973 0.41010007649745189 0 0.0056028285917074346 0.42165407256078619 0 -0.0033847971853434139 0.43093556859388288 0 0.0056028285917074346 0.42165407256078619 0 0.0073763795368324298 0.43315658188741379 0 -0.00033789435619270938 0.43757237590417902 0 0.0077625963234152062 0.4398748531999524 0 0.0073763795368324298 0.43315658188741379 0 -0.0033847971853434139 0.43093556859388288 0 -0.00033789435619270938 0.43757237590417902 0 0.0073763795368324298 0.43315658188741379 0 0.0077625963234152062 0.4398748531999524 0 0.0157202877687217 0.43718228454496511 0 0.0073763795368324298 0.43315658188741379 0 0.01879028956571439 0.43061898159802442 0 0.0157202877687217 0.43718228454496511 0 0.0073763795368324298 0.43315658188741379 0 0.01879028956571439 0.43061898159802442 0 0.0056028285917074346 0.42165407256078619 0 0.0073763795368324298 0.43315658188741379 0 0.01879028956571439 0.43061898159802442 0 0.016044590409517692 0.4176273127722378 0 0.0056028285917074346 0.42165407256078619 0 0.012481803343984891 0.38724628073840472 0 0.019157163765866809 0.36978970136449979 0 0.0030432833389739309 0.3686872213646244 0 -0.0076686872235991448 0.37344720763265937 0 0.012481803343984891 0.38724628073840472 0 0.0030432833389739309 0.3686872213646244 0 0.012481803343984891 0.38724628073840472 0 0.0019362671598315191 0.39720683037777738 0 0.0203027742049346 0.40410186661272529 0 0.0062110592726292973 0.41010007649745189 0 0.0019362671598315191 0.39720683037777738 0 0.0203027742049346 0.40410186661272529 0 -0.0103240943211206 0.38834871657323011 0 0.012481803343984891 0.38724628073840472 0 0.0019362671598315191 0.39720683037777738 0 -0.0062698827988422884 0.40687083329545848 0 0.0062110592726292973 0.41010007649745189 0 0.0019362671598315191 0.39720683037777738 0 0.012481803343984891 0.38724628073840472 0 0.0203027742049346 0.40410186661272529 0 0.040607859262383729 0.39059987210839853 0 0.012481803343984891 0.38724628073840472 0 0.027825777676813199 0.37872031866053829 0 0.019157163765866809 0.36978970136449979 0 0.012481803343984891 0.38724628073840472 0 0.040607859262383729 0.39059987210839853 0 0.012481803343984891 0.38724628073840472 0 0.027825777676813199 0.37872031866053829 0 0.040607859262383729 0.39059987210839853 0 0.040607859262383729 0.39059987210839853 0 0.060571385649761757 0.38025076564603738 0 0.039056284335017358 0.36724542043085029 0 0.027825777676813199 0.37872031866053829 0 0.040607859262383729 0.39059987210839853 0 0.039056284335017358 0.36724542043085029 0 0.039688255053039738 0.40906392068859199 0 0.0203027742049346 0.40410186661272529 0 0.040607859262383729 0.39059987210839853 0 0.039688255053039738 0.40906392068859199 0 0.040607859262383729 0.39059987210839853 0 0.05809601590797759 0.39990522439332649 0 0.040607859262383729 0.39059987210839853 0 0.05809601590797759 0.39990522439332649 0 0.060571385649761757 0.38025076564603738 0 0.060571385649761757 0.38025076564603738 0 0.082086486964506128 0.39325611086122442 0 0.060571385649761757 0.38025076564603738 0 0.076832886183890059 0.37616790642294301 0 0.082086486964506128 0.39325611086122442 0 0.076832886183890059 0.37616790642294301 0 0.082086486964506128 0.39325611086122442 0 0.093549450503817536 0.36927502029612319 0 0.082086486964506128 0.39325611086122442 0 0.10360158827925051 0.4062614560764114 0 0.082086486964506128 0.39325611086122442 0 0.077656541792684913 0.41529541843455392 0 0.10360158827925051 0.4062614560764114 0 0.05809601590797759 0.39990522439332649 0 0.082086486964506128 0.39325611086122442 0 0.077656541792684913 0.41529541843455392 0 0.05809601590797759 0.39990522439332649 0 0.060571385649761757 0.38025076564603738 0 0.082086486964506128 0.39325611086122442 0 0.05690153667620769 0.4180080119249352 0 0.05809601590797759 0.39990522439332649 0 0.077656541792684913 0.41529541843455392 0 0.069478468254658587 0.43910687041324842 0 0.05690153667620769 0.4180080119249352 0 0.077656541792684913 0.41529541843455392 0 0.069478468254658587 0.43910687041324842 0 0.077656541792684913 0.41529541843455392 0 0.095775154673509083 0.43523483693817772 0 0.077656541792684913 0.41529541843455392 0 0.10360158827925051 0.4062614560764114 0 0.095775154673509083 0.43523483693817772 0 0.10360158827925051 0.4062614560764114 0 0.095775154673509083 0.43523483693817772 0 0.12511668959399491 0.41926680129159849 0 0.12125214206241119 0.44582005051402618 0 0.095775154673509083 0.43523483693817772 0 0.12511668959399491 0.41926680129159849 0 0.10360158827925051 0.4062614560764114 0 0.1218273948895322 0.40036723235672672 0 0.12511668959399491 0.41926680129159849 0 0.10360158827925051 0.4062614560764114 0 0.12511668959399491 0.41926680129159849 0 0.10360158827925051 0.4062614560764114 0 0.1218273948895322 0.40036723235672672 0 0.10651191053106671 0.38603983404744369 0 0.10651191053106671 0.38603983404744369 0 0.11764373659217529 0.36702659591577241 0 0.1309133037688035 0.38422249999567948 0 0.1218273948895322 0.40036723235672672 0 0.10651191053106671 0.38603983404744369 0 0.1309133037688035 0.38422249999567948 0 0.082086486964506128 0.39325611086122442 0 0.10651191053106671 0.38603983404744369 0 0.093549450503817536 0.36927502029612319 0 0.082086486964506128 0.39325611086122442 0 0.10360158827925051 0.4062614560764114 0 0.10651191053106671 0.38603983404744369 0 0.1078075760736345 0.34684294297300161 0 0.083880356293113606 0.34451616622450448 0 0.093549450503817536 0.36927502029612319 0 0.1078075760736345 0.34684294297300161 0 0.083880356293113606 0.34451616622450448 0 0.10651191053106671 0.38603983404744369 0 0.11764373659217529 0.36702659591577241 0 0.093549450503817536 0.36927502029612319 0 0.1078075760736345 0.34684294297300161 0 0.11764373659217529 0.36702659591577241 0 0.093549450503817536 0.36927502029612319 0 0.1078075760736345 0.34684294297300161 0 0.11764373659217529 0.36702659591577241 0 0.13173479585415551 0.34916971972149857 0 0.1078075760736345 0.34684294297300161 0 0.13173479585415551 0.34916971972149857 0 0.1078075760736345 0.34684294297300161 0 0.1238771491773053 0.32546176342320021 0 0.099751257265178278 0.33132707033492681 0 0.1078075760736345 0.34684294297300161 0 0.1238771491773053 0.32546176342320021 0 0.13173479585415551 0.34916971972149857 0 0.1238771491773053 0.32546176342320021 0 0.099751257265178278 0.33132707033492681 0 0.10214309101702811 0.31247985621061702 0 0.099751257265178278 0.33132707033492681 0 0.08104811376480997 0.32733462284331061 0 0.10214309101702811 0.31247985621061702 0 0.1078075760736345 0.34684294297300161 0 0.099751257265178278 0.33132707033492681 0 0.083880356293113606 0.34451616622450448 0 0.099751257265178278 0.33132707033492681 0 0.08104811376480997 0.32733462284331061 0 0.083880356293113606 0.34451616622450448 0 0.08104811376480997 0.32733462284331061 0 0.075085340888369115 0.3014655720845959 0 0.10214309101702811 0.31247985621061702 0 0.08104811376480997 0.32733462284331061 0 0.10214309101702811 0.31247985621061702 0 0.08104811376480997 0.32733462284331061 0 0.065868552664081217 0.32189340626390728 0 0.075085340888369115 0.3014655720845959 0 0.08104811376480997 0.32733462284331061 0 0.065868552664081217 0.32189340626390728 0 0.05995313651259291 0.34218938947600541 0 0.08104811376480997 0.32733462284331061 0 0.083880356293113606 0.34451616622450448 0 0.05995313651259291 0.34218938947600541 0 0.083880356293113606 0.34451616622450448 0 0.05995313651259291 0.34218938947600541 0 0.08104811376480997 0.32733462284331061 0 0.05995313651259291 0.34218938947600541 0 0.083880356293113606 0.34451616622450448 0 0.070194949534519838 0.36105873615185718 0 0.05995313651259291 0.34218938947600541 0 0.083880356293113606 0.34451616622450448 0 0.093549450503817536 0.36927502029612319 0 0.070194949534519838 0.36105873615185718 0 0.076832886183890059 0.37616790642294301 0 0.093549450503817536 0.36927502029612319 0 0.070194949534519838 0.36105873615185718 0 0.060571385649761757 0.38025076564603738 0 0.076832886183890059 0.37616790642294301 0 0.070194949534519838 0.36105873615185718 0 0.060571385649761757 0.38025076564603738 0 0.070194949534519838 0.36105873615185718 0 0.054843747896439803 0.36524996961388229 0 0.060571385649761757 0.38025076564603738 0 0.054843747896439803 0.36524996961388229 0 0.039056284335017358 0.36724542043085029 0 0.060571385649761757 0.38025076564603738 0 0.039056284335017358 0.36724542043085029 0 0.070194949534519838 0.36105873615185718 0 0.054843747896439803 0.36524996961388229 0 0.056371253755297362 0.3551117174409163 0 0.054843747896439803 0.36524996961388229 0 0.056371253755297362 0.3551117174409163 0 0.046350897272920542 0.36150762986046919 0 0.04566292170363135 0.35225234444296649 0 0.038688860391977178 0.34012156781912839 0 0.05995313651259291 0.34218938947600541 0 0.070194949534519838 0.36105873615185718 0 0.056371253755297362 0.3551117174409163 0 0.05995313651259291 0.34218938947600541 0 0.056371253755297362 0.3551117174409163 0 0.04566292170363135 0.35225234444296649 0 0.046350897272920542 0.36150762986046919 0 0.04566292170363135 0.35225234444296649 0 0.05995313651259291 0.34218938947600541 0 0.056371253755297362 0.3551117174409163 0 0.04566292170363135 0.35225234444296649 0 0.05995313651259291 0.34218938947600541 0 0.04566292170363135 0.35225234444296649 0 0.034369588132518357 0.35207668325644192 0 0.038688860391977178 0.34012156781912839 0 0.04566292170363135 0.35225234444296649 0 0.046350897272920542 0.36150762986046919 0 0.03124627310558525 0.36252446231462498 0 0.04566292170363135 0.35225234444296649 0 0.03124627310558525 0.36252446231462498 0 0.04566292170363135 0.35225234444296649 0 0.034369588132518357 0.35207668325644192 0 0.03124627310558525 0.36252446231462498 0 0.034369588132518357 0.35207668325644192 0 0.027447240930944559 0.34535520949081522 0 0.038688860391977178 0.34012156781912839 0 0.054843747896439803 0.36524996961388229 0 0.046350897272920542 0.36150762986046919 0 0.039056284335017358 0.36724542043085029 0 0.046350897272920542 0.36150762986046919 0 0.039056284335017358 0.36724542043085029 0 0.03124627310558525 0.36252446231462498 0 0.039056284335017358 0.36724542043085029 0 0.03124627310558525 0.36252446231462498 0 0.027825777676813199 0.37872031866053829 0 0.039056284335017358 0.36724542043085029 0 0.019157163765866809 0.36978970136449979 0 0.039056284335017358 0.36724542043085029 0 0.019157163765866809 0.36978970136449979 0 0.03124627310558525 0.36252446231462498 0 0.019157163765866809 0.36978970136449979 0 0.03124627310558525 0.36252446231462498 0 0.017541183020272948 0.35424007521566331 0 0.03124627310558525 0.36252446231462498 0 0.017541183020272948 0.35424007521566331 0 0.034369588132518357 0.35207668325644192 0 0.027447240930944559 0.34535520949081522 0 0.017541183020272948 0.35424007521566331 0 0.034369588132518357 0.35207668325644192 0 0.03124627310558525 0.36252446231462498 0 0.017541183020272948 0.35424007521566331 0 0.020181638430483081 0.34479880498984489 0 0.017541183020272948 0.35424007521566331 0 0.01469176946330009 0.34677113837143642 0 0.027447240930944559 0.34535520949081522 0 0.020181638430483081 0.34479880498984489 0 0.017541183020272948 0.35424007521566331 0 0.020181638430483081 0.34479880498984489 0 0.01469176946330009 0.34677113837143642 0 0.01583734796427199 0.34099913344043598 0 0.017541183020272948 0.35424007521566331 0 0.0066219711490996831 0.34891505666914191 0 0.0096018045195795654 0.36048318949589442 0 0.01469176946330009 0.34677113837143642 0 0.0066219711490996831 0.34891505666914191 0 0.010699658557479281 0.34306912524352662 0 0.017541183020272948 0.35424007521566331 0 0.01469176946330009 0.34677113837143642 0 0.0066219711490996831 0.34891505666914191 0 0.0066219711490996831 0.34891505666914191 0 0.0053443430940815504 0.34023460775490488 0 0.010699658557479281 0.34306912524352662 0 -0.0062651488388395593 0.35121833234929339 0 0.0066219711490996831 0.34891505666914191 0 0.001025247234433042 0.35787708659393203 0 0.0066219711490996831 0.34891505666914191 0 0.001025247234433042 0.35787708659393203 0 0.0096018045195795654 0.36048318949589442 0 0.019157163765866809 0.36978970136449979 0 0.0030432833389739309 0.3686872213646244 0 0.0096018045195795654 0.36048318949589442 0 0.001025247234433042 0.35787708659393203 0 0.0030432833389739309 0.3686872213646244 0 0.0096018045195795654 0.36048318949589442 0 0.019157163765866809 0.36978970136449979 0 0.017541183020272948 0.35424007521566331 0 0.0096018045195795654 0.36048318949589442 0 0.0065208847956155381 0.31713335066096943 0 0.01850215767167453 0.33605412520447409 0 0.018455623266933448 0.31524599435471129 0 0.0065208847956155381 0.31713335066096943 0 0.01850215767167453 0.33605412520447409 0 0.0065208847956155381 0.31713335066096943 0 0.018455623266933448 0.31524599435471129 0 0.009119139147131132 0.30582000141964111 0 0.0065208847956155381 0.31713335066096943 0 0.0032683553199878181 0.33129555223838958 0 -0.00096930810877692583 0.32313220051569053 0 0.0065208847956155381 0.31713335066096943 0 0.0032683553199878181 0.33129555223838958 0 0.0065208847956155381 0.31713335066096943 0 0.0032683553199878181 0.33129555223838958 0 0.01850215767167453 0.33605412520447409 0 0.0032683553199878181 0.33129555223838958 0 0.0053443430940815504 0.34023460775490488 0 0.010407171309817441 0.33737134538759611 0 -0.0022169591028925739 0.34003475710261488 0 0.0032683553199878181 0.33129555223838958 0 0.0053443430940815504 0.34023460775490488 0 -0.0022169591028925739 0.34003475710261488 0 0.0066219711490996831 0.34891505666914191 0 0.0053443430940815504 0.34023460775490488 0 0.010407171309817441 0.33737134538759611 0 0.017424584271361579 0.33805374616224931 0 0.01850215767167453 0.33605412520447409 0 0.0053443430940815504 0.34023460775490488 0 0.010699658557479281 0.34306912524352662 0 0.010407171309817441 0.33737134538759611 0 0.010407171309817441 0.33737134538759611 0 0.01583734796427199 0.34099913344043598 0 0.017424584271361579 0.33805374616224931 0 0.010407171309817441 0.33737134538759611 0 0.017424584271361579 0.33805374616224931 0 0.01469176946330009 0.34677113837143642 0 0.010699658557479281 0.34306912524352662 0 0.01583734796427199 0.34099913344043598 0 0.010699658557479281 0.34306912524352662 0 0.010407171309817441 0.33737134538759611 0 0.01583734796427199 0.34099913344043598 0 0.0032683553199878181 0.33129555223838958 0 0.010407171309817441 0.33737134538759611 0 0.01850215767167453 0.33605412520447409 0 0.01850215767167453 0.33605412520447409 0 0.027033276070973309 0.3202231821434065 0 0.017424584271361579 0.33805374616224931 0 0.038688860391977178 0.34012156781912839 0 0.017424584271361579 0.33805374616224931 0 0.01850215767167453 0.33605412520447409 0 0.038688860391977178 0.34012156781912839 0 0.01850215767167453 0.33605412520447409 0 0.02866744461598188 0.33208081621155722 0 0.027033276070973309 0.3202231821434065 0 0.027447240930944559 0.34535520949081522 0 0.017424584271361579 0.33805374616224931 0 0.038688860391977178 0.34012156781912839 0 0.01850215767167453 0.33605412520447409 0 0.02866744461598188 0.33208081621155722 0 0.038688860391977178 0.34012156781912839 0 0.027447240930944559 0.34535520949081522 0 0.020181638430483081 0.34479880498984489 0 0.017424584271361579 0.33805374616224931 0 0.020181638430483081 0.34479880498984489 0 0.01583734796427199 0.34099913344043598 0 0.017424584271361579 0.33805374616224931 0 0.01583734796427199 0.34099913344043598 0 0.017424584271361579 0.33805374616224931 0 0.017424584271361579 0.33805374616224931 0 0.01850215767167453 0.33605412520447409 0 0.02866744461598188 0.33208081621155722 0 0.027033276070973309 0.3202231821434065 0 0.037308569004190349 0.32646082708761798 0 0.01850215767167453 0.33605412520447409 0 0.018455623266933448 0.31524599435471129 0 0.027033276070973309 0.3202231821434065 0 0.018455623266933448 0.31524599435471129 0 0.027033276070973309 0.3202231821434065 0 0.035564394470269947 0.30439223908233792 0 0.027033276070973309 0.3202231821434065 0 0.041293008878478837 0.3155154432667856 0 0.035564394470269947 0.30439223908233792 0 0.027033276070973309 0.3202231821434065 0 0.037308569004190349 0.32646082708761798 0 0.041293008878478837 0.3155154432667856 0 0.037308569004190349 0.32646082708761798 0 0.041293008878478837 0.3155154432667856 0 0.050860255063540541 0.32436312599721201 0 0.037308569004190349 0.32646082708761798 0 0.038688860391977178 0.34012156781912839 0 0.050860255063540541 0.32436312599721201 0 0.02866744461598188 0.33208081621155722 0 0.037308569004190349 0.32646082708761798 0 0.038688860391977178 0.34012156781912839 0 0.038688860391977178 0.34012156781912839 0 0.05995313651259291 0.34218938947600541 0 0.038688860391977178 0.34012156781912839 0 0.05995313651259291 0.34218938947600541 0 0.050860255063540541 0.32436312599721201 0 0.065868552664081217 0.32189340626390728 0 0.05995313651259291 0.34218938947600541 0 0.050860255063540541 0.32436312599721201 0 0.050860255063540541 0.32436312599721201 0 0.059954497986296068 0.30949354843242732 0 0.050111918014468612 0.31238563307780792 0 0.041293008878478837 0.3155154432667856 0 0.050860255063540541 0.32436312599721201 0 0.050111918014468612 0.31238563307780792 0 0.065868552664081217 0.32189340626390728 0 0.050860255063540541 0.32436312599721201 0 0.059954497986296068 0.30949354843242732 0 0.059954497986296068 0.30949354843242732 0 0.055732913270128102 0.29712421580132081 0 0.050111918014468612 0.31238563307780792 0 0.055732913270128102 0.29712421580132081 0 0.050111918014468612 0.31238563307780792 0 0.043689012616484807 0.30395359617069029 0 0.055732913270128102 0.29712421580132081 0 0.062416315869152819 0.28435900105419742 0 0.046515596545127297 0.28407041861486332 0 0.055732913270128102 0.29712421580132081 0 0.046515596545127297 0.28407041861486332 0 0.043689012616484807 0.30395359617069029 0 0.046515596545127297 0.28407041861486332 0 0.035564394470269947 0.30439223908233792 0 0.02952273791696719 0.28915636566702702 0 0.046515596545127297 0.28407041861486332 0 0.035564394470269947 0.30439223908233792 0 0.046515596545127297 0.28407041861486332 0 0.02952273791696719 0.28915636566702702 0 0.03180747953168428 0.27655680028492591 0 0.046515596545127297 0.28407041861486332 0 0.043689012616484807 0.30395359617069029 0 0.035564394470269947 0.30439223908233792 0 0.027033276070973309 0.3202231821434065 0 0.035564394470269947 0.30439223908233792 0 0.041293008878478837 0.3155154432667856 0 0.043689012616484807 0.30395359617069029 0 0.035564394470269947 0.30439223908233792 0 0.041293008878478837 0.3155154432667856 0 0.050111918014468612 0.31238563307780792 0 0.043689012616484807 0.30395359617069029 0 0.043689012616484807 0.30395359617069029 0 0.035564394470269947 0.30439223908233792 0 0.035564394470269947 0.30439223908233792 0 0.009119139147131132 0.30582000141964111 0 0.018455623266933448 0.31524599435471129 0 0.035564394470269947 0.30439223908233792 0 0.009119139147131132 0.30582000141964111 0 0.035564394470269947 0.30439223908233792 0 0.022083373432805201 0.2958455885679101 0 0.009119139147131132 0.30582000141964111 0 0.02952273791696719 0.28915636566702702 0 0.014127222196852271 0.28401374810262903 0 0.03180747953168428 0.27655680028492591 0 0.035564394470269947 0.30439223908233792 0 0.02952273791696719 0.28915636566702702 0 0.022083373432805201 0.2958455885679101 0 0.02952273791696719 0.28915636566702702 0 0.022083373432805201 0.2958455885679101 0 0.014127222196852271 0.28401374810262903 0 0.022083373432805201 0.2958455885679101 0 0.014127222196852271 0.28401374810262903 0 0.009119139147131132 0.30582000141964111 0 -0.002429867640735646 0.27818434943237969 0 0.014127222196852271 0.28401374810262903 0 0.002272398575433739 0.29367378081891471 0 0.014127222196852271 0.28401374810262903 0 0.009119139147131132 0.30582000141964111 0 0.014127222196852271 0.28401374810262903 0 0.002272398575433739 0.29367378081891471 0 0.009119139147131132 0.30582000141964111 0 -0.00032039209777558631 0.30632963564433752 0 0.002272398575433739 0.29367378081891471 0 0.009119139147131132 0.30582000141964111 0 -0.00032039209777558631 0.30632963564433752 0 0.0065208847956155381 0.31713335066096943 0 0.009119139147131132 0.30582000141964111 0 -0.00032039209777558631 0.30632963564433752 0 0.009119139147131132 0.30582000141964111 0 -0.00032039209777558631 0.30632963564433752 0 0.0065208847956155381 0.31713335066096943 0 0.0065208847956155381 0.31713335066096943 0 0.009119139147131132 0.30582000141964111 0 0.0075479710267653899 0.25899639646182387 0 0.0078892148500726705 0.27063368354733558 0 0.019135305246574998 0.26220749478561739 0 0.01325113107138765 0.24994977195075141 0 0.0075479710267653899 0.25899639646182387 0 0.019135305246574998 0.26220749478561739 0 0.01325113107138765 0.24994977195075141 0 0.003791674785571924 0.24772290422529519 0 0.0075479710267653899 0.25899639646182387 0 -0.004564386456106905 0.25685639806929428 0 0.003791674785571924 0.24772290422529519 0 0.0075479710267653899 0.25899639646182387 0 -0.004564386456106905 0.25685639806929428 0 0.0075479710267653899 0.25899639646182387 0 0.00013404393218866101 0.26668544968263141 0 0.0075479710267653899 0.25899639646182387 0 0.00013404393218866101 0.26668544968263141 0 0.0078892148500726705 0.27063368354733558 0 0.014127222196852271 0.28401374810262903 0 0.0078892148500726705 0.27063368354733558 0 0.019135305246574998 0.26220749478561739 0 -0.002429867640735646 0.27818434943237969 0 0.00013404393218866101 0.26668544968263141 0 0.0078892148500726705 0.27063368354733558 0 -0.002429867640735646 0.27818434943237969 0 0.014127222196852271 0.28401374810262903 0 0.0078892148500726705 0.27063368354733558 0 0.014127222196852271 0.28401374810262903 0 0.019135305246574998 0.26220749478561739 0 0.014127222196852271 0.28401374810262903 0 0.026237888754789732 0.26793610125417949 0 0.019135305246574998 0.26220749478561739 0 0.014127222196852271 0.28401374810262903 0 0.026237888754789732 0.26793610125417949 0 0.03180747953168428 0.27655680028492591 0 0.024143388296297971 0.24040124146860589 0 0.01325113107138765 0.24994977195075141 0 0.019135305246574998 0.26220749478561739 0 0.026237888754789732 0.26793610125417949 0 0.026404545020734992 0.25651996196379739 0 0.03971489177810212 0.2603825011339278 0 0.026237888754789732 0.26793610125417949 0 0.019135305246574998 0.26220749478561739 0 0.026404545020734992 0.25651996196379739 0 0.024143388296297971 0.24040124146860589 0 0.019135305246574998 0.26220749478561739 0 0.024143388296297971 0.24040124146860589 0 0.019135305246574998 0.26220749478561739 0 0.026404545020734992 0.25651996196379739 0 0.031434663195222673 0.2478948043304843 0 0.026404545020734992 0.25651996196379739 0 0.03971489177810212 0.2603825011339278 0 0.040285344304628143 0.24574221750912931 0 0.031434663195222673 0.2478948043304843 0 0.03971489177810212 0.2603825011339278 0 0.026237888754789732 0.26793610125417949 0 0.03971489177810212 0.2603825011339278 0 0.03180747953168428 0.27655680028492591 0 0.046515596545127297 0.28407041861486332 0 0.03971489177810212 0.2603825011339278 0 0.03180747953168428 0.27655680028492591 0 0.046515596545127297 0.28407041861486332 0 0.03971489177810212 0.2603825011339278 0 0.057466798619983633 0.26374859814738821 0 0.062416315869152819 0.28435900105419742 0 0.046515596545127297 0.28407041861486332 0 0.057466798619983633 0.26374859814738821 0 0.046515596545127297 0.28407041861486332 0 0.057466798619983633 0.26374859814738821 0 0.054054209473331151 0.24323771215732229 0 0.068418000694839998 0.24342677767991289 0 0.057466798619983633 0.26374859814738821 0 0.054054209473331151 0.24323771215732229 0 0.03971489177810212 0.2603825011339278 0 0.057466798619983633 0.26374859814738821 0 0.057466798619983633 0.26374859814738821 0 0.075266083395755037 0.25763888860009909 0 0.077280930022155955 0.2753862006228191 0 0.068418000694839998 0.24342677767991289 0 0.057466798619983633 0.26374859814738821 0 0.068418000694839998 0.24342677767991289 0 0.057466798619983633 0.26374859814738821 0 0.075266083395755037 0.25763888860009909 0 0.075266083395755037 0.25763888860009909 0 0.093382952469636155 0.25882828081653358 0 0.077280930022155955 0.2753862006228191 0 0.088558722698074119 0.2391029110657821 0 0.075266083395755037 0.25763888860009909 0 0.093382952469636155 0.25882828081653358 0 0.093382952469636155 0.25882828081653358 0 0.077280930022155955 0.2753862006228191 0 0.094430493013301045 0.28420642560368797 0 0.062416315869152819 0.28435900105419742 0 0.057466798619983633 0.26374859814738821 0 0.077280930022155955 0.2753862006228191 0 0.062416315869152819 0.28435900105419742 0 0.077280930022155955 0.2753862006228191 0 0.075085340888369115 0.3014655720845959 0 0.055732913270128102 0.29712421580132081 0 0.062416315869152819 0.28435900105419742 0 0.075085340888369115 0.3014655720845959 0 0.059954497986296068 0.30949354843242732 0 0.055732913270128102 0.29712421580132081 0 0.075085340888369115 0.3014655720845959 0 0.065868552664081217 0.32189340626390728 0 0.059954497986296068 0.30949354843242732 0 0.075085340888369115 0.3014655720845959 0 0.075085340888369115 0.3014655720845959 0 0.094430493013301045 0.28420642560368797 0 0.10214309101702811 0.31247985621061702 0 0.077280930022155955 0.2753862006228191 0 0.075085340888369115 0.3014655720845959 0 0.094430493013301045 0.28420642560368797 0 0.094430493013301045 0.28420642560368797 0 0.10214309101702811 0.31247985621061702 0 0.11061813971756961 0.29048315318769219 0 0.1238771491773053 0.32546176342320021 0 0.10214309101702811 0.31247985621061702 0 0.1232380682692462 0.29762508957792361 0 0.10214309101702811 0.31247985621061702 0 0.1232380682692462 0.29762508957792361 0 0.11061813971756961 0.29048315318769219 0 0.10214309101702811 0.31247985621061702 0 0.1232380682692462 0.29762508957792361 0 0.1232380682692462 0.29762508957792361 0 0.11061813971756961 0.29048315318769219 0 0.1231270655975823 0.28776182930812289 0 0.11061813971756961 0.29048315318769219 0 0.1231270655975823 0.28776182930812289 0 0.1212190641687222 0.27787613496818209 0 0.10931857714309789 0.23517858597420771 0 0.1233757836889447 0.26012076273645052 0 0.10807250396504731 0.26659549069987071 0 0.10931857714309789 0.23517858597420771 0 0.093382952469636155 0.25882828081653358 0 0.10807250396504731 0.26659549069987071 0 0.11061813971756961 0.29048315318769219 0 0.1212190641687222 0.27787613496818209 0 0.10807250396504731 0.26659549069987071 0 0.1212190641687222 0.27787613496818209 0 0.1233757836889447 0.26012076273645052 0 0.10807250396504731 0.26659549069987071 0 0.093382952469636155 0.25882828081653358 0 0.094430493013301045 0.28420642560368797 0 0.10807250396504731 0.26659549069987071 0 0.094430493013301045 0.28420642560368797 0 0.11061813971756961 0.29048315318769219 0 0.10807250396504731 0.26659549069987071 0 0.14433304552146431 0.28277032294523008 0 0.16542802277368249 0.26791555631253672 0 0.1471288700404963 0.2674731602258798 0 0.14433304552146431 0.28277032294523008 0 0.16542802277368249 0.26791555631253672 0 0.1471288700404963 0.2674731602258798 0 0.13769344486114521 0.27177852977781047 0 0.14433304552146431 0.28277032294523008 0 0.14921605911603561 0.24735513048092289 0 0.16218474267495711 0.26380234576450418 0 0.1471288700404963 0.2674731602258798 0 0.13710380121006871 0.25306898025136071 0 0.16218474267495711 0.26380234576450418 0 0.14921605911603561 0.24735513048092289 0 0.13710380121006871 0.25306898025136071 0 0.16218474267495711 0.26380234576450418 0 0.13710380121006871 0.25306898025136071 0 0.16218474267495711 0.26380234576450418 0 0.1471288700404963 0.2674731602258798 0 0.1363254749501637 0.26311035824787538 0 0.13710380121006871 0.25306898025136071 0 0.1265113843998063 0.24481906103984011 0 0.1233757836889447 0.26012076273645052 0 0.13710380121006871 0.25306898025136071 0 0.1233757836889447 0.26012076273645052 0 0.1363254749501637 0.26311035824787538 0 0.13769344486114521 0.27177852977781047 0 0.1233757836889447 0.26012076273645052 0 0.1363254749501637 0.26311035824787538 0 0.13710380121006871 0.25306898025136071 0 0.1233757836889447 0.26012076273645052 0 0.13769344486114521 0.27177852977781047 0 0.13743299023479091 0.28506293949869371 0 0.1212190641687222 0.27787613496818209 0 0.1233757836889447 0.26012076273645052 0 0.13743299023479091 0.28506293949869371 0 0.1233757836889447 0.26012076273645052 0 0.13743299023479091 0.28506293949869371 0 0.1471288700404963 0.2674731602258798 0 0.1363254749501637 0.26311035824787538 0 0.13769344486114521 0.27177852977781047 0 0.13769344486114521 0.27177852977781047 0 0.13743299023479091 0.28506293949869371 0 0.14433304552146431 0.28277032294523008 0 0.1232380682692462 0.29762508957792361 0 0.14433304552146431 0.28277032294523008 0 0.1231270655975823 0.28776182930812289 0 0.1212190641687222 0.27787613496818209 0 0.13743299023479091 0.28506293949869371 0 0.1232380682692462 0.29762508957792361 0 0.1440792012729625 0.30159206800191207 0 0.14433304552146431 0.28277032294523008 0 0.1232380682692462 0.29762508957792361 0 0.13743299023479091 0.28506293949869371 0 0.14433304552146431 0.28277032294523008 0 0.1232380682692462 0.29762508957792361 0 0.1231270655975823 0.28776182930812289 0 0.13743299023479091 0.28506293949869371 0 0.1238771491773053 0.32546176342320021 0 0.1232380682692462 0.29762508957792361 0 0.1440792012729625 0.30159206800191207 0 0.1440792012729625 0.30159206800191207 0 0.16287147327872761 0.30267513620963232 0 0.14662452085081851 0.32024264097240868 0 0.1440792012729625 0.30159206800191207 0 0.16144170052573339 0.28466032972444277 0 0.16287147327872761 0.30267513620963232 0 0.1440792012729625 0.30159206800191207 0 0.14433304552146431 0.28277032294523008 0 0.16144170052573339 0.28466032972444277 0 0.16144170052573339 0.28466032972444277 0 0.16287147327872761 0.30267513620963232 0 0.17865440935087529 0.28468959713716058 0 0.16287147327872761 0.30267513620963232 0 0.1866901883254409 0.30496631501286681 0 0.1629828702520893 0.32505095056684802 0 0.16287147327872761 0.30267513620963232 0 0.1866901883254409 0.30496631501286681 0 0.17865440935087529 0.28468959713716058 0 0.1866901883254409 0.30496631501286681 0 0.17865440935087529 0.28468959713716058 0 0.19226154187303729 0.27667368393617231 0 0.16783520397543991 0.26622045540926631 0 0.19226154187303729 0.27667368393617231 0 0.17865440935087529 0.28468959713716058 0 0.16783520397543991 0.26622045540926631 0 0.19226154187303729 0.27667368393617231 0 0.16783520397543991 0.26622045540926631 0 0.17711380878448499 0.25968660104823021 0 0.19226154187303729 0.27667368393617231 0 0.17865440935087529 0.28468959713716058 0 0.16542802277368249 0.26791555631253672 0 0.17865440935087529 0.28468959713716058 0 0.16783520397543991 0.26622045540926631 0 0.16542802277368249 0.26791555631253672 0 0.16144170052573339 0.28466032972444277 0 0.17865440935087529 0.28468959713716058 0 0.16542802277368249 0.26791555631253672 0 0.14433304552146431 0.28277032294523008 0 0.16144170052573339 0.28466032972444277 0 0.16542802277368249 0.26791555631253672 0 0.1471288700404963 0.2674731602258798 0 0.16542802277368249 0.26791555631253672 0 0.16218474267495711 0.26380234576450418 0 0.16783520397543991 0.26622045540926631 0 0.16542802277368249 0.26791555631253672 0 0.16218474267495711 0.26380234576450418 0 0.16783520397543991 0.26622045540926631 0 0.16542802277368249 0.26791555631253672 0 0.16542802277368249 0.26791555631253672 0 0.16218474267495711 0.26380234576450418 0 0.14921605911603561 0.24735513048092289 0 0.16598301654807079 0.24844582893964351 0 0.16218474267495711 0.26380234576450418 0 0.16783520397543991 0.26622045540926631 0 0.16218474267495711 0.26380234576450418 0 0.1702100712638662 0.25718086859859468 0 0.16783520397543991 0.26622045540926631 0 0.1702100712638662 0.25718086859859468 0 0.17711380878448499 0.25968660104823021 0 0.16783520397543991 0.26622045540926631 0 0.16218474267495711 0.26380234576450418 0 0.17793358433637771 0.24774911183132969 0 0.16598301654807079 0.24844582893964351 0 0.1702100712638662 0.25718086859859468 0 0.16598301654807079 0.24844582893964351 0 0.16218474267495711 0.26380234576450418 0 0.1702100712638662 0.25718086859859468 0 0.17793358433637771 0.24774911183132969 0 0.17711380878448499 0.25968660104823021 0 0.19675200613609869 0.25387006042305549 0 0.17793358433637771 0.24774911183132969 0 0.1702100712638662 0.25718086859859468 0 0.17711380878448499 0.25968660104823021 0 0.16783520397543991 0.26622045540926631 0 0.17711380878448499 0.25968660104823021 0 0.17711380878448499 0.25968660104823021 0 0.19675200613609869 0.25387006042305549 0 0.19226154187303729 0.27667368393617231 0 0.19675200613609869 0.25387006042305549 0 0.19226154187303729 0.27667368393617231 0 0.2128966058519341 0.26411652948167719 0 0.19675200613609869 0.25387006042305549 0 0.19226154187303729 0.27667368393617231 0 0.19226154187303729 0.27667368393617231 0 0.2128966058519341 0.26411652948167719 0 0.2182396251644298 0.28779098045742979 0 0.2154941529563075 0.2467231945984566 0 0.19675200613609869 0.25387006042305549 0 0.2128966058519341 0.26411652948167719 0 0.2154941529563075 0.2467231945984566 0 0.2128966058519341 0.26411652948167719 0 0.22589877104413841 0.25456972674656159 0 0.2128966058519341 0.26411652948167719 0 0.22589877104413841 0.25456972674656159 0 0.228911271686734 0.26698365117402828 0 0.22589877104413841 0.25456972674656159 0 0.228911271686734 0.26698365117402828 0 0.23738978373314901 0.25532225906031991 0 0.2128966058519341 0.26411652948167719 0 0.228911271686734 0.26698365117402828 0 0.2182396251644298 0.28779098045742979 0 0.228911271686734 0.26698365117402828 0 0.2387574003333352 0.28032945865684222 0 0.2182396251644298 0.28779098045742979 0 0.228911271686734 0.26698365117402828 0 0.24184104520420929 0.26594443411324242 0 0.2387574003333352 0.28032945865684222 0 0.24184104520420929 0.26594443411324242 0 0.2387574003333352 0.28032945865684222 0 0.25167401287834568 0.27306833633317068 0 0.24184104520420929 0.26594443411324242 0 0.23738978373314901 0.25532225906031991 0 0.25247275738948288 0.25401846534185119 0 0.24184104520420929 0.26594443411324242 0 0.25247275738948288 0.25401846534185119 0 0.25167401287834568 0.27306833633317068 0 0.228911271686734 0.26698365117402828 0 0.24184104520420929 0.26594443411324242 0 0.23738978373314901 0.25532225906031991 0 0.23783836536509301 0.31565336997886329 0 0.25399091957574521 0.29199365062212068 0 0.23391164259365649 0.29689295453871722 0 0.23783836536509301 0.31565336997886329 0 0.25399091957574521 0.29199365062212068 0 0.2387574003333352 0.28032945865684222 0 0.23391164259365649 0.29689295453871722 0 0.25399091957574521 0.29199365062212068 0 0.2387574003333352 0.28032945865684222 0 0.25399091957574521 0.29199365062212068 0 0.25167401287834568 0.27306833633317068 0 0.2387574003333352 0.28032945865684222 0 0.23391164259365649 0.29689295453871722 0 0.2182396251644298 0.28779098045742979 0 0.23391164259365649 0.29689295453871722 0 0.22073190252967981 0.30869731297832981 0 0.23783836536509301 0.31565336997886329 0 0.23391164259365649 0.29689295453871722 0 0.22073190252967981 0.30869731297832981 0 0.2182396251644298 0.28779098045742979 0 0.22073190252967981 0.30869731297832981 0 0.23783836536509301 0.31565336997886329 0 0.22073190252967981 0.30869731297832981 0 0.20362543969426669 0.301741255977796 0 0.20812820978631891 0.31530604188866102 0 0.22073190252967981 0.30869731297832981 0 0.20362543969426669 0.301741255977796 0 0.2182396251644298 0.28779098045742979 0 0.22073190252967981 0.30869731297832981 0 0.20362543969426669 0.301741255977796 0 0.19226154187303729 0.27667368393617231 0 0.20362543969426669 0.301741255977796 0 0.2182396251644298 0.28779098045742979 0 0.19226154187303729 0.27667368393617231 0 0.2182396251644298 0.28779098045742979 0 0.1866901883254409 0.30496631501286681 0 0.19226154187303729 0.27667368393617231 0 0.1866901883254409 0.30496631501286681 0 0.19226154187303729 0.27667368393617231 0 0.20362543969426669 0.301741255977796 0 0.1866901883254409 0.30496631501286681 0 0.20362543969426669 0.301741255977796 0 0.19654718516013209 0.31619051217593003 0 0.20362543969426669 0.301741255977796 0 0.19654718516013209 0.31619051217593003 0 0.20812820978631891 0.31530604188866102 0 0.2019477994411594 0.3276882284035606 0 0.19654718516013209 0.31619051217593003 0 0.1811188347778441 0.33325894608956103 0 0.1866901883254409 0.30496631501286681 0 0.19654718516013209 0.31619051217593003 0 0.1811188347778441 0.33325894608956103 0 0.2019477994411594 0.3276882284035606 0 0.19654718516013209 0.31619051217593003 0 0.20812820978631891 0.31530604188866102 0 0.2019477994411594 0.3276882284035606 0 0.1971819838395156 0.34637301943713 0 0.1811188347778441 0.33325894608956103 0 0.21152792943483401 0.33731399399142842 0 0.22553773703802321 0.33367091756512318 0 0.2132371087109535 0.35168846515138302 0 0.2019477994411594 0.3276882284035606 0 0.21152792943483401 0.33731399399142842 0 0.21778872210635641 0.3222128999076887 0 0.2019477994411594 0.3276882284035606 0 0.21152792943483401 0.33731399399142842 0 0.1971819838395156 0.34637301943713 0 0.21152792943483401 0.33731399399142842 0 0.21778872210635641 0.3222128999076887 0 0.22553773703802321 0.33367091756512318 0 0.2019477994411594 0.3276882284035606 0 0.20812820978631891 0.31530604188866102 0 0.21778872210635641 0.3222128999076887 0 0.22073190252967981 0.30869731297832981 0 0.20812820978631891 0.31530604188866102 0 0.21778872210635641 0.3222128999076887 0 0.21778872210635641 0.3222128999076887 0 0.22553773703802321 0.33367091756512318 0 0.23783836536509301 0.31565336997886329 0 0.22073190252967981 0.30869731297832981 0 0.21778872210635641 0.3222128999076887 0 0.23783836536509301 0.31565336997886329 0 0.22553773703802321 0.33367091756512318 0 0.23783836536509301 0.31565336997886329 0 0.22553773703802321 0.33367091756512318 0 0.23807268446027011 0.3290209501158689 0 0.23783836536509301 0.31565336997886329 0 0.22553773703802321 0.33367091756512318 0 0.2132371087109535 0.35168846515138302 0 0.22553773703802321 0.33367091756512318 0 0.23239977974845591 0.34112736396507681 0 0.2132371087109535 0.35168846515138302 0 0.22553773703802321 0.33367091756512318 0 0.23285392761407789 0.33596409665688493 0 0.23239977974845591 0.34112736396507681 0 0.23285392761407789 0.33596409665688493 0 0.23239977974845591 0.34112736396507681 0 0.23556005924178169 0.34331958444117239 0 0.22553773703802321 0.33367091756512318 0 0.23285392761407789 0.33596409665688493 0 0.23807268446027011 0.3290209501158689 0 0.23556005924178169 0.34331958444117239 0 0.24852544892751241 0.3439900518832546 0 0.25313896538212899 0.33510740846486831 0 0.23556005924178169 0.34331958444117239 0 0.2525696818628661 0.32164361344634662 0 0.23556005924178169 0.34331958444117239 0 0.2525696818628661 0.32164361344634662 0 0.25313896538212899 0.33510740846486831 0 0.23807268446027011 0.3290209501158689 0 0.23556005924178169 0.34331958444117239 0 0.2525696818628661 0.32164361344634662 0 0.23285392761407789 0.33596409665688493 0 0.23807268446027011 0.3290209501158689 0 0.23556005924178169 0.34331958444117239 0 0.23807268446027011 0.3290209501158689 0 0.23783836536509301 0.31565336997886329 0 0.2525696818628661 0.32164361344634662 0 0.23783836536509301 0.31565336997886329 0 0.2525696818628661 0.32164361344634662 0 0.23764968210229789 0.36670579930701891 0 0.2475106897272043 0.35428289295658161 0 0.25905411186804261 0.37251649796013742 0 0.23239977974845591 0.34112736396507681 0 0.23764968210229789 0.36670579930701891 0 0.23556005924178169 0.34331958444117239 0 0.23764968210229789 0.36670579930701891 0 0.2475106897272043 0.35428289295658161 0 0.23239977974845591 0.34112736396507681 0 0.23556005924178169 0.34331958444117239 0 0.23764968210229789 0.36670579930701891 0 0.23556005924178169 0.34331958444117239 0 0.2475106897272043 0.35428289295658161 0 0.24852544892751241 0.3439900518832546 0 0.23239977974845591 0.34112736396507681 0 0.22493180096185039 0.3572446659043747 0 0.2132371087109535 0.35168846515138302 0 0.23239977974845591 0.34112736396507681 0 0.23764968210229789 0.36670579930701891 0 0.22493180096185039 0.3572446659043747 0 0.23764968210229789 0.36670579930701891 0 0.22493180096185039 0.3572446659043747 0 0.21644063328569449 0.36945703519402012 0 0.23764968210229789 0.36670579930701891 0 0.21644063328569449 0.36945703519402012 0 0.22653643082129629 0.38322242578528432 0 0.21644063328569449 0.36945703519402012 0 0.1997127494420553 0.36673690582059182 0 0.20900978630487571 0.38591203942400232 0 0.22493180096185039 0.3572446659043747 0 0.21644063328569449 0.36945703519402012 0 0.2132371087109535 0.35168846515138302 0 0.21644063328569449 0.36945703519402012 0 0.2132371087109535 0.35168846515138302 0 0.1997127494420553 0.36673690582059182 0 0.2132371087109535 0.35168846515138302 0 0.1971819838395156 0.34637301943713 0 0.1997127494420553 0.36673690582059182 0 0.21152792943483401 0.33731399399142842 0 0.2132371087109535 0.35168846515138302 0 0.1971819838395156 0.34637301943713 0 0.1971819838395156 0.34637301943713 0 0.1997127494420553 0.36673690582059182 0 0.17554748123024741 0.3615515771662553 0 0.1997127494420553 0.36673690582059182 0 0.17554748123024741 0.3615515771662553 0 0.1892688801019565 0.38282716124551192 0 0.17554748123024741 0.3615515771662553 0 0.152460770489831 0.37453681209298029 0 0.15566201563467649 0.35149649646999559 0 0.17554748123024741 0.3615515771662553 0 0.1811188347778441 0.33325894608956103 0 0.15566201563467649 0.35149649646999559 0 0.17554748123024741 0.3615515771662553 0 0.1811188347778441 0.33325894608956103 0 0.1971819838395156 0.34637301943713 0 0.17554748123024741 0.3615515771662553 0 0.1811188347778441 0.33325894608956103 0 0.1866901883254409 0.30496631501286681 0 0.1811188347778441 0.33325894608956103 0 0.1629828702520893 0.32505095056684802 0 0.1866901883254409 0.30496631501286681 0 0.1811188347778441 0.33325894608956103 0 0.16287147327872761 0.30267513620963232 0 0.1629828702520893 0.32505095056684802 0 0.14662452085081851 0.32024264097240868 0 0.1811188347778441 0.33325894608956103 0 0.1629828702520893 0.32505095056684802 0 0.15566201563467649 0.35149649646999559 0 0.1629828702520893 0.32505095056684802 0 0.14473393752798869 0.3367858441943552 0 0.15566201563467649 0.35149649646999559 0 0.1629828702520893 0.32505095056684802 0 0.14473393752798869 0.3367858441943552 0 0.14662452085081851 0.32024264097240868 0 0.1238771491773053 0.32546176342320021 0 0.1440792012729625 0.30159206800191207 0 0.14662452085081851 0.32024264097240868 0 0.1238771491773053 0.32546176342320021 0 0.14473393752798869 0.3367858441943552 0 0.14662452085081851 0.32024264097240868 0 0.1238771491773053 0.32546176342320021 0 0.14473393752798869 0.3367858441943552 0 0.13173479585415551 0.34916971972149857 0 0.11764373659217529 0.36702659591577241 0 0.13173479585415551 0.34916971972149857 0 0.13595455730561901 0.36687253818421672 0 0.11764373659217529 0.36702659591577241 0 0.13595455730561901 0.36687253818421672 0 0.1309133037688035 0.38422249999567948 0 0.13595455730561901 0.36687253818421672 0 0.152460770489831 0.37453681209298029 0 0.15566201563467649 0.35149649646999559 0 0.14473393752798869 0.3367858441943552 0 0.13173479585415551 0.34916971972149857 0 0.15566201563467649 0.35149649646999559 0 0.13173479585415551 0.34916971972149857 0 0.13595455730561901 0.36687253818421672 0 0.15566201563467649 0.35149649646999559 0 0.13173479585415551 0.34916971972149857 0 0.15566201563467649 0.35149649646999559 0 0.152460770489831 0.37453681209298029 0 0.14442632240316841 0.40330934011473979 0 0.16997612768265061 0.38984420824294957 0 0.152460770489831 0.37453681209298029 0 0.14442632240316841 0.40330934011473979 0 0.1309133037688035 0.38422249999567948 0 0.13595455730561901 0.36687253818421672 0 0.152460770489831 0.37453681209298029 0 0.1309133037688035 0.38422249999567948 0 0.1218273948895322 0.40036723235672672 0 0.14442632240316841 0.40330934011473979 0 0.1309133037688035 0.38422249999567948 0 0.1218273948895322 0.40036723235672672 0 0.14442632240316841 0.40330934011473979 0 0.12511668959399491 0.41926680129159849 0 0.14442632240316841 0.40330934011473979 0 0.12511668959399491 0.41926680129159849 0 0.1466317909087396 0.43227214650678558 0 0.12511668959399491 0.41926680129159849 0 0.1466317909087396 0.43227214650678558 0 0.12125214206241119 0.44582005051402618 0 0.12511668959399491 0.41926680129159849 0 0.1466317909087396 0.43227214650678558 0 0.14442632240316841 0.40330934011473979 0 0.1466317909087396 0.43227214650678558 0 0.16440477413505369 0.41813683931964413 0 0.16440477413505369 0.41813683931964413 0 0.17930377286164301 0.44263542325199873 0 0.15883342058745689 0.44642947039633868 0 0.1466317909087396 0.43227214650678558 0 0.16440477413505369 0.41813683931964413 0 0.15883342058745689 0.44642947039633868 0 0.16440477413505369 0.41813683931964413 0 0.15883342058745689 0.44642947039633868 0 0.16440477413505369 0.41813683931964413 0 0.18428623518519391 0.42416036323376538 0 0.17930377286164301 0.44263542325199873 0 0.18428623518519391 0.42416036323376538 0 0.197487180205795 0.43532139468973591 0 0.17930377286164301 0.44263542325199873 0 0.16440477413505369 0.41813683931964413 0 0.18428623518519391 0.42416036323376538 0 0.192185172145865 0.40530065755451722 0 0.16440477413505369 0.41813683931964413 0 0.16997612768265061 0.38984420824294957 0 0.192185172145865 0.40530065755451722 0 0.16997612768265061 0.38984420824294957 0 0.1892688801019565 0.38282716124551192 0 0.192185172145865 0.40530065755451722 0 0.16440477413505369 0.41813683931964413 0 0.16997612768265061 0.38984420824294957 0 0.14442632240316841 0.40330934011473979 0 0.16440477413505369 0.41813683931964413 0 0.16997612768265061 0.38984420824294957 0 0.17554748123024741 0.3615515771662553 0 0.152460770489831 0.37453681209298029 0 0.16997612768265061 0.38984420824294957 0 0.17554748123024741 0.3615515771662553 0 0.16997612768265061 0.38984420824294957 0 0.17554748123024741 0.3615515771662553 0 0.16997612768265061 0.38984420824294957 0 0.1892688801019565 0.38282716124551192 0 0.1997127494420553 0.36673690582059182 0 0.1892688801019565 0.38282716124551192 0 0.20900978630487571 0.38591203942400232 0 0.1892688801019565 0.38282716124551192 0 0.192185172145865 0.40530065755451722 0 0.20900978630487571 0.38591203942400232 0 0.192185172145865 0.40530065755451722 0 0.20900978630487571 0.38591203942400232 0 0.22209447601515811 0.40451005518479 0 0.21644063328569449 0.36945703519402012 0 0.20900978630487571 0.38591203942400232 0 0.22653643082129629 0.38322242578528432 0 0.22653643082129629 0.38322242578528432 0 0.22209447601515811 0.40451005518479 0 0.24289958445613999 0.39228423464896078 0 0.20900978630487571 0.38591203942400232 0 0.22653643082129629 0.38322242578528432 0 0.22209447601515811 0.40451005518479 0 0.22209447601515811 0.40451005518479 0 0.24289958445613999 0.39228423464896078 0 0.248149486809982 0.41786266999090282 0 0.24289958445613999 0.39228423464896078 0 0.248149486809982 0.41786266999090282 0 0.23764968210229789 0.36670579930701891 0 0.24289958445613999 0.39228423464896078 0 0.25905411186804261 0.37251649796013742 0 0.23764968210229789 0.36670579930701891 0 0.22653643082129629 0.38322242578528432 0 0.24289958445613999 0.39228423464896078 0 0.23764968210229789 0.36670579930701891 0 0.24289958445613999 0.39228423464896078 0 0.248149486809982 0.41786266999090282 0 0.22457727883856141 0.42833392401771381 0 0.2514771125966242 0.44468408866335679 0 0.22209447601515811 0.40451005518479 0 0.248149486809982 0.41786266999090282 0 0.22457727883856141 0.42833392401771381 0 0.22457727883856141 0.42833392401771381 0 0.20766649557928371 0.4198989997770281 0 0.197487180205795 0.43532139468973591 0 0.22457727883856141 0.42833392401771381 0 0.197487180205795 0.43532139468973591 0 0.21919225692183791 0.44524221998813102 0 0.22209447601515811 0.40451005518479 0 0.22457727883856141 0.42833392401771381 0 0.20766649557928371 0.4198989997770281 0 0.192185172145865 0.40530065755451722 0 0.22209447601515811 0.40451005518479 0 0.20766649557928371 0.4198989997770281 0 0.18428623518519391 0.42416036323376538 0 0.192185172145865 0.40530065755451722 0 0.20766649557928371 0.4198989997770281 0 0.18428623518519391 0.42416036323376538 0 0.20766649557928371 0.4198989997770281 0 0.197487180205795 0.43532139468973591 0 0.197487180205795 0.43532139468973591 0 0.19586887323961311 0.4528921109972231 0 0.20540799761982859 0.44747605151346109 0 0.197487180205795 0.43532139468973591 0 0.19586887323961311 0.4528921109972231 0 0.17930377286164301 0.44263542325199873 0 0.1937497245465355 0.4639731428600099 0 0.1852056723129063 0.47160722432229091 0 0.1846911349116683 0.45891097993903551 0 0.19586887323961311 0.4528921109972231 0 0.1937497245465355 0.4639731428600099 0 0.1846911349116683 0.45891097993903551 0 0.19586887323961311 0.4528921109972231 0 0.2004407325095027 0.46186482075408047 0 0.21027240179254009 0.45825198482741181 0 0.19586887323961311 0.4528921109972231 0 0.1937497245465355 0.4639731428600099 0 0.2004407325095027 0.46186482075408047 0 0.1937497245465355 0.4639731428600099 0 0.2004407325095027 0.46186482075408047 0 0.20187193045932189 0.47234204433167709 0 0.21027240179254009 0.45825198482741181 0 0.21919225692183791 0.44524221998813102 0 0.2266745215279731 0.458513066497517 0 0.2266745215279731 0.458513066497517 0 0.20187193045932189 0.47234204433167709 0 0.21027240179254009 0.45825198482741181 0 0.2266745215279731 0.458513066497517 0 0.20187193045932189 0.47234204433167709 0 0.2004407325095027 0.46186482075408047 0 0.21027240179254009 0.45825198482741181 0 0.20187193045932189 0.47234204433167709 0 0.197487180205795 0.43532139468973591 0 0.20540799761982859 0.44747605151346109 0 0.21919225692183791 0.44524221998813102 0 0.19586887323961311 0.4528921109972231 0 0.21027240179254009 0.45825198482741181 0 0.20540799761982859 0.44747605151346109 0 0.21027240179254009 0.45825198482741181 0 0.20540799761982859 0.44747605151346109 0 0.21919225692183791 0.44524221998813102 0 0.22457727883856141 0.42833392401771381 0 0.21919225692183791 0.44524221998813102 0 0.2514771125966242 0.44468408866335679 0 0.21919225692183791 0.44524221998813102 0 0.2266745215279731 0.458513066497517 0 0.2514771125966242 0.44468408866335679 0 0.2266745215279731 0.458513066497517 0 0.25399835616134792 0.47101049487231039 0 0.2514771125966242 0.44468408866335679 0 0.2266745215279731 0.458513066497517 0 0.22910606494826871 0.47524071912062582 0 0.25399835616134792 0.47101049487231039 0 0.2266745215279731 0.458513066497517 0 0.2514771125966242 0.44468408866335679 0 0.22910606494826871 0.47524071912062582 0 0.2234932216753345 0.5 0 0.25155527489472151 0.5 0 0.22910606494826871 0.47524071912062582 0 0.25399835616134792 0.47101049487231039 0 0.22910606494826871 0.47524071912062582 0 0.25399835616134792 0.47101049487231039 0 0.25155527489472151 0.5 0 0.2266745215279731 0.458513066497517 0 0.22910606494826871 0.47524071912062582 0 0.20857615931250451 0.47648906452896339 0 0.22910606494826871 0.47524071912062582 0 0.2234932216753345 0.5 0 0.21212052770695919 0.48980544636855822 0 0.2234932216753345 0.5 0 0.21212052770695919 0.48980544636855822 0 0.1954311684559476 0.5 0 0.21212052770695919 0.48980544636855822 0 0.20400161557608831 0.47909909892983188 0 0.19910186547104239 0.48942718695049808 0 0.22910606494826871 0.47524071912062582 0 0.21212052770695919 0.48980544636855822 0 0.20400161557608831 0.47909909892983188 0 0.22910606494826871 0.47524071912062582 0 0.20400161557608831 0.47909909892983188 0 0.20857615931250451 0.47648906452896339 0 0.22910606494826871 0.47524071912062582 0 0.20400161557608831 0.47909909892983188 0 0.2266745215279731 0.458513066497517 0 0.20857615931250451 0.47648906452896339 0 0.20187193045932189 0.47234204433167709 0 0.20400161557608831 0.47909909892983188 0 0.20857615931250451 0.47648906452896339 0 0.20400161557608831 0.47909909892983188 0 0.20857615931250451 0.47648906452896339 0 0.20187193045932189 0.47234204433167709 0 0.20187193045932189 0.47234204433167709 0 0.18797263727453259 0.48824453226448189 0 0.17706933939067071 0.48617102216583741 0 0.1937497245465355 0.4639731428600099 0 0.20187193045932189 0.47234204433167709 0 0.1852056723129063 0.47160722432229091 0 0.20400161557608831 0.47909909892983188 0 0.18797263727453259 0.48824453226448189 0 0.20187193045932189 0.47234204433167709 0 0.17706933939067071 0.48617102216583741 0 0.20400161557608831 0.47909909892983188 0 0.20187193045932189 0.47234204433167709 0 0.18797263727453259 0.48824453226448189 0 0.20187193045932189 0.47234204433167709 0 0.17706933939067071 0.48617102216583741 0 0.1852056723129063 0.47160722432229091 0 0.21212052770695919 0.48980544636855822 0 0.1954311684559476 0.5 0 0.19910186547104239 0.48942718695049808 0 0.20400161557608831 0.47909909892983188 0 0.19910186547104239 0.48942718695049808 0 0.18797263727453259 0.48824453226448189 0 0.1954311684559476 0.5 0 0.19910186547104239 0.48942718695049808 0 0.18797263727453259 0.48824453226448189 0 0.18797263727453259 0.48824453226448189 0 0.17706933939067071 0.48617102216583741 0 0.1673691152365607 0.50000000000000022 0 0.18797263727453259 0.48824453226448189 0 0.1673691152365607 0.50000000000000022 0 0.1954311684559476 0.5 0 0.18797263727453259 0.48824453226448189 0 0.1673691152365607 0.50000000000000022 0 0.17706933939067071 0.48617102216583741 0 0.15920311022256359 0.48761457502183042 0 0.15226674832201989 0.49999999999999872 0 0.17706933939067071 0.48617102216583741 0 0.1673691152365607 0.50000000000000022 0 0.15226674832201989 0.49999999999999872 0 0.17706933939067071 0.48617102216583741 0 0.15226674832201989 0.49999999999999872 0 0.16993415577312379 0.47832175361512241 0 0.15326206703985959 0.47472210147303312 0 0.17706933939067071 0.48617102216583741 0 0.15920311022256359 0.48761457502183042 0 0.16993415577312379 0.47832175361512241 0 0.16993415577312379 0.47832175361512241 0 0.16364322185635921 0.46532228043734403 0 0.15326206703985959 0.47472210147303312 0 0.15920311022256359 0.48761457502183042 0 0.16993415577312379 0.47832175361512241 0 0.15326206703985959 0.47472210147303312 0 0.17741631043932779 0.47597087273502298 0 0.1852056723129063 0.47160722432229091 0 0.17254324402499599 0.46181579626488167 0 0.16993415577312379 0.47832175361512241 0 0.17741631043932779 0.47597087273502298 0 0.17254324402499599 0.46181579626488167 0 0.17706933939067071 0.48617102216583741 0 0.16993415577312379 0.47832175361512241 0 0.17741631043932779 0.47597087273502298 0 0.17706933939067071 0.48617102216583741 0 0.17741631043932779 0.47597087273502298 0 0.1852056723129063 0.47160722432229091 0 0.1852056723129063 0.47160722432229091 0 0.1846911349116683 0.45891097993903551 0 0.17254324402499599 0.46181579626488167 0 0.1846911349116683 0.45891097993903551 0 0.17254324402499599 0.46181579626488167 0 0.17930377286164301 0.44263542325199873 0 0.19586887323961311 0.4528921109972231 0 0.1846911349116683 0.45891097993903551 0 0.17930377286164301 0.44263542325199873 0 0.17254324402499599 0.46181579626488167 0 0.17930377286164301 0.44263542325199873 0 0.15883342058745689 0.44642947039633868 0 0.16993415577312379 0.47832175361512241 0 0.17254324402499599 0.46181579626488167 0 0.16364322185635921 0.46532228043734403 0 0.17254324402499599 0.46181579626488167 0 0.15883342058745689 0.44642947039633868 0 0.16364322185635921 0.46532228043734403 0 0.15883342058745689 0.44642947039633868 0 0.16364322185635921 0.46532228043734403 0 0.15326206703985959 0.47472210147303312 0 0.15883342058745689 0.44642947039633868 0 0.14135895203597099 0.4566308027558833 0 0.15326206703985959 0.47472210147303312 0 0.15883342058745689 0.44642947039633868 0 0.15326206703985959 0.47472210147303312 0 0.1466317909087396 0.43227214650678558 0 0.15883342058745689 0.44642947039633868 0 0.14135895203597099 0.4566308027558833 0 0.12125214206241119 0.44582005051402618 0 0.1466317909087396 0.43227214650678558 0 0.14135895203597099 0.4566308027558833 0 0.1238956110980738 0.46838162262076383 0 0.14135895203597099 0.4566308027558833 0 0.15326206703985959 0.47472210147303312 0 0.1238956110980738 0.46838162262076383 0 0.12125214206241119 0.44582005051402618 0 0.14135895203597099 0.4566308027558833 0 0.1238956110980738 0.46838162262076383 0 0.15326206703985959 0.47472210147303312 0 0.1238956110980738 0.46838162262076383 0 0.13580201835749661 0.48441293847055811 0 0.15326206703985959 0.47472210147303312 0 0.1195654229107193 0.5 0 0.13580201835749661 0.48441293847055811 0 0.14828437128394781 0.50000000000000411 0 0.14828437128394781 0.50000000000000411 0 0.15326206703985959 0.47472210147303312 0 0.15920311022256359 0.48761457502183042 0 0.14828437128394781 0.50000000000000411 0 0.15326206703985959 0.47472210147303312 0 0.13580201835749661 0.48441293847055811 0 0.14828437128394781 0.50000000000000411 0 0.15326206703985959 0.47472210147303312 0 0.15920311022256359 0.48761457502183042 0 0.14828437128394781 0.50000000000000411 0 0.15226674832201989 0.49999999999999872 0 0.35897895391100232 0.47247904603639462 0 0.35075604580227249 0.48717150086172428 0 0.33382474641669552 0.47620695741050267 0 0.35075604580227249 0.48717150086172428 0 0.36899109412900072 0.5 0 0.34122938875239162 0.50000000000000011 0 0.35897895391100232 0.47247904603639462 0 0.35075604580227249 0.48717150086172428 0 0.36899109412900072 0.5 0 0.35897895391100232 0.47247904603639462 0 0.36899109412900072 0.5 0 0.38276019481452661 0.47852410794061612 0 0.35897895391100232 0.47247904603639462 0 0.37078211607963019 0.44995535094209621 0 0.38276019481452661 0.47852410794061612 0 0.37078211607963019 0.44995535094209621 0 0.36517828598789159 0.42600130542859338 0 0.37078211607963019 0.44995535094209621 0 0.36517828598789159 0.42600130542859338 0 0.38279498211221491 0.4368780777270232 0 0.37078211607963019 0.44995535094209621 0 0.34650058029397091 0.45708343411305707 0 0.34249698098152681 0.43436190135528657 0 0.35897895391100232 0.47247904603639462 0 0.34650058029397091 0.45708343411305707 0 0.33382474641669552 0.47620695741050267 0 0.35897895391100232 0.47247904603639462 0 0.37078211607963019 0.44995535094209621 0 0.34650058029397091 0.45708343411305707 0 0.34650058029397091 0.45708343411305707 0 0.32642010408099931 0.45241391482100529 0 0.33382474641669552 0.47620695741050267 0 0.32642010408099931 0.45241391482100529 0 0.33382474641669552 0.47620695741050267 0 0.32642010408099931 0.45241391482100529 0 0.31901546174530321 0.42862087223150802 0 0.34249698098152681 0.43436190135528657 0 0.34650058029397091 0.45708343411305707 0 0.32642010408099931 0.45241391482100529 0 0.34249698098152681 0.43436190135528657 0 0.32642010408099931 0.45241391482100529 0 0.31901546174530321 0.42862087223150802 0 0.32642010408099931 0.45241391482100529 0 0.31342829403553252 0.4463440051027121 0 0.31901546174530321 0.42862087223150802 0 0.32642010408099931 0.45241391482100529 0 0.31342829403553252 0.4463440051027121 0 0.31516364255118923 0.46298001215891638 0 0.32642010408099931 0.45241391482100529 0 0.31516364255118923 0.46298001215891638 0 0.33382474641669552 0.47620695741050267 0 0.31516364255118923 0.46298001215891638 0 0.33382474641669552 0.47620695741050267 0 0.30845320760280498 0.4809816119505938 0 0.33382474641669552 0.47620695741050267 0 0.34122938875239162 0.50000000000000011 0 0.32069203520629719 0.5 0 0.33382474641669552 0.47620695741050267 0 0.34122938875239162 0.50000000000000011 0 0.35075604580227249 0.48717150086172428 0 0.33382474641669552 0.47620695741050267 0 0.34122938875239162 0.50000000000000011 0 0.33382474641669552 0.47620695741050267 0 0.32069203520629719 0.5 0 0.30845320760280498 0.4809816119505938 0 0.30015468166020282 0.5 0 0.30845320760280498 0.4809816119505938 0 0.29235092987739719 0.48746237699400569 0 0.32069203520629719 0.5 0 0.30015468166020282 0.5 0 0.30845320760280498 0.4809816119505938 0 0.31516364255118923 0.46298001215891638 0 0.30845320760280498 0.4809816119505938 0 0.30127520659360019 0.46297621319970123 0 0.30845320760280498 0.4809816119505938 0 0.29335292472767971 0.47378359591252012 0 0.29235092987739719 0.48746237699400569 0 0.30845320760280498 0.4809816119505938 0 0.29335292472767971 0.47378359591252012 0 0.30127520659360019 0.46297621319970123 0 0.29335292472767971 0.47378359591252012 0 0.28640219091271901 0.47952524031075772 0 0.29235092987739719 0.48746237699400569 0 0.28640219091271901 0.47952524031075772 0 0.29235092987739719 0.48746237699400569 0 0.27925398774426841 0.48339013531199909 0 0.28640219091271901 0.47952524031075772 0 0.27925398774426841 0.48339013531199909 0 0.28121354897652001 0.47945789123763211 0 0.28640219091271901 0.47952524031075772 0 0.28583956323773002 0.47353220209763158 0 0.28121354897652001 0.47945789123763211 0 0.28583956323773002 0.47353220209763158 0 0.28121354897652001 0.47945789123763211 0 0.28230525701822218 0.46619998798186918 0 0.29335292472767971 0.47378359591252012 0 0.28583956323773002 0.47353220209763158 0 0.28230525701822218 0.46619998798186918 0 0.28121354897652001 0.47945789123763211 0 0.28230525701822218 0.46619998798186918 0 0.29335292472767971 0.47378359591252012 0 0.28640219091271901 0.47952524031075772 0 0.28583956323773002 0.47353220209763158 0 0.30015468166020282 0.5 0 0.29235092987739719 0.48746237699400569 0 0.27961732811410839 0.50000000000000311 0 0.29235092987739719 0.48746237699400569 0 0.27961732811410839 0.50000000000000311 0 0.27925398774426841 0.48339013531199909 0 0.27961732811410839 0.50000000000000311 0 0.27925398774426841 0.48339013531199909 0 0.25155527489472151 0.5 0 0.27961732811410839 0.50000000000000311 0 0.27925398774426841 0.48339013531199909 0 0.27925398774426841 0.48339013531199909 0 0.25399835616134792 0.47101049487231039 0 0.27889064737442698 0.46678027062399519 0 0.27925398774426841 0.48339013531199909 0 0.28121354897652001 0.47945789123763211 0 0.27889064737442698 0.46678027062399519 0 0.25399835616134792 0.47101049487231039 0 0.27889064737442698 0.46678027062399519 0 0.27925398774426841 0.48339013531199909 0 0.27889064737442698 0.46678027062399519 0 0.28121354897652001 0.47945789123763211 0 0.27889064737442698 0.46678027062399519 0 0.28230525701822218 0.46619998798186918 0 0.27925398774426841 0.48339013531199909 0 0.25399835616134792 0.47101049487231039 0 0.25155527489472151 0.5 0 0.2514771125966242 0.44468408866335679 0 0.26471289253607577 0.45641998751741109 0 0.27829722214636837 0.43965222882432708 0 0.25399835616134792 0.47101049487231039 0 0.2514771125966242 0.44468408866335679 0 0.26471289253607577 0.45641998751741109 0 0.27889064737442698 0.46678027062399519 0 0.27829722214636837 0.43965222882432708 0 0.28230525701822218 0.46619998798186918 0 0.27889064737442698 0.46678027062399519 0 0.27829722214636837 0.43965222882432708 0 0.26471289253607577 0.45641998751741109 0 0.27889064737442698 0.46678027062399519 0 0.27829722214636837 0.43965222882432708 0 0.25399835616134792 0.47101049487231039 0 0.26471289253607577 0.45641998751741109 0 0.27889064737442698 0.46678027062399519 0 0.27889064737442698 0.46678027062399519 0 0.28230525701822218 0.46619998798186918 0 0.27829722214636837 0.43965222882432708 0 0.28230525701822218 0.46619998798186918 0 0.28474366596995898 0.43658750117661232 0 0.29243130353484093 0.45154594664436831 0 0.28230525701822218 0.46619998798186918 0 0.28474366596995898 0.43658750117661232 0 0.28230525701822218 0.46619998798186918 0 0.28474366596995898 0.43658750117661232 0 0.29243130353484093 0.45154594664436831 0 0.29599472853730102 0.44121886677586619 0 0.28474366596995898 0.43658750117661232 0 0.29335292472767971 0.47378359591252012 0 0.28230525701822218 0.46619998798186918 0 0.30127520659360019 0.46297621319970123 0 0.28230525701822218 0.46619998798186918 0 0.30127520659360019 0.46297621319970123 0 0.29243130353484093 0.45154594664436831 0 0.28230525701822218 0.46619998798186918 0 0.30127520659360019 0.46297621319970123 0 0.31342829403553252 0.4463440051027121 0 0.31516364255118923 0.46298001215891638 0 0.3022956072558835 0.45072342020198469 0 0.29243130353484093 0.45154594664436831 0 0.30127520659360019 0.46297621319970123 0 0.3022956072558835 0.45072342020198469 0 0.31516364255118923 0.46298001215891638 0 0.30127520659360019 0.46297621319970123 0 0.3022956072558835 0.45072342020198469 0 0.29599472853730102 0.44121886677586619 0 0.3022956072558835 0.45072342020198469 0 0.30424665454428729 0.43698180610014592 0 0.29243130353484093 0.45154594664436831 0 0.29599472853730102 0.44121886677586619 0 0.3022956072558835 0.45072342020198469 0 0.31342829403553252 0.4463440051027121 0 0.3022956072558835 0.45072342020198469 0 0.30424665454428729 0.43698180610014592 0 0.31342829403553252 0.4463440051027121 0 0.30424665454428729 0.43698180610014592 0 0.31901546174530321 0.42862087223150802 0 0.3043171244620777 0.42370228367744478 0 0.30424665454428729 0.43698180610014592 0 0.31901546174530321 0.42862087223150802 0 0.3043171244620777 0.42370228367744478 0 0.2972187274602478 0.41767342017279768 0 0.29625641138153419 0.43025565975621999 0 0.3043171244620777 0.42370228367744478 0 0.30424665454428729 0.43698180610014592 0 0.29625641138153419 0.43025565975621999 0 0.29599472853730102 0.44121886677586619 0 0.30424665454428729 0.43698180610014592 0 0.29625641138153419 0.43025565975621999 0 0.3043171244620777 0.42370228367744478 0 0.31161081940960689 0.40482782964201058 0 0.31901546174530321 0.42862087223150802 0 0.3043171244620777 0.42370228367744478 0 0.2972187274602478 0.41767342017279768 0 0.31161081940960689 0.40482782964201058 0 0.2972187274602478 0.41767342017279768 0 0.29920226861661359 0.40369223241314378 0 0.31161081940960689 0.40482782964201058 0 0.28718207492169551 0.4069750143713553 0 0.28474366596995898 0.43658750117661232 0 0.2972187274602478 0.41767342017279768 0 0.28718207492169551 0.4069750143713553 0 0.28474366596995898 0.43658750117661232 0 0.28718207492169551 0.4069750143713553 0 0.28474366596995898 0.43658750117661232 0 0.27770379691830849 0.41252418702465898 0 0.2972187274602478 0.41767342017279768 0 0.28718207492169551 0.4069750143713553 0 0.29920226861661359 0.40369223241314378 0 0.2972187274602478 0.41767342017279768 0 0.29625641138153419 0.43025565975621999 0 0.28474366596995898 0.43658750117661232 0 0.29599472853730102 0.44121886677586619 0 0.29625641138153419 0.43025565975621999 0 0.28474366596995898 0.43658750117661232 0 0.248149486809982 0.41786266999090282 0 0.27829722214636837 0.43965222882432708 0 0.27770379691830849 0.41252418702465898 0 0.27829722214636837 0.43965222882432708 0 0.27770379691830849 0.41252418702465898 0 0.27829722214636837 0.43965222882432708 0 0.28474366596995898 0.43658750117661232 0 0.27770379691830849 0.41252418702465898 0 0.248149486809982 0.41786266999090282 0 0.27770379691830849 0.41252418702465898 0 0.26169941567564098 0.39813661161474112 0 0.248149486809982 0.41786266999090282 0 0.2514771125966242 0.44468408866335679 0 0.27829722214636837 0.43965222882432708 0 0.24289958445613999 0.39228423464896078 0 0.26169941567564098 0.39813661161474112 0 0.25905411186804261 0.37251649796013742 0 0.24289958445613999 0.39228423464896078 0 0.248149486809982 0.41786266999090282 0 0.26169941567564098 0.39813661161474112 0 0.27770379691830849 0.41252418702465898 0 0.27711037169024838 0.38539614522499099 0 0.27770379691830849 0.41252418702465898 0 0.26169941567564098 0.39813661161474112 0 0.27711037169024838 0.38539614522499099 0 0.28718207492169551 0.4069750143713553 0 0.27770379691830849 0.41252418702465898 0 0.27711037169024838 0.38539614522499099 0 0.26169941567564098 0.39813661161474112 0 0.27711037169024838 0.38539614522499099 0 0.25905411186804261 0.37251649796013742 0 0.27711037169024838 0.38539614522499099 0 0.28962048387343198 0.37736252756609823 0 0.28634329609767839 0.36556813624566697 0 0.28718207492169551 0.4069750143713553 0 0.27711037169024838 0.38539614522499099 0 0.28962048387343198 0.37736252756609823 0 0.28962048387343198 0.37736252756609823 0 0.29505275112141288 0.39226614035077761 0 0.30420617707391079 0.38103478705251331 0 0.28718207492169551 0.4069750143713553 0 0.28962048387343198 0.37736252756609823 0 0.29505275112141288 0.39226614035077761 0 0.28718207492169551 0.4069750143713553 0 0.28962048387343198 0.37736252756609823 0 0.28718207492169551 0.4069750143713553 0 0.29505275112141288 0.39226614035077761 0 0.29920226861661359 0.40369223241314378 0 0.31161081940960689 0.40482782964201058 0 0.30420617707391079 0.38103478705251331 0 0.29920226861661359 0.40369223241314378 0 0.31161081940960689 0.40482782964201058 0 0.30420617707391079 0.38103478705251331 0 0.29505275112141288 0.39226614035077761 0 0.29920226861661359 0.40369223241314378 0 0.30420617707391079 0.38103478705251331 0 0.31161081940960689 0.40482782964201058 0 0.30420617707391079 0.38103478705251331 0 0.31657105778918931 0.37949051986369181 0 0.31657105778918931 0.37949051986369181 0 0.33524284342772498 0.39745110156998431 0 0.31657105778918931 0.37949051986369181 0 0.33482195986006752 0.37525568319408231 0 0.33524284342772498 0.39745110156998431 0 0.33482195986006752 0.37525568319408231 0 0.33524284342772498 0.39745110156998431 0 0.35397062580441457 0.37809321440158788 0 0.31161081940960689 0.40482782964201058 0 0.31657105778918931 0.37949051986369181 0 0.33524284342772498 0.39745110156998431 0 0.31161081940960689 0.40482782964201058 0 0.33524284342772498 0.39745110156998431 0 0.32979195982475812 0.41511690074889579 0 0.31161081940960689 0.40482782964201058 0 0.31901546174530321 0.42862087223150802 0 0.31161081940960689 0.40482782964201058 0 0.31901546174530321 0.42862087223150802 0 0.32979195982475812 0.41511690074889579 0 0.31901546174530321 0.42862087223150802 0 0.34249698098152681 0.43436190135528657 0 0.32979195982475812 0.41511690074889579 0 0.33524284342772498 0.39745110156998431 0 0.32979195982475812 0.41511690074889579 0 0.3459238859814307 0.41457088518012652 0 0.34249698098152681 0.43436190135528657 0 0.32979195982475812 0.41511690074889579 0 0.3459238859814307 0.41457088518012652 0 0.3459238859814307 0.41457088518012652 0 0.36517828598789159 0.42600130542859338 0 0.35957445589615311 0.4020472599150906 0 0.34249698098152681 0.43436190135528657 0 0.3459238859814307 0.41457088518012652 0 0.36517828598789159 0.42600130542859338 0 0.37078211607963019 0.44995535094209621 0 0.34249698098152681 0.43436190135528657 0 0.36517828598789159 0.42600130542859338 0 0.36517828598789159 0.42600130542859338 0 0.35957445589615311 0.4020472599150906 0 0.3771709686793116 0.41324975171031297 0 0.36517828598789159 0.42600130542859338 0 0.35957445589615311 0.4020472599150906 0 0.35957445589615311 0.4020472599150906 0 0.37250528002566369 0.39451893199837468 0 0.35397062580441457 0.37809321440158788 0 0.35957445589615311 0.4020472599150906 0 0.37250528002566369 0.39451893199837468 0 0.3771709686793116 0.41324975171031297 0 0.35397062580441457 0.37809321440158788 0 0.36777589667942212 0.36738284016723782 0 0.37539288703884721 0.38017114684249331 0 0.37250528002566369 0.39451893199837468 0 0.35397062580441457 0.37809321440158788 0 0.37539288703884721 0.38017114684249331 0 0.35957445589615311 0.4020472599150906 0 0.35397062580441457 0.37809321440158788 0 0.33524284342772498 0.39745110156998431 0 0.35957445589615311 0.4020472599150906 0 0.35397062580441457 0.37809321440158788 0 0.33524284342772498 0.39745110156998431 0 0.3459238859814307 0.41457088518012652 0 0.35957445589615311 0.4020472599150906 0 0.35622462066451838 0.35195764345930303 0 0.34836679571267598 0.35413916888808522 0 0.35802587552449211 0.36084879357005778 0 0.35622462066451838 0.35195764345930303 0 0.34836679571267598 0.35413916888808522 0 0.35585183487231908 0.34257122303738752 0 0.35622462066451838 0.35195764345930303 0 0.36398177715045887 0.35307265926613568 0 0.35585183487231908 0.34257122303738752 0 0.35397062580441457 0.37809321440158788 0 0.34836679571267598 0.35413916888808522 0 0.35802587552449211 0.36084879357005778 0 0.35397062580441457 0.37809321440158788 0 0.34836679571267598 0.35413916888808522 0 0.3411974593755871 0.35768261684175978 0 0.35397062580441457 0.37809321440158788 0 0.34836679571267598 0.35413916888808522 0 0.35802587552449211 0.36084879357005778 0 0.36777589667942212 0.36738284016723782 0 0.36398177715045887 0.35307265926613568 0 0.35397062580441457 0.37809321440158788 0 0.35802587552449211 0.36084879357005778 0 0.36777589667942212 0.36738284016723782 0 0.36777589667942212 0.36738284016723782 0 0.3808591980642354 0.36935705893597359 0 0.37539288703884721 0.38017114684249331 0 0.36777589667942212 0.36738284016723782 0 0.36398177715045887 0.35307265926613568 0 0.37810677920759522 0.35981427665085353 0 0.36398177715045887 0.35307265926613568 0 0.37417197045165879 0.34885544311155597 0 0.37810677920759522 0.35981427665085353 0 0.35622462066451838 0.35195764345930303 0 0.35802587552449211 0.36084879357005778 0 0.36398177715045887 0.35307265926613568 0 0.36398177715045887 0.35307265926613568 0 0.36781057592505167 0.33833319135141071 0 0.35585183487231908 0.34257122303738752 0 0.36398177715045887 0.35307265926613568 0 0.37417197045165879 0.34885544311155597 0 0.36781057592505167 0.33833319135141071 0 0.36781057592505167 0.33833319135141071 0 0.358842304332599 0.32371848894677829 0 0.35585183487231908 0.34257122303738752 0 0.36781057592505167 0.33833319135141071 0 0.358842304332599 0.32371848894677829 0 0.37660830276601931 0.32775769020394202 0 0.37269506830413179 0.31359601771975171 0 0.358842304332599 0.32371848894677829 0 0.35857424703706159 0.30663585435998991 0 0.37269506830413179 0.31359601771975171 0 0.358842304332599 0.32371848894677829 0 0.37660830276601931 0.32775769020394202 0 0.358842304332599 0.32371848894677829 0 0.3427629656209375 0.3301851233745825 0 0.3371677965176445 0.3068269800088812 0 0.358842304332599 0.32371848894677829 0 0.35585183487231908 0.34257122303738752 0 0.3427629656209375 0.3301851233745825 0 0.34836679571267598 0.35413916888808522 0 0.3427629656209375 0.3301851233745825 0 0.34836679571267598 0.35413916888808522 0 0.35585183487231908 0.34257122303738752 0 0.3427629656209375 0.3301851233745825 0 0.3280875506797532 0.33336827266133329 0 0.31943947999510208 0.34883509843638988 0 0.33775130515959428 0.34414876122639543 0 0.34836679571267598 0.35413916888808522 0 0.3427629656209375 0.3301851233745825 0 0.33775130515959428 0.34414876122639543 0 0.3427629656209375 0.3301851233745825 0 0.3280875506797532 0.33336827266133329 0 0.33775130515959428 0.34414876122639543 0 0.3427629656209375 0.3301851233745825 0 0.3280875506797532 0.33336827266133329 0 0.3371677965176445 0.3068269800088812 0 0.31815942059527941 0.32225972019142468 0 0.3280875506797532 0.33336827266133329 0 0.3371677965176445 0.3068269800088812 0 0.31815942059527941 0.32225972019142468 0 0.3371677965176445 0.3068269800088812 0 0.31815942059527941 0.32225972019142468 0 0.30520110137159029 0.31520345581550679 0 0.31810320462676722 0.30772017370427102 0 0.31815942059527941 0.32225972019142468 0 0.3280875506797532 0.33336827266133329 0 0.31250379931153321 0.3364286263388272 0 0.3280875506797532 0.33336827266133329 0 0.31250379931153321 0.3364286263388272 0 0.31943947999510208 0.34883509843638988 0 0.31943947999510208 0.34883509843638988 0 0.31321630403874501 0.36139133729867062 0 0.30654993971069361 0.35302688824158618 0 0.31943947999510208 0.34883509843638988 0 0.32562177054808639 0.36407424179428538 0 0.31321630403874501 0.36139133729867062 0 0.31943947999510208 0.34883509843638988 0 0.3411974593755871 0.35768261684175978 0 0.33775130515959428 0.34414876122639543 0 0.31943947999510208 0.34883509843638988 0 0.3411974593755871 0.35768261684175978 0 0.32562177054808639 0.36407424179428538 0 0.31943947999510208 0.34883509843638988 0 0.3411974593755871 0.35768261684175978 0 0.34836679571267598 0.35413916888808522 0 0.3411974593755871 0.35768261684175978 0 0.33775130515959428 0.34414876122639543 0 0.33482195986006752 0.37525568319408231 0 0.3411974593755871 0.35768261684175978 0 0.32562177054808639 0.36407424179428538 0 0.33482195986006752 0.37525568319408231 0 0.35397062580441457 0.37809321440158788 0 0.3411974593755871 0.35768261684175978 0 0.31657105778918931 0.37949051986369181 0 0.32562177054808639 0.36407424179428538 0 0.31321630403874501 0.36139133729867062 0 0.31657105778918931 0.37949051986369181 0 0.33482195986006752 0.37525568319408231 0 0.32562177054808639 0.36407424179428538 0 0.28962048387343198 0.37736252756609823 0 0.30420617707391079 0.38103478705251331 0 0.29789927215065343 0.36152993815739931 0 0.31657105778918931 0.37949051986369181 0 0.29789927215065343 0.36152993815739931 0 0.30420617707391079 0.38103478705251331 0 0.31657105778918931 0.37949051986369181 0 0.29789927215065343 0.36152993815739931 0 0.31657105778918931 0.37949051986369181 0 0.31321630403874501 0.36139133729867062 0 0.29789927215065343 0.36152993815739931 0 0.31943947999510208 0.34883509843638988 0 0.30654993971069361 0.35302688824158618 0 0.29768150061461718 0.33998758003101998 0 0.31943947999510208 0.34883509843638988 0 0.29768150061461718 0.33998758003101998 0 0.29789927215065343 0.36152993815739931 0 0.30654993971069361 0.35302688824158618 0 0.29768150061461718 0.33998758003101998 0 0.31321630403874501 0.36139133729867062 0 0.29789927215065343 0.36152993815739931 0 0.30654993971069361 0.35302688824158618 0 0.29789927215065343 0.36152993815739931 0 0.27922748651211771 0.34356935645110681 0 0.29789927215065343 0.36152993815739931 0 0.28634329609767839 0.36556813624566697 0 0.27922748651211771 0.34356935645110681 0 0.29789927215065343 0.36152993815739931 0 0.27922748651211771 0.34356935645110681 0 0.29768150061461718 0.33998758003101998 0 0.28962048387343198 0.37736252756609823 0 0.29789927215065343 0.36152993815739931 0 0.28634329609767839 0.36556813624566697 0 0.27711037169024838 0.38539614522499099 0 0.28634329609767839 0.36556813624566697 0 0.27651694646218838 0.35826810342532289 0 0.27711037169024838 0.38539614522499099 0 0.27651694646218838 0.35826810342532289 0 0.27711037169024838 0.38539614522499099 0 0.27651694646218838 0.35826810342532289 0 0.25905411186804261 0.37251649796013742 0 0.28634329609767839 0.36556813624566697 0 0.27651694646218838 0.35826810342532289 0 0.27922748651211771 0.34356935645110681 0 0.27651694646218838 0.35826810342532289 0 0.27922748651211771 0.34356935645110681 0 0.27592352123413028 0.33114006162565468 0 0.27651694646218838 0.35826810342532289 0 0.25914891444172011 0.34530468765525679 0 0.27592352123413028 0.33114006162565468 0 0.27651694646218838 0.35826810342532289 0 0.27592352123413028 0.33114006162565468 0 0.27651694646218838 0.35826810342532289 0 0.26055766562478883 0.35759304549932458 0 0.25914891444172011 0.34530468765525679 0 0.2475106897272043 0.35428289295658161 0 0.24852544892751241 0.3439900518832546 0 0.25914891444172011 0.34530468765525679 0 0.2475106897272043 0.35428289295658161 0 0.26055766562478883 0.35759304549932458 0 0.25914891444172011 0.34530468765525679 0 0.2475106897272043 0.35428289295658161 0 0.26055766562478883 0.35759304549932458 0 0.25905411186804261 0.37251649796013742 0 0.27651694646218838 0.35826810342532289 0 0.26055766562478883 0.35759304549932458 0 0.25905411186804261 0.37251649796013742 0 0.23783836536509301 0.31565336997886329 0 0.2525696818628661 0.32164361344634662 0 0.26382887235950991 0.3072956239543374 0 0.2525696818628661 0.32164361344634662 0 0.27550579204514142 0.31204384804399121 0 0.26382887235950991 0.3072956239543374 0 0.2525696818628661 0.32164361344634662 0 0.27592352123413028 0.33114006162565468 0 0.2525696818628661 0.32164361344634662 0 0.26382887235950991 0.3072956239543374 0 0.2525696818628661 0.32164361344634662 0 0.25313896538212899 0.33510740846486831 0 0.27592352123413028 0.33114006162565468 0 0.25914891444172011 0.34530468765525679 0 0.25313896538212899 0.33510740846486831 0 0.27592352123413028 0.33114006162565468 0 0.24852544892751241 0.3439900518832546 0 0.25914891444172011 0.34530468765525679 0 0.25313896538212899 0.33510740846486831 0 0.2525696818628661 0.32164361344634662 0 0.27592352123413028 0.33114006162565468 0 0.27550579204514142 0.31204384804399121 0 0.27592352123413028 0.33114006162565468 0 0.2840493790515366 0.32405274590569982 0 0.27550579204514142 0.31204384804399121 0 0.27592352123413028 0.33114006162565468 0 0.27550579204514142 0.31204384804399121 0 0.28675334147524828 0.31290843621564413 0 0.2840493790515366 0.32405274590569982 0 0.27550579204514142 0.31204384804399121 0 0.28675334147524828 0.31290843621564413 0 0.2840493790515366 0.32405274590569982 0 0.28988389077070909 0.32153164888335573 0 0.2840493790515366 0.32405274590569982 0 0.29187220942922909 0.32749254548337942 0 0.28814465430817138 0.33226319722605829 0 0.2840493790515366 0.32405274590569982 0 0.28988389077070909 0.32153164888335573 0 0.29187220942922909 0.32749254548337942 0 0.28988389077070909 0.32153164888335573 0 0.29187220942922909 0.32749254548337942 0 0.29475884481398318 0.32217255647029591 0 0.29187220942922909 0.32749254548337942 0 0.29475884481398318 0.32217255647029591 0 0.30065057573995557 0.32637966237734989 0 0.28988389077070909 0.32153164888335573 0 0.29475884481398318 0.32217255647029591 0 0.29512442866507688 0.31493215827085158 0 0.28675334147524828 0.31290843621564413 0 0.28988389077070909 0.32153164888335573 0 0.29512442866507688 0.31493215827085158 0 0.27592352123413028 0.33114006162565468 0 0.29768150061461718 0.33998758003101998 0 0.27922748651211771 0.34356935645110681 0 0.27592352123413028 0.33114006162565468 0 0.29768150061461718 0.33998758003101998 0 0.27592352123413028 0.33114006162565468 0 0.28814465430817138 0.33226319722605829 0 0.29768150061461718 0.33998758003101998 0 0.27592352123413028 0.33114006162565468 0 0.2840493790515366 0.32405274590569982 0 0.28814465430817138 0.33226319722605829 0 0.28814465430817138 0.33226319722605829 0 0.29500454595267628 0.33555021188685308 0 0.29768150061461718 0.33998758003101998 0 0.29187220942922909 0.32749254548337942 0 0.29504098421500241 0.33225760991636599 0 0.30065057573995557 0.32637966237734989 0 0.29187220942922909 0.32749254548337942 0 0.28814465430817138 0.33226319722605829 0 0.29504098421500241 0.33225760991636599 0 0.29500454595267628 0.33555021188685308 0 0.29504098421500241 0.33225760991636599 0 0.29915104467291431 0.33769246037396811 0 0.28814465430817138 0.33226319722605829 0 0.29500454595267628 0.33555021188685308 0 0.29504098421500241 0.33225760991636599 0 0.31815942059527941 0.32225972019142468 0 0.29915104467291431 0.33769246037396811 0 0.31250379931153321 0.3364286263388272 0 0.31943947999510208 0.34883509843638988 0 0.29768150061461718 0.33998758003101998 0 0.31815942059527941 0.32225972019142468 0 0.31250379931153321 0.3364286263388272 0 0.29915104467291431 0.33769246037396811 0 0.31815942059527941 0.32225972019142468 0 0.29915104467291431 0.33769246037396811 0 0.30065057573995557 0.32637966237734989 0 0.31250379931153321 0.3364286263388272 0 0.29768150061461718 0.33998758003101998 0 0.29915104467291431 0.33769246037396811 0 0.29500454595267628 0.33555021188685308 0 0.29768150061461718 0.33998758003101998 0 0.29915104467291431 0.33769246037396811 0 0.29504098421500241 0.33225760991636599 0 0.29915104467291431 0.33769246037396811 0 0.30065057573995557 0.32637966237734989 0 0.31815942059527941 0.32225972019142468 0 0.30065057573995557 0.32637966237734989 0 0.30520110137159029 0.31520345581550679 0 0.29475884481398318 0.32217255647029591 0 0.29512442866507688 0.31493215827085158 0 0.30520110137159029 0.31520345581550679 0 0.29512442866507688 0.31493215827085158 0 0.30520110137159029 0.31520345581550679 0 0.30053989096607042 0.30771842755444739 0 0.29475884481398318 0.32217255647029591 0 0.30065057573995557 0.32637966237734989 0 0.30520110137159029 0.31520345581550679 0 0.30520110137159029 0.31520345581550679 0 0.30820811893807909 0.30534331252419311 0 0.31810320462676722 0.30772017370427102 0 0.30820811893807909 0.30534331252419311 0 0.30770884304192081 0.29876652671894632 0 0.31473550435619752 0.30010574377660421 0 0.30770884304192081 0.29876652671894632 0 0.30330878169165659 0.30190916427688502 0 0.30318440913936229 0.29653400531568352 0 0.30820811893807909 0.30534331252419311 0 0.30770884304192081 0.29876652671894632 0 0.30330878169165659 0.30190916427688502 0 0.30330878169165659 0.30190916427688502 0 0.30318440913936229 0.29653400531568352 0 0.2963310130069271 0.2999656034261251 0 0.30330878169165659 0.30190916427688502 0 0.30053989096607042 0.30771842755444739 0 0.2963310130069271 0.2999656034261251 0 0.30520110137159029 0.31520345581550679 0 0.30820811893807909 0.30534331252419311 0 0.30053989096607042 0.30771842755444739 0 0.30820811893807909 0.30534331252419311 0 0.30330878169165659 0.30190916427688502 0 0.30053989096607042 0.30771842755444739 0 0.30712914786831319 0.28893837931773431 0 0.30089464768156748 0.27871015228239021 0 0.31327452521932347 0.28219084843773462 0 0.30712914786831319 0.28893837931773431 0 0.31327452521932347 0.28219084843773462 0 0.31513073797751229 0.29248097102740611 0 0.30770884304192081 0.29876652671894632 0 0.30712914786831319 0.28893837931773431 0 0.31513073797751229 0.29248097102740611 0 0.30770884304192081 0.29876652671894632 0 0.30712914786831319 0.28893837931773431 0 0.29832718114697437 0.29116622019223459 0 0.30770884304192081 0.29876652671894632 0 0.30318440913936229 0.29653400531568352 0 0.29832718114697437 0.29116622019223459 0 0.30770884304192081 0.29876652671894632 0 0.29832718114697437 0.29116622019223459 0 0.30318440913936229 0.29653400531568352 0 0.29832718114697437 0.29116622019223459 0 0.2963310130069271 0.2999656034261251 0 0.30318440913936229 0.29653400531568352 0 0.29832718114697437 0.29116622019223459 0 0.30712914786831319 0.28893837931773431 0 0.29832718114697437 0.29116622019223459 0 0.30089464768156748 0.27871015228239021 0 0.29832718114697437 0.29116622019223459 0 0.28662992264078208 0.27823942937799928 0 0.30089464768156748 0.27871015228239021 0 0.29832718114697437 0.29116622019223459 0 0.28662992264078208 0.27823942937799928 0 0.28497454643931169 0.28034893452857729 0 0.29832718114697437 0.29116622019223459 0 0.28814274265779022 0.29355716912655649 0 0.28497454643931169 0.28034893452857729 0 0.29832718114697437 0.29116622019223459 0 0.28497454643931169 0.28034893452857729 0 0.29832718114697437 0.29116622019223459 0 0.28662992264078208 0.27823942937799928 0 0.29832718114697437 0.29116622019223459 0 0.28814274265779022 0.29355716912655649 0 0.2963310130069271 0.2999656034261251 0 0.28814274265779022 0.29355716912655649 0 0.28599290983958892 0.30335745302351558 0 0.27508806285615273 0.29294763446232758 0 0.28814274265779022 0.29355716912655649 0 0.27508806285615273 0.29294763446232758 0 0.28497454643931169 0.28034893452857729 0 0.30053989096607042 0.30771842755444739 0 0.29325047522820141 0.3083137791763283 0 0.2963310130069271 0.2999656034261251 0 0.28675334147524828 0.31290843621564413 0 0.29512442866507688 0.31493215827085158 0 0.29325047522820141 0.3083137791763283 0 0.29512442866507688 0.31493215827085158 0 0.30053989096607042 0.30771842755444739 0 0.29325047522820141 0.3083137791763283 0 0.28814274265779022 0.29355716912655649 0 0.2963310130069271 0.2999656034261251 0 0.28599290983958892 0.30335745302351558 0 0.29325047522820141 0.3083137791763283 0 0.2963310130069271 0.2999656034261251 0 0.28599290983958892 0.30335745302351558 0 0.28675334147524828 0.31290843621564413 0 0.29325047522820141 0.3083137791763283 0 0.28599290983958892 0.30335745302351558 0 0.28675334147524828 0.31290843621564413 0 0.28599290983958892 0.30335745302351558 0 0.27550579204514142 0.31204384804399121 0 0.27550579204514142 0.31204384804399121 0 0.27508806285615273 0.29294763446232758 0 0.27550579204514142 0.31204384804399121 0 0.27508806285615273 0.29294763446232758 0 0.26382887235950991 0.3072956239543374 0 0.28599290983958892 0.30335745302351558 0 0.27550579204514142 0.31204384804399121 0 0.27508806285615273 0.29294763446232758 0 0.27508806285615273 0.29294763446232758 0 0.26382887235950991 0.3072956239543374 0 0.27508806285615273 0.29294763446232758 0 0.25399091957574521 0.29199365062212068 0 0.27462913100498731 0.27196786843097581 0 0.27508806285615273 0.29294763446232758 0 0.27462913100498731 0.27196786843097581 0 0.27508806285615273 0.29294763446232758 0 0.27462913100498731 0.27196786843097581 0 0.28497454643931169 0.28034893452857729 0 0.27508806285615273 0.29294763446232758 0 0.28497454643931169 0.28034893452857729 0 0.23783836536509301 0.31565336997886329 0 0.25399091957574521 0.29199365062212068 0 0.26382887235950991 0.3072956239543374 0 0.27508806285615273 0.29294763446232758 0 0.25399091957574521 0.29199365062212068 0 0.26382887235950991 0.3072956239543374 0 0.27447242198079752 0.26480401904038969 0 0.2551851394074478 0.2434893950138429 0 0.25247275738948288 0.25401846534185119 0 0.25167401287834568 0.27306833633317068 0 0.27014347378639753 0.26833393126537808 0 0.25247275738948288 0.25401846534185119 0 0.27447242198079752 0.26480401904038969 0 0.2551851394074478 0.2434893950138429 0 0.25247275738948288 0.25401846534185119 0 0.27014347378639753 0.26833393126537808 0 0.25399091957574521 0.29199365062212068 0 0.25167401287834568 0.27306833633317068 0 0.27014347378639753 0.26833393126537808 0 0.25399091957574521 0.29199365062212068 0 0.27014347378639753 0.26833393126537808 0 0.25399091957574521 0.29199365062212068 0 0.27014347378639753 0.26833393126537808 0 0.27462913100498731 0.27196786843097581 0 0.27014347378639753 0.26833393126537808 0 0.27462913100498731 0.27196786843097581 0 0.27014347378639753 0.26833393126537808 0 0.27447242198079752 0.26480401904038969 0 0.27014347378639753 0.26833393126537808 0 0.27462913100498731 0.27196786843097581 0 0.27447242198079752 0.26480401904038969 0 0.27462913100498731 0.27196786843097581 0 0.28497454643931169 0.28034893452857729 0 0.27447242198079752 0.26480401904038969 0 0.28662992264078208 0.27823942937799928 0 0.27462913100498731 0.27196786843097581 0 0.27447242198079752 0.26480401904038969 0 0.28662992264078208 0.27823942937799928 0 0.27462913100498731 0.27196786843097581 0 0.27447242198079752 0.26480401904038969 0 0.27441284082051898 0.26208030570617857 0 0.27422647013237161 0.25356049296603311 0 0.29054302336085919 0.2384533556213457 0 0.25247275738948288 0.25401846534185119 0 0.27014347378639753 0.26833393126537808 0 0.27447242198079752 0.26480401904038969 0 0.27441284082051898 0.26208030570617857 0 0.27447242198079752 0.26480401904038969 0 0.28529465150197619 0.26084993190309452 0 0.27447242198079752 0.26480401904038969 0 0.2675309988367966 0.24592861094083041 0 0.2551851394074478 0.2434893950138429 0 0.27441284082051898 0.26208030570617857 0 0.27422647013237161 0.25356049296603311 0 0.27441284082051898 0.26208030570617857 0 0.27447242198079752 0.26480401904038969 0 0.2675309988367966 0.24592861094083041 0 0.27441284082051898 0.26208030570617857 0 0.27422647013237161 0.25356049296603311 0 0.2675309988367966 0.24592861094083041 0 0.27441284082051898 0.26208030570617857 0 0.27447242198079752 0.26480401904038969 0 0.27441284082051898 0.26208030570617857 0 0.28529465150197619 0.26084993190309452 0 0.29054302336085919 0.2384533556213457 0 0.28529465150197619 0.26084993190309452 0 0.30041504870691937 0.26067254976955972 0 0.29054302336085919 0.2384533556213457 0 0.27441284082051898 0.26208030570617857 0 0.29054302336085919 0.2384533556213457 0 0.28662992264078208 0.27823942937799928 0 0.30089464768156748 0.27871015228239021 0 0.30041504870691937 0.26067254976955972 0 0.28662992264078208 0.27823942937799928 0 0.30041504870691937 0.26067254976955972 0 0.28529465150197619 0.26084993190309452 0 0.28662992264078208 0.27823942937799928 0 0.30041504870691937 0.26067254976955972 0 0.27447242198079752 0.26480401904038969 0 0.28529465150197619 0.26084993190309452 0 0.28662992264078208 0.27823942937799928 0 0.27462913100498731 0.27196786843097581 0 0.28662992264078208 0.27823942937799928 0 0.28497454643931169 0.28034893452857729 0 0.28662992264078208 0.27823942937799928 0 0.28497454643931169 0.28034893452857729 0 0.30089464768156748 0.27871015228239021 0 0.30958868033141562 0.27119550140247639 0 0.30041504870691937 0.26067254976955972 0 0.30089464768156748 0.27871015228239021 0 0.30958868033141562 0.27119550140247639 0 0.31327452521932347 0.28219084843773462 0 0.30041504870691937 0.26067254976955972 0 0.31560987909873173 0.26189653626922149 0 0.31420017477305739 0.2431056701611205 0 0.30041504870691937 0.26067254976955972 0 0.31420017477305739 0.2431056701611205 0 0.30958868033141562 0.27119550140247639 0 0.30041504870691937 0.26067254976955972 0 0.31560987909873173 0.26189653626922149 0 0.31560987909873173 0.26189653626922149 0 0.32640088188025451 0.25485336633590389 0 0.31420017477305739 0.2431056701611205 0 0.31560987909873173 0.26189653626922149 0 0.32640088188025451 0.25485336633590389 0 0.32654563066655762 0.26567126039402472 0 0.32640088188025451 0.25485336633590389 0 0.33567128914585981 0.25335502600040072 0 0.32999523924895019 0.24481848980579379 0 0.32640088188025451 0.25485336633590389 0 0.33567128914585981 0.25335502600040072 0 0.33511633019422887 0.26099006842700267 0 0.32640088188025451 0.25485336633590389 0 0.33511633019422887 0.26099006842700267 0 0.32654563066655762 0.26567126039402472 0 0.33511633019422887 0.26099006842700267 0 0.34227510882408518 0.26388037280595011 0 0.33716369924465228 0.27138356787502987 0 0.33511633019422887 0.26099006842700267 0 0.34227510882408518 0.26388037280595011 0 0.34143956452662771 0.25756182202630462 0 0.33567128914585981 0.25335502600040072 0 0.34143956452662771 0.25756182202630462 0 0.34532353849112551 0.24899713256093869 0 0.33567128914585981 0.25335502600040072 0 0.33511633019422887 0.26099006842700267 0 0.34143956452662771 0.25756182202630462 0 0.33716369924465228 0.27138356787502987 0 0.34324048198635693 0.28231817667836773 0 0.34827198935151332 0.26964721830679078 0 0.33716369924465228 0.27138356787502987 0 0.33244740824808899 0.28314628250585511 0 0.34324048198635693 0.28231817667836773 0 0.34227510882408518 0.26388037280595011 0 0.33716369924465228 0.27138356787502987 0 0.34827198935151332 0.26964721830679078 0 0.33716369924465228 0.27138356787502987 0 0.32814029471333872 0.27510929435738252 0 0.32654563066655762 0.26567126039402472 0 0.33511633019422887 0.26099006842700267 0 0.33716369924465228 0.27138356787502987 0 0.32654563066655762 0.26567126039402472 0 0.33716369924465228 0.27138356787502987 0 0.32814029471333872 0.27510929435738252 0 0.33244740824808899 0.28314628250585511 0 0.32814029471333872 0.27510929435738252 0 0.32301487235009763 0.28472498267481322 0 0.33244740824808899 0.28314628250585511 0 0.32814029471333872 0.27510929435738252 0 0.32125956870258537 0.27816633986760819 0 0.31774930095053622 0.27250742025347618 0 0.32814029471333872 0.27510929435738252 0 0.32125956870258537 0.27816633986760819 0 0.32301487235009763 0.28472498267481322 0 0.32814029471333872 0.27510929435738252 0 0.32654563066655762 0.26567126039402472 0 0.31774930095053622 0.27250742025347618 0 0.30958868033141562 0.27119550140247639 0 0.31560987909873173 0.26189653626922149 0 0.31774930095053622 0.27250742025347618 0 0.31560987909873173 0.26189653626922149 0 0.32654563066655762 0.26567126039402472 0 0.31774930095053622 0.27250742025347618 0 0.30958868033141562 0.27119550140247639 0 0.31774930095053622 0.27250742025347618 0 0.31327452521932347 0.28219084843773462 0 0.32125956870258537 0.27816633986760819 0 0.31774930095053622 0.27250742025347618 0 0.31327452521932347 0.28219084843773462 0 0.32125956870258537 0.27816633986760819 0 0.31327452521932347 0.28219084843773462 0 0.32301487235009763 0.28472498267481322 0 0.31327452521932347 0.28219084843773462 0 0.31513073797751229 0.29248097102740611 0 0.32301487235009763 0.28472498267481322 0 0.31513073797751229 0.29248097102740611 0 0.32452661719670778 0.29621773490820408 0 0.31473550435619752 0.30010574377660421 0 0.31513073797751229 0.29248097102740611 0 0.32452661719670778 0.29621773490820408 0 0.32301487235009763 0.28472498267481322 0 0.32452661719670778 0.29621773490820408 0 0.32301487235009763 0.28472498267481322 0 0.33244740824808899 0.28314628250585511 0 0.32452661719670778 0.29621773490820408 0 0.31810320462676722 0.30772017370427102 0 0.3371677965176445 0.3068269800088812 0 0.31815942059527941 0.32225972019142468 0 0.31810320462676722 0.30772017370427102 0 0.3371677965176445 0.3068269800088812 0 0.32452661719670778 0.29621773490820408 0 0.31810320462676722 0.30772017370427102 0 0.31473550435619752 0.30010574377660421 0 0.30820811893807909 0.30534331252419311 0 0.31810320462676722 0.30772017370427102 0 0.31473550435619752 0.30010574377660421 0 0.30770884304192081 0.29876652671894632 0 0.31513073797751229 0.29248097102740611 0 0.31473550435619752 0.30010574377660421 0 0.32452661719670778 0.29621773490820408 0 0.3371677965176445 0.3068269800088812 0 0.33871169527776163 0.29198068278552908 0 0.32452661719670778 0.29621773490820408 0 0.33244740824808899 0.28314628250585511 0 0.33871169527776163 0.29198068278552908 0 0.33244740824808899 0.28314628250585511 0 0.33871169527776163 0.29198068278552908 0 0.34324048198635693 0.28231817667836773 0 0.34324048198635693 0.28231817667836773 0 0.35617617244000982 0.29139423982633761 0 0.35338435227663539 0.2796618805047803 0 0.33871169527776163 0.29198068278552908 0 0.34324048198635693 0.28231817667836773 0 0.35617617244000982 0.29139423982633761 0 0.3371677965176445 0.3068269800088812 0 0.33871169527776163 0.29198068278552908 0 0.35617617244000982 0.29139423982633761 0 0.35617617244000982 0.29139423982633761 0 0.36272998231573778 0.27614849386931112 0 0.35338435227663539 0.2796618805047803 0 0.358842304332599 0.32371848894677829 0 0.3371677965176445 0.3068269800088812 0 0.35857424703706159 0.30663585435998991 0 0.3371677965176445 0.3068269800088812 0 0.35617617244000982 0.29139423982633761 0 0.3371677965176445 0.3068269800088812 0 0.35617617244000982 0.29139423982633761 0 0.35857424703706159 0.30663585435998991 0 0.37269506830413179 0.31359601771975171 0 0.35857424703706159 0.30663585435998991 0 0.37203420274818311 0.29150384376524258 0 0.35617617244000982 0.29139423982633761 0 0.35857424703706159 0.30663585435998991 0 0.37203420274818311 0.29150384376524258 0 0.35617617244000982 0.29139423982633761 0 0.37203420274818311 0.29150384376524258 0 0.37518454836237503 0.27596149964379407 0 0.35617617244000982 0.29139423982633761 0 0.37518454836237503 0.27596149964379407 0 0.36272998231573778 0.27614849386931112 0 0.36950828965322308 0.27234168192356689 0 0.37518454836237503 0.27596149964379407 0 0.35617617244000982 0.29139423982633761 0 0.36272998231573778 0.27614849386931112 0 0.37518454836237503 0.27596149964379407 0 0.36272998231573778 0.27614849386931112 0 0.36488473365173157 0.26992388639412002 0 0.3567239203370785 0.26918607771553182 0 0.36488473365173157 0.26992388639412002 0 0.37450343330610869 0.26968011321283319 0 0.36095804264650988 0.26226306524935722 0 0.36488473365173157 0.26992388639412002 0 0.36095804264650988 0.26226306524935722 0 0.3567239203370785 0.26918607771553182 0 0.36272998231573778 0.27614849386931112 0 0.36488473365173157 0.26992388639412002 0 0.36950828965322308 0.27234168192356689 0 0.36488473365173157 0.26992388639412002 0 0.36950828965322308 0.27234168192356689 0 0.37450343330610869 0.26968011321283319 0 0.36950828965322308 0.27234168192356689 0 0.37450343330610869 0.26968011321283319 0 0.37518454836237503 0.27596149964379407 0 0.37450343330610869 0.26968011321283319 0 0.36554718467112712 0.25398456366339739 0 0.35307730466155363 0.24934873687200709 0 0.37450343330610869 0.26968011321283319 0 0.35307730466155363 0.24934873687200709 0 0.37450343330610869 0.26968011321283319 0 0.36095804264650988 0.26226306524935722 0 0.35307730466155363 0.24934873687200709 0 0.37450343330610869 0.26968011321283319 0 0.37165401412278792 0.25676858897620308 0 0.37809610805639471 0.26009187514795279 0 0.37450343330610869 0.26968011321283319 0 0.37165401412278792 0.25676858897620308 0 0.36554718467112712 0.25398456366339739 0 0.37165401412278792 0.25676858897620308 0 0.36935999944055858 0.25035342442963759 0 0.37693108616487392 0.25112149136587758 0 0.37165401412278792 0.25676858897620308 0 0.36935999944055858 0.25035342442963759 0 0.36554718467112712 0.25398456366339739 0 0.36935999944055858 0.25035342442963759 0 0.36554718467112712 0.25398456366339739 0 0.36312229485699982 0.24630684093376251 0 0.36095804264650988 0.26226306524935722 0 0.34938396080340361 0.25981918739462251 0 0.3567239203370785 0.26918607771553182 0 0.36095804264650988 0.26226306524935722 0 0.34938396080340361 0.25981918739462251 0 0.35307730466155363 0.24934873687200709 0 0.34143956452662771 0.25756182202630462 0 0.34938396080340361 0.25981918739462251 0 0.34532353849112551 0.24899713256093869 0 0.34938396080340361 0.25981918739462251 0 0.35307730466155363 0.24934873687200709 0 0.34532353849112551 0.24899713256093869 0 0.34227510882408518 0.26388037280595011 0 0.34938396080340361 0.25981918739462251 0 0.34827198935151332 0.26964721830679078 0 0.34227510882408518 0.26388037280595011 0 0.34143956452662771 0.25756182202630462 0 0.34938396080340361 0.25981918739462251 0 0.34938396080340361 0.25981918739462251 0 0.34827198935151332 0.26964721830679078 0 0.3567239203370785 0.26918607771553182 0 0.34324048198635693 0.28231817667836773 0 0.34827198935151332 0.26964721830679078 0 0.35338435227663539 0.2796618805047803 0 0.36272998231573778 0.27614849386931112 0 0.35338435227663539 0.2796618805047803 0 0.3567239203370785 0.26918607771553182 0 0.34827198935151332 0.26964721830679078 0 0.35338435227663539 0.2796618805047803 0 0.3567239203370785 0.26918607771553182 0 0.39705613616356772 0.26049928830228081 0 0.3902612304969964 0.2718294864107822 0 0.41024715033577219 0.27622005377076342 0 0.3902612304969964 0.2718294864107822 0 0.3962271982206832 0.28215443287103059 0 0.41024715033577219 0.27622005377076342 0 0.39705613616356772 0.26049928830228081 0 0.40936178095289738 0.25240399705514732 0 0.39365908746925121 0.2498125304894577 0 0.39705613616356772 0.26049928830228081 0 0.41024715033577219 0.27622005377076342 0 0.40936178095289738 0.25240399705514732 0 0.39705613616356772 0.26049928830228081 0 0.38475193633257748 0.25617205851349262 0 0.39365908746925121 0.2498125304894577 0 0.39705613616356772 0.26049928830228081 0 0.3836819489706409 0.2653200328779155 0 0.38475193633257748 0.25617205851349262 0 0.38475193633257748 0.25617205851349262 0 0.39365908746925121 0.2498125304894577 0 0.38475748107919799 0.247937755230528 0 0.38475193633257748 0.25617205851349262 0 0.37693108616487392 0.25112149136587758 0 0.38475748107919799 0.247937755230528 0 0.38475193633257748 0.25617205851349262 0 0.37693108616487392 0.25112149136587758 0 0.37809610805639471 0.26009187514795279 0 0.37165401412278792 0.25676858897620308 0 0.37693108616487392 0.25112149136587758 0 0.37809610805639471 0.26009187514795279 0 0.37450343330610869 0.26968011321283319 0 0.3836819489706409 0.2653200328779155 0 0.37809610805639471 0.26009187514795279 0 0.3836819489706409 0.2653200328779155 0 0.38475193633257748 0.25617205851349262 0 0.37809610805639471 0.26009187514795279 0 0.37450343330610869 0.26968011321283319 0 0.3836819489706409 0.2653200328779155 0 0.38158659433236858 0.27246955003463152 0 0.37450343330610869 0.26968011321283319 0 0.38158659433236858 0.27246955003463152 0 0.37518454836237503 0.27596149964379407 0 0.3836819489706409 0.2653200328779155 0 0.38158659433236858 0.27246955003463152 0 0.3902612304969964 0.2718294864107822 0 0.39705613616356772 0.26049928830228081 0 0.3836819489706409 0.2653200328779155 0 0.3902612304969964 0.2718294864107822 0 0.3902612304969964 0.2718294864107822 0 0.38430181052572188 0.27955661802783272 0 0.3962271982206832 0.28215443287103059 0 0.38158659433236858 0.27246955003463152 0 0.3902612304969964 0.2718294864107822 0 0.38430181052572188 0.27955661802783272 0 0.38158659433236858 0.27246955003463152 0 0.38430181052572188 0.27955661802783272 0 0.37518454836237503 0.27596149964379407 0 0.38430181052572188 0.27955661802783272 0 0.37518454836237503 0.27596149964379407 0 0.37956272795761331 0.2844551960469433 0 0.37203420274818311 0.29150384376524258 0 0.37518454836237503 0.27596149964379407 0 0.37956272795761331 0.2844551960469433 0 0.37203420274818311 0.29150384376524258 0 0.37956272795761331 0.2844551960469433 0 0.38673035019417301 0.29079882275090368 0 0.37203420274818311 0.29150384376524258 0 0.38673035019417301 0.29079882275090368 0 0.38456916255995699 0.3048330440725 0 0.38430181052572188 0.27955661802783272 0 0.37956272795761331 0.2844551960469433 0 0.38673035019417301 0.29079882275090368 0 0.38430181052572188 0.27955661802783272 0 0.38673035019417301 0.29079882275090368 0 0.3962271982206832 0.28215443287103059 0 0.37269506830413179 0.31359601771975171 0 0.37203420274818311 0.29150384376524258 0 0.38456916255995699 0.3048330440725 0 0.38673035019417301 0.29079882275090368 0 0.38456916255995699 0.3048330440725 0 0.39260572260290638 0.29858222563873721 0 0.38456916255995699 0.3048330440725 0 0.39928566715577007 0.30593227745083229 0 0.39071370797808991 0.32163173327551231 0 0.39260572260290638 0.29858222563873721 0 0.39928566715577007 0.30593227745083229 0 0.39983771050172562 0.2927647582807128 0 0.38456916255995699 0.3048330440725 0 0.39260572260290638 0.29858222563873721 0 0.39928566715577007 0.30593227745083229 0 0.39928566715577007 0.30593227745083229 0 0.39983771050172562 0.2927647582807128 0 0.41113251971864678 0.30003611048637963 0 0.3962271982206832 0.28215443287103059 0 0.39983771050172562 0.2927647582807128 0 0.41024715033577219 0.27622005377076342 0 0.38673035019417301 0.29079882275090368 0 0.3962271982206832 0.28215443287103059 0 0.39983771050172562 0.2927647582807128 0 0.38673035019417301 0.29079882275090368 0 0.39260572260290638 0.29858222563873721 0 0.39983771050172562 0.2927647582807128 0 0.41113251971864678 0.30003611048637963 0 0.42915198713048791 0.29928938767105417 0 0.42477304827116519 0.28608227672526487 0 0.41113251971864678 0.30003611048637963 0 0.42477304827116519 0.28608227672526487 0 0.41024715033577219 0.27622005377076342 0 0.41113251971864678 0.30003611048637963 0 0.41024715033577219 0.27622005377076342 0 0.39983771050172562 0.2927647582807128 0 0.41113251971864678 0.30003611048637963 0 0.41024715033577219 0.27622005377076342 0 0.42136197396174502 0.30826541372809818 0 0.41113251971864678 0.30003611048637963 0 0.41391887797310511 0.31706761406649719 0 0.42136197396174502 0.30826541372809818 0 0.41113251971864678 0.30003611048637963 0 0.42915198713048791 0.29928938767105417 0 0.39928566715577007 0.30593227745083229 0 0.41113251971864678 0.30003611048637963 0 0.41391887797310511 0.31706761406649719 0 0.42915198713048791 0.29928938767105417 0 0.44469569897523198 0.30507367697079468 0 0.43124451102474037 0.31666854268846212 0 0.42136197396174502 0.30826541372809818 0 0.42915198713048791 0.29928938767105417 0 0.43124451102474037 0.31666854268846212 0 0.42915198713048791 0.29928938767105417 0 0.42477304827116519 0.28608227672526487 0 0.44225776140102402 0.28410073860180768 0 0.42477304827116519 0.28608227672526487 0 0.43107582276989492 0.27076509309631941 0 0.41024715033577219 0.27622005377076342 0 0.42477304827116519 0.28608227672526487 0 0.43107582276989492 0.27076509309631941 0 0.44225776140102402 0.28410073860180768 0 0.43107582276989492 0.27076509309631941 0 0.41024715033577219 0.27622005377076342 0 0.42337495438113032 0.25825232539008242 0 0.40936178095289738 0.25240399705514732 0 0.42337495438113032 0.25825232539008242 0 0.42478978643733262 0.2415555153052843 0 0.41024715033577219 0.27622005377076342 0 0.40936178095289738 0.25240399705514732 0 0.41024715033577219 0.27622005377076342 0 0.40936178095289738 0.25240399705514732 0 0.42337495438113032 0.25825232539008242 0 0.43107582276989492 0.27076509309631941 0 0.42337495438113032 0.25825232539008242 0 0.44110316130464111 0.25452309027103831 0 0.42337495438113032 0.25825232539008242 0 0.44110316130464111 0.25452309027103831 0 0.42478978643733262 0.2415555153052843 0 0.43107582276989492 0.27076509309631941 0 0.44110316130464111 0.25452309027103831 0 0.45649527658784839 0.26675835185486307 0 0.44110316130464111 0.25452309027103831 0 0.45649527658784839 0.26675835185486307 0 0.45439012142468871 0.24678647365181461 0 0.44110316130464111 0.25452309027103831 0 0.45649527658784839 0.26675835185486307 0 0.45649527658784839 0.26675835185486307 0 0.44225776140102402 0.28410073860180768 0 0.45649527658784839 0.26675835185486307 0 0.45689864209029901 0.29214778015432769 0 0.44225776140102402 0.28410073860180768 0 0.43107582276989492 0.27076509309631941 0 0.45649527658784839 0.26675835185486307 0 0.44225776140102402 0.28410073860180768 0 0.45649527658784839 0.26675835185486307 0 0.47027739279820008 0.28214181720209691 0 0.45689864209029901 0.29214778015432769 0 0.45649527658784839 0.26675835185486307 0 0.4639266926722645 0.27266561788413168 0 0.45649527658784839 0.26675835185486307 0 0.4639266926722645 0.27266561788413168 0 0.47027739279820008 0.28214181720209691 0 0.45649527658784839 0.26675835185486307 0 0.47027739279820008 0.28214181720209691 0 0.45649527658784839 0.26675835185486307 0 0.4639266926722645 0.27266561788413168 0 0.47099685105856659 0.24909432062393899 0 0.45649527658784839 0.26675835185486307 0 0.45439012142468871 0.24678647365181461 0 0.47099685105856659 0.24909432062393899 0 0.45649527658784839 0.26675835185486307 0 0.47099685105856659 0.24909432062393899 0 0.48332510613244078 0.26263993867580659 0 0.48796407654405838 0.24861642653093519 0 0.47099685105856659 0.24909432062393899 0 0.4639266926722645 0.27266561788413168 0 0.47472879472773472 0.26916864035384208 0 0.47099685105856659 0.24909432062393899 0 0.48332510613244078 0.26263993867580659 0 0.47472879472773472 0.26916864035384208 0 0.47099685105856659 0.24909432062393899 0 0.48332510613244078 0.26263993867580659 0 0.47472879472773472 0.26916864035384208 0 0.48511793097720157 0.27930150738323628 0 0.4639266926722645 0.27266561788413168 0 0.47472879472773472 0.26916864035384208 0 0.47027739279820008 0.28214181720209691 0 0.47472879472773472 0.26916864035384208 0 0.48511793097720157 0.27930150738323628 0 0.47027739279820008 0.28214181720209691 0 0.48332510613244078 0.26263993867580659 0 0.48511793097720157 0.27930150738323628 0 0.5 0.26202296992058038 0 0.48511793097720157 0.27930150738323628 0 0.5 0.26202296992058038 0 0.5 0.28615132579982561 0 0.48332510613244078 0.26263993867580659 0 0.5 0.26202296992058038 0 0.48796407654405838 0.24861642653093519 0 0.5 0.31027968167907072 0 0.48513869639910012 0.29621074944058379 0 0.48014786409732041 0.31580072554911109 0 0.5 0.31027968167907072 0 0.5 0.28615132579982561 0 0.48513869639910012 0.29621074944058379 0 0.5 0.31027968167907072 0 0.48513869639910012 0.29621074944058379 0 0.48511793097720157 0.27930150738323628 0 0.5 0.28615132579982561 0 0.48513869639910012 0.29621074944058379 0 0.48513869639910012 0.29621074944058379 0 0.47027739279820008 0.28214181720209691 0 0.48511793097720157 0.27930150738323628 0 0.48513869639910012 0.29621074944058379 0 0.47027739279820008 0.28214181720209691 0 0.48513869639910012 0.29621074944058379 0 0.47027739279820008 0.28214181720209691 0 0.47290731302890199 0.29692613969344789 0 0.47290731302890199 0.29692613969344789 0 0.46010508874384148 0.31843942354758542 0 0.48014786409732041 0.31580072554911109 0 0.48513869639910012 0.29621074944058379 0 0.47290731302890199 0.29692613969344789 0 0.48014786409732041 0.31580072554911109 0 0.45689864209029901 0.29214778015432769 0 0.44469569897523198 0.30507367697079468 0 0.46010508874384148 0.31843942354758542 0 0.47290731302890199 0.29692613969344789 0 0.45689864209029901 0.29214778015432769 0 0.46010508874384148 0.31843942354758542 0 0.47290731302890199 0.29692613969344789 0 0.46010508874384148 0.31843942354758542 0 0.47027739279820008 0.28214181720209691 0 0.47290731302890199 0.29692613969344789 0 0.45689864209029901 0.29214778015432769 0 0.45689864209029901 0.29214778015432769 0 0.44225776140102402 0.28410073860180768 0 0.44469569897523198 0.30507367697079468 0 0.42915198713048791 0.29928938767105417 0 0.44225776140102402 0.28410073860180768 0 0.44469569897523198 0.30507367697079468 0 0.44470397357642028 0.32128765073749371 0 0.44730286445878098 0.3399527074017229 0 0.46010508874384148 0.31843942354758542 0 0.44469569897523198 0.30507367697079468 0 0.44470397357642028 0.32128765073749371 0 0.46010508874384148 0.31843942354758542 0 0.44469569897523198 0.30507367697079468 0 0.44470397357642028 0.32128765073749371 0 0.43124451102474037 0.31666854268846212 0 0.44470397357642028 0.32128765073749371 0 0.43691589271420828 0.32986554473293189 0 0.43124451102474037 0.31666854268846212 0 0.44470397357642028 0.32128765073749371 0 0.44730286445878098 0.3399527074017229 0 0.43691589271420828 0.32986554473293189 0 0.44730286445878098 0.3399527074017229 0 0.43265384881474422 0.34256724188644422 0 0.43691589271420828 0.32986554473293189 0 0.46090134613873712 0.33332270228030941 0 0.47512241224205709 0.33623688617795727 0 0.45654661427372062 0.34612786982151539 0 0.44730286445878098 0.3399527074017229 0 0.46090134613873712 0.33332270228030941 0 0.46010508874384148 0.31843942354758542 0 0.46090134613873712 0.33332270228030941 0 0.46010508874384148 0.31843942354758542 0 0.47512241224205709 0.33623688617795727 0 0.44730286445878098 0.3399527074017229 0 0.46010508874384148 0.31843942354758542 0 0.44730286445878098 0.3399527074017229 0 0.46090134613873712 0.33332270228030941 0 0.45654661427372062 0.34612786982151539 0 0.46010508874384148 0.31843942354758542 0 0.48014786409732041 0.31580072554911109 0 0.47512241224205709 0.33623688617795727 0 0.48014786409732041 0.31580072554911109 0 0.47512241224205709 0.33623688617795727 0 0.5 0.33912057163650389 0 0.5 0.31027968167907072 0 0.48014786409732041 0.31580072554911109 0 0.5 0.33912057163650389 0 0.50000000000000089 0.36796146159393711 0 0.47827330713686089 0.35704466570772608 0 0.50000000000000089 0.36796146159393711 0 0.47827330713686089 0.35704466570772608 0 0.47901029300138559 0.37718938986322148 0 0.47512241224205709 0.33623688617795727 0 0.5 0.33912057163650389 0 0.47827330713686089 0.35704466570772608 0 0.5 0.33912057163650389 0 0.50000000000000089 0.36796146159393711 0 0.47827330713686089 0.35704466570772608 0 0.47512241224205709 0.33623688617795727 0 0.47827330713686089 0.35704466570772608 0 0.45654661427372062 0.34612786982151539 0 0.47827330713686089 0.35704466570772608 0 0.46351068266460821 0.36336061304530498 0 0.47901029300138559 0.37718938986322148 0 0.46351068266460821 0.36336061304530498 0 0.4589480855614646 0.37952376083574141 0 0.47901029300138559 0.37718938986322148 0 0.46351068266460821 0.36336061304530498 0 0.44877833754571772 0.35891712010380372 0 0.4589480855614646 0.37952376083574141 0 0.47827330713686089 0.35704466570772608 0 0.46351068266460821 0.36336061304530498 0 0.45654661427372062 0.34612786982151539 0 0.46351068266460821 0.36336061304530498 0 0.45654661427372062 0.34612786982151539 0 0.44877833754571772 0.35891712010380372 0 0.47827330713686089 0.35704466570772608 0 0.45654661427372062 0.34612786982151539 0 0.44730286445878098 0.3399527074017229 0 0.45654661427372062 0.34612786982151539 0 0.44877833754571772 0.35891712010380372 0 0.44730286445878098 0.3399527074017229 0 0.43450064017372048 0.36146599125586049 0 0.43265384881474422 0.34256724188644422 0 0.44730286445878098 0.3399527074017229 0 0.43450064017372048 0.36146599125586049 0 0.44730286445878098 0.3399527074017229 0 0.44877833754571772 0.35891712010380372 0 0.43450064017372048 0.36146599125586049 0 0.44877833754571772 0.35891712010380372 0 0.43930744269236272 0.38131204811245978 0 0.4589480855614646 0.37952376083574141 0 0.44877833754571772 0.35891712010380372 0 0.43450064017372048 0.36146599125586049 0 0.43930744269236272 0.38131204811245978 0 0.43450064017372048 0.36146599125586049 0 0.42169841588866003 0.38297927510999807 0 0.43450064017372048 0.36146599125586049 0 0.4193749022335686 0.36727603989734892 0 0.4209507715624351 0.34957863471427408 0 0.43450064017372048 0.36146599125586049 0 0.4193749022335686 0.36727603989734892 0 0.42169841588866003 0.38297927510999807 0 0.4193749022335686 0.36727603989734892 0 0.40832402990732453 0.36170932982868242 0 0.41121357935606079 0.37832888934782949 0 0.4193749022335686 0.36727603989734892 0 0.40832402990732453 0.36170932982868242 0 0.4209507715624351 0.34957863471427408 0 0.40832402990732453 0.36170932982868242 0 0.40054506364770592 0.38424856797896012 0 0.41121357935606079 0.37832888934782949 0 0.40832402990732453 0.36170932982868242 0 0.41121357935606079 0.37832888934782949 0 0.40832402990732453 0.36170932982868242 0 0.4209507715624351 0.34957863471427408 0 0.4038048485315473 0.33382080363975741 0 0.43450064017372048 0.36146599125586049 0 0.4209507715624351 0.34957863471427408 0 0.43265384881474422 0.34256724188644422 0 0.4209507715624351 0.34957863471427408 0 0.43265384881474422 0.34256724188644422 0 0.42359907516457612 0.3319733313274314 0 0.43265384881474422 0.34256724188644422 0 0.43691589271420828 0.32986554473293189 0 0.42359907516457612 0.3319733313274314 0 0.42136197396174502 0.30826541372809818 0 0.43124451102474037 0.31666854268846212 0 0.41391887797310511 0.31706761406649719 0 0.42359907516457612 0.3319733313274314 0 0.43124451102474037 0.31666854268846212 0 0.41391887797310511 0.31706761406649719 0 0.43691589271420828 0.32986554473293189 0 0.42359907516457612 0.3319733313274314 0 0.43124451102474037 0.31666854268846212 0 0.42359907516457612 0.3319733313274314 0 0.41391887797310511 0.31706761406649719 0 0.4038048485315473 0.33382080363975741 0 0.4209507715624351 0.34957863471427408 0 0.42359907516457612 0.3319733313274314 0 0.4038048485315473 0.33382080363975741 0 0.4038048485315473 0.33382080363975741 0 0.39071370797808991 0.32163173327551231 0 0.38678874952352971 0.34420164517782442 0 0.39928566715577007 0.30593227745083229 0 0.41391887797310511 0.31706761406649719 0 0.4038048485315473 0.33382080363975741 0 0.39928566715577007 0.30593227745083229 0 0.4038048485315473 0.33382080363975741 0 0.39071370797808991 0.32163173327551231 0 0.39928566715577007 0.30593227745083229 0 0.4038048485315473 0.33382080363975741 0 0.37269506830413179 0.31359601771975171 0 0.39071370797808991 0.32163173327551231 0 0.37660830276601931 0.32775769020394202 0 0.37269506830413179 0.31359601771975171 0 0.38456916255995699 0.3048330440725 0 0.39071370797808991 0.32163173327551231 0 0.36781057592505167 0.33833319135141071 0 0.37660830276601931 0.32775769020394202 0 0.38678874952352971 0.34420164517782442 0 0.39071370797808991 0.32163173327551231 0 0.37660830276601931 0.32775769020394202 0 0.38678874952352971 0.34420164517782442 0 0.38678874952352971 0.34420164517782442 0 0.37810677920759522 0.35981427665085353 0 0.39073411173907152 0.3628013869794906 0 0.37417197045165879 0.34885544311155597 0 0.36781057592505167 0.33833319135141071 0 0.38678874952352971 0.34420164517782442 0 0.37417197045165879 0.34885544311155597 0 0.38678874952352971 0.34420164517782442 0 0.37810677920759522 0.35981427665085353 0 0.36777589667942212 0.36738284016723782 0 0.37810677920759522 0.35981427665085353 0 0.3808591980642354 0.36935705893597359 0 0.3808591980642354 0.36935705893597359 0 0.39073411173907152 0.3628013869794906 0 0.39228631565624089 0.37661564403979297 0 0.37810677920759522 0.35981427665085353 0 0.3808591980642354 0.36935705893597359 0 0.39073411173907152 0.3628013869794906 0 0.40832402990732453 0.36170932982868242 0 0.39073411173907152 0.3628013869794906 0 0.39228631565624089 0.37661564403979297 0 0.40832402990732453 0.36170932982868242 0 0.40054506364770592 0.38424856797896012 0 0.39228631565624089 0.37661564403979297 0 0.40832402990732453 0.36170932982868242 0 0.4038048485315473 0.33382080363975741 0 0.40832402990732453 0.36170932982868242 0 0.4038048485315473 0.33382080363975741 0 0.38678874952352971 0.34420164517782442 0 0.40832402990732453 0.36170932982868242 0 0.38678874952352971 0.34420164517782442 0 0.39073411173907152 0.3628013869794906 0 0.40184535627318257 0.39910654668166579 0 0.40054506364770592 0.38424856797896012 0 0.38742640511867998 0.39421346332705159 0 0.40184535627318257 0.39910654668166579 0 0.38742640511867998 0.39421346332705159 0 0.39221529461803328 0.40861845728242452 0 0.40184535627318257 0.39910654668166579 0 0.40054506364770592 0.38424856797896012 0 0.41316706566488809 0.38956457939410732 0 0.40054506364770592 0.38424856797896012 0 0.39228631565624089 0.37661564403979297 0 0.38742640511867998 0.39421346332705159 0 0.3808591980642354 0.36935705893597359 0 0.39228631565624089 0.37661564403979297 0 0.37539288703884721 0.38017114684249331 0 0.39228631565624089 0.37661564403979297 0 0.37539288703884721 0.38017114684249331 0 0.38742640511867998 0.39421346332705159 0 0.37250528002566369 0.39451893199837468 0 0.37539288703884721 0.38017114684249331 0 0.38742640511867998 0.39421346332705159 0 0.37250528002566369 0.39451893199837468 0 0.38742640511867998 0.39421346332705159 0 0.3771709686793116 0.41324975171031297 0 0.38742640511867998 0.39421346332705159 0 0.3771709686793116 0.41324975171031297 0 0.39221529461803328 0.40861845728242452 0 0.3771709686793116 0.41324975171031297 0 0.39119594375118871 0.42335027926176277 0 0.39221529461803328 0.40861845728242452 0 0.3771709686793116 0.41324975171031297 0 0.38279498211221491 0.4368780777270232 0 0.39119594375118871 0.42335027926176277 0 0.36517828598789159 0.42600130542859338 0 0.3771709686793116 0.41324975171031297 0 0.38279498211221491 0.4368780777270232 0 0.38279498211221491 0.4368780777270232 0 0.40298786693631061 0.43505017683546943 0 0.39119594375118871 0.42335027926176277 0 0.40298786693631061 0.43505017683546943 0 0.39119594375118871 0.42335027926176277 0 0.40343779926780332 0.41317224543132919 0 0.39119594375118871 0.42335027926176277 0 0.39221529461803328 0.40861845728242452 0 0.40343779926780332 0.41317224543132919 0 0.40184535627318257 0.39910654668166579 0 0.39221529461803328 0.40861845728242452 0 0.40343779926780332 0.41317224543132919 0 0.41662516911347242 0.42321949496834782 0 0.41431186190671188 0.40070595253147279 0 0.40343779926780332 0.41317224543132919 0 0.41662516911347242 0.42321949496834782 0 0.41431186190671188 0.40070595253147279 0 0.41662516911347242 0.42321949496834782 0 0.42695628441532663 0.40675967524157192 0 0.41431186190671188 0.40070595253147279 0 0.40298786693631061 0.43505017683546943 0 0.41662516911347242 0.42321949496834782 0 0.41893847632023279 0.44573303740522269 0 0.41662516911347242 0.42321949496834782 0 0.41893847632023279 0.44573303740522269 0 0.40298786693631061 0.43505017683546943 0 0.40343779926780332 0.41317224543132919 0 0.41662516911347242 0.42321949496834782 0 0.41662516911347242 0.42321949496834782 0 0.43913415372385989 0.43367083913401061 0 0.41893847632023279 0.44573303740522269 0 0.41662516911347242 0.42321949496834782 0 0.43872898477714628 0.41629725174610988 0 0.43913415372385989 0.43367083913401061 0 0.42695628441532663 0.40675967524157192 0 0.43726780355359107 0.39977502392165681 0 0.43872898477714628 0.41629725174610988 0 0.41662516911347242 0.42321949496834782 0 0.42695628441532663 0.40675967524157192 0 0.43872898477714628 0.41629725174610988 0 0.42695628441532663 0.40675967524157192 0 0.43726780355359107 0.39977502392165681 0 0.42560231621486122 0.39469232416070371 0 0.43726780355359107 0.39977502392165681 0 0.42560231621486122 0.39469232416070371 0 0.43930744269236272 0.38131204811245978 0 0.42695628441532663 0.40675967524157192 0 0.42560231621486122 0.39469232416070371 0 0.41431186190671188 0.40070595253147279 0 0.42560231621486122 0.39469232416070371 0 0.41431186190671188 0.40070595253147279 0 0.42169841588866003 0.38297927510999807 0 0.41431186190671188 0.40070595253147279 0 0.41316706566488809 0.38956457939410732 0 0.42169841588866003 0.38297927510999807 0 0.40184535627318257 0.39910654668166579 0 0.41431186190671188 0.40070595253147279 0 0.41316706566488809 0.38956457939410732 0 0.41431186190671188 0.40070595253147279 0 0.41316706566488809 0.38956457939410732 0 0.40184535627318257 0.39910654668166579 0 0.40343779926780332 0.41317224543132919 0 0.41431186190671188 0.40070595253147279 0 0.4193749022335686 0.36727603989734892 0 0.41121357935606079 0.37832888934782949 0 0.42169841588866003 0.38297927510999807 0 0.41121357935606079 0.37832888934782949 0 0.41316706566488809 0.38956457939410732 0 0.40054506364770592 0.38424856797896012 0 0.41121357935606079 0.37832888934782949 0 0.41316706566488809 0.38956457939410732 0 0.41121357935606079 0.37832888934782949 0 0.41316706566488809 0.38956457939410732 0 0.42169841588866003 0.38297927510999807 0 0.42560231621486122 0.39469232416070371 0 0.42169841588866003 0.38297927510999807 0 0.43930744269236272 0.38131204811245978 0 0.43450064017372048 0.36146599125586049 0 0.42169841588866003 0.38297927510999807 0 0.43930744269236272 0.38131204811245978 0 0.43930744269236272 0.38131204811245978 0 0.45299961115724269 0.39389462757998239 0 0.4589480855614646 0.37952376083574141 0 0.43726780355359107 0.39977502392165681 0 0.45299961115724269 0.39389462757998239 0 0.45576439787096068 0.4090203820957089 0 0.43726780355359107 0.39977502392165681 0 0.43930744269236272 0.38131204811245978 0 0.45299961115724269 0.39389462757998239 0 0.45299961115724269 0.39389462757998239 0 0.4589480855614646 0.37952376083574141 0 0.47371032610783459 0.39984192293434478 0 0.45299961115724269 0.39389462757998239 0 0.47371032610783459 0.39984192293434478 0 0.45576439787096068 0.4090203820957089 0 0.4589480855614646 0.37952376083574141 0 0.47901029300138559 0.37718938986322148 0 0.47371032610783459 0.39984192293434478 0 0.47901029300138559 0.37718938986322148 0 0.47371032610783459 0.39984192293434478 0 0.5 0.39526192888817779 0 0.47371032610783459 0.39984192293434478 0 0.5 0.39526192888817779 0 0.5 0.42256239618241842 0 0.50000000000000089 0.36796146159393711 0 0.47901029300138559 0.37718938986322148 0 0.5 0.39526192888817779 0 0.4855098544672572 0.43706352866914688 0 0.5 0.42256239618241842 0 0.5 0.44986286347665921 0 0.4855098544672572 0.43706352866914688 0 0.5 0.42256239618241842 0 0.47273196076548812 0.42244908330867442 0 0.47371032610783459 0.39984192293434478 0 0.5 0.42256239618241842 0 0.47273196076548812 0.42244908330867442 0 0.4855098544672572 0.43706352866914688 0 0.47273196076548812 0.42244908330867442 0 0.46252334248610638 0.4406261600767381 0 0.47273196076548812 0.42244908330867442 0 0.45459071994212807 0.42467712951313852 0 0.46252334248610638 0.4406261600767381 0 0.47371032610783459 0.39984192293434478 0 0.47273196076548812 0.42244908330867442 0 0.45576439787096068 0.4090203820957089 0 0.47273196076548812 0.42244908330867442 0 0.45459071994212807 0.42467712951313852 0 0.45576439787096068 0.4090203820957089 0 0.45459071994212807 0.42467712951313852 0 0.45576439787096068 0.4090203820957089 0 0.43872898477714628 0.41629725174610988 0 0.43726780355359107 0.39977502392165681 0 0.45576439787096068 0.4090203820957089 0 0.43872898477714628 0.41629725174610988 0 0.45459071994212807 0.42467712951313852 0 0.43913415372385989 0.43367083913401061 0 0.46252334248610638 0.4406261600767381 0 0.45459071994212807 0.42467712951313852 0 0.43872898477714628 0.41629725174610988 0 0.43913415372385989 0.43367083913401061 0 0.43913415372385989 0.43367083913401061 0 0.44021609021005692 0.45381012286699463 0 0.46252334248610638 0.4406261600767381 0 0.44021609021005692 0.45381012286699463 0 0.46205546153402122 0.45965735948073189 0 0.44750118901799529 0.47121883015169957 0 0.46205546153402122 0.45965735948073189 0 0.47375059450899759 0.47419108046129982 0 0.44750118901799529 0.47121883015169957 0 0.44021609021005692 0.45381012286699463 0 0.46205546153402122 0.45965735948073189 0 0.46252334248610638 0.4406261600767381 0 0.46205546153402122 0.45965735948073189 0 0.46252334248610638 0.4406261600767381 0 0.48014404242747388 0.45500198226831662 0 0.4855098544672572 0.43706352866914688 0 0.46252334248610638 0.4406261600767381 0 0.48014404242747388 0.45500198226831662 0 0.46205546153402122 0.45965735948073189 0 0.48014404242747388 0.45500198226831662 0 0.47375059450899759 0.47419108046129982 0 0.48014404242747388 0.45500198226831662 0 0.5 0.44986286347665921 0 0.49999999999999989 0.4771633307708999 0 0.4855098544672572 0.43706352866914688 0 0.48014404242747388 0.45500198226831662 0 0.5 0.44986286347665921 0 0.5 0.5 0 0.48255019692198847 0.48783860280804991 0 0.4564501931789563 0.5 0 0.5 0.5 0 0.49999999999999989 0.4771633307708999 0 0.48255019692198847 0.48783860280804991 0 0.49999999999999989 0.4771633307708999 0 0.47375059450899759 0.47419108046129982 0 0.49999999999999989 0.4771633307708999 0 0.47375059450899759 0.47419108046129982 0 0.48255019692198847 0.48783860280804991 0 0.48014404242747388 0.45500198226831662 0 0.49999999999999989 0.4771633307708999 0 0.47375059450899759 0.47419108046129982 0 0.47375059450899759 0.47419108046129982 0 0.48255019692198847 0.48783860280804991 0 0.4564501931789563 0.5 0 0.4564501931789563 0.5 0 0.44048234903058731 0.49033710746226628 0 0.42451450488221859 0.49999999999999878 0 0.47375059450899759 0.47419108046129982 0 0.4564501931789563 0.5 0 0.44750118901799529 0.47121883015169957 0 0.47375059450899759 0.47419108046129982 0 0.44750118901799529 0.47121883015169957 0 0.4564501931789563 0.5 0 0.44750118901799529 0.47121883015169957 0 0.44048234903058731 0.49033710746226628 0 0.42451450488221859 0.49999999999999878 0 0.4228831442046061 0.48412328992104831 0 0.44048234903058731 0.49033710746226628 0 0.42451450488221859 0.49999999999999878 0 0.4228831442046061 0.48412328992104831 0 0.42451450488221859 0.49999999999999878 0 0.40648166079482939 0.48228603773955919 0 0.39675279950560971 0.5 0 0.42451450488221859 0.49999999999999878 0 0.40648166079482939 0.48228603773955919 0 0.4228831442046061 0.48412328992104831 0 0.40648166079482939 0.48228603773955919 0 0.4153765113217554 0.47650582609521419 0 0.4228831442046061 0.48412328992104831 0 0.4153765113217554 0.47650582609521419 0 0.4228831442046061 0.48412328992104831 0 0.421251783526993 0.46824657984209789 0 0.40648166079482939 0.48228603773955919 0 0.4153765113217554 0.47650582609521419 0 0.411477688833223 0.46713984788241469 0 0.4153765113217554 0.47650582609521419 0 0.421251783526993 0.46824657984209789 0 0.411477688833223 0.46713984788241469 0 0.44750118901799529 0.47121883015169957 0 0.421251783526993 0.46824657984209789 0 0.4228831442046061 0.48412328992104831 0 0.421251783526993 0.46824657984209789 0 0.44750118901799529 0.47121883015169957 0 0.4228831442046061 0.48412328992104831 0 0.421251783526993 0.46824657984209789 0 0.44750118901799529 0.47121883015169957 0 0.44048234903058731 0.49033710746226628 0 0.4228831442046061 0.48412328992104831 0 0.44021609021005692 0.45381012286699463 0 0.44750118901799529 0.47121883015169957 0 0.421251783526993 0.46824657984209789 0 0.44021609021005692 0.45381012286699463 0 0.41893847632023279 0.44573303740522269 0 0.421251783526993 0.46824657984209789 0 0.43913415372385989 0.43367083913401061 0 0.44021609021005692 0.45381012286699463 0 0.41893847632023279 0.44573303740522269 0 0.40298786693631061 0.43505017683546943 0 0.41893847632023279 0.44573303740522269 0 0.40793606815755939 0.4539019709979058 0 0.41893847632023279 0.44573303740522269 0 0.421251783526993 0.46824657984209789 0 0.41893847632023279 0.44573303740522269 0 0.421251783526993 0.46824657984209789 0 0.40793606815755939 0.4539019709979058 0 0.421251783526993 0.46824657984209789 0 0.411477688833223 0.46713984788241469 0 0.421251783526993 0.46824657984209789 0 0.40793606815755939 0.4539019709979058 0 0.411477688833223 0.46713984788241469 0 0.40793606815755939 0.4539019709979058 0 0.39619455037201817 0.46480585428416621 0 0.39233796657963987 0.4483915732074632 0 0.40793606815755939 0.4539019709979058 0 0.411477688833223 0.46713984788241469 0 0.39619455037201817 0.46480585428416621 0 0.40298786693631061 0.43505017683546943 0 0.40793606815755939 0.4539019709979058 0 0.39233796657963987 0.4483915732074632 0 0.38279498211221491 0.4368780777270232 0 0.40298786693631061 0.43505017683546943 0 0.39233796657963987 0.4483915732074632 0 0.37078211607963019 0.44995535094209621 0 0.38279498211221491 0.4368780777270232 0 0.39233796657963987 0.4483915732074632 0 0.37078211607963019 0.44995535094209621 0 0.39619455037201817 0.46480585428416621 0 0.39233796657963987 0.4483915732074632 0 0.37078211607963019 0.44995535094209621 0 0.39619455037201817 0.46480585428416621 0 0.38276019481452661 0.47852410794061612 0 0.36899109412900072 0.5 0 0.38276019481452661 0.47852410794061612 0 0.39675279950560971 0.5 0 0.40648166079482939 0.48228603773955919 0 0.38276019481452661 0.47852410794061612 0 0.39675279950560971 0.5 0 0.40648166079482939 0.48228603773955919 0 0.39619455037201817 0.46480585428416621 0 0.38276019481452661 0.47852410794061612 0 0.40648166079482939 0.48228603773955919 0 0.411477688833223 0.46713984788241469 0 0.39619455037201817 0.46480585428416621 0 0.34017164993508342 0.079705387757931151 0 0.32126526078305312 0.085809954538699065 0 0.32562996225930979 0.099259616069516221 0 0.34017164993508342 0.079705387757931151 0 0.32562996225930979 0.099259616069516221 0 0.34608747018480668 0.099231547871760195 0 0.34017164993508342 0.079705387757931151 0 0.32052370830466043 0.071689256461331619 0 0.33372025595855898 0.053317969165790673 0 0.32052370830466043 0.071689256461331619 0 0.33372025595855898 0.053317969165790673 0 0.34017164993508342 0.079705387757931151 0 0.32052370830466043 0.071689256461331619 0 0.32126526078305312 0.085809954538699065 0 0.32052370830466043 0.071689256461331619 0 0.32126526078305312 0.085809954538699065 0 0.30732716065076099 0.09006054375687203 0 0.32052370830466043 0.071689256461331619 0 0.30732716065076099 0.09006054375687203 0 0.32126526078305312 0.085809954538699065 0 0.32562996225930979 0.099259616069516221 0 0.30732716065076099 0.09006054375687203 0 0.32562996225930979 0.099259616069516221 0 0.33102798148580748 0.1185134895208889 0 0.30860309687300819 0.10661927594420639 0 0.32562996225930979 0.099259616069516221 0 0.30732716065076099 0.09006054375687203 0 0.30860309687300819 0.10661927594420639 0 0.33102798148580748 0.1185134895208889 0 0.30273124653245381 0.1235288555175215 0 0.33102798148580748 0.1185134895208889 0 0.30273124653245381 0.1235288555175215 0 0.30860309687300819 0.10661927594420639 0 0.32562996225930979 0.099259616069516221 0 0.33102798148580748 0.1185134895208889 0 0.34608747018480668 0.099231547871760195 0 0.33102798148580748 0.1185134895208889 0 0.35932471643916081 0.1134981235242544 0 0.34990433144588828 0.13766573298981241 0 0.33102798148580748 0.1185134895208889 0 0.34608747018480668 0.099231547871760195 0 0.35932471643916081 0.1134981235242544 0 0.33102798148580748 0.1185134895208889 0 0.35932471643916081 0.1134981235242544 0 0.35932471643916081 0.1134981235242544 0 0.38762145139251158 0.108482757527606 0 0.35932471643916081 0.1134981235242544 0 0.37116644873757482 0.1272731574952862 0 0.38762145139251158 0.108482757527606 0 0.34608747018480668 0.099231547871760195 0 0.35932471643916081 0.1134981235242544 0 0.37428304080467212 0.085181122486210264 0 0.35932471643916081 0.1134981235242544 0 0.37428304080467212 0.085181122486210264 0 0.38762145139251158 0.108482757527606 0 0.34017164993508342 0.079705387757931151 0 0.37428304080467212 0.085181122486210264 0 0.36094463021682849 0.061879487444816861 0 0.34017164993508342 0.079705387757931151 0 0.34608747018480668 0.099231547871760195 0 0.37428304080467212 0.085181122486210264 0 0.34017164993508342 0.079705387757931151 0 0.36094463021682849 0.061879487444816861 0 0.33372025595855898 0.053317969165790673 0 0.37428304080467212 0.085181122486210264 0 0.36094463021682849 0.061879487444816861 0 0.36094463021682849 0.061879487444816861 0 0.37210288993999918 0.04768584512514757 0 0.34760621962898502 0.03857785240342345 0 0.36094463021682849 0.061879487444816861 0 0.37210288993999918 0.04768584512514757 0 0.3904366715797733 0.068618152357034126 0 0.37210288993999918 0.04768584512514757 0 0.34760621962898502 0.03857785240342345 0 0.36864859530982658 0.02996483807260069 0 0.36094463021682849 0.061879487444816861 0 0.34760621962898502 0.03857785240342345 0 0.33372025595855898 0.053317969165790673 0 0.36094463021682849 0.061879487444816861 0 0.34760621962898502 0.03857785240342345 0 0.36255471396815681 0.0080598112442611617 0 0.37232238509817878 -0.001610374512647025 0 0.3634290091795348 -0.00084253970199437951 0 0.36255471396815681 0.0080598112442611617 0 0.3634290091795348 -0.00084253970199437951 0 0.35649244884947728 -0.0003015438520561878 0 0.37480090979353559 0.012117275161245869 0 0.36255471396815681 0.0080598112442611617 0 0.37232238509817878 -0.001610374512647025 0 0.37480090979353559 0.012117275161245869 0 0.36255471396815681 0.0080598112442611617 0 0.36308935153047339 0.016933093311811639 0 0.36255471396815681 0.0080598112442611617 0 0.36308935153047339 0.016933093311811639 0 0.35502931094323009 0.012734618525939051 0 0.37480090979353559 0.012117275161245869 0 0.36308935153047339 0.016933093311811639 0 0.36864859530982658 0.02996483807260069 0 0.36308935153047339 0.016933093311811639 0 0.36864859530982658 0.02996483807260069 0 0.35441322763761812 0.021788923555011431 0 0.34760621962898502 0.03857785240342345 0 0.36864859530982658 0.02996483807260069 0 0.35441322763761812 0.021788923555011431 0 0.34760621962898502 0.03857785240342345 0 0.35441322763761812 0.021788923555011431 0 0.34326304420036408 0.0194921870122132 0 0.35441322763761812 0.021788923555011431 0 0.34851986820630709 0.014827616525162809 0 0.34326304420036408 0.0194921870122132 0 0.36308935153047339 0.016933093311811639 0 0.35441322763761812 0.021788923555011431 0 0.35502931094323009 0.012734618525939051 0 0.35441322763761812 0.021788923555011431 0 0.35502931094323009 0.012734618525939051 0 0.34851986820630709 0.014827616525162809 0 0.36255471396815681 0.0080598112442611617 0 0.35502931094323009 0.012734618525939051 0 0.35381985866206389 0.006352084917229028 0 0.35502931094323009 0.012734618525939051 0 0.34784750874900022 0.0084025314897217367 0 0.35381985866206389 0.006352084917229028 0 0.35502931094323009 0.012734618525939051 0 0.34851986820630709 0.014827616525162809 0 0.34784750874900022 0.0084025314897217367 0 0.34851986820630709 0.014827616525162809 0 0.34784750874900022 0.0084025314897217367 0 0.34177519209492668 0.0119638390803698 0 0.34851986820630709 0.014827616525162809 0 0.34177519209492668 0.0119638390803698 0 0.34326304420036408 0.0194921870122132 0 0.34784750874900022 0.0084025314897217367 0 0.34355263904323102 0.0064054792533849566 0 0.34177519209492668 0.0119638390803698 0 0.34784750874900022 0.0084025314897217367 0 0.34729495446360309 0.00099039251516278774 0 0.35381985866206389 0.006352084917229028 0 0.34784750874900022 0.0084025314897217367 0 0.34729495446360309 0.00099039251516278774 0 0.34355263904323102 0.0064054792533849566 0 0.36255471396815681 0.0080598112442611617 0 0.35381985866206389 0.006352084917229028 0 0.35649244884947728 -0.0003015438520561878 0 0.34729495446360309 0.00099039251516278774 0 0.35381985866206389 0.006352084917229028 0 0.35649244884947728 -0.0003015438520561878 0 0.33729290086539399 0.0042651539282855082 0 0.33426780904114151 0.01527621736203 0 0.31974752342260487 -0.010090103006627301 0 0.34729495446360309 0.00099039251516278774 0 0.34355263904323102 0.0064054792533849566 0 0.33729290086539399 0.0042651539282855082 0 0.34355263904323102 0.0064054792533849566 0 0.33729290086539399 0.0042651539282855082 0 0.34177519209492668 0.0119638390803698 0 0.33729290086539399 0.0042651539282855082 0 0.34177519209492668 0.0119638390803698 0 0.33426780904114151 0.01527621736203 0 0.34177519209492668 0.0119638390803698 0 0.33426780904114151 0.01527621736203 0 0.34326304420036408 0.0194921870122132 0 0.34760621962898502 0.03857785240342345 0 0.33426780904114151 0.01527621736203 0 0.34760621962898502 0.03857785240342345 0 0.33426780904114151 0.01527621736203 0 0.32521065086986672 0.035326696326929898 0 0.34760621962898502 0.03857785240342345 0 0.33426780904114151 0.01527621736203 0 0.34326304420036408 0.0194921870122132 0 0.31471320055579222 0.020160732042238508 0 0.32521065086986672 0.035326696326929898 0 0.30784501542109038 0.034940578045190858 0 0.33426780904114151 0.01527621736203 0 0.31471320055579222 0.020160732042238508 0 0.32521065086986672 0.035326696326929898 0 0.33426780904114151 0.01527621736203 0 0.31471320055579222 0.020160732042238508 0 0.33426780904114151 0.01527621736203 0 0.31471320055579222 0.020160732042238508 0 0.31486552590033517 0.0051080489061896828 0 0.33426780904114151 0.01527621736203 0 0.31974752342260487 -0.010090103006627301 0 0.33426780904114151 0.01527621736203 0 0.31486552590033517 0.0051080489061896828 0 0.31974752342260487 -0.010090103006627301 0 0.34760621962898502 0.03857785240342345 0 0.33372025595855898 0.053317969165790673 0 0.32521065086986672 0.035326696326929898 0 0.32521065086986672 0.035326696326929898 0 0.31331264685214189 0.051183735270734318 0 0.30784501542109038 0.034940578045190858 0 0.33372025595855898 0.053317969165790673 0 0.32521065086986672 0.035326696326929898 0 0.31331264685214189 0.051183735270734318 0 0.32052370830466043 0.071689256461331619 0 0.33372025595855898 0.053317969165790673 0 0.31331264685214189 0.051183735270734318 0 0.31331264685214189 0.051183735270734318 0 0.29123247123422741 0.04598029251926114 0 0.29980557654052081 0.068038008879200862 0 0.30784501542109038 0.034940578045190858 0 0.29123247123422741 0.04598029251926114 0 0.29515859207044293 0.025045246722447172 0 0.31331264685214189 0.051183735270734318 0 0.30784501542109038 0.034940578045190858 0 0.29123247123422741 0.04598029251926114 0 0.29123247123422741 0.04598029251926114 0 0.29515859207044293 0.025045246722447172 0 0.2756039835850938 0.029929761402655922 0 0.29123247123422741 0.04598029251926114 0 0.28279016652277528 0.067180270467253889 0 0.29980557654052081 0.068038008879200862 0 0.31486552590033517 0.0051080489061896828 0 0.30002338408281909 0.007883867274738967 0 0.30557571239931841 -0.0076904691414317571 0 0.31471320055579222 0.020160732042238508 0 0.31486552590033517 0.0051080489061896828 0 0.30002338408281909 0.007883867274738967 0 0.31471320055579222 0.020160732042238508 0 0.30002338408281909 0.007883867274738967 0 0.29515859207044293 0.025045246722447172 0 0.31471320055579222 0.020160732042238508 0 0.29515859207044293 0.025045246722447172 0 0.31471320055579222 0.020160732042238508 0 0.30784501542109038 0.034940578045190858 0 0.29515859207044293 0.025045246722447172 0 0.29515859207044293 0.025045246722447172 0 0.27689807354711288 0.02445084942121532 0 0.2756039835850938 0.029929761402655922 0 0.29515859207044293 0.025045246722447172 0 0.2756039835850938 0.029929761402655922 0 0.29515859207044293 0.025045246722447172 0 0.28636387491019488 0.01443983714020838 0 0.27689807354711288 0.02445084942121532 0 0.30002338408281909 0.007883867274738967 0 0.29515859207044293 0.025045246722447172 0 0.28636387491019488 0.01443983714020838 0 0.30002338408281909 0.007883867274738967 0 0.28636387491019488 0.01443983714020838 0 0.28768181064917658 0.0036370595610417918 0 0.28768181064917658 0.0036370595610417918 0 0.2761515963063163 0.0051915330766209898 0 0.28418256802486591 -0.0074972637063911319 0 0.28636387491019488 0.01443983714020838 0 0.28768181064917658 0.0036370595610417918 0 0.2761515963063163 0.0051915330766209898 0 0.30002338408281909 0.007883867274738967 0 0.28768181064917658 0.0036370595610417918 0 0.29470023381152188 -0.0033291965836443949 0 0.26563335961907458 0.0061016133698848663 0 0.2761515963063163 0.0051915330766209898 0 0.2718345607453051 -0.0026332906206296752 0 0.2761515963063163 0.0051915330766209898 0 0.27692463917797883 0.014823644242334051 0 0.26828501194829141 0.0152123573312915 0 0.28636387491019488 0.01443983714020838 0 0.2761515963063163 0.0051915330766209898 0 0.27692463917797883 0.014823644242334051 0 0.26563335961907458 0.0061016133698848663 0 0.2761515963063163 0.0051915330766209898 0 0.26828501194829141 0.0152123573312915 0 0.26828501194829141 0.0152123573312915 0 0.27689807354711288 0.02445084942121532 0 0.26707662471942401 0.025023359864039939 0 0.27692463917797883 0.014823644242334051 0 0.26828501194829141 0.0152123573312915 0 0.27689807354711288 0.02445084942121532 0 0.28636387491019488 0.01443983714020838 0 0.27692463917797883 0.014823644242334051 0 0.27689807354711288 0.02445084942121532 0 0.27689807354711288 0.02445084942121532 0 0.2756039835850938 0.029929761402655922 0 0.2756039835850938 0.029929761402655922 0 0.26707662471942401 0.025023359864039939 0 0.26070846342232051 0.033650489790489402 0 0.27689807354711288 0.02445084942121532 0 0.2756039835850938 0.029929761402655922 0 0.26707662471942401 0.025023359864039939 0 0.26707662471942401 0.025023359864039939 0 0.25380370120803358 0.017117199263192131 0 0.26070846342232051 0.033650489790489402 0 0.25380370120803358 0.017117199263192131 0 0.25922918230963737 0.044876117937818788 0 0.26828501194829141 0.0152123573312915 0 0.26707662471942401 0.025023359864039939 0 0.25380370120803358 0.017117199263192131 0 0.25380370120803358 0.017117199263192131 0 0.24837822010643121 -0.01064171941143479 0 0.25380370120803358 0.017117199263192131 0 0.25868130099832759 -0.002948938419788077 0 0.24837822010643121 -0.01064171941143479 0 0.26563335961907458 0.0061016133698848663 0 0.25380370120803358 0.017117199263192131 0 0.25868130099832759 -0.002948938419788077 0 0.26563335961907458 0.0061016133698848663 0 0.26828501194829141 0.0152123573312915 0 0.25380370120803358 0.017117199263192131 0 0.26563335961907458 0.0061016133698848663 0 0.25868130099832759 -0.002948938419788077 0 0.2718345607453051 -0.0026332906206296752 0 0.29123247123422741 0.04598029251926114 0 0.2697152489566611 0.054861458315682538 0 0.28279016652277528 0.067180270467253889 0 0.2756039835850938 0.029929761402655922 0 0.2697152489566611 0.054861458315682538 0 0.25922918230963737 0.044876117937818788 0 0.2756039835850938 0.029929761402655922 0 0.2697152489566611 0.054861458315682538 0 0.29123247123422741 0.04598029251926114 0 0.2756039835850938 0.029929761402655922 0 0.2697152489566611 0.054861458315682538 0 0.2756039835850938 0.029929761402655922 0 0.26070846342232051 0.033650489790489402 0 0.24753356181782099 0.032752362629513393 0 0.25380370120803358 0.017117199263192131 0 0.25922918230963737 0.044876117937818788 0 0.2756039835850938 0.029929761402655922 0 0.25922918230963737 0.044876117937818788 0 0.26070846342232051 0.033650489790489402 0 0.25380370120803358 0.017117199263192131 0 0.25922918230963737 0.044876117937818788 0 0.26070846342232051 0.033650489790489402 0 0.24753356181782099 0.032752362629513393 0 0.25922918230963737 0.044876117937818788 0 0.25021864521095732 0.042714426536890518 0 0.25922918230963737 0.044876117937818788 0 0.25021864521095732 0.042714426536890518 0 0.25395058035011481 0.052534716696235842 0 0.25922918230963737 0.044876117937818788 0 0.25740867756010311 0.063850328533624073 0 0.26465466341124111 0.072635036612445678 0 0.2697152489566611 0.054861458315682538 0 0.25922918230963737 0.044876117937818788 0 0.26465466341124111 0.072635036612445678 0 0.25922918230963737 0.044876117937818788 0 0.26465466341124111 0.072635036612445678 0 0.24751805561965559 0.049597918156775722 0 0.25021864521095732 0.042714426536890518 0 0.25395058035011481 0.052534716696235842 0 0.25922918230963737 0.044876117937818788 0 0.25395058035011481 0.052534716696235842 0 0.25740867756010311 0.063850328533624073 0 0.24750813816218201 0.057765830816462041 0 0.25395058035011481 0.052534716696235842 0 0.25312753719151332 0.06041714424879692 0 0.25395058035011481 0.052534716696235842 0 0.25312753719151332 0.06041714424879692 0 0.25740867756010311 0.063850328533624073 0 0.24750813816218201 0.057765830816462041 0 0.25312753719151332 0.06041714424879692 0 0.25153334416912049 0.065266287609551596 0 0.2422020519306885 0.074725022831058613 0 0.26382651432822979 0.079793155228709528 0 0.25740867756010311 0.063850328533624073 0 0.25324795101967462 0.071649882576700283 0 0.25954558279063938 0.072037499340963485 0 0.2422020519306885 0.074725022831058613 0 0.25324795101967462 0.071649882576700283 0 0.26382651432822979 0.079793155228709528 0 0.25312753719151332 0.06041714424879692 0 0.25153334416912049 0.065266287609551596 0 0.25740867756010311 0.063850328533624073 0 0.25153334416912049 0.065266287609551596 0 0.25740867756010311 0.063850328533624073 0 0.25324795101967462 0.071649882576700283 0 0.25324795101967462 0.071649882576700283 0 0.25954558279063938 0.072037499340963485 0 0.26382651432822979 0.079793155228709528 0 0.25954558279063938 0.072037499340963485 0 0.26465466341124111 0.072635036612445678 0 0.26382651432822979 0.079793155228709528 0 0.25740867756010311 0.063850328533624073 0 0.25954558279063938 0.072037499340963485 0 0.26465466341124111 0.072635036612445678 0 0.2422020519306885 0.074725022831058613 0 0.25276512444811011 0.086159760048941617 0 0.26382651432822979 0.079793155228709528 0 0.25276512444811011 0.086159760048941617 0 0.26382651432822979 0.079793155228709528 0 0.25994589273858071 0.0962229126234629 0 0.26382651432822979 0.079793155228709528 0 0.25994589273858071 0.0962229126234629 0 0.26382651432822979 0.079793155228709528 0 0.26694418261616942 0.089649877550733809 0 0.25994589273858071 0.0962229126234629 0 0.24508603879494281 0.093897949512535828 0 0.25276512444811011 0.086159760048941617 0 0.25994589273858071 0.0962229126234629 0 0.26694418261616942 0.089649877550733809 0 0.28557683748949542 0.084926849492790585 0 0.27905053999642121 0.1011107511195475 0 0.26382651432822979 0.079793155228709528 0 0.28557683748949542 0.084926849492790585 0 0.26382651432822979 0.079793155228709528 0 0.26694418261616942 0.089649877550733809 0 0.28557683748949542 0.084926849492790585 0 0.2697152489566611 0.054861458315682538 0 0.26382651432822979 0.079793155228709528 0 0.2697152489566611 0.054861458315682538 0 0.26382651432822979 0.079793155228709528 0 0.28279016652277528 0.067180270467253889 0 0.26382651432822979 0.079793155228709528 0 0.28279016652277528 0.067180270467253889 0 0.28557683748949542 0.084926849492790585 0 0.2697152489566611 0.054861458315682538 0 0.26465466341124111 0.072635036612445678 0 0.26382651432822979 0.079793155228709528 0 0.28279016652277528 0.067180270467253889 0 0.28557683748949542 0.084926849492790585 0 0.29980557654052081 0.068038008879200862 0 0.28557683748949542 0.084926849492790585 0 0.30732716065076099 0.09006054375687203 0 0.28557683748949542 0.084926849492790585 0 0.30732716065076099 0.09006054375687203 0 0.29980557654052081 0.068038008879200862 0 0.32052370830466043 0.071689256461331619 0 0.31331264685214189 0.051183735270734318 0 0.29980557654052081 0.068038008879200862 0 0.32052370830466043 0.071689256461331619 0 0.30732716065076099 0.09006054375687203 0 0.29980557654052081 0.068038008879200862 0 0.30273124653245381 0.1235288555175215 0 0.30860309687300819 0.10661927594420639 0 0.29115689737667172 0.1125716246883626 0 0.30273124653245381 0.1235288555175215 0 0.29115689737667172 0.1125716246883626 0 0.30732716065076099 0.09006054375687203 0 0.29115689737667172 0.1125716246883626 0 0.30732716065076099 0.09006054375687203 0 0.30860309687300819 0.10661927594420639 0 0.29115689737667172 0.1125716246883626 0 0.28557683748949542 0.084926849492790585 0 0.29115689737667172 0.1125716246883626 0 0.27905053999642121 0.1011107511195475 0 0.28557683748949542 0.084926849492790585 0 0.30732716065076099 0.09006054375687203 0 0.29115689737667172 0.1125716246883626 0 0.29115689737667172 0.1125716246883626 0 0.27905053999642121 0.1011107511195475 0 0.27630529918790442 0.1091343496790408 0 0.29115689737667172 0.1125716246883626 0 0.27905053999642121 0.1011107511195475 0 0.29115689737667172 0.1125716246883626 0 0.27534876990147872 0.1165892447264149 0 0.28044915569120132 0.1274781747914005 0 0.30273124653245381 0.1235288555175215 0 0.29115689737667172 0.1125716246883626 0 0.28044915569120132 0.1274781747914005 0 0.29115689737667172 0.1125716246883626 0 0.28044915569120132 0.1274781747914005 0 0.27534876990147872 0.1165892447264149 0 0.26324706178475782 0.1196652788325321 0 0.28044915569120132 0.1274781747914005 0 0.29115689737667172 0.1125716246883626 0 0.27534876990147872 0.1165892447264149 0 0.27630529918790442 0.1091343496790408 0 0.27534876990147872 0.1165892447264149 0 0.26743723343524672 0.1115586479522421 0 0.27630529918790442 0.1091343496790408 0 0.27534876990147872 0.1165892447264149 0 0.26743723343524672 0.1115586479522421 0 0.26324706178475782 0.1196652788325321 0 0.27905053999642121 0.1011107511195475 0 0.27630529918790442 0.1091343496790408 0 0.2685330552297156 0.1038414799086453 0 0.26743723343524672 0.1115586479522421 0 0.27630529918790442 0.1091343496790408 0 0.2685330552297156 0.1038414799086453 0 0.26743723343524672 0.1115586479522421 0 0.2685330552297156 0.1038414799086453 0 0.26231462034924419 0.1073492410614291 0 0.26694418261616942 0.089649877550733809 0 0.27905053999642121 0.1011107511195475 0 0.26694418261616942 0.089649877550733809 0 0.27905053999642121 0.1011107511195475 0 0.26861841764522171 0.097706255300597372 0 0.27905053999642121 0.1011107511195475 0 0.2685330552297156 0.1038414799086453 0 0.26861841764522171 0.097706255300597372 0 0.2685330552297156 0.1038414799086453 0 0.26861841764522171 0.097706255300597372 0 0.25994589273858071 0.0962229126234629 0 0.25994589273858071 0.0962229126234629 0 0.25606527114893129 0.11265267001821611 0 0.25994589273858071 0.0962229126234629 0 0.26231462034924419 0.1073492410614291 0 0.25606527114893129 0.11265267001821611 0 0.25994589273858071 0.0962229126234629 0 0.25226680708541338 0.1039611020870571 0 0.25606527114893129 0.11265267001821611 0 0.26694418261616942 0.089649877550733809 0 0.26861841764522171 0.097706255300597372 0 0.25994589273858071 0.0962229126234629 0 0.2685330552297156 0.1038414799086453 0 0.25994589273858071 0.0962229126234629 0 0.26231462034924419 0.1073492410614291 0 0.24508603879494281 0.093897949512535828 0 0.25994589273858071 0.0962229126234629 0 0.25226680708541338 0.1039611020870571 0 0.2479700256591971 0.1130708761940131 0 0.25340356115058688 0.12392180526311759 0 0.25092432003414827 0.13271121164369881 0 0.26743723343524672 0.1115586479522421 0 0.26231462034924419 0.1073492410614291 0 0.25959164919374478 0.1124704948045788 0 0.26743723343524672 0.1115586479522421 0 0.26324706178475782 0.1196652788325321 0 0.25959164919374478 0.1124704948045788 0 0.26231462034924419 0.1073492410614291 0 0.25959164919374478 0.1124704948045788 0 0.25606527114893129 0.11265267001821611 0 0.25959164919374478 0.1124704948045788 0 0.25606527114893129 0.11265267001821611 0 0.26324706178475782 0.1196652788325321 0 0.25959164919374478 0.1124704948045788 0 0.25606527114893129 0.11265267001821611 0 0.2479700256591971 0.1130708761940131 0 0.25226680708541338 0.1039611020870571 0 0.25606527114893129 0.11265267001821611 0 0.2479700256591971 0.1130708761940131 0 0.25606527114893129 0.11265267001821611 0 0.2479700256591971 0.1130708761940131 0 0.25606527114893129 0.11265267001821611 0 0.25340356115058688 0.12392180526311759 0 0.26324706178475782 0.1196652788325321 0 0.25606527114893129 0.11265267001821611 0 0.25340356115058688 0.12392180526311759 0 0.25606527114893129 0.11265267001821611 0 0.25340356115058688 0.12392180526311759 0 0.26324706178475782 0.1196652788325321 0 0.25340356115058688 0.12392180526311759 0 0.25092432003414827 0.13271121164369881 0 0.26324706178475782 0.1196652788325321 0 0.25092432003414827 0.13271121164369881 0 0.28044915569120132 0.1274781747914005 0 0.25092432003414827 0.13271121164369881 0 0.25799278592244679 0.1361950733940786 0 0.28044915569120132 0.1274781747914005 0 0.25799278592244679 0.1361950733940786 0 0.27146832688289158 0.1399806406269069 0 0.25799278592244679 0.1361950733940786 0 0.27146832688289158 0.1399806406269069 0 0.28044915569120132 0.1274781747914005 0 0.25092432003414827 0.13271121164369881 0 0.28044915569120132 0.1274781747914005 0 0.27146832688289158 0.1399806406269069 0 0.28044915569120132 0.1274781747914005 0 0.27146832688289158 0.1399806406269069 0 0.25782953781517348 0.15896758470483191 0 0.28269506906519393 0.15921748153542181 0 0.24723516224861489 0.14891452097535199 0 0.25092432003414827 0.13271121164369881 0 0.25438166837756182 0.15569588162337331 0 0.27146832688289158 0.1399806406269069 0 0.25782953781517348 0.15896758470483191 0 0.25092432003414827 0.13271121164369881 0 0.25438166837756182 0.15569588162337331 0 0.25092432003414827 0.13271121164369881 0 0.25799278592244679 0.1361950733940786 0 0.25438166837756182 0.15569588162337331 0 0.27146832688289158 0.1399806406269069 0 0.25438166837756182 0.15569588162337331 0 0.25782953781517348 0.15896758470483191 0 0.25799278592244679 0.1361950733940786 0 0.27146832688289158 0.1399806406269069 0 0.25438166837756182 0.15569588162337331 0 0.24723516224861489 0.14891452097535199 0 0.25438166837756182 0.15569588162337331 0 0.25677835218432538 0.1716291868250383 0 0.25782953781517348 0.15896758470483191 0 0.2753684785711788 0.17561038616679461 0 0.2480117625504723 0.15988161517611299 0 0.25438166837756182 0.15569588162337331 0 0.25531151570931399 0.16247299450870861 0 0.2480117625504723 0.15988161517611299 0 0.25531151570931399 0.16247299450870861 0 0.25108078632114311 0.16784635495939959 0 0.25438166837756182 0.15569588162337331 0 0.25531151570931399 0.16247299450870861 0 0.25438166837756182 0.15569588162337331 0 0.25531151570931399 0.16247299450870861 0 0.25782953781517348 0.15896758470483191 0 0.25438166837756182 0.15569588162337331 0 0.25782953781517348 0.15896758470483191 0 0.25531151570931399 0.16247299450870861 0 0.25782953781517348 0.15896758470483191 0 0.25531151570931399 0.16247299450870861 0 0.25677835218432538 0.1716291868250383 0 0.25531151570931399 0.16247299450870861 0 0.25677835218432538 0.1716291868250383 0 0.25782953781517348 0.15896758470483191 0 0.25531151570931399 0.16247299450870861 0 0.25108078632114311 0.16784635495939959 0 0.25677835218432538 0.1716291868250383 0 0.25677835218432538 0.1716291868250383 0 0.26280716400370391 0.18496711810446709 0 0.2753684785711788 0.17561038616679461 0 0.24908873164767151 0.1770288671046478 0 0.26280716400370391 0.18496711810446709 0 0.25059494158165901 0.19032369199564031 0 0.24908873164767151 0.1770288671046478 0 0.25108078632114311 0.16784635495939959 0 0.25677835218432538 0.1716291868250383 0 0.24908873164767151 0.1770288671046478 0 0.25677835218432538 0.1716291868250383 0 0.26280716400370391 0.18496711810446709 0 0.26280716400370391 0.18496711810446709 0 0.2753684785711788 0.17561038616679461 0 0.27728556809105348 0.19259350051741789 0 0.25782953781517348 0.15896758470483191 0 0.2753684785711788 0.17561038616679461 0 0.25782953781517348 0.15896758470483191 0 0.2753684785711788 0.17561038616679461 0 0.28269506906519393 0.15921748153542181 0 0.2753684785711788 0.17561038616679461 0 0.28269506906519393 0.15921748153542181 0 0.29394514320621229 0.1739165730022037 0 0.28269506906519393 0.15921748153542181 0 0.29394514320621229 0.1739165730022037 0 0.30303535860701208 0.16037235413103429 0 0.2753684785711788 0.17561038616679461 0 0.29290741932718423 0.19225318762875701 0 0.2753684785711788 0.17561038616679461 0 0.27728556809105348 0.19259350051741789 0 0.29290741932718423 0.19225318762875701 0 0.2753684785711788 0.17561038616679461 0 0.29394514320621229 0.1739165730022037 0 0.29290741932718423 0.19225318762875701 0 0.29394514320621229 0.1739165730022037 0 0.30552074880784802 0.19083230073138871 0 0.31289049214066472 0.17337059339244759 0 0.29394514320621229 0.1739165730022037 0 0.29290741932718423 0.19225318762875701 0 0.30552074880784802 0.19083230073138871 0 0.29394514320621229 0.1739165730022037 0 0.30552074880784802 0.19083230073138871 0 0.30552074880784802 0.19083230073138871 0 0.31654835664450592 0.18507467184696519 0 0.31289049214066472 0.17337059339244759 0 0.30303535860701208 0.16037235413103429 0 0.31757881173450031 0.1529340605346122 0 0.31289049214066472 0.17337059339244759 0 0.29394514320621229 0.1739165730022037 0 0.30303535860701208 0.16037235413103429 0 0.31289049214066472 0.17337059339244759 0 0.29452356930869578 0.1464573505807599 0 0.315686730343329 0.13579358200093411 0 0.31757881173450031 0.1529340605346122 0 0.29452356930869578 0.1464573505807599 0 0.31757881173450031 0.1529340605346122 0 0.30303535860701208 0.16037235413103429 0 0.29452356930869578 0.1464573505807599 0 0.31757881173450031 0.1529340605346122 0 0.30273124653245381 0.1235288555175215 0 0.29290936044071508 0.13294622260908631 0 0.315686730343329 0.13579358200093411 0 0.29290936044071508 0.13294622260908631 0 0.29452356930869578 0.1464573505807599 0 0.315686730343329 0.13579358200093411 0 0.30273124653245381 0.1235288555175215 0 0.315686730343329 0.13579358200093411 0 0.30273124653245381 0.1235288555175215 0 0.28044915569120132 0.1274781747914005 0 0.27146832688289158 0.1399806406269069 0 0.28044915569120132 0.1274781747914005 0 0.29290936044071508 0.13294622260908631 0 0.30273124653245381 0.1235288555175215 0 0.28044915569120132 0.1274781747914005 0 0.29290936044071508 0.13294622260908631 0 0.27146832688289158 0.1399806406269069 0 0.29290936044071508 0.13294622260908631 0 0.29452356930869578 0.1464573505807599 0 0.27146832688289158 0.1399806406269069 0 0.28269506906519393 0.15921748153542181 0 0.29452356930869578 0.1464573505807599 0 0.27146832688289158 0.1399806406269069 0 0.29452356930869578 0.1464573505807599 0 0.28269506906519393 0.15921748153542181 0 0.30303535860701208 0.16037235413103429 0 0.29452356930869578 0.1464573505807599 0 0.27422647013237161 0.25356049296603311 0 0.27478306300754179 0.2350004025071766 0 0.29054302336085919 0.2384533556213457 0 0.27422647013237161 0.25356049296603311 0 0.27478306300754179 0.2350004025071766 0 0.2675309988367966 0.24592861094083041 0 0.27478306300754179 0.2350004025071766 0 0.2675309988367966 0.24592861094083041 0 0.26346455071020192 0.23476860060051941 0 0.2551851394074478 0.2434893950138429 0 0.26346455071020192 0.23476860060051941 0 0.25538970474944028 0.22639472194977939 0 0.2675309988367966 0.24592861094083041 0 0.2551851394074478 0.2434893950138429 0 0.26346455071020192 0.23476860060051941 0 0.25538970474944028 0.22639472194977939 0 0.2674778883171553 0.22062748816396649 0 0.25254676704563311 0.20930692990743879 0 0.26346455071020192 0.23476860060051941 0 0.25538970474944028 0.22639472194977939 0 0.2674778883171553 0.22062748816396649 0 0.27478306300754179 0.2350004025071766 0 0.2674778883171553 0.22062748816396649 0 0.28613716040526338 0.21455355020338029 0 0.27478306300754179 0.2350004025071766 0 0.26346455071020192 0.23476860060051941 0 0.2674778883171553 0.22062748816396649 0 0.26733725241959783 0.20446808010504641 0 0.27728556809105348 0.19259350051741789 0 0.28613716040526338 0.21455355020338029 0 0.2674778883171553 0.22062748816396649 0 0.26733725241959783 0.20446808010504641 0 0.28613716040526338 0.21455355020338029 0 0.2674778883171553 0.22062748816396649 0 0.26733725241959783 0.20446808010504641 0 0.25254676704563311 0.20930692990743879 0 0.26733725241959783 0.20446808010504641 0 0.25059494158165901 0.19032369199564031 0 0.26280716400370391 0.18496711810446709 0 0.26733725241959783 0.20446808010504641 0 0.25059494158165901 0.19032369199564031 0 0.26733725241959783 0.20446808010504641 0 0.25254676704563311 0.20930692990743879 0 0.25059494158165901 0.19032369199564031 0 0.26280716400370391 0.18496711810446709 0 0.26733725241959783 0.20446808010504641 0 0.27728556809105348 0.19259350051741789 0 0.27728556809105348 0.19259350051741789 0 0.29290741932718423 0.19225318762875701 0 0.28613716040526338 0.21455355020338029 0 0.30552074880784802 0.19083230073138871 0 0.31709635440948369 0.20774802846057369 0 0.29290741932718423 0.19225318762875701 0 0.30552074880784802 0.19083230073138871 0 0.31044636008318971 0.20889598909071941 0 0.30552074880784802 0.19083230073138871 0 0.31044636008318971 0.20889598909071941 0 0.31709635440948369 0.20774802846057369 0 0.29290741932718423 0.19225318762875701 0 0.31044636008318971 0.20889598909071941 0 0.31044636008318971 0.20889598909071941 0 0.28613716040526338 0.21455355020338029 0 0.30512252746339652 0.2267909639566634 0 0.29290741932718423 0.19225318762875701 0 0.31044636008318971 0.20889598909071941 0 0.28613716040526338 0.21455355020338029 0 0.28613716040526338 0.21455355020338029 0 0.30512252746339652 0.2267909639566634 0 0.29054302336085919 0.2384533556213457 0 0.27478306300754179 0.2350004025071766 0 0.28613716040526338 0.21455355020338029 0 0.29054302336085919 0.2384533556213457 0 0.30512252746339652 0.2267909639566634 0 0.29054302336085919 0.2384533556213457 0 0.31420017477305739 0.2431056701611205 0 0.30041504870691937 0.26067254976955972 0 0.29054302336085919 0.2384533556213457 0 0.31420017477305739 0.2431056701611205 0 0.33165117601699817 0.22901736053118121 0 0.35307730466155363 0.24934873687200709 0 0.34611449547382639 0.23457765694023119 0 0.33165117601699817 0.22901736053118121 0 0.34532353849112551 0.24899713256093869 0 0.32999523924895019 0.24481848980579379 0 0.33165117601699817 0.22901736053118121 0 0.34532353849112551 0.24899713256093869 0 0.33165117601699817 0.22901736053118121 0 0.35307730466155363 0.24934873687200709 0 0.33165117601699817 0.22901736053118121 0 0.35307730466155363 0.24934873687200709 0 0.34532353849112551 0.24899713256093869 0 0.33567128914585981 0.25335502600040072 0 0.32999523924895019 0.24481848980579379 0 0.34532353849112551 0.24899713256093869 0 0.32999523924895019 0.24481848980579379 0 0.31420017477305739 0.2431056701611205 0 0.33165117601699817 0.22901736053118121 0 0.32640088188025451 0.25485336633590389 0 0.32999523924895019 0.24481848980579379 0 0.31420017477305739 0.2431056701611205 0 0.31044636008318971 0.20889598909071941 0 0.30512252746339652 0.2267909639566634 0 0.32867196001111149 0.22466375618976411 0 0.31420017477305739 0.2431056701611205 0 0.32867196001111149 0.22466375618976411 0 0.33165117601699817 0.22901736053118121 0 0.30512252746339652 0.2267909639566634 0 0.31420017477305739 0.2431056701611205 0 0.32867196001111149 0.22466375618976411 0 0.31420017477305739 0.2431056701611205 0 0.32867196001111149 0.22466375618976411 0 0.32867196001111149 0.22466375618976411 0 0.34207323422406311 0.22633333879641729 0 0.34457037513999123 0.2183531628289597 0 0.32867196001111149 0.22466375618976411 0 0.33165117601699817 0.22901736053118121 0 0.34207323422406311 0.22633333879641729 0 0.32867196001111149 0.22466375618976411 0 0.33165117601699817 0.22901736053118121 0 0.33165117601699817 0.22901736053118121 0 0.34207323422406311 0.22633333879641729 0 0.34611449547382639 0.23457765694023119 0 0.32800790905094418 0.21041604109215381 0 0.33128149303353199 0.20070308412844609 0 0.34591119139827298 0.20269518652508381 0 0.32867196001111149 0.22466375618976411 0 0.34591119139827298 0.20269518652508381 0 0.34457037513999123 0.2183531628289597 0 0.32867196001111149 0.22466375618976411 0 0.32800790905094418 0.21041604109215381 0 0.34591119139827298 0.20269518652508381 0 0.32867196001111149 0.22466375618976411 0 0.34591119139827298 0.20269518652508381 0 0.31044636008318971 0.20889598909071941 0 0.32867196001111149 0.22466375618976411 0 0.32867196001111149 0.22466375618976411 0 0.31709635440948369 0.20774802846057369 0 0.31044636008318971 0.20889598909071941 0 0.32867196001111149 0.22466375618976411 0 0.31709635440948369 0.20774802846057369 0 0.32867196001111149 0.22466375618976411 0 0.31709635440948369 0.20774802846057369 0 0.32800790905094418 0.21041604109215381 0 0.32800790905094418 0.21041604109215381 0 0.3240792113226908 0.20306420695893959 0 0.33128149303353199 0.20070308412844609 0 0.31709635440948369 0.20774802846057369 0 0.32800790905094418 0.21041604109215381 0 0.3240792113226908 0.20306420695893959 0 0.31709635440948369 0.20774802846057369 0 0.3240792113226908 0.20306420695893959 0 0.31993108879680332 0.19338967415458491 0 0.30552074880784802 0.19083230073138871 0 0.31709635440948369 0.20774802846057369 0 0.31993108879680332 0.19338967415458491 0 0.3240792113226908 0.20306420695893959 0 0.31993108879680332 0.19338967415458491 0 0.33128149303353199 0.20070308412844609 0 0.31993108879680332 0.19338967415458491 0 0.33128149303353199 0.20070308412844609 0 0.32785109683270769 0.1827061191094394 0 0.30552074880784802 0.19083230073138871 0 0.31993108879680332 0.19338967415458491 0 0.31654835664450592 0.18507467184696519 0 0.33128149303353199 0.20070308412844609 0 0.32785109683270769 0.1827061191094394 0 0.34317187036597258 0.18498044398889471 0 0.33128149303353199 0.20070308412844609 0 0.34591119139827298 0.20269518652508381 0 0.34317187036597258 0.18498044398889471 0 0.34591119139827298 0.20269518652508381 0 0.36315042278543691 0.1807266168604052 0 0.34591119139827298 0.20269518652508381 0 0.36352127576199522 0.20080084544339641 0 0.36315042278543691 0.1807266168604052 0 0.34591119139827298 0.20269518652508381 0 0.34317187036597258 0.18498044398889471 0 0.36315042278543691 0.1807266168604052 0 0.36352127576199522 0.20080084544339641 0 0.36315042278543691 0.1807266168604052 0 0.37819548309979428 0.1949695083166976 0 0.36315042278543691 0.1807266168604052 0 0.38337805621419052 0.19605950666834929 0 0.37819548309979428 0.1949695083166976 0 0.36315042278543691 0.1807266168604052 0 0.37819548309979428 0.1949695083166976 0 0.36352127576199522 0.20080084544339641 0 0.37329147731281942 0.2054801251234922 0 0.37819548309979428 0.1949695083166976 0 0.36352127576199522 0.20080084544339641 0 0.3674137313543766 0.21210632290755629 0 0.35657840401441532 0.21544375076677069 0 0.36352127576199522 0.20080084544339641 0 0.37329147731281942 0.2054801251234922 0 0.3674137313543766 0.21210632290755629 0 0.37329147731281942 0.2054801251234922 0 0.3674137313543766 0.21210632290755629 0 0.37688317144521077 0.21603245608368291 0 0.3674137313543766 0.21210632290755629 0 0.36755355871421441 0.2257027006713577 0 0.37688317144521077 0.21603245608368291 0 0.3674137313543766 0.21210632290755629 0 0.35657840401441532 0.21544375076677069 0 0.36755355871421441 0.2257027006713577 0 0.34591119139827298 0.20269518652508381 0 0.35657840401441532 0.21544375076677069 0 0.34457037513999123 0.2183531628289597 0 0.34591119139827298 0.20269518652508381 0 0.36352127576199522 0.20080084544339641 0 0.35657840401441532 0.21544375076677069 0 0.34207323422406311 0.22633333879641729 0 0.34457037513999123 0.2183531628289597 0 0.35029204149645882 0.2230004888266143 0 0.35657840401441532 0.21544375076677069 0 0.34457037513999123 0.2183531628289597 0 0.35029204149645882 0.2230004888266143 0 0.34207323422406311 0.22633333879641729 0 0.35029204149645882 0.2230004888266143 0 0.35071872963011341 0.23016933322654309 0 0.34207323422406311 0.22633333879641729 0 0.35071872963011341 0.23016933322654309 0 0.34611449547382639 0.23457765694023119 0 0.35071872963011341 0.23016933322654309 0 0.35305203283640368 0.23801951527500739 0 0.34611449547382639 0.23457765694023119 0 0.35071872963011341 0.23016933322654309 0 0.35854102402500793 0.23347397252394689 0 0.35678665423559852 0.2254475481644268 0 0.35071872963011341 0.23016933322654309 0 0.35854102402500793 0.23347397252394689 0 0.35305203283640368 0.23801951527500739 0 0.35657840401441532 0.21544375076677069 0 0.35029204149645882 0.2230004888266143 0 0.35678665423559852 0.2254475481644268 0 0.35029204149645882 0.2230004888266143 0 0.35071872963011341 0.23016933322654309 0 0.35678665423559852 0.2254475481644268 0 0.35657840401441532 0.21544375076677069 0 0.35678665423559852 0.2254475481644268 0 0.36755355871421441 0.2257027006713577 0 0.36755355871421441 0.2257027006713577 0 0.37989212930292843 0.22549814467465071 0 0.37688317144521077 0.21603245608368291 0 0.36755355871421441 0.2257027006713577 0 0.36656380428810648 0.23849670095826181 0 0.37508925164400481 0.23431914263453141 0 0.36755355871421441 0.2257027006713577 0 0.37508925164400481 0.23431914263453141 0 0.37989212930292843 0.22549814467465071 0 0.35854102402500793 0.23347397252394689 0 0.35678665423559852 0.2254475481644268 0 0.36755355871421441 0.2257027006713577 0 0.35854102402500793 0.23347397252394689 0 0.36755355871421441 0.2257027006713577 0 0.36656380428810648 0.23849670095826181 0 0.35854102402500793 0.23347397252394689 0 0.36656380428810648 0.23849670095826181 0 0.35887129213361441 0.24112915331259721 0 0.36656380428810648 0.23849670095826181 0 0.36312229485699982 0.24630684093376251 0 0.35887129213361441 0.24112915331259721 0 0.36656380428810648 0.23849670095826181 0 0.37468630153993449 0.24031168258233679 0 0.37508925164400481 0.23431914263453141 0 0.36656380428810648 0.23849670095826181 0 0.37468630153993449 0.24031168258233679 0 0.37153597890319112 0.24485308026267541 0 0.36935999944055858 0.25035342442963759 0 0.37153597890319112 0.24485308026267541 0 0.36312229485699982 0.24630684093376251 0 0.36935999944055858 0.25035342442963759 0 0.37693108616487392 0.25112149136587758 0 0.37153597890319112 0.24485308026267541 0 0.36554718467112712 0.25398456366339739 0 0.36312229485699982 0.24630684093376251 0 0.35307730466155363 0.24934873687200709 0 0.36656380428810648 0.23849670095826181 0 0.37153597890319112 0.24485308026267541 0 0.36312229485699982 0.24630684093376251 0 0.36312229485699982 0.24630684093376251 0 0.35307730466155363 0.24934873687200709 0 0.35887129213361441 0.24112915331259721 0 0.35307730466155363 0.24934873687200709 0 0.35887129213361441 0.24112915331259721 0 0.35305203283640368 0.23801951527500739 0 0.35854102402500793 0.23347397252394689 0 0.35887129213361441 0.24112915331259721 0 0.35305203283640368 0.23801951527500739 0 0.35307730466155363 0.24934873687200709 0 0.35305203283640368 0.23801951527500739 0 0.34611449547382639 0.23457765694023119 0 0.3286422141542053 0.14805830848434559 0 0.34677644191411022 0.15750204627201461 0 0.34990433144588828 0.13766573298981241 0 0.3286422141542053 0.14805830848434559 0 0.34063405416030662 0.15941077048845809 0 0.34677644191411022 0.15750204627201461 0 0.31757881173450031 0.1529340605346122 0 0.34063405416030662 0.15941077048845809 0 0.3286422141542053 0.14805830848434559 0 0.34990433144588828 0.13766573298981241 0 0.3286422141542053 0.14805830848434559 0 0.32323491583127389 0.1507013075456044 0 0.34063405416030662 0.15941077048845809 0 0.3286422141542053 0.14805830848434559 0 0.34063405416030662 0.15941077048845809 0 0.33102798148580748 0.1185134895208889 0 0.33102743048056482 0.13452671694312901 0 0.34990433144588828 0.13766573298981241 0 0.3286422141542053 0.14805830848434559 0 0.33102743048056482 0.13452671694312901 0 0.34990433144588828 0.13766573298981241 0 0.33102798148580748 0.1185134895208889 0 0.30273124653245381 0.1235288555175215 0 0.315686730343329 0.13579358200093411 0 0.3286422141542053 0.14805830848434559 0 0.33102743048056482 0.13452671694312901 0 0.315686730343329 0.13579358200093411 0 0.33102798148580748 0.1185134895208889 0 0.33102743048056482 0.13452671694312901 0 0.315686730343329 0.13579358200093411 0 0.315686730343329 0.13579358200093411 0 0.31757881173450031 0.1529340605346122 0 0.32323491583127389 0.1507013075456044 0 0.31757881173450031 0.1529340605346122 0 0.32323491583127389 0.1507013075456044 0 0.34063405416030662 0.15941077048845809 0 0.3286422141542053 0.14805830848434559 0 0.315686730343329 0.13579358200093411 0 0.32323491583127389 0.1507013075456044 0 0.3286422141542053 0.14805830848434559 0 0.315686730343329 0.13579358200093411 0 0.3286422141542053 0.14805830848434559 0 0.32323491583127389 0.1507013075456044 0 0.31757881173450031 0.1529340605346122 0 0.32757984690823899 0.16828090143210361 0 0.31289049214066472 0.17337059339244759 0 0.31654835664450592 0.18507467184696519 0 0.31289049214066472 0.17337059339244759 0 0.32785109683270769 0.1827061191094394 0 0.32757984690823899 0.16828090143210361 0 0.31289049214066472 0.17337059339244759 0 0.32785109683270769 0.1827061191094394 0 0.31993108879680332 0.19338967415458491 0 0.31654835664450592 0.18507467184696519 0 0.32785109683270769 0.1827061191094394 0 0.32757984690823899 0.16828090143210361 0 0.32785109683270769 0.1827061191094394 0 0.33857796420107772 0.17303726062694211 0 0.32785109683270769 0.1827061191094394 0 0.33857796420107772 0.17303726062694211 0 0.34317187036597258 0.18498044398889471 0 0.31757881173450031 0.1529340605346122 0 0.32757984690823899 0.16828090143210361 0 0.34063405416030662 0.15941077048845809 0 0.32757984690823899 0.16828090143210361 0 0.33857796420107772 0.17303726062694211 0 0.34063405416030662 0.15941077048845809 0 0.33857796420107772 0.17303726062694211 0 0.34063405416030662 0.15941077048845809 0 0.3518922384728741 0.17006869367442909 0 0.34063405416030662 0.15941077048845809 0 0.35148088583504511 0.16245787714551349 0 0.3518922384728741 0.17006869367442909 0 0.34063405416030662 0.15941077048845809 0 0.34677644191411022 0.15750204627201461 0 0.35148088583504511 0.16245787714551349 0 0.34063405416030662 0.15941077048845809 0 0.35148088583504511 0.16245787714551349 0 0.34677644191411022 0.15750204627201461 0 0.35148088583504511 0.16245787714551349 0 0.34063405416030662 0.15941077048845809 0 0.3518922384728741 0.17006869367442909 0 0.35148088583504511 0.16245787714551349 0 0.3518922384728741 0.17006869367442909 0 0.36571752516518091 0.17745526640404169 0 0.35148088583504511 0.16245787714551349 0 0.36571752516518091 0.17745526640404169 0 0.34677644191411022 0.15750204627201461 0 0.35148088583504511 0.16245787714551349 0 0.35896078343382731 0.1536928117878173 0 0.34317187036597258 0.18498044398889471 0 0.3518922384728741 0.17006869367442909 0 0.36315042278543691 0.1807266168604052 0 0.33857796420107772 0.17303726062694211 0 0.34317187036597258 0.18498044398889471 0 0.3518922384728741 0.17006869367442909 0 0.3518922384728741 0.17006869367442909 0 0.36315042278543691 0.1807266168604052 0 0.36571752516518091 0.17745526640404169 0 0.38337805621419052 0.19605950666834929 0 0.36315042278543691 0.1807266168604052 0 0.36571752516518091 0.17745526640404169 0 0.38337805621419052 0.19605950666834929 0 0.3518922384728741 0.17006869367442909 0 0.36315042278543691 0.1807266168604052 0 0.36571752516518091 0.17745526640404169 0 0.36315042278543691 0.1807266168604052 0 0.36571752516518091 0.17745526640404169 0 0.36571752516518091 0.17745526640404169 0 0.37278903306611239 0.1684437907490611 0 0.36571752516518091 0.17745526640404169 0 0.37278903306611239 0.1684437907490611 0 0.37647612783782852 0.1765826374379825 0 0.36571752516518091 0.17745526640404169 0 0.38094336675417467 0.18575079152407661 0 0.37647612783782852 0.1765826374379825 0 0.35148088583504511 0.16245787714551349 0 0.36571752516518091 0.17745526640404169 0 0.37278903306611239 0.1684437907490611 0 0.35148088583504511 0.16245787714551349 0 0.37278903306611239 0.1684437907490611 0 0.35896078343382731 0.1536928117878173 0 0.35148088583504511 0.16245787714551349 0 0.37278903306611239 0.1684437907490611 0 0.37278903306611239 0.1684437907490611 0 0.37169054907655802 0.14440210890078459 0 0.35896078343382731 0.1536928117878173 0 0.37169054907655802 0.14440210890078459 0 0.35896078343382731 0.1536928117878173 0 0.34990433144588828 0.13766573298981241 0 0.34677644191411022 0.15750204627201461 0 0.35896078343382731 0.1536928117878173 0 0.34990433144588828 0.13766573298981241 0 0.35932471643916081 0.1134981235242544 0 0.34990433144588828 0.13766573298981241 0 0.37116644873757482 0.1272731574952862 0 0.34990433144588828 0.13766573298981241 0 0.37116644873757482 0.1272731574952862 0 0.37169054907655802 0.14440210890078459 0 0.34990433144588828 0.13766573298981241 0 0.37116644873757482 0.1272731574952862 0 0.37116644873757482 0.1272731574952862 0 0.38513200424378741 0.1338212526160229 0 0.39242856602925918 0.116880582000756 0 0.37169054907655802 0.14440210890078459 0 0.37116644873757482 0.1272731574952862 0 0.38513200424378741 0.1338212526160229 0 0.38513200424378741 0.1338212526160229 0 0.40121151000737459 0.13222401095123429 0 0.39242856602925918 0.116880582000756 0 0.38513200424378741 0.1338212526160229 0 0.40121151000737459 0.13222401095123429 0 0.3870002715367451 0.1503339008501488 0 0.40121151000737459 0.13222401095123429 0 0.3870002715367451 0.1503339008501488 0 0.40121151000737459 0.13222401095123429 0 0.3870002715367451 0.1503339008501488 0 0.4146563244798116 0.15571152904590541 0 0.37278903306611239 0.1684437907490611 0 0.37169054907655802 0.14440210890078459 0 0.3870002715367451 0.1503339008501488 0 0.37169054907655802 0.14440210890078459 0 0.38513200424378741 0.1338212526160229 0 0.3870002715367451 0.1503339008501488 0 0.37278903306611239 0.1684437907490611 0 0.3870002715367451 0.1503339008501488 0 0.37278903306611239 0.1684437907490611 0 0.3870002715367451 0.1503339008501488 0 0.38815714803524198 0.17276102243780719 0 0.37278903306611239 0.1684437907490611 0 0.38815714803524198 0.17276102243780719 0 0.36571752516518091 0.17745526640404169 0 0.38094336675417467 0.18575079152407661 0 0.38337805621419052 0.19605950666834929 0 0.38094336675417467 0.18575079152407661 0 0.37647612783782852 0.1765826374379825 0 0.38815714803524198 0.17276102243780719 0 0.37278903306611239 0.1684437907490611 0 0.37647612783782852 0.1765826374379825 0 0.38815714803524198 0.17276102243780719 0 0.38815714803524198 0.17276102243780719 0 0.4045222528532138 0.18247491933232551 0 0.40192127392429228 0.16692463564798199 0 0.38094336675417467 0.18575079152407661 0 0.4045222528532138 0.18247491933232551 0 0.38094336675417467 0.18575079152407661 0 0.38815714803524198 0.17276102243780719 0 0.4045222528532138 0.18247491933232551 0 0.38094336675417467 0.18575079152407661 0 0.4045222528532138 0.18247491933232551 0 0.3985862469864242 0.19415008040301501 0 0.3870002715367451 0.1503339008501488 0 0.40192127392429228 0.16692463564798199 0 0.4146563244798116 0.15571152904590541 0 0.3870002715367451 0.1503339008501488 0 0.38815714803524198 0.17276102243780719 0 0.40192127392429228 0.16692463564798199 0 0.40192127392429228 0.16692463564798199 0 0.41314885474212298 0.17172446815799 0 0.4146563244798116 0.15571152904590541 0 0.42810113895225288 0.179199047140574 0 0.4146563244798116 0.15571152904590541 0 0.41314885474212298 0.17172446815799 0 0.42810113895225288 0.179199047140574 0 0.4146563244798116 0.15571152904590541 0 0.4045222528532138 0.18247491933232551 0 0.42810113895225288 0.179199047140574 0 0.4045222528532138 0.18247491933232551 0 0.41314885474212298 0.17172446815799 0 0.42810113895225288 0.179199047140574 0 0.4045222528532138 0.18247491933232551 0 0.42810113895225288 0.179199047140574 0 0.42146212548932022 0.1904614947085462 0 0.4045222528532138 0.18247491933232551 0 0.40192127392429228 0.16692463564798199 0 0.41314885474212298 0.17172446815799 0 0.42810113895225288 0.179199047140574 0 0.43425218887628159 0.18994466930501019 0 0.44377405713131368 0.177021570367044 0 0.42810113895225288 0.179199047140574 0 0.43400057892753963 0.16035606940242839 0 0.44377405713131368 0.177021570367044 0 0.42810113895225288 0.179199047140574 0 0.44377405713131368 0.177021570367044 0 0.42810113895225288 0.179199047140574 0 0.42146212548932022 0.1904614947085462 0 0.43425218887628159 0.18994466930501019 0 0.42810113895225288 0.179199047140574 0 0.43425218887628159 0.18994466930501019 0 0.42810113895225288 0.179199047140574 0 0.43400057892753963 0.16035606940242839 0 0.4146563244798116 0.15571152904590541 0 0.43400057892753963 0.16035606940242839 0 0.42915063366564621 0.1370691130452816 0 0.4146563244798116 0.15571152904590541 0 0.43400057892753963 0.16035606940242839 0 0.42915063366564621 0.1370691130452816 0 0.4472551328860257 0.14810337040010249 0 0.42915063366564621 0.1370691130452816 0 0.4159777269694841 0.13294607515568341 0 0.42351370539076438 0.120429786377846 0 0.42915063366564621 0.1370691130452816 0 0.4357065652989397 0.1179962128903019 0 0.42351370539076438 0.120429786377846 0 0.40121151000737459 0.13222401095123429 0 0.4159777269694841 0.13294607515568341 0 0.4146563244798116 0.15571152904590541 0 0.40121151000737459 0.13222401095123429 0 0.4159777269694841 0.13294607515568341 0 0.41135646130382209 0.1192959363581485 0 0.40121151000737459 0.13222401095123429 0 0.41135646130382209 0.1192959363581485 0 0.42915063366564621 0.1370691130452816 0 0.4159777269694841 0.13294607515568341 0 0.4146563244798116 0.15571152904590541 0 0.40121151000737459 0.13222401095123429 0 0.4146563244798116 0.15571152904590541 0 0.40936178095289738 0.25240399705514732 0 0.39365908746925121 0.2498125304894577 0 0.39749634512331089 0.24266002312710749 0 0.40936178095289738 0.25240399705514732 0 0.40192736673093021 0.23598013559304321 0 0.39749634512331089 0.24266002312710749 0 0.39749634512331089 0.24266002312710749 0 0.38899187978027061 0.24134617663681771 0 0.39354161068320509 0.23375727586107151 0 0.40192736673093021 0.23598013559304321 0 0.39749634512331089 0.24266002312710749 0 0.39354161068320509 0.23375727586107151 0 0.39365908746925121 0.2498125304894577 0 0.39749634512331089 0.24266002312710749 0 0.38899187978027061 0.24134617663681771 0 0.38475748107919799 0.247937755230528 0 0.38032995906916089 0.24208425312706011 0 0.38899187978027061 0.24134617663681771 0 0.39365908746925121 0.2498125304894577 0 0.38475748107919799 0.247937755230528 0 0.38899187978027061 0.24134617663681771 0 0.37693108616487392 0.25112149136587758 0 0.37153597890319112 0.24485308026267541 0 0.38032995906916089 0.24208425312706011 0 0.37468630153993449 0.24031168258233679 0 0.37153597890319112 0.24485308026267541 0 0.38032995906916089 0.24208425312706011 0 0.37693108616487392 0.25112149136587758 0 0.38475748107919799 0.247937755230528 0 0.38032995906916089 0.24208425312706011 0 0.38032995906916089 0.24208425312706011 0 0.38432493707078491 0.23351562319483241 0 0.37508925164400481 0.23431914263453141 0 0.37468630153993449 0.24031168258233679 0 0.38032995906916089 0.24208425312706011 0 0.37508925164400481 0.23431914263453141 0 0.38899187978027061 0.24134617663681771 0 0.38432493707078491 0.23351562319483241 0 0.39354161068320509 0.23375727586107151 0 0.38032995906916089 0.24208425312706011 0 0.38899187978027061 0.24134617663681771 0 0.38432493707078491 0.23351562319483241 0 0.38432493707078491 0.23351562319483241 0 0.37989212930292843 0.22549814467465071 0 0.38993104293611408 0.2258120853389701 0 0.38432493707078491 0.23351562319483241 0 0.38993104293611408 0.2258120853389701 0 0.39354161068320509 0.23375727586107151 0 0.38432493707078491 0.23351562319483241 0 0.37508925164400481 0.23431914263453141 0 0.37989212930292843 0.22549814467465071 0 0.37989212930292843 0.22549814467465071 0 0.38514180047553448 0.21882654543850771 0 0.37688317144521077 0.21603245608368291 0 0.37989212930292843 0.22549814467465071 0 0.38993104293611408 0.2258120853389701 0 0.38514180047553448 0.21882654543850771 0 0.38993104293611408 0.2258120853389701 0 0.38514180047553448 0.21882654543850771 0 0.39572808315324459 0.21845423681237611 0 0.38993104293611408 0.2258120853389701 0 0.39804081997965518 0.22834487510909879 0 0.39572808315324459 0.21845423681237611 0 0.40192736673093021 0.23598013559304321 0 0.39804081997965518 0.22834487510909879 0 0.39354161068320509 0.23375727586107151 0 0.38993104293611408 0.2258120853389701 0 0.39804081997965518 0.22834487510909879 0 0.39354161068320509 0.23375727586107151 0 0.40192736673093021 0.23598013559304321 0 0.39804081997965518 0.22834487510909879 0 0.40847641157002329 0.228587940339531 0 0.39572808315324459 0.21845423681237611 0 0.40847641157002329 0.228587940339531 0 0.40103858726319719 0.2146637469326596 0 0.40816579721886481 0.2202325474979083 0 0.40828560372850897 0.2234552912292827 0 0.39572808315324459 0.21845423681237611 0 0.40828560372850897 0.2234552912292827 0 0.40847641157002329 0.228587940339531 0 0.39804081997965518 0.22834487510909879 0 0.39572808315324459 0.21845423681237611 0 0.40847641157002329 0.228587940339531 0 0.40103858726319719 0.2146637469326596 0 0.39324054341415121 0.20921239977299061 0 0.38337805621419052 0.19605950666834929 0 0.40103858726319719 0.2146637469326596 0 0.40188075570156889 0.20506745527973641 0 0.38337805621419052 0.19605950666834929 0 0.40103858726319719 0.2146637469326596 0 0.38337805621419052 0.19605950666834929 0 0.39324054341415121 0.20921239977299061 0 0.40828560372850897 0.2234552912292827 0 0.40103858726319719 0.2146637469326596 0 0.40188075570156889 0.20506745527973641 0 0.40723917269544019 0.21345093397370091 0 0.39324054341415121 0.20921239977299061 0 0.39572808315324459 0.21845423681237611 0 0.40828560372850897 0.2234552912292827 0 0.40103858726319719 0.2146637469326596 0 0.39324054341415121 0.20921239977299061 0 0.40828560372850897 0.2234552912292827 0 0.40103858726319719 0.2146637469326596 0 0.40723917269544019 0.21345093397370091 0 0.40816579721886481 0.2202325474979083 0 0.39324054341415121 0.20921239977299061 0 0.39572808315324459 0.21845423681237611 0 0.38297975473646528 0.20832053328522171 0 0.39572808315324459 0.21845423681237611 0 0.38297975473646528 0.20832053328522171 0 0.38514180047553448 0.21882654543850771 0 0.39572808315324459 0.21845423681237611 0 0.38297975473646528 0.20832053328522171 0 0.38514180047553448 0.21882654543850771 0 0.37688317144521077 0.21603245608368291 0 0.38297975473646528 0.20832053328522171 0 0.37329147731281942 0.2054801251234922 0 0.37688317144521077 0.21603245608368291 0 0.38297975473646528 0.20832053328522171 0 0.39324054341415121 0.20921239977299061 0 0.38297975473646528 0.20832053328522171 0 0.37819548309979428 0.1949695083166976 0 0.38094336675417467 0.18575079152407661 0 0.38337805621419052 0.19605950666834929 0 0.3985862469864242 0.19415008040301501 0 0.39324054341415121 0.20921239977299061 0 0.38337805621419052 0.19605950666834929 0 0.37819548309979428 0.1949695083166976 0 0.39324054341415121 0.20921239977299061 0 0.37819548309979428 0.1949695083166976 0 0.37329147731281942 0.2054801251234922 0 0.38297975473646528 0.20832053328522171 0 0.37819548309979428 0.1949695083166976 0 0.40188075570156889 0.20506745527973641 0 0.38337805621419052 0.19605950666834929 0 0.3985862469864242 0.19415008040301501 0 0.40188075570156889 0.20506745527973641 0 0.3985862469864242 0.19415008040301501 0 0.40901035966215971 0.20182192195462831 0 0.3985862469864242 0.19415008040301501 0 0.41027818172682479 0.19410762290970601 0 0.40901035966215971 0.20182192195462831 0 0.4045222528532138 0.18247491933232551 0 0.3985862469864242 0.19415008040301501 0 0.41027818172682479 0.19410762290970601 0 0.4045222528532138 0.18247491933232551 0 0.41027818172682479 0.19410762290970601 0 0.42146212548932022 0.1904614947085462 0 0.41027818172682479 0.19410762290970601 0 0.40901035966215971 0.20182192195462831 0 0.41747164122279939 0.20122447030200361 0 0.41027818172682479 0.19410762290970601 0 0.41747164122279939 0.20122447030200361 0 0.42146212548932022 0.1904614947085462 0 0.42146212548932022 0.1904614947085462 0 0.43425218887628159 0.18994466930501019 0 0.4306057428347112 0.20309109944371639 0 0.43425218887628159 0.18994466930501019 0 0.4306057428347112 0.20309109944371639 0 0.44428927597435708 0.20302735887789261 0 0.41747164122279939 0.20122447030200361 0 0.42146212548932022 0.1904614947085462 0 0.4306057428347112 0.20309109944371639 0 0.4306057428347112 0.20309109944371639 0 0.42227607246435289 0.2108459106933355 0 0.43567744953188209 0.21362160068557609 0 0.41747164122279939 0.20122447030200361 0 0.4306057428347112 0.20309109944371639 0 0.42227607246435289 0.2108459106933355 0 0.4306057428347112 0.20309109944371639 0 0.43567744953188209 0.21362160068557609 0 0.44428927597435708 0.20302735887789261 0 0.42227607246435289 0.2108459106933355 0 0.43567744953188209 0.21362160068557609 0 0.42412122374498618 0.22194899413835781 0 0.42227607246435289 0.2108459106933355 0 0.41202865604687938 0.20880250361413349 0 0.41375172140486011 0.21638679597622601 0 0.42227607246435289 0.2108459106933355 0 0.41375172140486011 0.21638679597622601 0 0.42412122374498618 0.22194899413835781 0 0.41747164122279939 0.20122447030200361 0 0.42227607246435289 0.2108459106933355 0 0.41202865604687938 0.20880250361413349 0 0.40188075570156889 0.20506745527973641 0 0.41202865604687938 0.20880250361413349 0 0.40723917269544019 0.21345093397370091 0 0.40901035966215971 0.20182192195462831 0 0.41747164122279939 0.20122447030200361 0 0.41202865604687938 0.20880250361413349 0 0.40188075570156889 0.20506745527973641 0 0.40901035966215971 0.20182192195462831 0 0.41202865604687938 0.20880250361413349 0 0.40723917269544019 0.21345093397370091 0 0.41375172140486011 0.21638679597622601 0 0.40816579721886481 0.2202325474979083 0 0.41202865604687938 0.20880250361413349 0 0.40723917269544019 0.21345093397370091 0 0.41375172140486011 0.21638679597622601 0 0.40828560372850897 0.2234552912292827 0 0.42469438251657449 0.23898919075016101 0 0.40828560372850897 0.2234552912292827 0 0.40847641157002329 0.228587940339531 0 0.42469438251657449 0.23898919075016101 0 0.40828560372850897 0.2234552912292827 0 0.42412122374498618 0.22194899413835781 0 0.42469438251657449 0.23898919075016101 0 0.41375172140486011 0.21638679597622601 0 0.40828560372850897 0.2234552912292827 0 0.42412122374498618 0.22194899413835781 0 0.40816579721886481 0.2202325474979083 0 0.40828560372850897 0.2234552912292827 0 0.41375172140486011 0.21638679597622601 0 0.40816579721886481 0.2202325474979083 0 0.40828560372850897 0.2234552912292827 0 0.40828560372850897 0.2234552912292827 0 0.40847641157002329 0.228587940339531 0 0.42412122374498618 0.22194899413835781 0 0.42469438251657449 0.23898919075016101 0 0.44116695617793278 0.2320277794605892 0 0.43567744953188209 0.21362160068557609 0 0.42412122374498618 0.22194899413835781 0 0.44116695617793278 0.2320277794605892 0 0.44110316130464111 0.25452309027103831 0 0.42478978643733262 0.2415555153052843 0 0.42469438251657449 0.23898919075016101 0 0.44110316130464111 0.25452309027103831 0 0.42469438251657449 0.23898919075016101 0 0.44116695617793278 0.2320277794605892 0 0.44110316130464111 0.25452309027103831 0 0.42469438251657449 0.23898919075016101 0 0.44110316130464111 0.25452309027103831 0 0.42478978643733262 0.2415555153052843 0 0.40936178095289738 0.25240399705514732 0 0.40847641157002329 0.228587940339531 0 0.42478978643733262 0.2415555153052843 0 0.40936178095289738 0.25240399705514732 0 0.40847641157002329 0.228587940339531 0 0.40847641157002329 0.228587940339531 0 0.42478978643733262 0.2415555153052843 0 0.42469438251657449 0.23898919075016101 0 0.40847641157002329 0.228587940339531 0 0.42478978643733262 0.2415555153052843 0 0.40936178095289738 0.25240399705514732 0 0.40192736673093021 0.23598013559304321 0 0.40847641157002329 0.228587940339531 0 0.45439012142468871 0.24678647365181461 0 0.45554685057757272 0.230865882216539 0 0.47099685105856659 0.24909432062393899 0 0.45439012142468871 0.24678647365181461 0 0.44116695617793278 0.2320277794605892 0 0.45554685057757272 0.230865882216539 0 0.44110316130464111 0.25452309027103831 0 0.45439012142468871 0.24678647365181461 0 0.44116695617793278 0.2320277794605892 0 0.44116695617793278 0.2320277794605892 0 0.45554685057757272 0.230865882216539 0 0.45187386292765219 0.2173831988418185 0 0.43567744953188209 0.21362160068557609 0 0.44116695617793278 0.2320277794605892 0 0.45187386292765219 0.2173831988418185 0 0.45554685057757272 0.230865882216539 0 0.45187386292765219 0.2173831988418185 0 0.47068038280299013 0.22277699506275911 0 0.45554685057757272 0.230865882216539 0 0.47068038280299013 0.22277699506275911 0 0.47099685105856659 0.24909432062393899 0 0.46239560677226271 0.2052150661567155 0 0.45187386292765219 0.2173831988418185 0 0.47068038280299013 0.22277699506275911 0 0.43567744953188209 0.21362160068557609 0 0.45187386292765219 0.2173831988418185 0 0.44428927597435708 0.20302735887789261 0 0.46239560677226271 0.2052150661567155 0 0.45187386292765219 0.2173831988418185 0 0.44428927597435708 0.20302735887789261 0 0.43425218887628159 0.18994466930501019 0 0.44428927597435708 0.20302735887789261 0 0.45093080490335269 0.18890851883451881 0 0.46239560677226271 0.2052150661567155 0 0.44428927597435708 0.20302735887789261 0 0.45093080490335269 0.18890851883451881 0 0.46239560677226271 0.2052150661567155 0 0.47722123341820649 0.19215568651400969 0 0.46453489988952468 0.18721829203691381 0 0.46239560677226271 0.2052150661567155 0 0.45093080490335269 0.18890851883451881 0 0.46453489988952468 0.18721829203691381 0 0.46239560677226271 0.2052150661567155 0 0.47722123341820649 0.19215568651400969 0 0.48263260808712449 0.2090117027798368 0 0.47722123341820649 0.19215568651400969 0 0.5 0.18872592139043051 0 0.48263260808712449 0.2090117027798368 0 0.5 0.18872592139043051 0 0.500000000000002 0.21376625816209011 0 0.48263260808712449 0.2090117027798368 0 0.500000000000002 0.21376625816209011 0 0.48263260808712449 0.2090117027798368 0 0.4854984255292849 0.23143028939301499 0 0.46239560677226271 0.2052150661567155 0 0.48263260808712449 0.2090117027798368 0 0.47068038280299013 0.22277699506275911 0 0.48263260808712449 0.2090117027798368 0 0.47068038280299013 0.22277699506275911 0 0.4854984255292849 0.23143028939301499 0 0.500000000000002 0.21376625816209011 0 0.4854984255292849 0.23143028939301499 0 0.5 0.2378946140413353 0 0.500000000000002 0.21376625816209011 0 0.4854984255292849 0.23143028939301499 0 0.5 0.26202296992058038 0 0.5 0.2378946140413353 0 0.48796407654405838 0.24861642653093519 0 0.4854984255292849 0.23143028939301499 0 0.5 0.2378946140413353 0 0.48796407654405838 0.24861642653093519 0 0.47068038280299013 0.22277699506275911 0 0.4854984255292849 0.23143028939301499 0 0.47099685105856659 0.24909432062393899 0 0.4854984255292849 0.23143028939301499 0 0.48796407654405838 0.24861642653093519 0 0.47099685105856659 0.24909432062393899 0 0.4854984255292849 0.23143028939301499 0 0.47099685105856659 0.24909432062393899 0 0.4641870433601718 0.14006742291246141 0 0.4472551328860257 0.14810337040010249 0 0.46326776301519812 0.1587644573903513 0 0.4641870433601718 0.14006742291246141 0 0.44910074313192522 0.12911261772131319 0 0.46616394133118072 0.1198459778800027 0 0.4641870433601718 0.14006742291246141 0 0.44910074313192522 0.12911261772131319 0 0.4472551328860257 0.14810337040010249 0 0.42915063366564621 0.1370691130452816 0 0.44910074313192522 0.12911261772131319 0 0.4472551328860257 0.14810337040010249 0 0.42915063366564621 0.1370691130452816 0 0.44910074313192522 0.12911261772131319 0 0.4357065652989397 0.1179962128903019 0 0.43400057892753963 0.16035606940242839 0 0.4472551328860257 0.14810337040010249 0 0.44971149835334029 0.1643047212070646 0 0.43400057892753963 0.16035606940242839 0 0.44971149835334029 0.1643047212070646 0 0.44377405713131368 0.177021570367044 0 0.44971149835334029 0.1643047212070646 0 0.44377405713131368 0.177021570367044 0 0.45944697531037437 0.17484409359351361 0 0.43425218887628159 0.18994466930501019 0 0.45093080490335269 0.18890851883451881 0 0.44377405713131368 0.177021570367044 0 0.44377405713131368 0.177021570367044 0 0.45944697531037437 0.17484409359351361 0 0.45093080490335269 0.18890851883451881 0 0.44377405713131368 0.177021570367044 0 0.45944697531037437 0.17484409359351361 0 0.45944697531037437 0.17484409359351361 0 0.46453489988952468 0.18721829203691381 0 0.47796052569578668 0.17414864873256081 0 0.45093080490335269 0.18890851883451881 0 0.45944697531037437 0.17484409359351361 0 0.46453489988952468 0.18721829203691381 0 0.44971149835334029 0.1643047212070646 0 0.45944697531037437 0.17484409359351361 0 0.46326776301519812 0.1587644573903513 0 0.45944697531037437 0.17484409359351361 0 0.46326776301519812 0.1587644573903513 0 0.47796052569578668 0.17414864873256081 0 0.4472551328860257 0.14810337040010249 0 0.44971149835334029 0.1643047212070646 0 0.46326776301519812 0.1587644573903513 0 0.46326776301519812 0.1587644573903513 0 0.47796052569578668 0.17414864873256081 0 0.4810454024854901 0.15111848749640491 0 0.47722123341820649 0.19215568651400969 0 0.46453489988952468 0.18721829203691381 0 0.47796052569578668 0.17414864873256081 0 0.47722123341820649 0.19215568651400969 0 0.5 0.18872592139043051 0 0.47796052569578668 0.17414864873256081 0 0.5 0.18872592139043051 0 0.47796052569578668 0.17414864873256081 0 0.5 0.16368558461877089 0 0.47796052569578668 0.17414864873256081 0 0.5 0.16368558461877089 0 0.4810454024854901 0.15111848749640491 0 0.5 0.16368558461877089 0 0.4810454024854901 0.15111848749640491 0 0.5 0.13864524784711141 0 0.4641870433601718 0.14006742291246141 0 0.46326776301519812 0.1587644573903513 0 0.4810454024854901 0.15111848749640491 0 0.4641870433601718 0.14006742291246141 0 0.4810454024854901 0.15111848749640491 0 0.48202996451929497 0.1290316023173789 0 0.4641870433601718 0.14006742291246141 0 0.48202996451929497 0.1290316023173789 0 0.46616394133118072 0.1198459778800027 0 0.4810454024854901 0.15111848749640491 0 0.48202996451929497 0.1290316023173789 0 0.5 0.13864524784711141 0 0.48202996451929497 0.1290316023173789 0 0.5 0.13864524784711141 0 0.5 0.11360491107545199 0 0.48202996451929497 0.1290316023173789 0 0.5 0.11360491107545199 0 0.48164324376201512 0.1103866494896297 0 0.48164324376201512 0.1103866494896297 0 0.49999999999998412 0.088564574303792512 0 0.47223897399802628 0.093484990248294514 0 0.5 0.11360491107545199 0 0.48164324376201512 0.1103866494896297 0 0.49999999999998412 0.088564574303792512 0 0.48164324376201512 0.1103866494896297 0 0.47223897399802628 0.093484990248294514 0 0.46616394133118072 0.1198459778800027 0 0.48202996451929497 0.1290316023173789 0 0.48164324376201512 0.1103866494896297 0 0.46616394133118072 0.1198459778800027 0 0.49571883890812751 0.075372854926424371 0 0.48604438940634598 0.051273887772271647 0 0.49571883890812751 0.075372854926424371 0 0.49999999999998412 0.088564574303792512 0 0.5 0.060877768231307527 0 0.49571883890812751 0.075372854926424371 0 0.48604438940634598 0.051273887772271647 0 0.5 0.060877768231307527 0 0.49571883890812751 0.075372854926424371 0 0.48120187576933138 0.069046704289004487 0 0.48604438940634598 0.051273887772271647 0 0.49571883890812751 0.075372854926424371 0 0.48406521968200461 0.080179817099671993 0 0.48120187576933138 0.069046704289004487 0 0.49999999999998412 0.088564574303792512 0 0.47223897399802628 0.093484990248294514 0 0.48406521968200461 0.080179817099671993 0 0.49999999999998412 0.088564574303792512 0 0.47223897399802628 0.093484990248294514 0 0.49571883890812751 0.075372854926424371 0 0.49999999999998412 0.088564574303792512 0 0.48406521968200461 0.080179817099671993 0 0.47223897399802628 0.093484990248294514 0 0.48406521968200461 0.080179817099671993 0 0.47116640973453727 0.074429961730844096 0 0.48406521968200461 0.080179817099671993 0 0.47116640973453727 0.074429961730844096 0 0.48120187576933138 0.069046704289004487 0 0.47116640973453727 0.074429961730844096 0 0.48120187576933138 0.069046704289004487 0 0.47139874545493671 0.061429918621521147 0 0.45820066983142499 0.067755826745289363 0 0.44911603479485418 0.088046279808874195 0 0.47116640973453727 0.074429961730844096 0 0.45820066983142499 0.067755826745289363 0 0.44911603479485418 0.088046279808874195 0 0.47116640973453727 0.074429961730844096 0 0.45820066983142499 0.067755826745289363 0 0.47139874545493671 0.061429918621521147 0 0.47223897399802628 0.093484990248294514 0 0.47116640973453727 0.074429961730844096 0 0.44911603479485418 0.088046279808874195 0 0.47116640973453727 0.074429961730844096 0 0.44911603479485418 0.088046279808874195 0 0.47223897399802628 0.093484990248294514 0 0.44911603479485418 0.088046279808874195 0 0.44447794799606882 0.098405406192797223 0 0.44911603479485418 0.088046279808874195 0 0.43192479398246408 0.088283511265858192 0 0.43612094188456069 0.075054025853421996 0 0.44911603479485418 0.088046279808874195 0 0.44447794799606882 0.098405406192797223 0 0.45820066983142499 0.067755826745289363 0 0.44911603479485418 0.088046279808874195 0 0.43612094188456069 0.075054025853421996 0 0.45820066983142499 0.067755826745289363 0 0.43612094188456069 0.075054025853421996 0 0.44760209918020932 0.053649981888992983 0 0.44910074313192522 0.12911261772131319 0 0.46616394133118072 0.1198459778800027 0 0.45232794468567228 0.1124282408537266 0 0.47223897399802628 0.093484990248294514 0 0.46616394133118072 0.1198459778800027 0 0.45232794468567228 0.1124282408537266 0 0.47223897399802628 0.093484990248294514 0 0.44447794799606882 0.098405406192797223 0 0.45232794468567228 0.1124282408537266 0 0.47223897399802628 0.093484990248294514 0 0.44447794799606882 0.098405406192797223 0 0.44911603479485418 0.088046279808874195 0 0.44447794799606882 0.098405406192797223 0 0.42745407196643381 0.10142274968174531 0 0.44911603479485418 0.088046279808874195 0 0.42745407196643381 0.10142274968174531 0 0.44447794799606882 0.098405406192797223 0 0.4357065652989397 0.1179962128903019 0 0.44910074313192522 0.12911261772131319 0 0.45232794468567228 0.1124282408537266 0 0.4357065652989397 0.1179962128903019 0 0.44447794799606882 0.098405406192797223 0 0.45232794468567228 0.1124282408537266 0 0.4357065652989397 0.1179962128903019 0 0.4357065652989397 0.1179962128903019 0 0.43037132227179248 0.10937741141546239 0 0.42351370539076438 0.120429786377846 0 0.43037132227179248 0.10937741141546239 0 0.42351370539076438 0.120429786377846 0 0.42150141260026791 0.10636786176506149 0 0.4159777269694841 0.13294607515568341 0 0.42351370539076438 0.120429786377846 0 0.41135646130382209 0.1192959363581485 0 0.41344346925412789 0.1100744312752541 0 0.41135646130382209 0.1192959363581485 0 0.42150141260026791 0.10636786176506149 0 0.41135646130382209 0.1192959363581485 0 0.42150141260026791 0.10636786176506149 0 0.42351370539076438 0.120429786377846 0 0.41135646130382209 0.1192959363581485 0 0.42150141260026791 0.10636786176506149 0 0.40727383961392388 0.1096244548545785 0 0.41344346925412789 0.1100744312752541 0 0.39943286654182242 0.1187261128687636 0 0.41344346925412789 0.1100744312752541 0 0.39943286654182242 0.1187261128687636 0 0.41344346925412789 0.1100744312752541 0 0.41135646130382209 0.1192959363581485 0 0.39943286654182242 0.1187261128687636 0 0.42211911319858558 0.1023683277083946 0 0.40487028229554961 0.10542554261800589 0 0.42211911319858558 0.1023683277083946 0 0.40878905682453498 0.09333235837446209 0 0.40487028229554961 0.10542554261800589 0 0.40727383961392388 0.1096244548545785 0 0.42211911319858558 0.1023683277083946 0 0.40487028229554961 0.10542554261800589 0 0.40727383961392388 0.1096244548545785 0 0.42211911319858558 0.1023683277083946 0 0.41344346925412789 0.1100744312752541 0 0.42745407196643381 0.10142274968174531 0 0.42211911319858558 0.1023683277083946 0 0.41344346925412789 0.1100744312752541 0 0.42150141260026791 0.10636786176506149 0 0.42745407196643381 0.10142274968174531 0 0.40727383961392388 0.1096244548545785 0 0.41344346925412789 0.1100744312752541 0 0.42211911319858558 0.1023683277083946 0 0.41344346925412789 0.1100744312752541 0 0.42745407196643381 0.10142274968174531 0 0.42211911319858558 0.1023683277083946 0 0.4188599020932352 0.091251685517669823 0 0.40878905682453498 0.09333235837446209 0 0.42519744274311438 0.096795772811844816 0 0.42211911319858558 0.1023683277083946 0 0.4188599020932352 0.091251685517669823 0 0.44447794799606882 0.098405406192797223 0 0.4357065652989397 0.1179962128903019 0 0.43037132227179248 0.10937741141546239 0 0.42519744274311438 0.096795772811844816 0 0.42745407196643381 0.10142274968174531 0 0.43192479398246408 0.088283511265858192 0 0.44447794799606882 0.098405406192797223 0 0.43037132227179248 0.10937741141546239 0 0.42745407196643381 0.10142274968174531 0 0.44447794799606882 0.098405406192797223 0 0.42745407196643381 0.10142274968174531 0 0.42519744274311438 0.096795772811844816 0 0.42562933247485463 0.1006525898855594 0 0.42211911319858558 0.1023683277083946 0 0.42562933247485463 0.1006525898855594 0 0.42745407196643381 0.10142274968174531 0 0.42211911319858558 0.1023683277083946 0 0.42562933247485463 0.1006525898855594 0 0.42211911319858558 0.1023683277083946 0 0.42519744274311438 0.096795772811844816 0 0.42562933247485463 0.1006525898855594 0 0.42745407196643381 0.10142274968174531 0 0.43037132227179248 0.10937741141546239 0 0.42150141260026791 0.10636786176506149 0 0.42745407196643381 0.10142274968174531 0 0.42745407196643381 0.10142274968174531 0 0.42211911319858558 0.1023683277083946 0 0.43192479398246408 0.088283511265858192 0 0.43612094188456069 0.075054025853421996 0 0.42345108330365011 0.072175483991619438 0 0.43192479398246408 0.088283511265858192 0 0.42345108330365011 0.072175483991619438 0 0.41377272688613859 0.080843859662184839 0 0.44911603479485418 0.088046279808874195 0 0.42745407196643381 0.10142274968174531 0 0.43192479398246408 0.088283511265858192 0 0.42519744274311438 0.096795772811844816 0 0.43192479398246408 0.088283511265858192 0 0.4188599020932352 0.091251685517669823 0 0.43612094188456069 0.075054025853421996 0 0.42345108330365011 0.072175483991619438 0 0.42806905116036392 0.052559768973073982 0 0.43612094188456069 0.075054025853421996 0 0.42806905116036392 0.052559768973073982 0 0.42345108330365011 0.072175483991619438 0 0.41403602352239433 0.063221827251169732 0 0.42806905116036392 0.052559768973073982 0 0.42345108330365011 0.072175483991619438 0 0.41403602352239433 0.063221827251169732 0 0.41377272688613859 0.080843859662184839 0 0.43192479398246408 0.088283511265858192 0 0.4188599020932352 0.091251685517669823 0 0.41377272688613859 0.080843859662184839 0 0.4188599020932352 0.091251685517669823 0 0.41377272688613859 0.080843859662184839 0 0.40878905682453498 0.09333235837446209 0 0.41377272688613859 0.080843859662184839 0 0.39515155900724502 0.08800294691332583 0 0.3904366715797733 0.068618152357034126 0 0.41377272688613859 0.080843859662184839 0 0.40878905682453498 0.09333235837446209 0 0.39515155900724502 0.08800294691332583 0 0.41403602352239433 0.063221827251169732 0 0.41377272688613859 0.080843859662184839 0 0.3904366715797733 0.068618152357034126 0 0.41403602352239433 0.063221827251169732 0 0.3904366715797733 0.068618152357034126 0 0.40013573810427921 0.056265407542474583 0 0.37428304080467212 0.085181122486210264 0 0.36094463021682849 0.061879487444816861 0 0.3904366715797733 0.068618152357034126 0 0.37428304080467212 0.085181122486210264 0 0.39515155900724502 0.08800294691332583 0 0.3904366715797733 0.068618152357034126 0 0.37428304080467212 0.085181122486210264 0 0.39515155900724502 0.08800294691332583 0 0.38762145139251158 0.108482757527606 0 0.37428304080467212 0.085181122486210264 0 0.38762145139251158 0.108482757527606 0 0.37116644873757482 0.1272731574952862 0 0.39242856602925918 0.116880582000756 0 0.37116644873757482 0.1272731574952862 0 0.38762145139251158 0.108482757527606 0 0.39242856602925918 0.116880582000756 0 0.38762145139251158 0.108482757527606 0 0.39242856602925918 0.116880582000756 0 0.38762145139251158 0.108482757527606 0 0.39242856602925918 0.116880582000756 0 0.40487028229554961 0.10542554261800589 0 0.40121151000737459 0.13222401095123429 0 0.39242856602925918 0.116880582000756 0 0.39943286654182242 0.1187261128687636 0 0.40121151000737459 0.13222401095123429 0 0.39242856602925918 0.116880582000756 0 0.40121151000737459 0.13222401095123429 0 0.41135646130382209 0.1192959363581485 0 0.39943286654182242 0.1187261128687636 0 0.40727383961392388 0.1096244548545785 0 0.39242856602925918 0.116880582000756 0 0.40487028229554961 0.10542554261800589 0 0.40727383961392388 0.1096244548545785 0 0.39242856602925918 0.116880582000756 0 0.39943286654182242 0.1187261128687636 0 0.40727383961392388 0.1096244548545785 0 0.39242856602925918 0.116880582000756 0 0.40878905682453498 0.09333235837446209 0 0.39515155900724502 0.08800294691332583 0 0.40487028229554961 0.10542554261800589 0 0.38762145139251158 0.108482757527606 0 0.40487028229554961 0.10542554261800589 0 0.39515155900724502 0.08800294691332583 0 0.38762145139251158 0.108482757527606 0 0.40487028229554961 0.10542554261800589 0 0.40304935339332132 0.03084614512467837 0 0.40440383228968702 0.013281793936960841 0 0.38933922662206122 0.020538101306475692 0 0.40440383228968702 0.013281793936960841 0 0.38879050414320548 -0.0035019242188035209 0 0.40440383228968702 0.013281793936960841 0 0.38933922662206122 0.020538101306475692 0 0.38879050414320548 -0.0035019242188035209 0 0.40440383228968702 0.013281793936960841 0 0.40326955669734788 0.0013145221745210921 0 0.38879050414320548 -0.0035019242188035209 0 0.37480090979353559 0.012117275161245869 0 0.38933922662206122 0.020538101306475692 0 0.38879050414320548 -0.0035019242188035209 0 0.38933922662206122 0.020538101306475692 0 0.38879050414320548 -0.0035019242188035209 0 0.37480090979353559 0.012117275161245869 0 0.38879050414320548 -0.0035019242188035209 0 0.37232238509817878 -0.001610374512647025 0 0.37480090979353559 0.012117275161245869 0 0.36864859530982658 0.02996483807260069 0 0.38933922662206122 0.020538101306475692 0 0.36864859530982658 0.02996483807260069 0 0.38933922662206122 0.020538101306475692 0 0.38988794910091717 0.044578126831754869 0 0.37210288993999918 0.04768584512514757 0 0.36864859530982658 0.02996483807260069 0 0.38988794910091717 0.044578126831754869 0 0.38933922662206122 0.020538101306475692 0 0.38988794910091717 0.044578126831754869 0 0.3904366715797733 0.068618152357034126 0 0.38988794910091717 0.044578126831754869 0 0.37210288993999918 0.04768584512514757 0 0.3904366715797733 0.068618152357034126 0 0.38988794910091717 0.044578126831754869 0 0.38988794910091717 0.044578126831754869 0 0.40013573810427921 0.056265407542474583 0 0.41159859851777292 0.045767191455474601 0 0.3904366715797733 0.068618152357034126 0 0.38988794910091717 0.044578126831754869 0 0.40013573810427921 0.056265407542474583 0 0.40304935339332132 0.03084614512467837 0 0.38933922662206122 0.020538101306475692 0 0.38988794910091717 0.044578126831754869 0 0.40304935339332132 0.03084614512467837 0 0.38988794910091717 0.044578126831754869 0 0.41159859851777292 0.045767191455474601 0 0.41159859851777292 0.045767191455474601 0 0.42806905116036392 0.052559768973073982 0 0.42001716043616782 0.03006551209272583 0 0.40304935339332132 0.03084614512467837 0 0.41159859851777292 0.045767191455474601 0 0.42001716043616782 0.03006551209272583 0 0.42257969012342039 0.032820131455946269 0 0.42001716043616782 0.03006551209272583 0 0.41403602352239433 0.063221827251169732 0 0.40013573810427921 0.056265407542474583 0 0.41159859851777292 0.045767191455474601 0 0.41403602352239433 0.063221827251169732 0 0.41159859851777292 0.045767191455474601 0 0.42806905116036392 0.052559768973073982 0 0.43612094188456069 0.075054025853421996 0 0.42806905116036392 0.052559768973073982 0 0.44760209918020932 0.053649981888992983 0 0.42806905116036392 0.052559768973073982 0 0.42257969012342039 0.032820131455946269 0 0.43133848619062398 0.034903582623395712 0 0.42806905116036392 0.052559768973073982 0 0.43133848619062398 0.034903582623395712 0 0.44136604415549369 0.038199853072216419 0 0.42806905116036392 0.052559768973073982 0 0.42257969012342039 0.032820131455946269 0 0.42001716043616782 0.03006551209272583 0 0.42806905116036392 0.052559768973073982 0 0.42001716043616782 0.03006551209272583 0 0.42257969012342039 0.032820131455946269 0 0.43133848619062398 0.034903582623395712 0 0.42687974903311282 0.030263027797785131 0 0.43133848619062398 0.034903582623395712 0 0.43708004483063873 0.027078954084780719 0 0.44136604415549369 0.038199853072216419 0 0.43133848619062398 0.034903582623395712 0 0.43708004483063873 0.027078954084780719 0 0.43128088872523751 0.027278585451218421 0 0.43708004483063873 0.027078954084780719 0 0.43451575876189319 0.02313834934525846 0 0.43879067348313727 0.020805433857732269 0 0.43708004483063873 0.027078954084780719 0 0.43128088872523751 0.027278585451218421 0 0.43451575876189319 0.02313834934525846 0 0.43128088872523751 0.027278585451218421 0 0.43451575876189319 0.02313834934525846 0 0.4313326241119888 0.022108344300384209 0 0.43128088872523751 0.027278585451218421 0 0.4313326241119888 0.022108344300384209 0 0.42818580417653629 0.023850620982987319 0 0.43133848619062398 0.034903582623395712 0 0.43128088872523751 0.027278585451218421 0 0.42687974903311282 0.030263027797785131 0 0.43409456265846358 0.018420429032176701 0 0.43814930691050141 0.01529426991520119 0 0.43879067348313727 0.020805433857732269 0 0.43409456265846358 0.018420429032176701 0 0.43451575876189319 0.02313834934525846 0 0.43879067348313727 0.020805433857732269 0 0.43409456265846358 0.018420429032176701 0 0.4313326241119888 0.022108344300384209 0 0.42948179077376047 0.018551805098886071 0 0.43409456265846358 0.018420429032176701 0 0.43451575876189319 0.02313834934525846 0 0.4313326241119888 0.022108344300384209 0 0.43409456265846358 0.018420429032176701 0 0.42948179077376047 0.018551805098886071 0 0.43253335143261418 0.012622564430315951 0 0.42948179077376047 0.018551805098886071 0 0.42560923020108132 0.020989372467620001 0 0.42605553741435992 0.014353866481729941 0 0.4313326241119888 0.022108344300384209 0 0.42948179077376047 0.018551805098886071 0 0.42818580417653629 0.023850620982987319 0 0.42948179077376047 0.018551805098886071 0 0.42560923020108132 0.020989372467620001 0 0.42818580417653629 0.023850620982987319 0 0.42560923020108132 0.020989372467620001 0 0.42100382611867188 0.022961855258980611 0 0.42109918609410119 0.016035952683859201 0 0.42560923020108132 0.020989372467620001 0 0.42109918609410119 0.016035952683859201 0 0.42605553741435992 0.014353866481729941 0 0.43128088872523751 0.027278585451218421 0 0.42687974903311282 0.030263027797785131 0 0.42573909922002001 0.02663203435981407 0 0.42560923020108132 0.020989372467620001 0 0.42818580417653629 0.023850620982987319 0 0.42573909922002001 0.02663203435981407 0 0.43128088872523751 0.027278585451218421 0 0.42818580417653629 0.023850620982987319 0 0.42573909922002001 0.02663203435981407 0 0.42560923020108132 0.020989372467620001 0 0.42573909922002001 0.02663203435981407 0 0.42100382611867188 0.022961855258980611 0 0.42573909922002001 0.02663203435981407 0 0.42255516667028048 0.027335051702517911 0 0.42100382611867188 0.022961855258980611 0 0.42257969012342039 0.032820131455946269 0 0.42687974903311282 0.030263027797785131 0 0.4234605809062621 0.029680805098551151 0 0.42255516667028048 0.027335051702517911 0 0.4234605809062621 0.029680805098551151 0 0.42001716043616782 0.03006551209272583 0 0.42687974903311282 0.030263027797785131 0 0.42573909922002001 0.02663203435981407 0 0.4234605809062621 0.029680805098551151 0 0.42573909922002001 0.02663203435981407 0 0.42255516667028048 0.027335051702517911 0 0.4234605809062621 0.029680805098551151 0 0.42257969012342039 0.032820131455946269 0 0.4234605809062621 0.029680805098551151 0 0.42001716043616782 0.03006551209272583 0 0.40304935339332132 0.03084614512467837 0 0.40440383228968702 0.013281793936960841 0 0.42001716043616782 0.03006551209272583 0 0.40440383228968702 0.013281793936960841 0 0.42001716043616782 0.03006551209272583 0 0.41261136222314942 0.0093762189671962488 0 0.42001716043616782 0.03006551209272583 0 0.42100382611867188 0.022961855258980611 0 0.41261136222314942 0.0093762189671962488 0 0.42001716043616782 0.03006551209272583 0 0.41261136222314942 0.0093762189671962488 0 0.40440383228968702 0.013281793936960841 0 0.42001716043616782 0.03006551209272583 0 0.42255516667028048 0.027335051702517911 0 0.42001716043616782 0.03006551209272583 0 0.42100382611867188 0.022961855258980611 0 0.42100382611867188 0.022961855258980611 0 0.42109918609410119 0.016035952683859201 0 0.41261136222314942 0.0093762189671962488 0 0.40440383228968702 0.013281793936960841 0 0.40326955669734788 0.0013145221745210921 0 0.41261136222314942 0.0093762189671962488 0 0.42109918609410119 0.016035952683859201 0 0.41261136222314942 0.0093762189671962488 0 0.42089068881171687 0.0096543862810420274 0 0.41261136222314942 0.0093762189671962488 0 0.42089068881171687 0.0096543862810420274 0 0.41937437112046932 -0.001225319212085151 0 0.42089068881171687 0.0096543862810420274 0 0.42738201184002889 0.0071909116057871994 0 0.41937437112046932 -0.001225319212085151 0 0.42738201184002889 0.0071909116057871994 0 0.41937437112046932 -0.001225319212085151 0 0.43280487266672218 -0.00097476378086885104 0 0.42109918609410119 0.016035952683859201 0 0.42089068881171687 0.0096543862810420274 0 0.42605553741435992 0.014353866481729941 0 0.42089068881171687 0.0096543862810420274 0 0.42738201184002889 0.0071909116057871994 0 0.42605553741435992 0.014353866481729941 0 0.42738201184002889 0.0071909116057871994 0 0.42605553741435992 0.014353866481729941 0 0.43253335143261418 0.012622564430315951 0 0.42948179077376047 0.018551805098886071 0 0.42605553741435992 0.014353866481729941 0 0.43253335143261418 0.012622564430315951 0 0.42738201184002889 0.0071909116057871994 0 0.43253335143261418 0.012622564430315951 0 0.43535163979502972 0.0058594354029439539 0 0.43253335143261418 0.012622564430315951 0 0.43535163979502972 0.0058594354029439539 0 0.43807772553110669 0.010550348383535911 0 0.43253335143261418 0.012622564430315951 0 0.43807772553110669 0.010550348383535911 0 0.43814930691050141 0.01529426991520119 0 0.43409456265846358 0.018420429032176701 0 0.43253335143261418 0.012622564430315951 0 0.43814930691050141 0.01529426991520119 0 0.42738201184002889 0.0071909116057871994 0 0.43535163979502972 0.0058594354029439539 0 0.43280487266672218 -0.00097476378086885104 0 0.43535163979502972 0.0058594354029439539 0 0.44032989530471972 0.001629804140855494 0 0.43280487266672218 -0.00097476378086885104 0 0.43535163979502972 0.0058594354029439539 0 0.44215957830139502 0.0070052120563689809 0 0.43807772553110669 0.010550348383535911 0 0.43535163979502972 0.0058594354029439539 0 0.44032989530471972 0.001629804140855494 0 0.44215957830139502 0.0070052120563689809 0 0.44032989530471972 0.001629804140855494 0 0.44215957830139502 0.0070052120563689809 0 0.44712769213151921 0.0032257524911131902 0 0.44712769213151921 0.0032257524911131902 0 0.45464906528307619 0.00068230869151560559 0 0.45586947235798547 0.0093880077105401791 0 0.44215957830139502 0.0070052120563689809 0 0.44712769213151921 0.0032257524911131902 0 0.4475409920957194 0.010995865689257931 0 0.44712769213151921 0.0032257524911131902 0 0.4475409920957194 0.010995865689257931 0 0.45586947235798547 0.0093880077105401791 0 0.4475409920957194 0.010995865689257931 0 0.45153257803284652 0.018007423744728201 0 0.45586947235798547 0.0093880077105401791 0 0.4475409920957194 0.010995865689257931 0 0.44407006089426132 0.017825340716418041 0 0.45153257803284652 0.018007423744728201 0 0.4475409920957194 0.010995865689257931 0 0.44198758679143157 0.01206541197060443 0 0.44407006089426132 0.017825340716418041 0 0.44215957830139502 0.0070052120563689809 0 0.4475409920957194 0.010995865689257931 0 0.44198758679143157 0.01206541197060443 0 0.44215957830139502 0.0070052120563689809 0 0.44198758679143157 0.01206541197060443 0 0.43807772553110669 0.010550348383535911 0 0.44198758679143157 0.01206541197060443 0 0.43807772553110669 0.010550348383535911 0 0.43814930691050141 0.01529426991520119 0 0.44198758679143157 0.01206541197060443 0 0.43814930691050141 0.01529426991520119 0 0.44407006089426132 0.017825340716418041 0 0.43814930691050141 0.01529426991520119 0 0.43879067348313727 0.020805433857732269 0 0.44407006089426132 0.017825340716418041 0 0.43879067348313727 0.020805433857732269 0 0.44407006089426132 0.017825340716418041 0 0.44512569872122981 0.025550911030488659 0 0.43708004483063873 0.027078954084780719 0 0.44512569872122981 0.025550911030488659 0 0.44136604415549369 0.038199853072216419 0 0.43708004483063873 0.027078954084780719 0 0.43879067348313727 0.020805433857732269 0 0.44512569872122981 0.025550911030488659 0 0.44512569872122981 0.025550911030488659 0 0.4561369504253342 0.026625134082166321 0 0.45001234234451781 0.033102401678371272 0 0.44512569872122981 0.025550911030488659 0 0.45153257803284652 0.018007423744728201 0 0.4561369504253342 0.026625134082166321 0 0.44407006089426132 0.017825340716418041 0 0.44512569872122981 0.025550911030488659 0 0.45153257803284652 0.018007423744728201 0 0.45944114912089251 0.01795322250639194 0 0.4561369504253342 0.026625134082166321 0 0.46557544213517449 0.024593616317302149 0 0.45153257803284652 0.018007423744728201 0 0.45944114912089251 0.01795322250639194 0 0.4561369504253342 0.026625134082166321 0 0.4561369504253342 0.026625134082166321 0 0.46557544213517449 0.024593616317302149 0 0.46197746367777598 0.034192298150851133 0 0.46557544213517449 0.024593616317302149 0 0.46197746367777598 0.034192298150851133 0 0.47636993990456461 0.027174920618118811 0 0.45944114912089251 0.01795322250639194 0 0.46557544213517449 0.024593616317302149 0 0.47037343925141711 0.012237691140261469 0 0.47037343925141711 0.012237691140261469 0 0.46833294346041737 -0.00635317894308398 0 0.46437693859826967 -0.002699538337595897 0 0.45944114912089251 0.01795322250639194 0 0.46236210535530831 0.011509895728738961 0 0.47037343925141711 0.012237691140261469 0 0.46236210535530831 0.011509895728738961 0 0.46137405840640527 0.0052069130631511307 0 0.47037343925141711 0.012237691140261469 0 0.47037343925141711 0.012237691140261469 0 0.46437693859826967 -0.002699538337595897 0 0.46137405840640527 0.0052069130631511307 0 0.45964866809453719 -0.0006594034327338438 0 0.46437693859826967 -0.002699538337595897 0 0.46137405840640527 0.0052069130631511307 0 0.47037343925141711 0.012237691140261469 0 0.46437693859826967 -0.002699538337595897 0 0.46137405840640527 0.0052069130631511307 0 0.45464906528307619 0.00068230869151560559 0 0.45586947235798547 0.0093880077105401791 0 0.46137405840640527 0.0052069130631511307 0 0.45464906528307619 0.00068230869151560559 0 0.45964866809453719 -0.0006594034327338438 0 0.45153257803284652 0.018007423744728201 0 0.45944114912089251 0.01795322250639194 0 0.45586947235798547 0.0093880077105401791 0 0.45944114912089251 0.01795322250639194 0 0.46236210535530831 0.011509895728738961 0 0.45586947235798547 0.0093880077105401791 0 0.46236210535530831 0.011509895728738961 0 0.46137405840640527 0.0052069130631511307 0 0.45586947235798547 0.0093880077105401791 0 0.42806905116036392 0.052559768973073982 0 0.44760209918020932 0.053649981888992983 0 0.44136604415549369 0.038199853072216419 0 0.44760209918020932 0.053649981888992983 0 0.44136604415549369 0.038199853072216419 0 0.45401316519409879 0.041122939555902682 0 0.44136604415549369 0.038199853072216419 0 0.45001234234451781 0.033102401678371272 0 0.45401316519409879 0.041122939555902682 0 0.44512569872122981 0.025550911030488659 0 0.44136604415549369 0.038199853072216419 0 0.45001234234451781 0.033102401678371272 0 0.46197746367777598 0.034192298150851133 0 0.46728530486799491 0.047465373681704122 0 0.47636993990456461 0.027174920618118811 0 0.45001234234451781 0.033102401678371272 0 0.46197746367777598 0.034192298150851133 0 0.45401316519409879 0.041122939555902682 0 0.4561369504253342 0.026625134082166321 0 0.45001234234451781 0.033102401678371272 0 0.46197746367777598 0.034192298150851133 0 0.46197746367777598 0.034192298150851133 0 0.45401316519409879 0.041122939555902682 0 0.46728530486799491 0.047465373681704122 0 0.45820066983142499 0.067755826745289363 0 0.46728530486799491 0.047465373681704122 0 0.45820066983142499 0.067755826745289363 0 0.46728530486799491 0.047465373681704122 0 0.47139874545493671 0.061429918621521147 0 0.45820066983142499 0.067755826745289363 0 0.44760209918020932 0.053649981888992983 0 0.46728530486799491 0.047465373681704122 0 0.44760209918020932 0.053649981888992983 0 0.45401316519409879 0.041122939555902682 0 0.46728530486799491 0.047465373681704122 0 0.46728530486799491 0.047465373681704122 0 0.47139874545493671 0.061429918621521147 0 0.48604438940634598 0.051273887772271647 0 0.48120187576933138 0.069046704289004487 0 0.47139874545493671 0.061429918621521147 0 0.48604438940634598 0.051273887772271647 0 0.46728530486799491 0.047465373681704122 0 0.48604438940634598 0.051273887772271647 0 0.47636993990456461 0.027174920618118811 0 0.48604438940634598 0.051273887772271647 0 0.47636993990456461 0.027174920618118811 0 0.46728530486799491 0.047465373681704122 0 0.47636993990456461 0.027174920618118811 0 0.5 0.033190962158822453 0 0.49120381902457871 0.033503494910178171 0 0.48604438940634598 0.051273887772271647 0 0.49120381902457871 0.033503494910178171 0 0.48604438940634598 0.051273887772271647 0 0.47636993990456461 0.027174920618118811 0 0.5 0.033190962158822453 0 0.48604438940634598 0.051273887772271647 0 0.5 0.060877768231307527 0 0.48257431086373292 0.013317512232496999 0 0.48127972706441741 0.01620895384915497 0 0.46833294346041737 -0.00635317894308398 0 0.48257431086373292 0.013317512232496999 0 0.48610737433228413 -0.0065304440450226087 0 0.46833294346041737 -0.00635317894308398 0 0.47037343925141711 0.012237691140261469 0 0.48127972706441741 0.01620895384915497 0 0.46833294346041737 -0.00635317894308398 0 0.48127972706441741 0.01620895384915497 0 0.46833294346041737 -0.00635317894308398 0 0.48257431086373292 0.013317512232496999 0 0.48127972706441741 0.01620895384915497 0 0.47037343925141711 0.012237691140261469 0 0.47636993990456461 0.027174920618118811 0 0.46557544213517449 0.024593616317302149 0 0.47037343925141711 0.012237691140261469 0 0.47636993990456461 0.027174920618118811 0 0.49120381902457871 0.033503494910178171 0 0.47636993990456461 0.027174920618118811 0 0.48127972706441741 0.01620895384915497 0 0.47037343925141711 0.012237691140261469 0 0.47636993990456461 0.027174920618118811 0 0.48127972706441741 0.01620895384915497 0 0.47636993990456461 0.027174920618118811 0 0.48127972706441741 0.01620895384915497 0 0.49120381902457871 0.033503494910178171 0 0.48257431086373292 0.013317512232496999 0 0.48127972706441741 0.01620895384915497 0 0.49120381902457871 0.033503494910178171 0 0.48127972706441741 0.01620895384915497 0 0.5 0.033190962158822453 0 0.48257431086373292 0.013317512232496999 0 0.5 0.005504156086337475 0 0.5 0.033190962158822453 0 0.49120381902457871 0.033503494910178171 0 0.48257431086373292 0.013317512232496999 0 0.48257431086373292 0.013317512232496999 0 0.5 0.005504156086337475 0 0.48610737433228413 -0.0065304440450226087 0 0.5 0.005504156086337475 0 0.48610737433228413 -0.0065304440450226087 0 0.5 -0.022182649986147551 0 0.48610737433228413 -0.0065304440450226087 0 0.47958152260606601 -0.02160921024578363 0 0.46833294346041737 -0.00635317894308398 0 0.47958152260606601 -0.02160921024578363 0 0.46833294346041737 -0.00635317894308398 0 0.46865040588144818 -0.03056068281142299 0 0.48610737433228413 -0.0065304440450226087 0 0.47958152260606601 -0.02160921024578363 0 0.5 -0.022182649986147551 0 0.47958152260606601 -0.02160921024578363 0 0.5 -0.022182649986147551 0 0.47481688935618033 -0.04241909544324101 0 0.5 -0.022182649986147551 0 0.5 -0.049869456058632522 0 0.47481688935618033 -0.04241909544324101 0 0.5 -0.049869456058632522 0 0.48298318693957298 -0.06110217658412135 0 0.47481688935618033 -0.04241909544324101 0 0.48298318693957298 -0.06110217658412135 0 0.46880305013693069 -0.055739109839975418 0 0.46444317615752179 -0.069588279184178092 0 0.48298318693957298 -0.06110217658412135 0 0.46880305013693069 -0.055739109839975418 0 0.47481688935618033 -0.04241909544324101 0 0.47958152260606601 -0.02160921024578363 0 0.47481688935618033 -0.04241909544324101 0 0.46865040588144818 -0.03056068281142299 0 0.47481688935618033 -0.04241909544324101 0 0.45862813280429943 -0.046948269985401941 0 0.46865040588144818 -0.03056068281142299 0 0.47481688935618033 -0.04241909544324101 0 0.45862813280429943 -0.046948269985401941 0 0.45862813280429943 -0.046948269985401941 0 0.46865040588144818 -0.03056068281142299 0 0.45538615985641773 -0.028915311735323031 0 0.46880305013693069 -0.055739109839975418 0 0.47481688935618033 -0.04241909544324101 0 0.45862813280429943 -0.046948269985401941 0 0.46880305013693069 -0.055739109839975418 0 0.45433180236002968 -0.058697308896304798 0 0.46444317615752179 -0.069588279184178092 0 0.46880305013693069 -0.055739109839975418 0 0.45862813280429943 -0.046948269985401941 0 0.45433180236002968 -0.058697308896304798 0 0.45862813280429943 -0.046948269985401941 0 0.45433180236002968 -0.058697308896304798 0 0.4424393762524183 -0.051477444527562283 0 0.45862813280429943 -0.046948269985401941 0 0.4424393762524183 -0.051477444527562283 0 0.45433180236002968 -0.058697308896304798 0 0.4424393762524183 -0.051477444527562283 0 0.44217194191255199 -0.062490612600983861 0 0.4424393762524183 -0.051477444527562283 0 0.43534791473672191 -0.063835610177196495 0 0.4424393762524183 -0.051477444527562283 0 0.44217194191255199 -0.062490612600983861 0 0.43534791473672191 -0.063835610177196495 0 0.4424393762524183 -0.051477444527562283 0 0.45538615985641773 -0.028915311735323031 0 0.4424393762524183 -0.051477444527562283 0 0.45538615985641773 -0.028915311735323031 0 0.43732994433505229 -0.027210203214966519 0 0.45862813280429943 -0.046948269985401941 0 0.4424393762524183 -0.051477444527562283 0 0.45538615985641773 -0.028915311735323031 0 0.4442056936289327 -0.0069666154652798006 0 0.4537376814583553 -0.01406226645421654 0 0.43732994433505229 -0.027210203214966519 0 0.4537376814583553 -0.01406226645421654 0 0.45538615985641773 -0.028915311735323031 0 0.43732994433505229 -0.027210203214966519 0 0.44032989530471972 0.001629804140855494 0 0.4442056936289327 -0.0069666154652798006 0 0.43280487266672218 -0.00097476378086885104 0 0.44032989530471972 0.001629804140855494 0 0.44712769213151921 0.0032257524911131902 0 0.4442056936289327 -0.0069666154652798006 0 0.45464906528307619 0.00068230869151560559 0 0.4442056936289327 -0.0069666154652798006 0 0.4581946100903978 -0.0058272971480062136 0 0.44712769213151921 0.0032257524911131902 0 0.45464906528307619 0.00068230869151560559 0 0.4442056936289327 -0.0069666154652798006 0 0.4442056936289327 -0.0069666154652798006 0 0.4537376814583553 -0.01406226645421654 0 0.4581946100903978 -0.0058272971480062136 0 0.4537376814583553 -0.01406226645421654 0 0.4581946100903978 -0.0058272971480062136 0 0.46833294346041737 -0.00635317894308398 0 0.45464906528307619 0.00068230869151560559 0 0.4581946100903978 -0.0058272971480062136 0 0.45964866809453719 -0.0006594034327338438 0 0.4581946100903978 -0.0058272971480062136 0 0.45964866809453719 -0.0006594034327338438 0 0.46437693859826967 -0.002699538337595897 0 0.4581946100903978 -0.0058272971480062136 0 0.46833294346041737 -0.00635317894308398 0 0.46437693859826967 -0.002699538337595897 0 0.46833294346041737 -0.00635317894308398 0 0.46865040588144818 -0.03056068281142299 0 0.45538615985641773 -0.028915311735323031 0 0.46833294346041737 -0.00635317894308398 0 0.45538615985641773 -0.028915311735323031 0 0.4537376814583553 -0.01406226645421654 0 0.46833294346041737 -0.00635317894308398 0 0.45538615985641773 -0.028915311735323031 0 0.47795401619815792 -0.1231606782490454 0 0.47999748032389772 -0.10522009403983509 0 0.46299714927212632 -0.10470108997707581 0 0.47795401619815792 -0.1231606782490454 0 0.46299714927212632 -0.10470108997707581 0 0.47795401619815792 -0.1231606782490454 0 0.5 -0.1052430682036026 0 0.47999748032389772 -0.10522009403983509 0 0.47795401619815792 -0.1231606782490454 0 0.5 -0.1052430682036026 0 0.49999999999999561 -0.13292987427608749 0 0.5 -0.1052430682036026 0 0.47999748032389772 -0.10522009403983509 0 0.47903875582530658 -0.087775539729616631 0 0.47999748032389772 -0.10522009403983509 0 0.47903875582530658 -0.087775539729616631 0 0.46299714927212632 -0.10470108997707581 0 0.5 -0.1052430682036026 0 0.47903875582530658 -0.087775539729616631 0 0.5 -0.077556262131117548 0 0.5 -0.049869456058632522 0 0.48298318693957298 -0.06110217658412135 0 0.5 -0.077556262131117548 0 0.48298318693957298 -0.06110217658412135 0 0.47903875582530658 -0.087775539729616631 0 0.5 -0.077556262131117548 0 0.48298318693957298 -0.06110217658412135 0 0.47903875582530658 -0.087775539729616631 0 0.46444317615752179 -0.069588279184178092 0 0.46444317615752179 -0.069588279184178092 0 0.45027878182006231 -0.06919920505544766 0 0.44804028234609461 -0.086241501705106152 0 0.45433180236002968 -0.058697308896304798 0 0.46444317615752179 -0.069588279184178092 0 0.45027878182006231 -0.06919920505544766 0 0.45027878182006231 -0.06919920505544766 0 0.44804028234609461 -0.086241501705106152 0 0.43308341542006162 -0.067781913433137622 0 0.44804028234609461 -0.086241501705106152 0 0.43308341542006162 -0.067781913433137622 0 0.45433180236002968 -0.058697308896304798 0 0.44217194191255199 -0.062490612600983861 0 0.45027878182006231 -0.06919920505544766 0 0.44217194191255199 -0.062490612600983861 0 0.45027878182006231 -0.06919920505544766 0 0.43308341542006162 -0.067781913433137622 0 0.44217194191255199 -0.062490612600983861 0 0.43534791473672191 -0.063835610177196495 0 0.47903875582530658 -0.087775539729616631 0 0.46444317615752179 -0.069588279184178092 0 0.44804028234609461 -0.086241501705106152 0 0.47903875582530658 -0.087775539729616631 0 0.44804028234609461 -0.086241501705106152 0 0.46299714927212632 -0.10470108997707581 0 0.44804028234609461 -0.086241501705106152 0 0.46299714927212632 -0.10470108997707581 0 0.44804028234609461 -0.086241501705106152 0 0.44683152363590789 -0.1072242395943461 0 0.43322761898896228 -0.098575403491518776 0 0.44804028234609461 -0.086241501705106152 0 0.46299714927212632 -0.10470108997707581 0 0.44683152363590789 -0.1072242395943461 0 0.44683152363590789 -0.1072242395943461 0 0.43687004187442008 -0.1170243740091135 0 0.43322761898896228 -0.098575403491518776 0 0.44683152363590789 -0.1072242395943461 0 0.45524236696645898 -0.1212199631211599 0 0.43687004187442008 -0.1170243740091135 0 0.45524236696645898 -0.1212199631211599 0 0.43687004187442008 -0.1170243740091135 0 0.4445962514410613 -0.13209247138712141 0 0.46299714927212632 -0.10470108997707581 0 0.44683152363590789 -0.1072242395943461 0 0.45524236696645898 -0.1212199631211599 0 0.47795401619815792 -0.1231606782490454 0 0.46299714927212632 -0.10470108997707581 0 0.45524236696645898 -0.1212199631211599 0 0.42089006386453959 -0.11200822974034599 0 0.4057647178407664 -0.1214959209129528 0 0.42754440153228052 -0.1297071405274216 0 0.42089006386453959 -0.11200822974034599 0 0.409032018443029 -0.1047217950489531 0 0.4057647178407664 -0.1214959209129528 0 0.42089006386453959 -0.11200822974034599 0 0.43687004187442008 -0.1170243740091135 0 0.42754440153228052 -0.1297071405274216 0 0.42089006386453959 -0.11200822974034599 0 0.43322761898896228 -0.098575403491518776 0 0.41744817206744111 -0.096364455074562219 0 0.42089006386453959 -0.11200822974034599 0 0.43687004187442008 -0.1170243740091135 0 0.43322761898896228 -0.098575403491518776 0 0.42089006386453959 -0.11200822974034599 0 0.41744817206744111 -0.096364455074562219 0 0.409032018443029 -0.1047217950489531 0 0.41744817206744111 -0.096364455074562219 0 0.409032018443029 -0.1047217950489531 0 0.40725278117716901 -0.093755043199544474 0 0.41744817206744111 -0.096364455074562219 0 0.40725278117716901 -0.093755043199544474 0 0.41234154823645519 -0.083137566401515664 0 0.40725278117716901 -0.093755043199544474 0 0.41234154823645519 -0.083137566401515664 0 0.40087917353759323 -0.084189304317967936 0 0.41234154823645519 -0.083137566401515664 0 0.40627928666208529 -0.069564959327900272 0 0.40087917353759323 -0.084189304317967936 0 0.41234154823645519 -0.083137566401515664 0 0.4254526455152372 -0.08107992235687228 0 0.42155899470265118 -0.073265653606592748 0 0.41744817206744111 -0.096364455074562219 0 0.41234154823645519 -0.083137566401515664 0 0.4254526455152372 -0.08107992235687228 0 0.44804028234609461 -0.086241501705106152 0 0.43322761898896228 -0.098575403491518776 0 0.4254526455152372 -0.08107992235687228 0 0.44804028234609461 -0.086241501705106152 0 0.4254526455152372 -0.08107992235687228 0 0.43308341542006162 -0.067781913433137622 0 0.43322761898896228 -0.098575403491518776 0 0.41744817206744111 -0.096364455074562219 0 0.4254526455152372 -0.08107992235687228 0 0.4254526455152372 -0.08107992235687228 0 0.43308341542006162 -0.067781913433137622 0 0.4254526455152372 -0.08107992235687228 0 0.43308341542006162 -0.067781913433137622 0 0.42155899470265118 -0.073265653606592748 0 0.44217194191255199 -0.062490612600983861 0 0.43534791473672191 -0.063835610177196495 0 0.43308341542006162 -0.067781913433137622 0 0.43534791473672191 -0.063835610177196495 0 0.43308341542006162 -0.067781913433137622 0 0.43534791473672191 -0.063835610177196495 0 0.43063807767941342 -0.064763906513540165 0 0.43534791473672191 -0.063835610177196495 0 0.43308341542006162 -0.067781913433137622 0 0.43063807767941342 -0.064763906513540165 0 0.43308341542006162 -0.067781913433137622 0 0.43063807767941342 -0.064763906513540165 0 0.43308341542006162 -0.067781913433137622 0 0.43063807767941342 -0.064763906513540165 0 0.42155899470265118 -0.073265653606592748 0 0.43063807767941342 -0.064763906513540165 0 0.40627928666208529 -0.069564959327900272 0 0.43063807767941342 -0.064763906513540165 0 0.42155899470265118 -0.073265653606592748 0 0.40627928666208529 -0.069564959327900272 0 0.43063807767941342 -0.064763906513540165 0 0.40627928666208529 -0.069564959327900272 0 0.40956167881806782 -0.060675731607075858 0 0.41234154823645519 -0.083137566401515664 0 0.42155899470265118 -0.073265653606592748 0 0.40627928666208529 -0.069564959327900272 0 0.40627928666208529 -0.069564959327900272 0 0.40956167881806782 -0.060675731607075858 0 0.38981888180827351 -0.066199230173579773 0 0.40956167881806782 -0.060675731607075858 0 0.40627928666208529 -0.069564959327900272 0 0.38981888180827351 -0.066199230173579773 0 0.40956167881806782 -0.060675731607075858 0 0.40627928666208529 -0.069564959327900272 0 0.38591855650343132 -0.073578004998397201 0 0.40087917353759323 -0.084189304317967936 0 0.40627928666208529 -0.069564959327900272 0 0.38591855650343132 -0.073578004998397201 0 0.40627928666208529 -0.069564959327900272 0 0.38981888180827351 -0.066199230173579773 0 0.38591855650343132 -0.073578004998397201 0 0.40627928666208529 -0.069564959327900272 0 0.40087917353759323 -0.084189304317967936 0 0.38981888180827351 -0.066199230173579773 0 0.37310051534114907 -0.055734045615530178 0 0.37007608479847948 -0.071722728740084618 0 0.38981888180827351 -0.066199230173579773 0 0.38591855650343132 -0.073578004998397201 0 0.37007608479847948 -0.071722728740084618 0 0.38591855650343132 -0.073578004998397201 0 0.36555782634477701 -0.077591050668893297 0 0.38981888180827351 -0.066199230173579773 0 0.37007608479847948 -0.071722728740084618 0 0.38591855650343132 -0.073578004998397201 0 0.38575808074153423 -0.086081539328354703 0 0.39130091725929361 -0.084104759351983333 0 0.38591855650343132 -0.073578004998397201 0 0.37649869724681961 -0.085232108528193046 0 0.36555782634477701 -0.077591050668893297 0 0.38591855650343132 -0.073578004998397201 0 0.37649869724681961 -0.085232108528193046 0 0.38575808074153423 -0.086081539328354703 0 0.37649869724681961 -0.085232108528193046 0 0.38575808074153423 -0.086081539328354703 0 0.38014435813092012 -0.09377343229102815 0 0.38575808074153423 -0.086081539328354703 0 0.39264785825461579 -0.092570188763213462 0 0.39130091725929361 -0.084104759351983333 0 0.38575808074153423 -0.086081539328354703 0 0.39264785825461579 -0.092570188763213462 0 0.38014435813092012 -0.09377343229102815 0 0.40087917353759323 -0.084189304317967936 0 0.39547906041310132 -0.098813649308035698 0 0.39264785825461579 -0.092570188763213462 0 0.39130091725929361 -0.084104759351983333 0 0.40087917353759323 -0.084189304317967936 0 0.39264785825461579 -0.092570188763213462 0 0.40087917353759323 -0.084189304317967936 0 0.39547906041310132 -0.098813649308035698 0 0.38591855650343132 -0.073578004998397201 0 0.39130091725929361 -0.084104759351983333 0 0.40087917353759323 -0.084189304317967936 0 0.40725278117716901 -0.093755043199544474 0 0.40087917353759323 -0.084189304317967936 0 0.39547906041310132 -0.098813649308035698 0 0.409032018443029 -0.1047217950489531 0 0.39547906041310132 -0.098813649308035698 0 0.4057647178407664 -0.1214959209129528 0 0.39547906041310132 -0.098813649308035698 0 0.38876033644643782 -0.1024339116592892 0 0.38943292014273212 -0.1151875361385183 0 0.39547906041310132 -0.098813649308035698 0 0.38943292014273212 -0.1151875361385183 0 0.409032018443029 -0.1047217950489531 0 0.40725278117716901 -0.093755043199544474 0 0.39547906041310132 -0.098813649308035698 0 0.39547906041310132 -0.098813649308035698 0 0.39036575923334071 -0.097368703317491298 0 0.38876033644643782 -0.1024339116592892 0 0.39264785825461579 -0.092570188763213462 0 0.39547906041310132 -0.098813649308035698 0 0.39264785825461579 -0.092570188763213462 0 0.39547906041310132 -0.098813649308035698 0 0.39036575923334071 -0.097368703317491298 0 0.38876033644643782 -0.1024339116592892 0 0.36182546680226851 -0.103037311628457 0 0.39264785825461579 -0.092570188763213462 0 0.39036575923334071 -0.097368703317491298 0 0.38014435813092012 -0.09377343229102815 0 0.39036575923334071 -0.097368703317491298 0 0.38014435813092012 -0.09377343229102815 0 0.38876033644643782 -0.1024339116592892 0 0.38014435813092012 -0.09377343229102815 0 0.38876033644643782 -0.1024339116592892 0 0.36182546680226851 -0.103037311628457 0 0.38876033644643782 -0.1024339116592892 0 0.37544512553492981 -0.10953065870653531 0 0.36182546680226851 -0.103037311628457 0 0.38876033644643782 -0.1024339116592892 0 0.38943292014273212 -0.1151875361385183 0 0.37544512553492981 -0.10953065870653531 0 0.38943292014273212 -0.1151875361385183 0 0.38011491546278892 -0.11810593161037081 0 0.38338677987236258 -0.1315614229690007 0 0.38943292014273212 -0.1151875361385183 0 0.39442452004675282 -0.12650098367137541 0 0.38338677987236258 -0.1315614229690007 0 0.37544512553492981 -0.10953065870653531 0 0.38011491546278892 -0.11810593161037081 0 0.37564269716861559 -0.12678588016291681 0 0.38943292014273212 -0.1151875361385183 0 0.38338677987236258 -0.1315614229690007 0 0.38943292014273212 -0.1151875361385183 0 0.37544512553492981 -0.10953065870653531 0 0.38011491546278892 -0.11810593161037081 0 0.38943292014273212 -0.1151875361385183 0 0.4057647178407664 -0.1214959209129528 0 0.39442452004675282 -0.12650098367137541 0 0.39547906041310132 -0.098813649308035698 0 0.38943292014273212 -0.1151875361385183 0 0.4057647178407664 -0.1214959209129528 0 0.39547906041310132 -0.098813649308035698 0 0.4057647178407664 -0.1214959209129528 0 0.41923279199003072 -0.0211445745498627 0 0.42379054701307728 -0.036886174709135508 0 0.40487370445654097 -0.028910732081437549 0 0.41923279199003072 -0.0211445745498627 0 0.40487370445654097 -0.028910732081437549 0 0.40520556401013169 -0.01131307415833357 0 0.41923279199003072 -0.0211445745498627 0 0.41937437112046932 -0.001225319212085151 0 0.40520556401013169 -0.01131307415833357 0 0.41261136222314942 0.0093762189671962488 0 0.41937437112046932 -0.001225319212085151 0 0.40520556401013169 -0.01131307415833357 0 0.41261136222314942 0.0093762189671962488 0 0.40520556401013169 -0.01131307415833357 0 0.40326955669734788 0.0013145221745210921 0 0.41261136222314942 0.0093762189671962488 0 0.40520556401013169 -0.01131307415833357 0 0.4442056936289327 -0.0069666154652798006 0 0.42981145469092052 -0.01103712245688562 0 0.43732994433505229 -0.027210203214966519 0 0.41923279199003072 -0.0211445745498627 0 0.41937437112046932 -0.001225319212085151 0 0.42981145469092052 -0.01103712245688562 0 0.41937437112046932 -0.001225319212085151 0 0.43280487266672218 -0.00097476378086885104 0 0.42981145469092052 -0.01103712245688562 0 0.4442056936289327 -0.0069666154652798006 0 0.43280487266672218 -0.00097476378086885104 0 0.42981145469092052 -0.01103712245688562 0 0.41923279199003072 -0.0211445745498627 0 0.42981145469092052 -0.01103712245688562 0 0.43732994433505229 -0.027210203214966519 0 0.41923279199003072 -0.0211445745498627 0 0.43732994433505229 -0.027210203214966519 0 0.42379054701307728 -0.036886174709135508 0 0.4424393762524183 -0.051477444527562283 0 0.43732994433505229 -0.027210203214966519 0 0.43051261141928121 -0.046209239152283747 0 0.43732994433505229 -0.027210203214966519 0 0.43051261141928121 -0.046209239152283747 0 0.42379054701307728 -0.036886174709135508 0 0.43051261141928121 -0.046209239152283747 0 0.42379054701307728 -0.036886174709135508 0 0.41818522407808401 -0.047170275624608453 0 0.4424393762524183 -0.051477444527562283 0 0.42404294153364058 -0.056624267480134161 0 0.4424393762524183 -0.051477444527562283 0 0.43534791473672191 -0.063835610177196495 0 0.42404294153364058 -0.056624267480134161 0 0.4424393762524183 -0.051477444527562283 0 0.43051261141928121 -0.046209239152283747 0 0.42404294153364058 -0.056624267480134161 0 0.43534791473672191 -0.063835610177196495 0 0.43063807767941342 -0.064763906513540165 0 0.42404294153364058 -0.056624267480134161 0 0.43051261141928121 -0.046209239152283747 0 0.42404294153364058 -0.056624267480134161 0 0.41818522407808401 -0.047170275624608453 0 0.43063807767941342 -0.064763906513540165 0 0.42404294153364058 -0.056624267480134161 0 0.43063807767941342 -0.064763906513540165 0 0.42404294153364058 -0.056624267480134161 0 0.40956167881806782 -0.060675731607075858 0 0.41818522407808401 -0.047170275624608453 0 0.41228230496013429 -0.053307853495392833 0 0.39844553117711312 -0.046310110162332871 0 0.42404294153364058 -0.056624267480134161 0 0.40956167881806782 -0.060675731607075858 0 0.42404294153364058 -0.056624267480134161 0 0.41228230496013429 -0.053307853495392833 0 0.40956167881806782 -0.060675731607075858 0 0.42404294153364058 -0.056624267480134161 0 0.41818522407808401 -0.047170275624608453 0 0.41228230496013429 -0.053307853495392833 0 0.41228230496013429 -0.053307853495392833 0 0.40956167881806782 -0.060675731607075858 0 0.41228230496013429 -0.053307853495392833 0 0.40956167881806782 -0.060675731607075858 0 0.40461507862433499 -0.054575013274296147 0 0.42379054701307728 -0.036886174709135508 0 0.41818522407808401 -0.047170275624608453 0 0.39844553117711312 -0.046310110162332871 0 0.42379054701307728 -0.036886174709135508 0 0.39844553117711312 -0.046310110162332871 0 0.42379054701307728 -0.036886174709135508 0 0.39844553117711312 -0.046310110162332871 0 0.40487370445654097 -0.028910732081437549 0 0.39844553117711312 -0.046310110162332871 0 0.39411356909138728 -0.031692649096834613 0 0.40487370445654097 -0.028910732081437549 0 0.39844553117711312 -0.046310110162332871 0 0.39411356909138728 -0.031692649096834613 0 0.38793669507699557 -0.040908067645224207 0 0.38981888180827351 -0.066199230173579773 0 0.40956167881806782 -0.060675731607075858 0 0.39817079954202322 -0.058006357832382463 0 0.40956167881806782 -0.060675731607075858 0 0.40461507862433499 -0.054575013274296147 0 0.39817079954202322 -0.058006357832382463 0 0.41228230496013429 -0.053307853495392833 0 0.39844553117711312 -0.046310110162332871 0 0.40461507862433499 -0.054575013274296147 0 0.39844553117711312 -0.046310110162332871 0 0.40461507862433499 -0.054575013274296147 0 0.39817079954202322 -0.058006357832382463 0 0.39844553117711312 -0.046310110162332871 0 0.38793669507699557 -0.040908067645224207 0 0.37310051534114907 -0.055734045615530178 0 0.39844553117711312 -0.046310110162332871 0 0.37310051534114907 -0.055734045615530178 0 0.38981888180827351 -0.066199230173579773 0 0.39817079954202322 -0.058006357832382463 0 0.37310051534114907 -0.055734045615530178 0 0.39844553117711312 -0.046310110162332871 0 0.39817079954202322 -0.058006357832382463 0 0.37310051534114907 -0.055734045615530178 0 0.38793669507699557 -0.040908067645224207 0 0.38836359961010042 -0.022204995932013871 0 0.39411356909138728 -0.031692649096834613 0 0.38793669507699557 -0.040908067645224207 0 0.38836359961010042 -0.022204995932013871 0 0.38793669507699557 -0.040908067645224207 0 0.37825229334556137 -0.031008719458640449 0 0.38836359961010042 -0.022204995932013871 0 0.38793669507699557 -0.040908067645224207 0 0.37308567983935059 -0.0411596275133332 0 0.37310051534114907 -0.055734045615530178 0 0.38793669507699557 -0.040908067645224207 0 0.37825229334556137 -0.031008719458640449 0 0.37308567983935059 -0.0411596275133332 0 0.37825229334556137 -0.031008719458640449 0 0.37597945058794707 -0.017273306600101131 0 0.38836359961010042 -0.022204995932013871 0 0.38836359961010042 -0.022204995932013871 0 0.40487370445654097 -0.028910732081437549 0 0.40520556401013169 -0.01131307415833357 0 0.39411356909138728 -0.031692649096834613 0 0.38836359961010042 -0.022204995932013871 0 0.40487370445654097 -0.028910732081437549 0 0.38836359961010042 -0.022204995932013871 0 0.40520556401013169 -0.01131307415833357 0 0.38879050414320548 -0.0035019242188035209 0 0.40326955669734788 0.0013145221745210921 0 0.40520556401013169 -0.01131307415833357 0 0.38879050414320548 -0.0035019242188035209 0 0.37597945058794707 -0.017273306600101131 0 0.38879050414320548 -0.0035019242188035209 0 0.37232238509817878 -0.001610374512647025 0 0.38836359961010042 -0.022204995932013871 0 0.38879050414320548 -0.0035019242188035209 0 0.37597945058794707 -0.017273306600101131 0 0.38836359961010042 -0.022204995932013871 0 0.38879050414320548 -0.0035019242188035209 0 0.37597945058794707 -0.017273306600101131 0 0.38879050414320548 -0.0035019242188035209 0 0.37597945058794707 -0.017273306600101131 0 0.37232238509817878 -0.001610374512647025 0 0.36234648880232662 -0.0095180516875354674 0 0.37597945058794707 -0.017273306600101131 0 0.36234648880232662 -0.0095180516875354674 0 0.36368729215874179 -0.019429095072036631 0 0.36234648880232662 -0.0095180516875354674 0 0.3634290091795348 -0.00084253970199437951 0 0.35649244884947728 -0.0003015438520561878 0 0.37232238509817878 -0.001610374512647025 0 0.36234648880232662 -0.0095180516875354674 0 0.3634290091795348 -0.00084253970199437951 0 0.37597945058794707 -0.017273306600101131 0 0.36316839703268838 -0.031044688981398519 0 0.37825229334556137 -0.031008719458640449 0 0.37597945058794707 -0.017273306600101131 0 0.36316839703268838 -0.031044688981398519 0 0.37597945058794707 -0.017273306600101131 0 0.36368729215874179 -0.019429095072036631 0 0.36316839703268838 -0.031044688981398519 0 0.36234648880232662 -0.0095180516875354674 0 0.36368729215874179 -0.019429095072036631 0 0.35325483221200532 -0.01988033301911139 0 0.36368729215874179 -0.019429095072036631 0 0.36316839703268838 -0.031044688981398519 0 0.35325483221200532 -0.01988033301911139 0 0.35325483221200532 -0.01988033301911139 0 0.34087164677167292 -0.01020602834187557 0 0.3380117298813986 -0.028025180019855329 0 0.36316839703268838 -0.031044688981398519 0 0.35325483221200532 -0.01988033301911139 0 0.3511398709761363 -0.034580784172498422 0 0.35325483221200532 -0.01988033301911139 0 0.3380117298813986 -0.028025180019855329 0 0.3511398709761363 -0.034580784172498422 0 0.34729495446360309 0.00099039251516278774 0 0.35649244884947728 -0.0003015438520561878 0 0.35217988954463281 -0.0078587666981914175 0 0.36234648880232662 -0.0095180516875354674 0 0.35649244884947728 -0.0003015438520561878 0 0.35217988954463281 -0.0078587666981914175 0 0.36234648880232662 -0.0095180516875354674 0 0.35325483221200532 -0.01988033301911139 0 0.35217988954463281 -0.0078587666981914175 0 0.35325483221200532 -0.01988033301911139 0 0.35217988954463281 -0.0078587666981914175 0 0.34087164677167292 -0.01020602834187557 0 0.34729495446360309 0.00099039251516278774 0 0.35217988954463281 -0.0078587666981914175 0 0.34087164677167292 -0.01020602834187557 0 0.33729290086539399 0.0042651539282855082 0 0.34087164677167292 -0.01020602834187557 0 0.31974752342260487 -0.010090103006627301 0 0.34729495446360309 0.00099039251516278774 0 0.33729290086539399 0.0042651539282855082 0 0.34087164677167292 -0.01020602834187557 0 0.34087164677167292 -0.01020602834187557 0 0.3380117298813986 -0.028025180019855329 0 0.31974752342260487 -0.010090103006627301 0 0.31974752342260487 -0.010090103006627301 0 0.32278478621535839 -0.031437608912432767 0 0.30522723780406941 -0.035456423375285137 0 0.3380117298813986 -0.028025180019855329 0 0.31974752342260487 -0.010090103006627301 0 0.32278478621535839 -0.031437608912432767 0 0.31486552590033517 0.0051080489061896828 0 0.31974752342260487 -0.010090103006627301 0 0.30557571239931841 -0.0076904691414317571 0 0.31977989133260432 -0.045619934910456073 0 0.33433254486113267 -0.055783446445636382 0 0.32279172766134151 -0.0648670065722739 0 0.31977989133260432 -0.045619934910456073 0 0.32279172766134151 -0.0648670065722739 0 0.30683512358493858 -0.06301060556910619 0 0.31977989133260432 -0.045619934910456073 0 0.33433254486113267 -0.055783446445636382 0 0.31977989133260432 -0.045619934910456073 0 0.32278478621535839 -0.031437608912432767 0 0.30522723780406941 -0.035456423375285137 0 0.31977989133260432 -0.045619934910456073 0 0.30522723780406941 -0.035456423375285137 0 0.31977989133260432 -0.045619934910456073 0 0.32278478621535839 -0.031437608912432767 0 0.33115754863611552 -0.037996403249940559 0 0.31977989133260432 -0.045619934910456073 0 0.33348408359171039 -0.045465823894714673 0 0.33115754863611552 -0.037996403249940559 0 0.33348408359171039 -0.045465823894714673 0 0.33115754863611552 -0.037996403249940559 0 0.34100188069252602 -0.039880316847690472 0 0.3380117298813986 -0.028025180019855329 0 0.32278478621535839 -0.031437608912432767 0 0.33115754863611552 -0.037996403249940559 0 0.3380117298813986 -0.028025180019855329 0 0.33115754863611552 -0.037996403249940559 0 0.34100188069252602 -0.039880316847690472 0 0.3380117298813986 -0.028025180019855329 0 0.34100188069252602 -0.039880316847690472 0 0.3511398709761363 -0.034580784172498422 0 0.33348408359171039 -0.045465823894714673 0 0.34100188069252602 -0.039880316847690472 0 0.34182469607443589 -0.050095350140872533 0 0.34182469607443589 -0.050095350140872533 0 0.33258140759496679 -0.052773653435302589 0 0.33433254486113267 -0.055783446445636382 0 0.33348408359171039 -0.045465823894714673 0 0.34182469607443589 -0.050095350140872533 0 0.33258140759496679 -0.052773653435302589 0 0.31977989133260432 -0.045619934910456073 0 0.33258140759496679 -0.052773653435302589 0 0.33433254486113267 -0.055783446445636382 0 0.31977989133260432 -0.045619934910456073 0 0.33348408359171039 -0.045465823894714673 0 0.33258140759496679 -0.052773653435302589 0 0.33258140759496679 -0.052773653435302589 0 0.33433254486113267 -0.055783446445636382 0 0.34182469607443589 -0.050095350140872533 0 0.33433254486113267 -0.055783446445636382 0 0.34775549950518508 -0.065157981068727888 0 0.33433254486113267 -0.055783446445636382 0 0.34775549950518508 -0.065157981068727888 0 0.33433254486113267 -0.055783446445636382 0 0.34120406576157941 -0.067593974367182161 0 0.35481661939179387 -0.051928312598413233 0 0.37310051534114907 -0.055734045615530178 0 0.34775549950518508 -0.065157981068727888 0 0.34182469607443589 -0.050095350140872533 0 0.35481661939179387 -0.051928312598413233 0 0.34775549950518508 -0.065157981068727888 0 0.34182469607443589 -0.050095350140872533 0 0.35481661939179387 -0.051928312598413233 0 0.35047537875560891 -0.045122955367500842 0 0.34100188069252602 -0.039880316847690472 0 0.34182469607443589 -0.050095350140872533 0 0.35047537875560891 -0.045122955367500842 0 0.34100188069252602 -0.039880316847690472 0 0.3511398709761363 -0.034580784172498422 0 0.35047537875560891 -0.045122955367500842 0 0.3511398709761363 -0.034580784172498422 0 0.35047537875560891 -0.045122955367500842 0 0.36092700728259092 -0.04353123079943403 0 0.35481661939179387 -0.051928312598413233 0 0.35047537875560891 -0.045122955367500842 0 0.36092700728259092 -0.04353123079943403 0 0.36316839703268838 -0.031044688981398519 0 0.3511398709761363 -0.034580784172498422 0 0.36092700728259092 -0.04353123079943403 0 0.36316839703268838 -0.031044688981398519 0 0.36092700728259092 -0.04353123079943403 0 0.37308567983935059 -0.0411596275133332 0 0.36092700728259092 -0.04353123079943403 0 0.37308567983935059 -0.0411596275133332 0 0.37310051534114907 -0.055734045615530178 0 0.37825229334556137 -0.031008719458640449 0 0.36316839703268838 -0.031044688981398519 0 0.37308567983935059 -0.0411596275133332 0 0.37310051534114907 -0.055734045615530178 0 0.34775549950518508 -0.065157981068727888 0 0.35481661939179387 -0.051928312598413233 0 0.36092700728259092 -0.04353123079943403 0 0.37310051534114907 -0.055734045615530178 0 0.38591855650343132 -0.073578004998397201 0 0.37007608479847948 -0.071722728740084618 0 0.36555782634477701 -0.077591050668893297 0 0.37310051534114907 -0.055734045615530178 0 0.37007608479847948 -0.071722728740084618 0 0.34775549950518508 -0.065157981068727888 0 0.37007608479847948 -0.071722728740084618 0 0.36555782634477701 -0.077591050668893297 0 0.34775549950518508 -0.065157981068727888 0 0.37649869724681961 -0.085232108528193046 0 0.36555782634477701 -0.077591050668893297 0 0.36605248277109442 -0.08877555401529727 0 0.36555782634477701 -0.077591050668893297 0 0.36605248277109442 -0.08877555401529727 0 0.34892755364662481 -0.080868833112374708 0 0.37649869724681961 -0.085232108528193046 0 0.36555782634477701 -0.077591050668893297 0 0.37649869724681961 -0.085232108528193046 0 0.38014435813092012 -0.09377343229102815 0 0.36605248277109442 -0.08877555401529727 0 0.34892755364662481 -0.080868833112374708 0 0.36182546680226851 -0.103037311628457 0 0.34804773967414449 -0.092935847380303888 0 0.34892755364662481 -0.080868833112374708 0 0.36182546680226851 -0.103037311628457 0 0.36555782634477701 -0.077591050668893297 0 0.34892755364662481 -0.080868833112374708 0 0.36605248277109442 -0.08877555401529727 0 0.34892755364662481 -0.080868833112374708 0 0.36182546680226851 -0.103037311628457 0 0.34804773967414449 -0.092935847380303888 0 0.34892755364662481 -0.080868833112374708 0 0.34408873349000091 -0.081822551673965918 0 0.34892755364662481 -0.080868833112374708 0 0.34408873349000091 -0.081822551673965918 0 0.33950349330838958 -0.075848035758874929 0 0.34892755364662481 -0.080868833112374708 0 0.34408873349000091 -0.081822551673965918 0 0.34892755364662481 -0.080868833112374708 0 0.34120406576157941 -0.067593974367182161 0 0.34892755364662481 -0.080868833112374708 0 0.34775549950518508 -0.065157981068727888 0 0.34120406576157941 -0.067593974367182161 0 0.36555782634477701 -0.077591050668893297 0 0.34775549950518508 -0.065157981068727888 0 0.36555782634477701 -0.077591050668893297 0 0.34892755364662481 -0.080868833112374708 0 0.34775549950518508 -0.065157981068727888 0 0.34775549950518508 -0.065157981068727888 0 0.34120406576157941 -0.067593974367182161 0 0.37544512553492981 -0.10953065870653531 0 0.36182546680226851 -0.103037311628457 0 0.37564269716861559 -0.12678588016291681 0 0.36182546680226851 -0.103037311628457 0 0.35603244527432393 -0.11855655260172521 0 0.37564269716861559 -0.12678588016291681 0 0.36182546680226851 -0.103037311628457 0 0.37564269716861559 -0.12678588016291681 0 0.38014435813092012 -0.09377343229102815 0 0.36605248277109442 -0.08877555401529727 0 0.36182546680226851 -0.103037311628457 0 0.34804773967414449 -0.092935847380303888 0 0.36182546680226851 -0.103037311628457 0 0.33991504715273507 -0.1035281529325201 0 0.36182546680226851 -0.103037311628457 0 0.35603244527432393 -0.11855655260172521 0 0.33991504715273507 -0.1035281529325201 0 0.36182546680226851 -0.103037311628457 0 0.33991504715273507 -0.1035281529325201 0 0.35603244527432393 -0.11855655260172521 0 0.34343843782823752 -0.12408400361420779 0 0.33991504715273507 -0.1035281529325201 0 0.33111612508452509 -0.1152082110251053 0 0.34343843782823752 -0.12408400361420779 0 0.33991504715273507 -0.1035281529325201 0 0.33111612508452509 -0.1152082110251053 0 0.34343843782823752 -0.12408400361420779 0 0.32310638785392598 -0.12920169331710929 0 0.33991504715273507 -0.1035281529325201 0 0.3288945989181209 -0.09621093478141185 0 0.31800462750320191 -0.10401899423658401 0 0.33991504715273507 -0.1035281529325201 0 0.31800462750320191 -0.10401899423658401 0 0.33111612508452509 -0.1152082110251053 0 0.33991504715273507 -0.1035281529325201 0 0.31800462750320191 -0.10401899423658401 0 0.34804773967414449 -0.092935847380303888 0 0.33991504715273507 -0.1035281529325201 0 0.33876747377514072 -0.09048193006016797 0 0.33991504715273507 -0.1035281529325201 0 0.3288945989181209 -0.09621093478141185 0 0.33876747377514072 -0.09048193006016797 0 0.3288945989181209 -0.09621093478141185 0 0.31649189585808879 -0.096552029269665163 0 0.31800462750320191 -0.10401899423658401 0 0.31649189585808879 -0.096552029269665163 0 0.31800462750320191 -0.10401899423658401 0 0.31800462750320191 -0.10401899423658401 0 0.32310638785392598 -0.12920169331710929 0 0.31800462750320191 -0.10401899423658401 0 0.31079556689248972 -0.1149447087572311 0 0.32310638785392598 -0.12920169331710929 0 0.33111612508452509 -0.1152082110251053 0 0.31800462750320191 -0.10401899423658401 0 0.32310638785392598 -0.12920169331710929 0 0.33317862578170909 -0.070578041484886958 0 0.33332645204008587 -0.077274112069145889 0 0.33950349330838958 -0.075848035758874929 0 0.33317862578170909 -0.070578041484886958 0 0.33332645204008587 -0.077274112069145889 0 0.326469079955928 -0.07624630830612239 0 0.33433254486113267 -0.055783446445636382 0 0.33317862578170909 -0.070578041484886958 0 0.32279172766134151 -0.0648670065722739 0 0.33317862578170909 -0.070578041484886958 0 0.34120406576157941 -0.067593974367182161 0 0.33433254486113267 -0.055783446445636382 0 0.34775549950518508 -0.065157981068727888 0 0.34120406576157941 -0.067593974367182161 0 0.33433254486113267 -0.055783446445636382 0 0.33317862578170909 -0.070578041484886958 0 0.34120406576157941 -0.067593974367182161 0 0.33317862578170909 -0.070578041484886958 0 0.34120406576157941 -0.067593974367182161 0 0.33950349330838958 -0.075848035758874929 0 0.34892755364662481 -0.080868833112374708 0 0.34120406576157941 -0.067593974367182161 0 0.33950349330838958 -0.075848035758874929 0 0.34408873349000091 -0.081822551673965918 0 0.33950349330838958 -0.075848035758874929 0 0.33740855081107152 -0.082304667123219682 0 0.34408873349000091 -0.081822551673965918 0 0.33740855081107152 -0.082304667123219682 0 0.33876747377514072 -0.09048193006016797 0 0.33332645204008587 -0.077274112069145889 0 0.33950349330838958 -0.075848035758874929 0 0.33740855081107152 -0.082304667123219682 0 0.34804773967414449 -0.092935847380303888 0 0.34408873349000091 -0.081822551673965918 0 0.33876747377514072 -0.09048193006016797 0 0.3288945989181209 -0.09621093478141185 0 0.33876747377514072 -0.09048193006016797 0 0.32918236294191378 -0.086747953792790253 0 0.33740855081107152 -0.082304667123219682 0 0.33876747377514072 -0.09048193006016797 0 0.32918236294191378 -0.086747953792790253 0 0.33332645204008587 -0.077274112069145889 0 0.32918236294191378 -0.086747953792790253 0 0.326469079955928 -0.07624630830612239 0 0.33332645204008587 -0.077274112069145889 0 0.33740855081107152 -0.082304667123219682 0 0.32918236294191378 -0.086747953792790253 0 0.32918236294191378 -0.086747953792790253 0 0.30898600530645481 -0.090983425666153264 0 0.32918236294191378 -0.086747953792790253 0 0.31677392156685358 -0.076864337915263037 0 0.30898600530645481 -0.090983425666153264 0 0.31649189585808879 -0.096552029269665163 0 0.32918236294191378 -0.086747953792790253 0 0.30898600530645481 -0.090983425666153264 0 0.32918236294191378 -0.086747953792790253 0 0.31677392156685358 -0.076864337915263037 0 0.326469079955928 -0.07624630830612239 0 0.3288945989181209 -0.09621093478141185 0 0.31649189585808879 -0.096552029269665163 0 0.32918236294191378 -0.086747953792790253 0 0.31677392156685358 -0.076864337915263037 0 0.32279172766134151 -0.0648670065722739 0 0.30683512358493858 -0.06301060556910619 0 0.33317862578170909 -0.070578041484886958 0 0.326469079955928 -0.07624630830612239 0 0.32279172766134151 -0.0648670065722739 0 0.31677392156685358 -0.076864337915263037 0 0.326469079955928 -0.07624630830612239 0 0.32279172766134151 -0.0648670065722739 0 0.30683512358493858 -0.06301060556910619 0 0.29726419323080711 -0.073379498158705633 0 0.29301592188122227 -0.056789072054479223 0 0.30683512358493858 -0.06301060556910619 0 0.29726419323080711 -0.073379498158705633 0 0.30607804916369952 -0.078697921269513513 0 0.31677392156685358 -0.076864337915263037 0 0.30683512358493858 -0.06301060556910619 0 0.30607804916369952 -0.078697921269513513 0 0.31677392156685358 -0.076864337915263037 0 0.30607804916369952 -0.078697921269513513 0 0.30898600530645481 -0.090983425666153264 0 0.30898600530645481 -0.090983425666153264 0 0.28878964767099569 -0.09521889753951629 0 0.30898600530645481 -0.090983425666153264 0 0.29705100483033969 -0.084974144027985171 0 0.28878964767099569 -0.09521889753951629 0 0.29726419323080711 -0.073379498158705633 0 0.30607804916369952 -0.078697921269513513 0 0.29705100483033969 -0.084974144027985171 0 0.30607804916369952 -0.078697921269513513 0 0.30898600530645481 -0.090983425666153264 0 0.29705100483033969 -0.084974144027985171 0 0.29705100483033969 -0.084974144027985171 0 0.28878964767099569 -0.09521889753951629 0 0.2808046059583762 -0.07812172073367385 0 0.29726419323080711 -0.073379498158705633 0 0.29705100483033969 -0.084974144027985171 0 0.2808046059583762 -0.07812172073367385 0 0.2808046059583762 -0.07812172073367385 0 0.29301592188122227 -0.056789072054479223 0 0.29726419323080711 -0.073379498158705633 0 0.2808046059583762 -0.07812172073367385 0 0.29301592188122227 -0.056789072054479223 0 0.30261828185502793 -0.12212355555811551 0 0.29945297035780333 -0.1044345919171154 0 0.29034728781846192 -0.11708715199789579 0 0.31079556689248972 -0.1149447087572311 0 0.30261828185502793 -0.12212355555811551 0 0.29945297035780333 -0.1044345919171154 0 0.31079556689248972 -0.1149447087572311 0 0.30261828185502793 -0.12212355555811551 0 0.32310638785392598 -0.12920169331710929 0 0.30898600530645481 -0.090983425666153264 0 0.29945297035780333 -0.1044345919171154 0 0.28878964767099569 -0.09521889753951629 0 0.31800462750320191 -0.10401899423658401 0 0.29945297035780333 -0.1044345919171154 0 0.31649189585808879 -0.096552029269665163 0 0.31800462750320191 -0.10401899423658401 0 0.29945297035780333 -0.1044345919171154 0 0.31649189585808879 -0.096552029269665163 0 0.30898600530645481 -0.090983425666153264 0 0.29945297035780333 -0.1044345919171154 0 0.31800462750320191 -0.10401899423658401 0 0.31079556689248972 -0.1149447087572311 0 0.29945297035780333 -0.1044345919171154 0 0.29945297035780333 -0.1044345919171154 0 0.29034728781846192 -0.11708715199789579 0 0.28090131321240469 -0.1048501895976464 0 0.29945297035780333 -0.1044345919171154 0 0.28878964767099569 -0.09521889753951629 0 0.28090131321240469 -0.1048501895976464 0 0.29945297035780333 -0.1044345919171154 0 0.28090131321240469 -0.1048501895976464 0 0.29034728781846192 -0.11708715199789579 0 0.28090131321240469 -0.1048501895976464 0 0.27798501411956061 -0.12654918030113391 0 0.30261828185502793 -0.12212355555811551 0 0.29034728781846192 -0.11708715199789579 0 0.29041098202153109 -0.13433528958156299 0 0.265931748490424 -0.1041039691026721 0 0.27798501411956061 -0.12654918030113391 0 0.265931748490424 -0.1041039691026721 0 0.28090131321240469 -0.1048501895976464 0 0.27798501411956061 -0.12654918030113391 0 0.26578143989208891 -0.12208723098105401 0 0.265931748490424 -0.1041039691026721 0 0.27798501411956061 -0.12654918030113391 0 0.28878964767099569 -0.09521889753951629 0 0.28090131321240469 -0.1048501895976464 0 0.26859329003553489 -0.099454369412871196 0 0.28878964767099569 -0.09521889753951629 0 0.26859329003553489 -0.099454369412871196 0 0.265931748490424 -0.1041039691026721 0 0.28090131321240469 -0.1048501895976464 0 0.26859329003553489 -0.099454369412871196 0 0.265931748490424 -0.1041039691026721 0 0.26859329003553489 -0.099454369412871196 0 0.265931748490424 -0.1041039691026721 0 0.26859329003553489 -0.099454369412871196 0 0.26395700607122669 -0.1004266660359741 0 0.26859329003553489 -0.099454369412871196 0 0.26395700607122669 -0.1004266660359741 0 0.26859329003553489 -0.099454369412871196 0 0.26395700607122669 -0.1004266660359741 0 0.26402206743103601 -0.089196963430846266 0 0.26395700607122669 -0.1004266660359741 0 0.2528876129834236 -0.094220099255164988 0 0.24867124287050699 -0.1036323143646536 0 0.26395700607122669 -0.1004266660359741 0 0.25723212346383367 -0.1064068621969374 0 0.24867124287050699 -0.1036323143646536 0 0.26395700607122669 -0.1004266660359741 0 0.24867124287050699 -0.1036323143646536 0 0.25723212346383367 -0.1064068621969374 0 0.25101743794683912 -0.1146121967995704 0 0.24867124287050699 -0.1036323143646536 0 0.265931748490424 -0.1041039691026721 0 0.26395700607122669 -0.1004266660359741 0 0.25723212346383367 -0.1064068621969374 0 0.265931748490424 -0.1041039691026721 0 0.26395700607122669 -0.1004266660359741 0 0.265931748490424 -0.1041039691026721 0 0.25433990433771841 -0.1243544269907422 0 0.25723212346383367 -0.1064068621969374 0 0.25101743794683912 -0.1146121967995704 0 0.25433990433771841 -0.1243544269907422 0 0.26578143989208891 -0.12208723098105401 0 0.265931748490424 -0.1041039691026721 0 0.25433990433771841 -0.1243544269907422 0 0.265931748490424 -0.1041039691026721 0 0.25723212346383367 -0.1064068621969374 0 0.25433990433771841 -0.1243544269907422 0 0.2687335489299521 -0.063935175532180893 0 0.2808046059583762 -0.07812172073367385 0 0.29301592188122227 -0.056789072054479223 0 0.26825877094290551 -0.07736384484572896 0 0.2687335489299521 -0.063935175532180893 0 0.2808046059583762 -0.07812172073367385 0 0.26825877094290551 -0.07736384484572896 0 0.2808046059583762 -0.07812172073367385 0 0.26402206743103601 -0.089196963430846266 0 0.26859329003553489 -0.099454369412871196 0 0.2808046059583762 -0.07812172073367385 0 0.26859329003553489 -0.099454369412871196 0 0.2808046059583762 -0.07812172073367385 0 0.26402206743103601 -0.089196963430846266 0 0.28878964767099569 -0.09521889753951629 0 0.26859329003553489 -0.099454369412871196 0 0.2808046059583762 -0.07812172073367385 0 0.26395700607122669 -0.1004266660359741 0 0.2528876129834236 -0.094220099255164988 0 0.25462483508046457 -0.083048591473203981 0 0.26395700607122669 -0.1004266660359741 0 0.26402206743103601 -0.089196963430846266 0 0.25462483508046457 -0.083048591473203981 0 0.26395700607122669 -0.1004266660359741 0 0.25462483508046457 -0.083048591473203981 0 0.26825877094290551 -0.07736384484572896 0 0.26402206743103601 -0.089196963430846266 0 0.25462483508046457 -0.083048591473203981 0 0.2528876129834236 -0.094220099255164988 0 0.25462483508046457 -0.083048591473203981 0 0.24429744486126961 -0.092415030224378816 0 0.25462483508046457 -0.083048591473203981 0 0.25855474571736492 -0.07119050109918576 0 0.24529266408970271 -0.065670516910433796 0 0.26825877094290551 -0.07736384484572896 0 0.25462483508046457 -0.083048591473203981 0 0.25855474571736492 -0.07119050109918576 0 0.26825877094290551 -0.07736384484572896 0 0.2687335489299521 -0.063935175532180893 0 0.25855474571736492 -0.07119050109918576 0 0.2687335489299521 -0.063935175532180893 0 0.25855474571736492 -0.07119050109918576 0 0.25571340908958867 -0.062031832045884867 0 0.25855474571736492 -0.07119050109918576 0 0.25571340908958867 -0.062031832045884867 0 0.24529266408970271 -0.065670516910433796 0 0.25571340908958867 -0.062031832045884867 0 0.25929484143176063 -0.048349716497673542 0 0.24861083198888209 -0.053598656101898408 0 0.2687335489299521 -0.063935175532180893 0 0.25571340908958867 -0.062031832045884867 0 0.25929484143176063 -0.048349716497673542 0 0.2687335489299521 -0.063935175532180893 0 0.27509708814106187 -0.047295978758774247 0 0.29301592188122227 -0.056789072054479223 0 0.2687335489299521 -0.063935175532180893 0 0.25929484143176063 -0.048349716497673542 0 0.27509708814106187 -0.047295978758774247 0 0.25929484143176063 -0.048349716497673542 0 0.27509708814106187 -0.047295978758774247 0 0.26740259793584858 -0.027938274662607902 0 0.27509708814106187 -0.047295978758774247 0 0.26740259793584858 -0.027938274662607902 0 0.29026437622241491 -0.041052673518925852 0 0.25929484143176063 -0.048349716497673542 0 0.24861083198888209 -0.053598656101898408 0 0.24443853931414289 -0.030798692898044659 0 0.25929484143176063 -0.048349716497673542 0 0.26740259793584858 -0.027938274662607902 0 0.24443853931414289 -0.030798692898044659 0 0.26047250981415798 -0.024130101093525019 0 0.26740259793584858 -0.027938274662607902 0 0.24443853931414289 -0.030798692898044659 0 0.26740259793584858 -0.027938274662607902 0 0.24443853931414289 -0.030798692898044659 0 0.26047250981415798 -0.024130101093525019 0 0.24443853931414289 -0.030798692898044659 0 0.24837822010643121 -0.01064171941143479 0 0.26047250981415798 -0.024130101093525019 0 0.25850292072972619 -0.01384443679003153 0 0.24837822010643121 -0.01064171941143479 0 0.26047250981415798 -0.024130101093525019 0 0.24837822010643121 -0.01064171941143479 0 0.26047250981415798 -0.024130101093525019 0 0.26740259793584858 -0.027938274662607902 0 0.26581248458308138 -0.017375345545485709 0 0.26047250981415798 -0.024130101093525019 0 0.25850292072972619 -0.01384443679003153 0 0.26581248458308138 -0.017375345545485709 0 0.25850292072972619 -0.01384443679003153 0 0.25868130099832759 -0.002948938419788077 0 0.24837822010643121 -0.01064171941143479 0 0.25850292072972619 -0.01384443679003153 0 0.25868130099832759 -0.002948938419788077 0 0.26581248458308138 -0.017375345545485709 0 0.25868130099832759 -0.002948938419788077 0 0.27452397877794099 -0.014013397423475019 0 0.26581248458308138 -0.017375345545485709 0 0.25868130099832759 -0.002948938419788077 0 0.27452397877794099 -0.014013397423475019 0 0.25868130099832759 -0.002948938419788077 0 0.2718345607453051 -0.0026332906206296752 0 0.27452397877794099 -0.014013397423475019 0 0.2718345607453051 -0.0026332906206296752 0 0.27452397877794099 -0.014013397423475019 0 0.28418256802486591 -0.0074972637063911319 0 0.2761515963063163 0.0051915330766209898 0 0.2718345607453051 -0.0026332906206296752 0 0.28418256802486591 -0.0074972637063911319 0 0.27452397877794099 -0.014013397423475019 0 0.26740259793584858 -0.027938274662607902 0 0.29036665655755328 -0.025077856427163508 0 0.26740259793584858 -0.027938274662607902 0 0.29036665655755328 -0.025077856427163508 0 0.27452397877794099 -0.014013397423475019 0 0.26740259793584858 -0.027938274662607902 0 0.26581248458308138 -0.017375345545485709 0 0.27452397877794099 -0.014013397423475019 0 0.29036665655755328 -0.025077856427163508 0 0.29036665655755328 -0.025077856427163508 0 0.29576882877798982 -0.01339442015289218 0 0.30401897309668852 -0.023377314905831649 0 0.27452397877794099 -0.014013397423475019 0 0.29036665655755328 -0.025077856427163508 0 0.28418256802486591 -0.0074972637063911319 0 0.29036665655755328 -0.025077856427163508 0 0.28418256802486591 -0.0074972637063911319 0 0.29576882877798982 -0.01339442015289218 0 0.28768181064917658 0.0036370595610417918 0 0.28418256802486591 -0.0074972637063911319 0 0.29470023381152188 -0.0033291965836443949 0 0.28418256802486591 -0.0074972637063911319 0 0.29576882877798982 -0.01339442015289218 0 0.29470023381152188 -0.0033291965836443949 0 0.31974752342260487 -0.010090103006627301 0 0.30557571239931841 -0.0076904691414317571 0 0.30401897309668852 -0.023377314905831649 0 0.29576882877798982 -0.01339442015289218 0 0.30557571239931841 -0.0076904691414317571 0 0.30401897309668852 -0.023377314905831649 0 0.30002338408281909 0.007883867274738967 0 0.29470023381152188 -0.0033291965836443949 0 0.30557571239931841 -0.0076904691414317571 0 0.29576882877798982 -0.01339442015289218 0 0.29470023381152188 -0.0033291965836443949 0 0.30557571239931841 -0.0076904691414317571 0 0.31974752342260487 -0.010090103006627301 0 0.30401897309668852 -0.023377314905831649 0 0.30522723780406941 -0.035456423375285137 0 0.31974752342260487 -0.010090103006627301 0 0.30522723780406941 -0.035456423375285137 0 0.29036665655755328 -0.025077856427163508 0 0.30401897309668852 -0.023377314905831649 0 0.29036665655755328 -0.025077856427163508 0 0.30522723780406941 -0.035456423375285137 0 0.29036665655755328 -0.025077856427163508 0 0.30401897309668852 -0.023377314905831649 0 0.30522723780406941 -0.035456423375285137 0 0.30522723780406941 -0.035456423375285137 0 0.29301592188122227 -0.056789072054479223 0 0.30683512358493858 -0.06301060556910619 0 0.30522723780406941 -0.035456423375285137 0 0.29301592188122227 -0.056789072054479223 0 0.31977989133260432 -0.045619934910456073 0 0.30683512358493858 -0.06301060556910619 0 0.30522723780406941 -0.035456423375285137 0 0.27509708814106187 -0.047295978758774247 0 0.29301592188122227 -0.056789072054479223 0 0.29026437622241491 -0.041052673518925852 0 0.26740259793584858 -0.027938274662607902 0 0.29036665655755328 -0.025077856427163508 0 0.29026437622241491 -0.041052673518925852 0 0.29036665655755328 -0.025077856427163508 0 0.30522723780406941 -0.035456423375285137 0 0.29026437622241491 -0.041052673518925852 0 0.30522723780406941 -0.035456423375285137 0 0.29301592188122227 -0.056789072054479223 0 0.29026437622241491 -0.041052673518925852 0 0.2900827356730854 -0.21330573301426209 0 0.28503515628741222 -0.1940397373007702 0 0.26970194708378481 -0.19890215936390249 0 0.2900827356730854 -0.21330573301426209 0 0.28503515628741222 -0.1940397373007702 0 0.29869382922117033 -0.19435588497721271 0 0.28503515628741222 -0.1940397373007702 0 0.29869382922117033 -0.19435588497721271 0 0.29326082556219257 -0.18242746645397809 0 0.29869382922117033 -0.19435588497721271 0 0.30899586046225469 -0.1817335086200155 0 0.31530851422462269 -0.2038666989828922 0 0.2900827356730854 -0.21330573301426209 0 0.31046352426238571 -0.22770930666462211 0 0.31530851422462269 -0.2038666989828922 0 0.2900827356730854 -0.21330573301426209 0 0.29869382922117033 -0.19435588497721271 0 0.31530851422462269 -0.2038666989828922 0 0.2900827356730854 -0.21330573301426209 0 0.31046352426238571 -0.22770930666462211 0 0.29527416221691433 -0.2343861111108784 0 0.2900827356730854 -0.21330573301426209 0 0.31046352426238571 -0.22770930666462211 0 0.31046352426238571 -0.22770930666462211 0 0.30849651450414628 -0.24795182056728149 0 0.29527416221691433 -0.2343861111108784 0 0.30849651450414628 -0.24795182056728149 0 0.29527416221691433 -0.2343861111108784 0 0.28793584206126588 -0.25107015271538341 0 0.29527416221691433 -0.2343861111108784 0 0.27939219458368852 -0.23189354259284281 0 0.28793584206126588 -0.25107015271538341 0 0.2900827356730854 -0.21330573301426209 0 0.29527416221691433 -0.2343861111108784 0 0.27939219458368852 -0.23189354259284281 0 0.2900827356730854 -0.21330573301426209 0 0.27939219458368852 -0.23189354259284281 0 0.27468620093453028 -0.21707440470637709 0 0.27939219458368852 -0.23189354259284281 0 0.25956792639756249 -0.22419618385450099 0 0.27468620093453028 -0.21707440470637709 0 0.27939219458368852 -0.23189354259284281 0 0.26755443156144948 -0.24793522987819169 0 0.28793584206126588 -0.25107015271538341 0 0.27939219458368852 -0.23189354259284281 0 0.26755443156144948 -0.24793522987819169 0 0.25956792639756249 -0.22419618385450099 0 0.26755443156144948 -0.24793522987819169 0 0.25956792639756249 -0.22419618385450099 0 0.2458949266121517 -0.24119477616399751 0 0.25956792639756249 -0.22419618385450099 0 0.25147688088271641 -0.21194752874198031 0 0.23934177232259221 -0.22380736018715999 0 0.25147688088271641 -0.21194752874198031 0 0.26970194708378481 -0.19890215936390249 0 0.25542854451629388 -0.1998498607268 0 0.25956792639756249 -0.22419618385450099 0 0.25147688088271641 -0.21194752874198031 0 0.26970194708378481 -0.19890215936390249 0 0.25956792639756249 -0.22419618385450099 0 0.26970194708378481 -0.19890215936390249 0 0.2900827356730854 -0.21330573301426209 0 0.26970194708378481 -0.19890215936390249 0 0.25956792639756249 -0.22419618385450099 0 0.27468620093453028 -0.21707440470637709 0 0.26970194708378481 -0.19890215936390249 0 0.2900827356730854 -0.21330573301426209 0 0.27468620093453028 -0.21707440470637709 0 0.26970194708378481 -0.19890215936390249 0 0.28503515628741222 -0.1940397373007702 0 0.26970194708378481 -0.19890215936390249 0 0.27640342984327232 -0.1821755831815243 0 0.26970194708378481 -0.19890215936390249 0 0.27640342984327232 -0.1821755831815243 0 0.26970194708378481 -0.19890215936390249 0 0.2675018019886598 -0.18870552556106029 0 0.27640342984327232 -0.1821755831815243 0 0.26970194708378481 -0.19890215936390249 0 0.26466827735564702 -0.19534474879840091 0 0.26970194708378481 -0.19890215936390249 0 0.2675018019886598 -0.18870552556106029 0 0.26466827735564702 -0.19534474879840091 0 0.2675018019886598 -0.18870552556106029 0 0.26466827735564702 -0.19534474879840091 0 0.25780914425533902 -0.1915101908503839 0 0.26466827735564702 -0.19534474879840091 0 0.25542854451629388 -0.1998498607268 0 0.25780914425533902 -0.1915101908503839 0 0.26970194708378481 -0.19890215936390249 0 0.26466827735564702 -0.19534474879840091 0 0.25542854451629388 -0.1998498607268 0 0.25542854451629388 -0.1998498607268 0 0.25780914425533902 -0.1915101908503839 0 0.24761350086738881 -0.19571291374376831 0 0.25780914425533902 -0.1915101908503839 0 0.2494281514357099 -0.18788699375990289 0 0.24761350086738881 -0.19571291374376831 0 0.26199206266145247 -0.18213120303134439 0 0.25232087801029662 -0.1743036082448125 0 0.2494281514357099 -0.18788699375990289 0 0.25780914425533902 -0.1915101908503839 0 0.26199206266145247 -0.18213120303134439 0 0.2494281514357099 -0.18788699375990289 0 0.2675018019886598 -0.18870552556106029 0 0.25780914425533902 -0.1915101908503839 0 0.26199206266145247 -0.18213120303134439 0 0.26199206266145247 -0.18213120303134439 0 0.25232087801029662 -0.1743036082448125 0 0.26549491197617431 -0.168855270340417 0 0.25232087801029662 -0.1743036082448125 0 0.25172611852857912 -0.16117425348272191 0 0.26549491197617431 -0.168855270340417 0 0.25172611852857912 -0.16117425348272191 0 0.26549491197617431 -0.168855270340417 0 0.26450787924013569 -0.1497712061948929 0 0.26549491197617431 -0.168855270340417 0 0.26450787924013569 -0.1497712061948929 0 0.28310491260276388 -0.16544900699914791 0 0.26450787924013569 -0.1497712061948929 0 0.28310491260276388 -0.16544900699914791 0 0.26549491197617431 -0.168855270340417 0 0.27640342984327232 -0.1821755831815243 0 0.28310491260276388 -0.16544900699914791 0 0.27640342984327232 -0.1821755831815243 0 0.28310491260276388 -0.16544900699914791 0 0.2675018019886598 -0.18870552556106029 0 0.26199206266145247 -0.18213120303134439 0 0.27640342984327232 -0.1821755831815243 0 0.26199206266145247 -0.18213120303134439 0 0.26549491197617431 -0.168855270340417 0 0.27640342984327232 -0.1821755831815243 0 0.25433990433771841 -0.1243544269907422 0 0.2648690926206575 -0.1333413475296707 0 0.245910845877507 -0.13409340539063849 0 0.2648690926206575 -0.1333413475296707 0 0.26450787924013569 -0.1497712061948929 0 0.245910845877507 -0.13409340539063849 0 0.26578143989208891 -0.12208723098105401 0 0.25433990433771841 -0.1243544269907422 0 0.2648690926206575 -0.1333413475296707 0 0.25172611852857912 -0.16117425348272191 0 0.26450787924013569 -0.1497712061948929 0 0.24825163994429519 -0.14855324651142299 0 0.26450787924013569 -0.1497712061948929 0 0.245910845877507 -0.13409340539063849 0 0.24825163994429519 -0.14855324651142299 0 0.26450787924013569 -0.1497712061948929 0 0.245910845877507 -0.13409340539063849 0 0.2648690926206575 -0.1333413475296707 0 0.26450787924013569 -0.1497712061948929 0 0.27842901908188278 -0.14556928034560529 0 0.26450787924013569 -0.1497712061948929 0 0.27842901908188278 -0.14556928034560529 0 0.28310491260276388 -0.16544900699914791 0 0.2648690926206575 -0.1333413475296707 0 0.27842901908188278 -0.14556928034560529 0 0.27798501411956061 -0.12654918030113391 0 0.26578143989208891 -0.12208723098105401 0 0.2648690926206575 -0.1333413475296707 0 0.27798501411956061 -0.12654918030113391 0 0.27842901908188278 -0.14556928034560529 0 0.27798501411956061 -0.12654918030113391 0 0.28948891994812881 -0.14951483406407001 0 0.27798501411956061 -0.12654918030113391 0 0.29041098202153109 -0.13433528958156299 0 0.28948891994812881 -0.14951483406407001 0 0.29034728781846192 -0.11708715199789579 0 0.27798501411956061 -0.12654918030113391 0 0.29041098202153109 -0.13433528958156299 0 0.27798501411956061 -0.12654918030113391 0 0.28948891994812881 -0.14951483406407001 0 0.29041098202153109 -0.13433528958156299 0 0.29420716177500777 -0.14221215070681631 0 0.30342348062744029 -0.13760193422682271 0 0.2912255771623028 -0.1527728115829716 0 0.28948891994812881 -0.14951483406407001 0 0.28310491260276388 -0.16544900699914791 0 0.27842901908188278 -0.14556928034560529 0 0.28948891994812881 -0.14951483406407001 0 0.28310491260276388 -0.16544900699914791 0 0.29041098202153109 -0.13433528958156299 0 0.29420716177500777 -0.14221215070681631 0 0.28948891994812881 -0.14951483406407001 0 0.29420716177500777 -0.14221215070681631 0 0.29409132150708672 -0.14709747919357469 0 0.29937718148225612 -0.14593854099046091 0 0.29409132150708672 -0.14709747919357469 0 0.29524987361639138 -0.15029732921987751 0 0.29937718148225612 -0.14593854099046091 0 0.29420716177500777 -0.14221215070681631 0 0.29409132150708672 -0.14709747919357469 0 0.28948891994812881 -0.14951483406407001 0 0.29409132150708672 -0.14709747919357469 0 0.28948891994812881 -0.14951483406407001 0 0.29256727978067493 -0.14953363923336691 0 0.2912255771623028 -0.1527728115829716 0 0.28948891994812881 -0.14951483406407001 0 0.29256727978067493 -0.14953363923336691 0 0.2912255771623028 -0.1527728115829716 0 0.29256727978067493 -0.14953363923336691 0 0.29524987361639138 -0.15029732921987751 0 0.29409132150708672 -0.14709747919357469 0 0.29256727978067493 -0.14953363923336691 0 0.29524987361639138 -0.15029732921987751 0 0.2912255771623028 -0.1527728115829716 0 0.29524987361639138 -0.15029732921987751 0 0.29528151507927181 -0.15507938828546919 0 0.30224824867025318 -0.1529152266746274 0 0.31132279207786079 -0.1498500992079152 0 0.29937718148225612 -0.14593854099046091 0 0.29524987361639138 -0.15029732921987751 0 0.29528151507927181 -0.15507938828546919 0 0.30224824867025318 -0.1529152266746274 0 0.29524987361639138 -0.15029732921987751 0 0.30224824867025318 -0.1529152266746274 0 0.29937718148225612 -0.14593854099046091 0 0.30224824867025318 -0.1529152266746274 0 0.31132279207786079 -0.1498500992079152 0 0.31096219410577852 -0.16400617167627951 0 0.31132279207786079 -0.1498500992079152 0 0.29937718148225612 -0.14593854099046091 0 0.30342348062744029 -0.13760193422682271 0 0.29420716177500777 -0.14221215070681631 0 0.29937718148225612 -0.14593854099046091 0 0.30342348062744029 -0.13760193422682271 0 0.30261828185502793 -0.12212355555811551 0 0.30342348062744029 -0.13760193422682271 0 0.32310638785392598 -0.12920169331710929 0 0.30261828185502793 -0.12212355555811551 0 0.29041098202153109 -0.13433528958156299 0 0.30342348062744029 -0.13760193422682271 0 0.27640342984327232 -0.1821755831815243 0 0.29326082556219257 -0.18242746645397809 0 0.29058524667449059 -0.17175513041351231 0 0.28503515628741222 -0.1940397373007702 0 0.27640342984327232 -0.1821755831815243 0 0.29326082556219257 -0.18242746645397809 0 0.27640342984327232 -0.1821755831815243 0 0.28310491260276388 -0.16544900699914791 0 0.29058524667449059 -0.17175513041351231 0 0.29326082556219257 -0.18242746645397809 0 0.29058524667449059 -0.17175513041351231 0 0.29985143088455563 -0.1705049542308337 0 0.28310491260276388 -0.16544900699914791 0 0.29162044411543447 -0.16293752342968601 0 0.29058524667449059 -0.17175513041351231 0 0.28948891994812881 -0.14951483406407001 0 0.28310491260276388 -0.16544900699914791 0 0.28310491260276388 -0.16544900699914791 0 0.29058524667449059 -0.17175513041351231 0 0.2912255771623028 -0.1527728115829716 0 0.28310491260276388 -0.16544900699914791 0 0.29162044411543447 -0.16293752342968601 0 0.29528151507927181 -0.15507938828546919 0 0.29162044411543447 -0.16293752342968601 0 0.30040507496494923 -0.16123543351683911 0 0.2912255771623028 -0.1527728115829716 0 0.29528151507927181 -0.15507938828546919 0 0.29162044411543447 -0.16293752342968601 0 0.29162044411543447 -0.16293752342968601 0 0.29058524667449059 -0.17175513041351231 0 0.29985143088455563 -0.1705049542308337 0 0.29162044411543447 -0.16293752342968601 0 0.29985143088455563 -0.1705049542308337 0 0.30040507496494923 -0.16123543351683911 0 0.29985143088455563 -0.1705049542308337 0 0.30040507496494923 -0.16123543351683911 0 0.31096219410577852 -0.16400617167627951 0 0.29528151507927181 -0.15507938828546919 0 0.30224824867025318 -0.1529152266746274 0 0.30040507496494923 -0.16123543351683911 0 0.30224824867025318 -0.1529152266746274 0 0.30040507496494923 -0.16123543351683911 0 0.31096219410577852 -0.16400617167627951 0 0.29326082556219257 -0.18242746645397809 0 0.29985143088455563 -0.1705049542308337 0 0.30899586046225469 -0.1817335086200155 0 0.29985143088455563 -0.1705049542308337 0 0.31096219410577852 -0.16400617167627951 0 0.30899586046225469 -0.1817335086200155 0 0.29869382922117033 -0.19435588497721271 0 0.29326082556219257 -0.18242746645397809 0 0.30899586046225469 -0.1817335086200155 0 0.31096219410577852 -0.16400617167627951 0 0.30899586046225469 -0.1817335086200155 0 0.33330990855537412 -0.17956709147815969 0 0.31096219410577852 -0.16400617167627951 0 0.33330990855537412 -0.17956709147815969 0 0.32820814820465 -0.15438439239763441 0 0.33330990855537412 -0.17956709147815969 0 0.32820814820465 -0.15438439239763441 0 0.34602787401434548 -0.1659716275549159 0 0.33330990855537412 -0.17956709147815969 0 0.32820814820465 -0.15438439239763441 0 0.31132279207786079 -0.1498500992079152 0 0.30342348062744029 -0.13760193422682271 0 0.32310638785392598 -0.12920169331710929 0 0.31132279207786079 -0.1498500992079152 0 0.32310638785392598 -0.12920169331710929 0 0.32820814820465 -0.15438439239763441 0 0.32310638785392598 -0.12920169331710929 0 0.32820814820465 -0.15438439239763441 0 0.31132279207786079 -0.1498500992079152 0 0.31096219410577852 -0.16400617167627951 0 0.32820814820465 -0.15438439239763441 0 0.32310638785392598 -0.12920169331710929 0 0.32820814820465 -0.15438439239763441 0 0.34315924150994809 -0.1435747212133468 0 0.32820814820465 -0.15438439239763441 0 0.34315924150994809 -0.1435747212133468 0 0.34602787401434548 -0.1659716275549159 0 0.34343843782823752 -0.12408400361420779 0 0.32310638785392598 -0.12920169331710929 0 0.34315924150994809 -0.1435747212133468 0 0.35603244527432393 -0.11855655260172521 0 0.34343843782823752 -0.12408400361420779 0 0.35934057741976239 -0.13534741467052461 0 0.34343843782823752 -0.12408400361420779 0 0.34315924150994809 -0.1435747212133468 0 0.35934057741976239 -0.13534741467052461 0 0.34315924150994809 -0.1435747212133468 0 0.35883402373876783 -0.15245919572568911 0 0.34602787401434548 -0.1659716275549159 0 0.34315924150994809 -0.1435747212133468 0 0.35934057741976239 -0.13534741467052461 0 0.35883402373876783 -0.15245919572568911 0 0.35934057741976239 -0.13534741467052461 0 0.35883402373876783 -0.15245919572568911 0 0.37256409223115239 -0.14577564863313491 0 0.35883402373876783 -0.15245919572568911 0 0.37256409223115239 -0.14577564863313491 0 0.37384484969918069 -0.1690525115198919 0 0.35603244527432393 -0.11855655260172521 0 0.35934057741976239 -0.13534741467052461 0 0.37564269716861559 -0.12678588016291681 0 0.35934057741976239 -0.13534741467052461 0 0.37256409223115239 -0.14577564863313491 0 0.37564269716861559 -0.12678588016291681 0 0.35632162773846682 -0.18166875232385579 0 0.34602787401434548 -0.1659716275549159 0 0.37384484969918069 -0.1690525115198919 0 0.33330990855537412 -0.17956709147815969 0 0.35632162773846682 -0.18166875232385579 0 0.35406267108959472 -0.19796104173242721 0 0.33330990855537412 -0.17956709147815969 0 0.35632162773846682 -0.18166875232385579 0 0.34602787401434548 -0.1659716275549159 0 0.35883402373876783 -0.15245919572568911 0 0.34602787401434548 -0.1659716275549159 0 0.37384484969918069 -0.1690525115198919 0 0.35632162773846682 -0.18166875232385579 0 0.37384484969918069 -0.1690525115198919 0 0.37385791301570431 -0.19478810405741889 0 0.37385791301570431 -0.19478810405741889 0 0.36123830093626891 -0.21477537223599311 0 0.35406267108959472 -0.19796104173242721 0 0.35632162773846682 -0.18166875232385579 0 0.37385791301570431 -0.19478810405741889 0 0.35406267108959472 -0.19796104173242721 0 0.37385791301570431 -0.19478810405741889 0 0.36123830093626891 -0.21477537223599311 0 0.38569815056541118 -0.21202009347340359 0 0.36123830093626891 -0.21477537223599311 0 0.33841166890609808 -0.204749790558685 0 0.34351342925682221 -0.22993248963921031 0 0.36123830093626891 -0.21477537223599311 0 0.35406267108959472 -0.19796104173242721 0 0.33841166890609808 -0.204749790558685 0 0.33330990855537412 -0.17956709147815969 0 0.33841166890609808 -0.204749790558685 0 0.31530851422462269 -0.2038666989828922 0 0.33330990855537412 -0.17956709147815969 0 0.33841166890609808 -0.204749790558685 0 0.33330990855537412 -0.17956709147815969 0 0.35406267108959472 -0.19796104173242721 0 0.33841166890609808 -0.204749790558685 0 0.33841166890609808 -0.204749790558685 0 0.34351342925682221 -0.22993248963921031 0 0.33841166890609808 -0.204749790558685 0 0.31530851422462269 -0.2038666989828922 0 0.32770828990032302 -0.2216742332320783 0 0.31046352426238571 -0.22770930666462211 0 0.31530851422462269 -0.2038666989828922 0 0.32770828990032302 -0.2216742332320783 0 0.30899586046225469 -0.1817335086200155 0 0.33330990855537412 -0.17956709147815969 0 0.31530851422462269 -0.2038666989828922 0 0.30849651450414628 -0.24795182056728149 0 0.33084431285168597 -0.2421128803149821 0 0.32132836083141447 -0.25869816695462983 0 0.31046352426238571 -0.22770930666462211 0 0.30849651450414628 -0.24795182056728149 0 0.33084431285168597 -0.2421128803149821 0 0.31046352426238571 -0.22770930666462211 0 0.33084431285168597 -0.2421128803149821 0 0.31046352426238571 -0.22770930666462211 0 0.32770828990032302 -0.2216742332320783 0 0.33084431285168597 -0.2421128803149821 0 0.33841166890609808 -0.204749790558685 0 0.32770828990032302 -0.2216742332320783 0 0.34351342925682221 -0.22993248963921031 0 0.32770828990032302 -0.2216742332320783 0 0.34351342925682221 -0.22993248963921031 0 0.33084431285168597 -0.2421128803149821 0 0.34351342925682221 -0.22993248963921031 0 0.33084431285168597 -0.2421128803149821 0 0.34511110575225162 -0.2497895771887422 0 0.34511110575225162 -0.2497895771887422 0 0.36072754685060221 -0.23661199597324931 0 0.35999001524652302 -0.25407051354681798 0 0.34351342925682221 -0.22993248963921031 0 0.34511110575225162 -0.2497895771887422 0 0.36072754685060221 -0.23661199597324931 0 0.36123830093626891 -0.21477537223599311 0 0.34351342925682221 -0.22993248963921031 0 0.36072754685060221 -0.23661199597324931 0 0.36123830093626891 -0.21477537223599311 0 0.36072754685060221 -0.23661199597324931 0 0.37876138036895562 -0.2308784280419337 0 0.36072754685060221 -0.23661199597324931 0 0.37876138036895562 -0.2308784280419337 0 0.37599739442549401 -0.25413598833060908 0 0.36072754685060221 -0.23661199597324931 0 0.37599739442549401 -0.25413598833060908 0 0.35999001524652302 -0.25407051354681798 0 0.39211153592001802 -0.243458058916251 0 0.37876138036895562 -0.2308784280419337 0 0.37599739442549401 -0.25413598833060908 0 0.39211153592001802 -0.243458058916251 0 0.41035187406274998 -0.24282753742178551 0 0.39511757652415641 -0.26150292724900559 0 0.39211153592001802 -0.243458058916251 0 0.39653919654912789 -0.22750706932675971 0 0.41035187406274998 -0.24282753742178551 0 0.39653919654912789 -0.22750706932675971 0 0.41035187406274998 -0.24282753742178551 0 0.41004392873759959 -0.22605415340095061 0 0.39653919654912789 -0.22750706932675971 0 0.40620368098581849 -0.2112598406499526 0 0.41004392873759959 -0.22605415340095061 0 0.39653919654912789 -0.22750706932675971 0 0.37876138036895562 -0.2308784280419337 0 0.38569815056541118 -0.21202009347340359 0 0.36123830093626891 -0.21477537223599311 0 0.37876138036895562 -0.2308784280419337 0 0.38569815056541118 -0.21202009347340359 0 0.39211153592001802 -0.243458058916251 0 0.39653919654912789 -0.22750706932675971 0 0.37876138036895562 -0.2308784280419337 0 0.37385791301570431 -0.19478810405741889 0 0.3965143716700531 -0.19450790035459309 0 0.38635526752066229 -0.1832675387771017 0 0.37385791301570431 -0.19478810405741889 0 0.38569815056541118 -0.21202009347340359 0 0.3965143716700531 -0.19450790035459309 0 0.3965143716700531 -0.19450790035459309 0 0.41709438826766482 -0.19803158576629171 0 0.40327715790131508 -0.1742830172318334 0 0.38569815056541118 -0.21202009347340359 0 0.3965143716700531 -0.19450790035459309 0 0.40620368098581849 -0.2112598406499526 0 0.39653919654912789 -0.22750706932675971 0 0.38569815056541118 -0.21202009347340359 0 0.40620368098581849 -0.2112598406499526 0 0.40620368098581849 -0.2112598406499526 0 0.43112922383217428 -0.19903060429503849 0 0.40620368098581849 -0.2112598406499526 0 0.43112922383217428 -0.19903060429503849 0 0.4255861716013436 -0.22415214759456539 0 0.3965143716700531 -0.19450790035459309 0 0.40620368098581849 -0.2112598406499526 0 0.41709438826766482 -0.19803158576629171 0 0.40620368098581849 -0.2112598406499526 0 0.41709438826766482 -0.19803158576629171 0 0.43112922383217428 -0.19903060429503849 0 0.41709438826766482 -0.19803158576629171 0 0.43112922383217428 -0.19903060429503849 0 0.42481280938198202 -0.1835758156652238 0 0.43112922383217428 -0.19903060429503849 0 0.42481280938198202 -0.1835758156652238 0 0.43620575601665912 -0.1837101461852719 0 0.4255861716013436 -0.22415214759456539 0 0.44418479110498171 -0.22284799629439461 0 0.44082046913993722 -0.20547675776734531 0 0.4255861716013436 -0.22415214759456539 0 0.44082046913993722 -0.20547675776734531 0 0.43112922383217428 -0.19903060429503849 0 0.4255861716013436 -0.22415214759456539 0 0.44082046913993722 -0.20547675776734531 0 0.4255861716013436 -0.22415214759456539 0 0.44188638875310959 -0.23917155451511701 0 0.44418479110498171 -0.22284799629439461 0 0.44188638875310959 -0.23917155451511701 0 0.44222135442591931 -0.25639948428993953 0 0.42738807778665799 -0.25011272741584589 0 0.4255861716013436 -0.22415214759456539 0 0.44188638875310959 -0.23917155451511701 0 0.42738807778665799 -0.25011272741584589 0 0.4255861716013436 -0.22415214759456539 0 0.41035187406274998 -0.24282753742178551 0 0.42738807778665799 -0.25011272741584589 0 0.40620368098581849 -0.2112598406499526 0 0.4255861716013436 -0.22415214759456539 0 0.41004392873759959 -0.22605415340095061 0 0.4255861716013436 -0.22415214759456539 0 0.41035187406274998 -0.24282753742178551 0 0.41004392873759959 -0.22605415340095061 0 0.4255861716013436 -0.22415214759456539 0 0.41035187406274998 -0.24282753742178551 0 0.4057647178407664 -0.1214959209129528 0 0.39911366233114992 -0.13775905466502969 0 0.39442452004675282 -0.12650098367137541 0 0.39911366233114992 -0.13775905466502969 0 0.39442452004675282 -0.12650098367137541 0 0.38338677987236258 -0.1315614229690007 0 0.39911366233114992 -0.13775905466502969 0 0.38338677987236258 -0.1315614229690007 0 0.38945992753496539 -0.15053444869737509 0 0.37564269716861559 -0.12678588016291681 0 0.38945992753496539 -0.15053444869737509 0 0.38338677987236258 -0.1315614229690007 0 0.37564269716861559 -0.12678588016291681 0 0.38945992753496539 -0.15053444869737509 0 0.38011491546278892 -0.11810593161037081 0 0.38338677987236258 -0.1315614229690007 0 0.37564269716861559 -0.12678588016291681 0 0.37256409223115239 -0.14577564863313491 0 0.37384484969918069 -0.1690525115198919 0 0.38945992753496539 -0.15053444869737509 0 0.37256409223115239 -0.14577564863313491 0 0.37564269716861559 -0.12678588016291681 0 0.38945992753496539 -0.15053444869737509 0 0.39911366233114992 -0.13775905466502969 0 0.38945992753496539 -0.15053444869737509 0 0.40575856112357561 -0.15636643591329569 0 0.38945992753496539 -0.15053444869737509 0 0.40575856112357561 -0.15636643591329569 0 0.40327715790131508 -0.1742830172318334 0 0.38945992753496539 -0.15053444869737509 0 0.40327715790131508 -0.1742830172318334 0 0.37384484969918069 -0.1690525115198919 0 0.38945992753496539 -0.15053444869737509 0 0.40327715790131508 -0.1742830172318334 0 0.37384484969918069 -0.1690525115198919 0 0.37385791301570431 -0.19478810405741889 0 0.38635526752066229 -0.1832675387771017 0 0.37384484969918069 -0.1690525115198919 0 0.38635526752066229 -0.1832675387771017 0 0.40327715790131508 -0.1742830172318334 0 0.3965143716700531 -0.19450790035459309 0 0.38635526752066229 -0.1832675387771017 0 0.40327715790131508 -0.1742830172318334 0 0.41709438826766482 -0.19803158576629171 0 0.40327715790131508 -0.1742830172318334 0 0.42481280938198202 -0.1835758156652238 0 0.41709438826766482 -0.19803158576629171 0 0.40327715790131508 -0.1742830172318334 0 0.40327715790131508 -0.1742830172318334 0 0.42481280938198202 -0.1835758156652238 0 0.42633603269609721 -0.16686046412278649 0 0.4324220634866493 -0.1767152939651685 0 0.42633603269609721 -0.16686046412278649 0 0.44233365585185869 -0.17271474988739169 0 0.42481280938198202 -0.1835758156652238 0 0.4324220634866493 -0.1767152939651685 0 0.42633603269609721 -0.16686046412278649 0 0.42481280938198202 -0.1835758156652238 0 0.43620575601665912 -0.1837101461852719 0 0.4324220634866493 -0.1767152939651685 0 0.43620575601665912 -0.1837101461852719 0 0.4324220634866493 -0.1767152939651685 0 0.44233365585185869 -0.17271474988739169 0 0.42633603269609721 -0.16686046412278649 0 0.44143405153979831 -0.15000862662125769 0 0.44233365585185869 -0.17271474988739169 0 0.40575856112357561 -0.15636643591329569 0 0.40327715790131508 -0.1742830172318334 0 0.42633603269609721 -0.16686046412278649 0 0.40575856112357561 -0.15636643591329569 0 0.42633603269609721 -0.16686046412278649 0 0.41605037526843169 -0.14417819251786959 0 0.39911366233114992 -0.13775905466502969 0 0.40575856112357561 -0.15636643591329569 0 0.41605037526843169 -0.14417819251786959 0 0.42633603269609721 -0.16686046412278649 0 0.41605037526843169 -0.14417819251786959 0 0.41605037526843169 -0.14417819251786959 0 0.42754440153228052 -0.1297071405274216 0 0.44143405153979831 -0.15000862662125769 0 0.42633603269609721 -0.16686046412278649 0 0.41605037526843169 -0.14417819251786959 0 0.44143405153979831 -0.15000862662125769 0 0.43687004187442008 -0.1170243740091135 0 0.42754440153228052 -0.1297071405274216 0 0.4445962514410613 -0.13209247138712141 0 0.4057647178407664 -0.1214959209129528 0 0.41605037526843169 -0.14417819251786959 0 0.4057647178407664 -0.1214959209129528 0 0.39911366233114992 -0.13775905466502969 0 0.41605037526843169 -0.14417819251786959 0 0.4057647178407664 -0.1214959209129528 0 0.41605037526843169 -0.14417819251786959 0 0.42754440153228052 -0.1297071405274216 0 0.47795401619815792 -0.1231606782490454 0 0.45524236696645898 -0.1212199631211599 0 0.46256858056301658 -0.13963219670491589 0 0.45524236696645898 -0.1212199631211599 0 0.46256858056301658 -0.13963219670491589 0 0.4445962514410613 -0.13209247138712141 0 0.46256858056301658 -0.13963219670491589 0 0.4445962514410613 -0.13209247138712141 0 0.44143405153979831 -0.15000862662125769 0 0.42754440153228052 -0.1297071405274216 0 0.4445962514410613 -0.13209247138712141 0 0.44143405153979831 -0.15000862662125769 0 0.46256858056301658 -0.13963219670491589 0 0.46198298563457929 -0.15994207975868169 0 0.46256858056301658 -0.13963219670491589 0 0.46198298563457929 -0.15994207975868169 0 0.47637830822116151 -0.1450787879816795 0 0.46256858056301658 -0.13963219670491589 0 0.44143405153979831 -0.15000862662125769 0 0.46198298563457929 -0.15994207975868169 0 0.46198298563457929 -0.15994207975868169 0 0.45659061392357358 -0.1725525158811044 0 0.4613973907061405 -0.18025196281244729 0 0.46198298563457929 -0.15994207975868169 0 0.4613973907061405 -0.18025196281244729 0 0.46198298563457929 -0.15994207975868169 0 0.4613973907061405 -0.18025196281244729 0 0.4771541369151644 -0.16093611466673061 0 0.45193683646230048 -0.16603750141982129 0 0.45150689499239499 -0.17608818006628471 0 0.45659061392357358 -0.1725525158811044 0 0.46198298563457929 -0.15994207975868169 0 0.45193683646230048 -0.16603750141982129 0 0.45659061392357358 -0.1725525158811044 0 0.44143405153979831 -0.15000862662125769 0 0.46198298563457929 -0.15994207975868169 0 0.45193683646230048 -0.16603750141982129 0 0.44143405153979831 -0.15000862662125769 0 0.45193683646230048 -0.16603750141982129 0 0.44233365585185869 -0.17271474988739169 0 0.45193683646230048 -0.16603750141982129 0 0.45150689499239499 -0.17608818006628471 0 0.44233365585185869 -0.17271474988739169 0 0.45150689499239499 -0.17608818006628471 0 0.44233365585185869 -0.17271474988739169 0 0.44556367366724531 -0.18329528694227279 0 0.43620575601665912 -0.1837101461852719 0 0.44233365585185869 -0.17271474988739169 0 0.44556367366724531 -0.18329528694227279 0 0.45150689499239499 -0.17608818006628471 0 0.44556367366724531 -0.18329528694227279 0 0.45491313257885019 -0.18067590641404119 0 0.44556367366724531 -0.18329528694227279 0 0.4560547666785304 -0.18680136794012489 0 0.45491313257885019 -0.18067590641404119 0 0.4560547666785304 -0.18680136794012489 0 0.46128250513715019 -0.18423647899843809 0 0.4613973907061405 -0.18025196281244729 0 0.4560547666785304 -0.18680136794012489 0 0.46128250513715019 -0.18423647899843809 0 0.4560547666785304 -0.18680136794012489 0 0.45491313257885019 -0.18067590641404119 0 0.4613973907061405 -0.18025196281244729 0 0.4560547666785304 -0.18680136794012489 0 0.4613973907061405 -0.18025196281244729 0 0.45491313257885019 -0.18067590641404119 0 0.45659061392357358 -0.1725525158811044 0 0.4613973907061405 -0.18025196281244729 0 0.45150689499239499 -0.17608818006628471 0 0.45491313257885019 -0.18067590641404119 0 0.45659061392357358 -0.1725525158811044 0 0.46128250513715019 -0.18423647899843809 0 0.4613973907061405 -0.18025196281244729 0 0.47623821401582039 -0.17689874919010709 0 0.46128250513715019 -0.18423647899843809 0 0.4613973907061405 -0.18025196281244729 0 0.4613973907061405 -0.18025196281244729 0 0.47623821401582039 -0.17689874919010709 0 0.4771541369151644 -0.16093611466673061 0 0.46128250513715019 -0.18423647899843809 0 0.47623821401582039 -0.17689874919010709 0 0.47298330065848598 -0.19096695416286991 0 0.46128250513715019 -0.18423647899843809 0 0.47623821401582039 -0.17689874919010709 0 0.47623821401582039 -0.17689874919010709 0 0.49119392289449049 -0.1695610193817759 0 0.47623821401582039 -0.17689874919010709 0 0.48657122604370101 -0.18595846856287521 0 0.47298330065848598 -0.19096695416286991 0 0.48657122604370101 -0.18595846856287521 0 0.5 -0.1776219292500186 0 0.49119392289449049 -0.1695610193817759 0 0.47623821401582039 -0.17689874919010709 0 0.48657122604370101 -0.18595846856287521 0 0.49119392289449049 -0.1695610193817759 0 0.49119392289449049 -0.1695610193817759 0 0.49031473573346118 -0.1556217428247163 0 0.50000000000000022 -0.1503695707293439 0 0.5 -0.1776219292500186 0 0.49119392289449049 -0.1695610193817759 0 0.50000000000000022 -0.1503695707293439 0 0.49119392289449049 -0.1695610193817759 0 0.4771541369151644 -0.16093611466673061 0 0.49031473573346118 -0.1556217428247163 0 0.47623821401582039 -0.17689874919010709 0 0.49119392289449049 -0.1695610193817759 0 0.4771541369151644 -0.16093611466673061 0 0.4613973907061405 -0.18025196281244729 0 0.4771541369151644 -0.16093611466673061 0 0.4771541369151644 -0.16093611466673061 0 0.47637830822116151 -0.1450787879816795 0 0.49291088312418951 -0.14162026652101489 0 0.46198298563457929 -0.15994207975868169 0 0.4771541369151644 -0.16093611466673061 0 0.47637830822116151 -0.1450787879816795 0 0.4771541369151644 -0.16093611466673061 0 0.49031473573346118 -0.1556217428247163 0 0.49291088312418951 -0.14162026652101489 0 0.4771541369151644 -0.16093611466673061 0 0.49291088312418951 -0.14162026652101489 0 0.50000000000000022 -0.1503695707293439 0 0.49291088312418951 -0.14162026652101489 0 0.49999999999999561 -0.13292987427608749 0 0.49031473573346118 -0.1556217428247163 0 0.50000000000000022 -0.1503695707293439 0 0.49291088312418951 -0.14162026652101489 0 0.50000000000000022 -0.1503695707293439 0 0.49291088312418951 -0.14162026652101489 0 0.47795401619815792 -0.1231606782490454 0 0.49291088312418951 -0.14162026652101489 0 0.47795401619815792 -0.1231606782490454 0 0.49291088312418951 -0.14162026652101489 0 0.49999999999999561 -0.13292987427608749 0 0.49291088312418951 -0.14162026652101489 0 0.49999999999999561 -0.13292987427608749 0 0.47795401619815792 -0.1231606782490454 0 0.46256858056301658 -0.13963219670491589 0 0.47637830822116151 -0.1450787879816795 0 0.47795401619815792 -0.1231606782490454 0 0.47637830822116151 -0.1450787879816795 0 0.49291088312418951 -0.14162026652101489 0 0.45993154745423143 -0.23109103872606779 0 0.44418479110498171 -0.22284799629439461 0 0.46060702629569072 -0.207663758862253 0 0.45993154745423143 -0.23109103872606779 0 0.46060702629569072 -0.207663758862253 0 0.45993154745423143 -0.23109103872606779 0 0.46060702629569072 -0.207663758862253 0 0.48072551199530827 -0.21921565117268771 0 0.45993154745423143 -0.23109103872606779 0 0.45971854406675899 -0.24853276314288689 0 0.47612558626526152 -0.23530406951341809 0 0.45993154745423143 -0.23109103872606779 0 0.45971854406675899 -0.24853276314288689 0 0.44188638875310959 -0.23917155451511701 0 0.45971854406675899 -0.24853276314288689 0 0.44188638875310959 -0.23917155451511701 0 0.44222135442591931 -0.25639948428993953 0 0.45993154745423143 -0.23109103872606779 0 0.44188638875310959 -0.23917155451511701 0 0.44418479110498171 -0.22284799629439461 0 0.44418479110498171 -0.22284799629439461 0 0.44082046913993722 -0.20547675776734531 0 0.46060702629569072 -0.207663758862253 0 0.43112922383217428 -0.19903060429503849 0 0.44556367366724531 -0.18329528694227279 0 0.4560547666785304 -0.18680136794012489 0 0.43112922383217428 -0.19903060429503849 0 0.4560547666785304 -0.18680136794012489 0 0.44082046913993722 -0.20547675776734531 0 0.4560547666785304 -0.18680136794012489 0 0.44082046913993722 -0.20547675776734531 0 0.43112922383217428 -0.19903060429503849 0 0.4560547666785304 -0.18680136794012489 0 0.43112922383217428 -0.19903060429503849 0 0.43620575601665912 -0.1837101461852719 0 0.44556367366724531 -0.18329528694227279 0 0.4560547666785304 -0.18680136794012489 0 0.44082046913993722 -0.20547675776734531 0 0.46060702629569072 -0.207663758862253 0 0.4560547666785304 -0.18680136794012489 0 0.46128250513715019 -0.18423647899843809 0 0.46060702629569072 -0.207663758862253 0 0.46128250513715019 -0.18423647899843809 0 0.46060702629569072 -0.207663758862253 0 0.47298330065848598 -0.19096695416286991 0 0.46128250513715019 -0.18423647899843809 0 0.46060702629569072 -0.207663758862253 0 0.46060702629569072 -0.207663758862253 0 0.48021753180006821 -0.2000773152006757 0 0.48072551199530827 -0.21921565117268771 0 0.46060702629569072 -0.207663758862253 0 0.47298330065848598 -0.19096695416286991 0 0.48021753180006821 -0.2000773152006757 0 0.48657122604370101 -0.18595846856287521 0 0.47298330065848598 -0.19096695416286991 0 0.48021753180006821 -0.2000773152006757 0 0.48657122604370101 -0.18595846856287521 0 0.5 -0.1776219292500186 0 0.5 -0.2048742877706933 0 0.48657122604370101 -0.18595846856287521 0 0.48021753180006821 -0.2000773152006757 0 0.5 -0.2048742877706933 0 0.5 -0.2048742877706933 0 0.5 -0.23212664629136809 0 0.48072551199530827 -0.21921565117268771 0 0.48021753180006821 -0.2000773152006757 0 0.5 -0.2048742877706933 0 0.48072551199530827 -0.21921565117268771 0 0.5 -0.23212664629136809 0 0.48072551199530827 -0.21921565117268771 0 0.47612558626526152 -0.23530406951341809 0 0.45993154745423143 -0.23109103872606779 0 0.48072551199530827 -0.21921565117268771 0 0.47612558626526152 -0.23530406951341809 0 0.45971854406675899 -0.24853276314288689 0 0.47612558626526152 -0.23530406951341809 0 0.48005555304084202 -0.25086957477450761 0 0.5 -0.23212664629136809 0 0.47612558626526152 -0.23530406951341809 0 0.48005555304084202 -0.25086957477450761 0 0.5 -0.23212664629136809 0 0.5 -0.25937900481204279 0 0.48005555304084202 -0.25086957477450761 0 0.5 -0.25937900481204279 0 0.48238679851899557 -0.27010709570024499 0 0.48005555304084202 -0.25086957477450761 0 0.5 -0.25937900481204279 0 0.48238679851899557 -0.27010709570024499 0 0.50000000000000022 -0.28663136333271749 0 0.48238679851899557 -0.27010709570024499 0 0.46537054964303343 -0.27587751544572892 0 0.47132628498073759 -0.29333752481836622 0 0.48238679851899557 -0.27010709570024499 0 0.46812616638324112 -0.26208212122897862 0 0.46537054964303343 -0.27587751544572892 0 0.48238679851899557 -0.27010709570024499 0 0.48005555304084202 -0.25086957477450761 0 0.46812616638324112 -0.26208212122897862 0 0.45971854406675899 -0.24853276314288689 0 0.48005555304084202 -0.25086957477450761 0 0.46812616638324112 -0.26208212122897862 0 0.45971854406675899 -0.24853276314288689 0 0.46812616638324112 -0.26208212122897862 0 0.45309938664657562 -0.26502365708152448 0 0.46812616638324112 -0.26208212122897862 0 0.46537054964303343 -0.27587751544572892 0 0.45309938664657562 -0.26502365708152448 0 0.46537054964303343 -0.27587751544572892 0 0.44873088824515478 -0.27798159794241739 0 0.45309938664657562 -0.26502365708152448 0 0.46537054964303343 -0.27587751544572892 0 0.44873088824515478 -0.27798159794241739 0 0.45489795979772218 -0.28610325223289229 0 0.44873088824515478 -0.27798159794241739 0 0.44323481619901939 -0.26908299279190068 0 0.45309938664657562 -0.26502365708152448 0 0.44873088824515478 -0.27798159794241739 0 0.4378609686856903 -0.27790111256739919 0 0.4430998265829787 -0.28736600713102672 0 0.44873088824515478 -0.27798159794241739 0 0.4378609686856903 -0.27790111256739919 0 0.44323481619901939 -0.26908299279190068 0 0.4378609686856903 -0.27790111256739919 0 0.44323481619901939 -0.26908299279190068 0 0.43268183932762322 -0.26686664253597869 0 0.44323481619901939 -0.26908299279190068 0 0.44222135442591931 -0.25639948428993953 0 0.43268183932762322 -0.26686664253597869 0 0.45971854406675899 -0.24853276314288689 0 0.44222135442591931 -0.25639948428993953 0 0.45309938664657562 -0.26502365708152448 0 0.44323481619901939 -0.26908299279190068 0 0.44222135442591931 -0.25639948428993953 0 0.45309938664657562 -0.26502365708152448 0 0.44897282168762798 -0.30951528310646931 0 0.44265256996147512 -0.30004368630401551 0 0.45935833195610593 -0.30681939417686699 0 0.44897282168762798 -0.30951528310646931 0 0.43939714155718262 -0.31069822970525229 0 0.44404107150044991 -0.31691257942273271 0 0.44897282168762798 -0.30951528310646931 0 0.43939714155718262 -0.31069822970525229 0 0.44265256996147512 -0.30004368630401551 0 0.44265256996147512 -0.30004368630401551 0 0.44596224953670649 -0.29595361582692209 0 0.4430998265829787 -0.28736600713102672 0 0.44596224953670649 -0.29595361582692209 0 0.43743694859126259 -0.29296775186900692 0 0.44265256996147512 -0.30004368630401551 0 0.44596224953670649 -0.29595361582692209 0 0.43743694859126259 -0.29296775186900692 0 0.4378609686856903 -0.27790111256739919 0 0.4430998265829787 -0.28736600713102672 0 0.43320270226329649 -0.28670757767434618 0 0.4430998265829787 -0.28736600713102672 0 0.43320270226329649 -0.28670757767434618 0 0.43743694859126259 -0.29296775186900692 0 0.44873088824515478 -0.27798159794241739 0 0.4430998265829787 -0.28736600713102672 0 0.45489795979772218 -0.28610325223289229 0 0.4430998265829787 -0.28736600713102672 0 0.44596224953670649 -0.29595361582692209 0 0.45489795979772218 -0.28610325223289229 0 0.44265256996147512 -0.30004368630401551 0 0.47132628498073759 -0.29333752481836622 0 0.44596224953670649 -0.29595361582692209 0 0.45489795979772218 -0.28610325223289229 0 0.47132628498073759 -0.29333752481836622 0 0.46537054964303343 -0.27587751544572892 0 0.45489795979772218 -0.28610325223289229 0 0.47132628498073759 -0.29333752481836622 0 0.44265256996147512 -0.30004368630401551 0 0.44596224953670649 -0.29595361582692209 0 0.47132628498073759 -0.29333752481836622 0 0.44265256996147512 -0.30004368630401551 0 0.45935833195610593 -0.30681939417686699 0 0.47132628498073759 -0.29333752481836622 0 0.50000000000000022 -0.28663136333271749 0 0.48686089257311133 -0.30322805980915413 0 0.5 -0.31831992893172412 0 0.45935833195610593 -0.30681939417686699 0 0.47132628498073759 -0.29333752481836622 0 0.47611728531170761 -0.31462342215380878 0 0.47132628498073759 -0.29333752481836622 0 0.48686089257311133 -0.30322805980915413 0 0.47611728531170761 -0.31462342215380878 0 0.48238679851899557 -0.27010709570024499 0 0.47132628498073759 -0.29333752481836622 0 0.50000000000000022 -0.28663136333271749 0 0.47132628498073759 -0.29333752481836622 0 0.50000000000000022 -0.28663136333271749 0 0.48686089257311133 -0.30322805980915413 0 0.47132628498073759 -0.29333752481836622 0 0.50000000000000022 -0.28663136333271749 0 0.48686089257311133 -0.30322805980915413 0 0.5 -0.31831992893172412 0 0.47611728531170761 -0.31462342215380878 0 0.5 -0.31831992893172412 0 0.47543790526315222 -0.33690731983133287 0 0.5 -0.36144527637361312 0 0.47543790526315222 -0.33690731983133287 0 0.47611728531170761 -0.31462342215380878 0 0.45708745315099197 -0.32352822190568042 0 0.5 -0.31831992893172412 0 0.47543790526315222 -0.33690731983133287 0 0.47611728531170761 -0.31462342215380878 0 0.47543790526315222 -0.33690731983133287 0 0.5 -0.36144527637361312 0 0.46499590257557433 -0.35765761135647373 0 0.5 -0.36144527637361312 0 0.46499590257557433 -0.35765761135647373 0 0.45487118058901199 -0.38199621202214712 0 0.46499590257557433 -0.35765761135647373 0 0.44278334950484988 -0.35944530444543521 0 0.45487118058901199 -0.38199621202214712 0 0.47543790526315222 -0.33690731983133287 0 0.46499590257557433 -0.35765761135647373 0 0.45229702983115788 -0.34286225908246609 0 0.46499590257557433 -0.35765761135647373 0 0.44278334950484988 -0.35944530444543521 0 0.45229702983115788 -0.34286225908246609 0 0.44278334950484988 -0.35944530444543521 0 0.45229702983115788 -0.34286225908246609 0 0.43309306375093792 -0.34301666624096899 0 0.44278334950484988 -0.35944530444543521 0 0.45487118058901199 -0.38199621202214712 0 0.4295064337016708 -0.37630380625537613 0 0.45935833195610593 -0.30681939417686699 0 0.47611728531170761 -0.31462342215380878 0 0.45708745315099197 -0.32352822190568042 0 0.44897282168762798 -0.30951528310646931 0 0.45935833195610593 -0.30681939417686699 0 0.45708745315099197 -0.32352822190568042 0 0.47543790526315222 -0.33690731983133287 0 0.45708745315099197 -0.32352822190568042 0 0.45229702983115788 -0.34286225908246609 0 0.45708745315099197 -0.32352822190568042 0 0.45229702983115788 -0.34286225908246609 0 0.43972289086756222 -0.33009179364262969 0 0.45229702983115788 -0.34286225908246609 0 0.43972289086756222 -0.33009179364262969 0 0.43309306375093792 -0.34301666624096899 0 0.45708745315099197 -0.32352822190568042 0 0.43972289086756222 -0.33009179364262969 0 0.44404107150044991 -0.31691257942273271 0 0.43972289086756222 -0.33009179364262969 0 0.44404107150044991 -0.31691257942273271 0 0.4371041589070484 -0.32172682425415838 0 0.44897282168762798 -0.30951528310646931 0 0.45708745315099197 -0.32352822190568042 0 0.44404107150044991 -0.31691257942273271 0 0.44404107150044991 -0.31691257942273271 0 0.43722059943748248 -0.31773037177480667 0 0.4371041589070484 -0.32172682425415838 0 0.43939714155718262 -0.31069822970525229 0 0.44404107150044991 -0.31691257942273271 0 0.43722059943748248 -0.31773037177480667 0 0.43939714155718262 -0.31069822970525229 0 0.4240033371286468 -0.32309023050752028 0 0.4283400257852491 -0.32158385371708348 0 0.43939714155718262 -0.31069822970525229 0 0.43722059943748248 -0.31773037177480667 0 0.4283400257852491 -0.32158385371708348 0 0.42297398439717532 -0.31431650461902289 0 0.4240033371286468 -0.32309023050752028 0 0.42980672607172021 -0.31042682570502478 0 0.4240033371286468 -0.32309023050752028 0 0.4283400257852491 -0.32158385371708348 0 0.42739211041768382 -0.32743769415249979 0 0.4240033371286468 -0.32309023050752028 0 0.4283400257852491 -0.32158385371708348 0 0.4283400257852491 -0.32158385371708348 0 0.42739211041768382 -0.32743769415249979 0 0.43268086703270719 -0.32605970776166238 0 0.43972289086756222 -0.33009179364262969 0 0.43268086703270719 -0.32605970776166238 0 0.4371041589070484 -0.32172682425415838 0 0.4283400257852491 -0.32158385371708348 0 0.43268086703270719 -0.32605970776166238 0 0.4371041589070484 -0.32172682425415838 0 0.43722059943748248 -0.31773037177480667 0 0.4283400257852491 -0.32158385371708348 0 0.4371041589070484 -0.32172682425415838 0 0.43972289086756222 -0.33009179364262969 0 0.43086357845263779 -0.33208314546185158 0 0.43309306375093792 -0.34301666624096899 0 0.43972289086756222 -0.33009179364262969 0 0.43268086703270719 -0.32605970776166238 0 0.43086357845263779 -0.33208314546185158 0 0.42739211041768382 -0.32743769415249979 0 0.43268086703270719 -0.32605970776166238 0 0.43086357845263779 -0.33208314546185158 0 0.43086357845263779 -0.33208314546185158 0 0.43309306375093792 -0.34301666624096899 0 0.42229662434271242 -0.33545340476313867 0 0.43309306375093792 -0.34301666624096899 0 0.42229662434271242 -0.33545340476313867 0 0.41903385168708313 -0.34688535415289518 0 0.4240033371286468 -0.32309023050752028 0 0.42739211041768382 -0.32743769415249979 0 0.42229662434271242 -0.33545340476313867 0 0.42739211041768382 -0.32743769415249979 0 0.43086357845263779 -0.33208314546185158 0 0.42229662434271242 -0.33545340476313867 0 0.4240033371286468 -0.32309023050752028 0 0.41210406985478099 -0.33779523160192332 0 0.3987434882363875 -0.3318644020273675 0 0.4240033371286468 -0.32309023050752028 0 0.41210406985478099 -0.33779523160192332 0 0.4240033371286468 -0.32309023050752028 0 0.42229662434271242 -0.33545340476313867 0 0.41210406985478099 -0.33779523160192332 0 0.42229662434271242 -0.33545340476313867 0 0.41210406985478099 -0.33779523160192332 0 0.41903385168708313 -0.34688535415289518 0 0.4101883959345286 -0.31966314944611968 0 0.39742652577003768 -0.32057764139979211 0 0.41604981830497062 -0.30626549427173949 0 0.4240033371286468 -0.32309023050752028 0 0.3987434882363875 -0.3318644020273675 0 0.4240033371286468 -0.32309023050752028 0 0.4101883959345286 -0.31966314944611968 0 0.3987434882363875 -0.3318644020273675 0 0.42297398439717532 -0.31431650461902289 0 0.4240033371286468 -0.32309023050752028 0 0.41804897230906352 -0.31593284869531119 0 0.4101883959345286 -0.31966314944611968 0 0.41804897230906352 -0.31593284869531119 0 0.41604981830497062 -0.30626549427173949 0 0.4240033371286468 -0.32309023050752028 0 0.4101883959345286 -0.31966314944611968 0 0.41804897230906352 -0.31593284869531119 0 0.44278334950484988 -0.35944530444543521 0 0.42502369809693241 -0.35815568128673458 0 0.4295064337016708 -0.37630380625537613 0 0.42502369809693241 -0.35815568128673458 0 0.41178072199276039 -0.36946034709897613 0 0.4295064337016708 -0.37630380625537613 0 0.44278334950484988 -0.35944530444543521 0 0.43309306375093792 -0.34301666624096899 0 0.42502369809693241 -0.35815568128673458 0 0.43309306375093792 -0.34301666624096899 0 0.42502369809693241 -0.35815568128673458 0 0.41903385168708313 -0.34688535415289518 0 0.41903385168708313 -0.34688535415289518 0 0.41038503268935173 -0.34873370916237301 0 0.41227131205239381 -0.35747889671188982 0 0.41210406985478099 -0.33779523160192332 0 0.41038503268935173 -0.34873370916237301 0 0.40020480258091429 -0.35250023269632541 0 0.41210406985478099 -0.33779523160192332 0 0.41903385168708313 -0.34688535415289518 0 0.41038503268935173 -0.34873370916237301 0 0.41038503268935173 -0.34873370916237301 0 0.41227131205239381 -0.35747889671188982 0 0.40020480258091429 -0.35250023269632541 0 0.42502369809693241 -0.35815568128673458 0 0.41903385168708313 -0.34688535415289518 0 0.41227131205239381 -0.35747889671188982 0 0.42502369809693241 -0.35815568128673458 0 0.41227131205239381 -0.35747889671188982 0 0.41178072199276039 -0.36946034709897613 0 0.41227131205239381 -0.35747889671188982 0 0.41178072199276039 -0.36946034709897613 0 0.40304008304445821 -0.36149948744727312 0 0.40023604077199898 -0.36932453307105673 0 0.39341151274236552 -0.36661605599290897 0 0.38985283232992851 -0.37406313562868282 0 0.40023604077199898 -0.36932453307105673 0 0.38985283232992851 -0.37406313562868282 0 0.40124512744111018 -0.37763097726200962 0 0.41178072199276039 -0.36946034709897613 0 0.40023604077199898 -0.36932453307105673 0 0.40124512744111018 -0.37763097726200962 0 0.40023604077199898 -0.36932453307105673 0 0.40304008304445821 -0.36149948744727312 0 0.39341151274236552 -0.36661605599290897 0 0.41178072199276039 -0.36946034709897613 0 0.40023604077199898 -0.36932453307105673 0 0.40304008304445821 -0.36149948744727312 0 0.39341151274236552 -0.36661605599290897 0 0.3946399643090438 -0.3593772067985665 0 0.38630181170484679 -0.36478243060390519 0 0.40304008304445821 -0.36149948744727312 0 0.39341151274236552 -0.36661605599290897 0 0.3946399643090438 -0.3593772067985665 0 0.3946399643090438 -0.3593772067985665 0 0.40020480258091429 -0.35250023269632541 0 0.40304008304445821 -0.36149948744727312 0 0.3946399643090438 -0.3593772067985665 0 0.40020480258091429 -0.35250023269632541 0 0.41227131205239381 -0.35747889671188982 0 0.40304008304445821 -0.36149948744727312 0 0.40020480258091429 -0.35250023269632541 0 0.41038503268935173 -0.34873370916237301 0 0.40020480258091429 -0.35250023269632541 0 0.41210406985478099 -0.33779523160192332 0 0.40020480258091429 -0.35250023269632541 0 0.4013806943369253 -0.34118357981305891 0 0.41210406985478099 -0.33779523160192332 0 0.40020480258091429 -0.35250023269632541 0 0.40020480258091429 -0.35250023269632541 0 0.3918726413069567 -0.34401977947806439 0 0.38851632190518742 -0.35061072575364077 0 0.40020480258091429 -0.35250023269632541 0 0.3918726413069567 -0.34401977947806439 0 0.4013806943369253 -0.34118357981305891 0 0.40020480258091429 -0.35250023269632541 0 0.38851632190518742 -0.35061072575364077 0 0.38133718508326653 -0.35451636401379688 0 0.40020480258091429 -0.35250023269632541 0 0.38133718508326653 -0.35451636401379688 0 0.3749751666447283 -0.36183479748459391 0 0.3918726413069567 -0.34401977947806439 0 0.38297223629938471 -0.34860510254240179 0 0.37348363934412848 -0.34063857354721577 0 0.3946399643090438 -0.3593772067985665 0 0.40020480258091429 -0.35250023269632541 0 0.3749751666447283 -0.36183479748459391 0 0.40020480258091429 -0.35250023269632541 0 0.3749751666447283 -0.36183479748459391 0 0.3918726413069567 -0.34401977947806439 0 0.38851632190518742 -0.35061072575364077 0 0.38297223629938471 -0.34860510254240179 0 0.38851632190518742 -0.35061072575364077 0 0.38297223629938471 -0.34860510254240179 0 0.38133718508326653 -0.35451636401379688 0 0.38297223629938471 -0.34860510254240179 0 0.38133718508326653 -0.35451636401379688 0 0.3744951480075942 -0.35066427621442442 0 0.38297223629938471 -0.34860510254240179 0 0.37348363934412848 -0.34063857354721577 0 0.3744951480075942 -0.35066427621442442 0 0.38133718508326653 -0.35451636401379688 0 0.3749751666447283 -0.36183479748459391 0 0.37243122142124518 -0.35615963110985549 0 0.38133718508326653 -0.35451636401379688 0 0.37243122142124518 -0.35615963110985549 0 0.3744951480075942 -0.35066427621442442 0 0.3946399643090438 -0.3593772067985665 0 0.38630181170484679 -0.36478243060390519 0 0.3749751666447283 -0.36183479748459391 0 0.38630181170484679 -0.36478243060390519 0 0.38002689313390109 -0.36613921001796063 0 0.3749751666447283 -0.36183479748459391 0 0.37648520032120342 -0.3663236554996292 0 0.38002689313390109 -0.36613921001796063 0 0.3749751666447283 -0.36183479748459391 0 0.37648520032120342 -0.3663236554996292 0 0.38002689313390109 -0.36613921001796063 0 0.38234539386482602 -0.37161595648371382 0 0.37648520032120342 -0.3663236554996292 0 0.38234539386482602 -0.37161595648371382 0 0.37575133369273522 -0.37683273687038998 0 0.38630181170484679 -0.36478243060390519 0 0.38234539386482602 -0.37161595648371382 0 0.38985283232992851 -0.37406313562868282 0 0.39341151274236552 -0.36661605599290897 0 0.38630181170484679 -0.36478243060390519 0 0.38985283232992851 -0.37406313562868282 0 0.38630181170484679 -0.36478243060390519 0 0.38002689313390109 -0.36613921001796063 0 0.38234539386482602 -0.37161595648371382 0 0.39742652577003768 -0.32057764139979211 0 0.3987434882363875 -0.3318644020273675 0 0.3822115312300981 -0.32415917707579478 0 0.39742652577003768 -0.32057764139979211 0 0.38944706664846618 -0.31248730223946453 0 0.41604981830497062 -0.30626549427173949 0 0.4101883959345286 -0.31966314944611968 0 0.39742652577003768 -0.32057764139979211 0 0.3987434882363875 -0.3318644020273675 0 0.41210406985478099 -0.33779523160192332 0 0.3987434882363875 -0.3318644020273675 0 0.4013806943369253 -0.34118357981305891 0 0.3918726413069567 -0.34401977947806439 0 0.3987434882363875 -0.3318644020273675 0 0.4013806943369253 -0.34118357981305891 0 0.3987434882363875 -0.3318644020273675 0 0.3822115312300981 -0.32415917707579478 0 0.37348363934412848 -0.34063857354721577 0 0.3987434882363875 -0.3318644020273675 0 0.37348363934412848 -0.34063857354721577 0 0.3918726413069567 -0.34401977947806439 0 0.3987434882363875 -0.3318644020273675 0 0.37348363934412848 -0.34063857354721577 0 0.3822115312300981 -0.32415917707579478 0 0.37056996727289587 -0.32839188471441277 0 0.37348363934412848 -0.34063857354721577 0 0.3822115312300981 -0.32415917707579478 0 0.38944706664846618 -0.31248730223946453 0 0.3628443149919619 -0.31870911020718928 0 0.38944706664846618 -0.31248730223946453 0 0.3628443149919619 -0.31870911020718928 0 0.39742652577003768 -0.32057764139979211 0 0.3822115312300981 -0.32415917707579478 0 0.38944706664846618 -0.31248730223946453 0 0.38944706664846618 -0.31248730223946453 0 0.3740360814172552 -0.30482459059460548 0 0.3628443149919619 -0.31870911020718928 0 0.38944706664846618 -0.31248730223946453 0 0.38695261715406271 -0.29610311232081099 0 0.3740360814172552 -0.30482459059460548 0 0.38695261715406271 -0.29610311232081099 0 0.36659040915697022 -0.29146125278917062 0 0.3740360814172552 -0.30482459059460548 0 0.38944706664846618 -0.31248730223946453 0 0.40287418797622238 -0.29903925571920897 0 0.41604981830497062 -0.30626549427173949 0 0.38944706664846618 -0.31248730223946453 0 0.41604981830497062 -0.30626549427173949 0 0.38944706664846618 -0.31248730223946453 0 0.40287418797622238 -0.29903925571920897 0 0.38695261715406271 -0.29610311232081099 0 0.40287418797622238 -0.29903925571920897 0 0.39965404316175662 -0.28557249735530632 0 0.38695261715406271 -0.29610311232081099 0 0.38695261715406271 -0.29610311232081099 0 0.37988327898556268 -0.28017831707622581 0 0.36659040915697022 -0.29146125278917062 0 0.39965404316175662 -0.28557249735530632 0 0.38695261715406271 -0.29610311232081099 0 0.37988327898556268 -0.28017831707622581 0 0.37988327898556268 -0.28017831707622581 0 0.39511757652415641 -0.26150292724900559 0 0.39211153592001802 -0.243458058916251 0 0.37599739442549401 -0.25413598833060908 0 0.39511757652415641 -0.26150292724900559 0 0.37988327898556268 -0.28017831707622581 0 0.37599739442549401 -0.25413598833060908 0 0.39511757652415641 -0.26150292724900559 0 0.41035187406274998 -0.24282753742178551 0 0.39511757652415641 -0.26150292724900559 0 0.39965404316175662 -0.28557249735530632 0 0.39511757652415641 -0.26150292724900559 0 0.41172808633507069 -0.27689478194499351 0 0.39965404316175662 -0.28557249735530632 0 0.37988327898556268 -0.28017831707622581 0 0.39511757652415641 -0.26150292724900559 0 0.39511757652415641 -0.26150292724900559 0 0.41172808633507069 -0.27689478194499351 0 0.4161754997135817 -0.26384999015432808 0 0.41172808633507069 -0.27689478194499351 0 0.4161754997135817 -0.26384999015432808 0 0.42542591766400262 -0.27878062255760377 0 0.41035187406274998 -0.24282753742178551 0 0.39511757652415641 -0.26150292724900559 0 0.4161754997135817 -0.26384999015432808 0 0.41035187406274998 -0.24282753742178551 0 0.4161754997135817 -0.26384999015432808 0 0.42738807778665799 -0.25011272741584589 0 0.4161754997135817 -0.26384999015432808 0 0.42738807778665799 -0.25011272741584589 0 0.43268183932762322 -0.26686664253597869 0 0.44222135442591931 -0.25639948428993953 0 0.42738807778665799 -0.25011272741584589 0 0.43268183932762322 -0.26686664253597869 0 0.4161754997135817 -0.26384999015432808 0 0.42542591766400262 -0.27878062255760377 0 0.43268183932762322 -0.26686664253597869 0 0.4378609686856903 -0.27790111256739919 0 0.42542591766400262 -0.27878062255760377 0 0.43320270226329649 -0.28670757767434618 0 0.4378609686856903 -0.27790111256739919 0 0.42542591766400262 -0.27878062255760377 0 0.43268183932762322 -0.26686664253597869 0 0.44265256996147512 -0.30004368630401551 0 0.42226739461185608 -0.29476787240872382 0 0.43743694859126259 -0.29296775186900692 0 0.42542591766400262 -0.27878062255760377 0 0.43320270226329649 -0.28670757767434618 0 0.42226739461185608 -0.29476787240872382 0 0.43320270226329649 -0.28670757767434618 0 0.42226739461185608 -0.29476787240872382 0 0.43743694859126259 -0.29296775186900692 0 0.44265256996147512 -0.30004368630401551 0 0.42226739461185608 -0.29476787240872382 0 0.41604981830497062 -0.30626549427173949 0 0.43939714155718262 -0.31069822970525229 0 0.44265256996147512 -0.30004368630401551 0 0.4240033371286468 -0.32309023050752028 0 0.44265256996147512 -0.30004368630401551 0 0.42980672607172021 -0.31042682570502478 0 0.41604981830497062 -0.30626549427173949 0 0.44265256996147512 -0.30004368630401551 0 0.41604981830497062 -0.30626549427173949 0 0.44265256996147512 -0.30004368630401551 0 0.4240033371286468 -0.32309023050752028 0 0.44265256996147512 -0.30004368630401551 0 0.4240033371286468 -0.32309023050752028 0 0.42980672607172021 -0.31042682570502478 0 0.42297398439717532 -0.31431650461902289 0 0.42980672607172021 -0.31042682570502478 0 0.41604981830497062 -0.30626549427173949 0 0.40287418797622238 -0.29903925571920897 0 0.42226739461185608 -0.29476787240872382 0 0.41604981830497062 -0.30626549427173949 0 0.42297398439717532 -0.31431650461902289 0 0.41804897230906352 -0.31593284869531119 0 0.41604981830497062 -0.30626549427173949 0 0.40287418797622238 -0.29903925571920897 0 0.39965404316175662 -0.28557249735530632 0 0.42226739461185608 -0.29476787240872382 0 0.39965404316175662 -0.28557249735530632 0 0.41172808633507069 -0.27689478194499351 0 0.42226739461185608 -0.29476787240872382 0 0.41172808633507069 -0.27689478194499351 0 0.42542591766400262 -0.27878062255760377 0 0.42226739461185608 -0.29476787240872382 0 0.4636459141367551 -0.4765568974702668 0 0.5 -0.5 0 0.41109778695890131 -0.5 0 0.5 -0.5 0 0.47218418424867709 -0.44843168764585251 0 0.5 -0.42013277262407062 0 0.4636459141367551 -0.4765568974702668 0 0.5 -0.5 0 0.47218418424867709 -0.44843168764585251 0 0.4636459141367551 -0.4765568974702668 0 0.44630804834363602 -0.45525441068934031 0 0.42775395235248143 -0.46350172428493908 0 0.47218418424867709 -0.44843168764585251 0 0.44630804834363602 -0.45525441068934031 0 0.45259826140332188 -0.43079312136857728 0 0.4636459141367551 -0.4765568974702668 0 0.47218418424867709 -0.44843168764585251 0 0.44630804834363602 -0.45525441068934031 0 0.4636459141367551 -0.4765568974702668 0 0.44630804834363602 -0.45525441068934031 0 0.44630804834363602 -0.45525441068934031 0 0.45259826140332188 -0.43079312136857728 0 0.42897018255051689 -0.43395192390841392 0 0.44630804834363602 -0.45525441068934031 0 0.42897018255051689 -0.43395192390841392 0 0.47218418424867709 -0.44843168764585251 0 0.45259826140332188 -0.43079312136857728 0 0.46931997675391912 -0.40722141449383581 0 0.45259826140332188 -0.43079312136857728 0 0.46931997675391912 -0.40722141449383581 0 0.42869180294811271 -0.40013368697946761 0 0.47218418424867709 -0.44843168764585251 0 0.46931997675391912 -0.40722141449383581 0 0.5 -0.42013277262407062 0 0.5 -0.36144527637361312 0 0.46931997675391912 -0.40722141449383581 0 0.5 -0.42013277262407062 0 0.5 -0.36144527637361312 0 0.46931997675391912 -0.40722141449383581 0 0.45487118058901199 -0.38199621202214712 0 0.46931997675391912 -0.40722141449383581 0 0.45487118058901199 -0.38199621202214712 0 0.42869180294811271 -0.40013368697946761 0 0.45487118058901199 -0.38199621202214712 0 0.4295064337016708 -0.37630380625537613 0 0.42869180294811271 -0.40013368697946761 0 0.4295064337016708 -0.37630380625537613 0 0.42869180294811271 -0.40013368697946761 0 0.41075325489251768 -0.38592676112580948 0 0.42869180294811271 -0.40013368697946761 0 0.40568277507322142 -0.39964786269385899 0 0.41163231675739781 -0.41264943712748731 0 0.42869180294811271 -0.40013368697946761 0 0.41075325489251768 -0.38592676112580948 0 0.40568277507322142 -0.39964786269385899 0 0.41178072199276039 -0.36946034709897613 0 0.4295064337016708 -0.37630380625537613 0 0.41075325489251768 -0.38592676112580948 0 0.41178072199276039 -0.36946034709897613 0 0.41075325489251768 -0.38592676112580948 0 0.40124512744111018 -0.37763097726200962 0 0.41075325489251768 -0.38592676112580948 0 0.40124512744111018 -0.37763097726200962 0 0.39360278721834568 -0.38938010938552281 0 0.38985283232992851 -0.37406313562868282 0 0.40124512744111018 -0.37763097726200962 0 0.39360278721834568 -0.38938010938552281 0 0.38985283232992851 -0.37406313562868282 0 0.39360278721834568 -0.38938010938552281 0 0.38218940135637458 -0.38225584858690898 0 0.38234539386482602 -0.37161595648371382 0 0.38985283232992851 -0.37406313562868282 0 0.38218940135637458 -0.38225584858690898 0 0.39360278721834568 -0.38938010938552281 0 0.38218940135637458 -0.38225584858690898 0 0.37906721098711121 -0.3964361635524748 0 0.38218940135637458 -0.38225584858690898 0 0.37906721098711121 -0.3964361635524748 0 0.3725893756201073 -0.38617657497850821 0 0.38234539386482602 -0.37161595648371382 0 0.38218940135637458 -0.38225584858690898 0 0.37575133369273522 -0.37683273687038998 0 0.38218940135637458 -0.38225584858690898 0 0.37575133369273522 -0.37683273687038998 0 0.3725893756201073 -0.38617657497850821 0 0.39360278721834568 -0.38938010938552281 0 0.37906721098711121 -0.3964361635524748 0 0.3900357593394973 -0.40699930696122733 0 0.41075325489251768 -0.38592676112580948 0 0.39360278721834568 -0.38938010938552281 0 0.40568277507322142 -0.39964786269385899 0 0.39360278721834568 -0.38938010938552281 0 0.40568277507322142 -0.39964786269385899 0 0.3900357593394973 -0.40699930696122733 0 0.40568277507322142 -0.39964786269385899 0 0.3900357593394973 -0.40699930696122733 0 0.41163231675739781 -0.41264943712748731 0 0.3900357593394973 -0.40699930696122733 0 0.39413163883159802 -0.4243586204458879 0 0.41163231675739781 -0.41264943712748731 0 0.3900357593394973 -0.40699930696122733 0 0.37646336504577682 -0.42153134523602548 0 0.39413163883159802 -0.4243586204458879 0 0.37906721098711121 -0.3964361635524748 0 0.3900357593394973 -0.40699930696122733 0 0.37646336504577682 -0.42153134523602548 0 0.37646336504577682 -0.42153134523602548 0 0.39104169031469749 -0.44404943858412138 0 0.37646336504577682 -0.42153134523602548 0 0.39104169031469749 -0.44404943858412138 0 0.37913814977281651 -0.44555452444289911 0 0.37646336504577682 -0.42153134523602548 0 0.39413163883159802 -0.4243586204458879 0 0.39104169031469749 -0.44404943858412138 0 0.39413163883159802 -0.4243586204458879 0 0.40733151899913428 -0.43273780035506149 0 0.39104169031469749 -0.44404943858412138 0 0.39413163883159802 -0.4243586204458879 0 0.40733151899913428 -0.43273780035506149 0 0.41163231675739781 -0.41264943712748731 0 0.45259826140332188 -0.43079312136857728 0 0.42869180294811271 -0.40013368697946761 0 0.42897018255051689 -0.43395192390841392 0 0.40733151899913428 -0.43273780035506149 0 0.41163231675739781 -0.41264943712748731 0 0.42897018255051689 -0.43395192390841392 0 0.41163231675739781 -0.41264943712748731 0 0.42897018255051689 -0.43395192390841392 0 0.42869180294811271 -0.40013368697946761 0 0.41163231675739781 -0.41264943712748731 0 0.42897018255051689 -0.43395192390841392 0 0.37523851177864098 -0.47371754287909079 0 0.41109778695890131 -0.5 0 0.34408812366205549 -0.5 0 0.44630804834363602 -0.45525441068934031 0 0.42897018255051689 -0.43395192390841392 0 0.42775395235248143 -0.46350172428493908 0 0.42897018255051689 -0.43395192390841392 0 0.42775395235248143 -0.46350172428493908 0 0.41088176654146119 -0.4486795817093967 0 0.42775395235248143 -0.46350172428493908 0 0.41088176654146119 -0.4486795817093967 0 0.40562001558361821 -0.46656753193221728 0 0.40733151899913428 -0.43273780035506149 0 0.42897018255051689 -0.43395192390841392 0 0.41088176654146119 -0.4486795817093967 0 0.41088176654146119 -0.4486795817093967 0 0.39104169031469749 -0.44404943858412138 0 0.40562001558361821 -0.46656753193221728 0 0.40733151899913428 -0.43273780035506149 0 0.41088176654146119 -0.4486795817093967 0 0.39104169031469749 -0.44404943858412138 0 0.39104169031469749 -0.44404943858412138 0 0.37913814977281651 -0.44555452444289911 0 0.39980292491970371 -0.46415472457675411 0 0.37913814977281651 -0.44555452444289911 0 0.39980292491970371 -0.46415472457675411 0 0.38082278545624881 -0.46020279151301519 0 0.39980292491970371 -0.46415472457675411 0 0.37523851177864098 -0.47371754287909079 0 0.37913814977281651 -0.44555452444289911 0 0.38082278545624881 -0.46020279151301519 0 0.39980292491970371 -0.46415472457675411 0 0.38082278545624881 -0.46020279151301519 0 0.37523851177864098 -0.47371754287909079 0 0.369111555353834 -0.45738437415331701 0 0.37913814977281651 -0.44555452444289911 0 0.38082278545624881 -0.46020279151301519 0 0.369111555353834 -0.45738437415331701 0 0.39104169031469749 -0.44404943858412138 0 0.40562001558361821 -0.46656753193221728 0 0.39104169031469749 -0.44404943858412138 0 0.39980292491970371 -0.46415472457675411 0 0.40562001558361821 -0.46656753193221728 0 0.39980292491970371 -0.46415472457675411 0 0.37523851177864098 -0.47371754287909079 0 0.41109778695890131 -0.5 0 0.39980292491970371 -0.46415472457675411 0 0.40562001558361821 -0.46656753193221728 0 0.41109778695890131 -0.5 0 0.42775395235248143 -0.46350172428493908 0 0.40562001558361821 -0.46656753193221728 0 0.41109778695890131 -0.5 0 0.4636459141367551 -0.4765568974702668 0 0.42775395235248143 -0.46350172428493908 0 0.41109778695890131 -0.5 0 0.31868831182379492 -0.47460448765723601 0 0.34408812366205549 -0.5 0 0.34725270303591199 -0.46165050048431538 0 0.31868831182379492 -0.47460448765723601 0 0.34408812366205549 -0.5 0 0.29358541846982961 -0.5 0 0.37523851177864098 -0.47371754287909079 0 0.34408812366205549 -0.5 0 0.34725270303591199 -0.46165050048431538 0 0.34725270303591199 -0.46165050048431538 0 0.369111555353834 -0.45738437415331701 0 0.35895718600688548 -0.44614595515701388 0 0.37523851177864098 -0.47371754287909079 0 0.34725270303591199 -0.46165050048431538 0 0.369111555353834 -0.45738437415331701 0 0.37913814977281651 -0.44555452444289911 0 0.369111555353834 -0.45738437415331701 0 0.35895718600688548 -0.44614595515701388 0 0.37913814977281651 -0.44555452444289911 0 0.35895718600688548 -0.44614595515701388 0 0.35847337462592921 -0.42695432430904412 0 0.35895718600688548 -0.44614595515701388 0 0.34214415181649999 -0.44039282659351159 0 0.35847337462592921 -0.42695432430904412 0 0.34725270303591199 -0.46165050048431538 0 0.35895718600688548 -0.44614595515701388 0 0.34214415181649999 -0.44039282659351159 0 0.34725270303591199 -0.46165050048431538 0 0.34214415181649999 -0.44039282659351159 0 0.31983498040145031 -0.44649870074235598 0 0.31868831182379492 -0.47460448765723601 0 0.34725270303591199 -0.46165050048431538 0 0.31983498040145031 -0.44649870074235598 0 0.31983498040145031 -0.44649870074235598 0 0.32870697664902088 -0.42422763619409409 0 0.31076565243682508 -0.42931543849232362 0 0.32870697664902088 -0.42422763619409409 0 0.31118591922025568 -0.41568402757079898 0 0.31076565243682508 -0.42931543849232362 0 0.32870697664902088 -0.42422763619409409 0 0.3216375343900556 -0.40619296884350792 0 0.31118591922025568 -0.41568402757079898 0 0.3216375343900556 -0.40619296884350792 0 0.31184844400754602 -0.40115600451131522 0 0.31118591922025568 -0.41568402757079898 0 0.33780859947904202 -0.40835412417518901 0 0.32870697664902088 -0.42422763619409409 0 0.3216375343900556 -0.40619296884350792 0 0.33780859947904202 -0.40835412417518901 0 0.32870697664902088 -0.42422763619409409 0 0.35847337462592921 -0.42695432430904412 0 0.34214415181649999 -0.44039282659351159 0 0.32870697664902088 -0.42422763619409409 0 0.35847337462592921 -0.42695432430904412 0 0.34214415181649999 -0.44039282659351159 0 0.31983498040145031 -0.44649870074235598 0 0.32870697664902088 -0.42422763619409409 0 0.37913814977281651 -0.44555452444289911 0 0.35847337462592921 -0.42695432430904412 0 0.37646336504577682 -0.42153134523602548 0 0.37913814977281651 -0.44555452444289911 0 0.35847337462592921 -0.42695432430904412 0 0.37646336504577682 -0.42153134523602548 0 0.35847337462592921 -0.42695432430904412 0 0.36188503977685621 -0.39901325188792969 0 0.37646336504577682 -0.42153134523602548 0 0.36188503977685621 -0.39901325188792969 0 0.33780859947904202 -0.40835412417518901 0 0.35847337462592921 -0.42695432430904412 0 0.33780859947904202 -0.40835412417518901 0 0.35847337462592921 -0.42695432430904412 0 0.36188503977685621 -0.39901325188792969 0 0.36188503977685621 -0.39901325188792969 0 0.35168057921699658 -0.38637396419872228 0 0.34225243093622848 -0.39372756618582022 0 0.33780859947904202 -0.40835412417518901 0 0.36188503977685621 -0.39901325188792969 0 0.34225243093622848 -0.39372756618582022 0 0.37906721098711121 -0.3964361635524748 0 0.36188503977685621 -0.39901325188792969 0 0.3725893756201073 -0.38617657497850821 0 0.37906721098711121 -0.3964361635524748 0 0.37646336504577682 -0.42153134523602548 0 0.36188503977685621 -0.39901325188792969 0 0.36188503977685621 -0.39901325188792969 0 0.3725893756201073 -0.38617657497850821 0 0.36550550193374109 -0.37967124366964988 0 0.36188503977685621 -0.39901325188792969 0 0.36550550193374109 -0.37967124366964988 0 0.35168057921699658 -0.38637396419872228 0 0.37575133369273522 -0.37683273687038998 0 0.3725893756201073 -0.38617657497850821 0 0.36550550193374109 -0.37967124366964988 0 0.36550550193374109 -0.37967124366964988 0 0.35168057921699658 -0.38637396419872228 0 0.35670474165818711 -0.37413374501353031 0 0.33692428299517091 -0.38194383452743141 0 0.35670474165818711 -0.37413374501353031 0 0.35168057921699658 -0.38637396419872228 0 0.33692428299517091 -0.38194383452743141 0 0.35670474165818711 -0.37413374501353031 0 0.33692428299517091 -0.38194383452743141 0 0.3497455307085422 -0.37116936227286262 0 0.35670474165818711 -0.37413374501353031 0 0.33692428299517091 -0.38194383452743141 0 0.32451589477235632 -0.3805039270611319 0 0.3497455307085422 -0.37116936227286262 0 0.33692428299517091 -0.38194383452743141 0 0.33353228443564897 -0.39344486223244318 0 0.3171438243321551 -0.38975392404133369 0 0.32451589477235632 -0.3805039270611319 0 0.3497455307085422 -0.37116936227286262 0 0.33692428299517091 -0.38194383452743141 0 0.34225243093622848 -0.39372756618582022 0 0.33353228443564897 -0.39344486223244318 0 0.35168057921699658 -0.38637396419872228 0 0.33692428299517091 -0.38194383452743141 0 0.34225243093622848 -0.39372756618582022 0 0.33780859947904202 -0.40835412417518901 0 0.33353228443564897 -0.39344486223244318 0 0.3171438243321551 -0.38975392404133369 0 0.33780859947904202 -0.40835412417518901 0 0.34225243093622848 -0.39372756618582022 0 0.33353228443564897 -0.39344486223244318 0 0.3216375343900556 -0.40619296884350792 0 0.3171438243321551 -0.38975392404133369 0 0.31184844400754602 -0.40115600451131522 0 0.33780859947904202 -0.40835412417518901 0 0.3171438243321551 -0.38975392404133369 0 0.33780859947904202 -0.40835412417518901 0 0.3216375343900556 -0.40619296884350792 0 0.3171438243321551 -0.38975392404133369 0 0.31473524050889778 -0.39070492601665763 0 0.3171438243321551 -0.38975392404133369 0 0.31184844400754602 -0.40115600451131522 0 0.3171438243321551 -0.38975392404133369 0 0.32451589477235632 -0.3805039270611319 0 0.31200834663845739 -0.38513152131946871 0 0.32451589477235632 -0.3805039270611319 0 0.31200834663845739 -0.38513152131946871 0 0.31473524050889778 -0.39070492601665763 0 0.3171438243321551 -0.38975392404133369 0 0.31200834663845739 -0.38513152131946871 0 0.33692428299517091 -0.38194383452743141 0 0.3171438243321551 -0.38975392404133369 0 0.32451589477235632 -0.3805039270611319 0 0.3171438243321551 -0.38975392404133369 0 0.31200834663845739 -0.38513152131946871 0 0.33692428299517091 -0.38194383452743141 0 0.3171438243321551 -0.38975392404133369 0 0.31473524050889778 -0.39070492601665763 0 0.3171438243321551 -0.38975392404133369 0 0.31733818943790881 -0.37790850518960978 0 0.31081738867531422 -0.37608488326482409 0 0.31200834663845739 -0.38513152131946871 0 0.31733818943790881 -0.37790850518960978 0 0.32451589477235632 -0.3805039270611319 0 0.31200834663845739 -0.38513152131946871 0 0.31733818943790881 -0.37790850518960978 0 0.31081738867531422 -0.37608488326482409 0 0.31651823040137472 -0.37104163235717103 0 0.31733818943790881 -0.37790850518960978 0 0.32451589477235632 -0.3805039270611319 0 0.32656154733158371 -0.36914920215321162 0 0.3171438243321551 -0.38975392404133369 0 0.32451589477235632 -0.3805039270611319 0 0.30074944021728928 -0.38929713796567278 0 0.30087887191891721 -0.38237028820663072 0 0.31200834663845739 -0.38513152131946871 0 0.30074944021728928 -0.38929713796567278 0 0.30087887191891721 -0.38237028820663072 0 0.29272165566417968 -0.38148077414825782 0 0.30074944021728928 -0.38929713796567278 0 0.30724237529501802 -0.39070686845439251 0 0.30074944021728928 -0.38929713796567278 0 0.29731078109748571 -0.39056938725297102 0 0.30125491439284202 -0.37545244228412589 0 0.30087887191891721 -0.38237028820663072 0 0.29468253797650962 -0.37505353359411409 0 0.30125491439284202 -0.37545244228412589 0 0.31200834663845739 -0.38513152131946871 0 0.30125491439284202 -0.37545244228412589 0 0.31081738867531422 -0.37608488326482409 0 0.31200834663845739 -0.38513152131946871 0 0.30125491439284202 -0.37545244228412589 0 0.30087887191891721 -0.38237028820663072 0 0.31200834663845739 -0.38513152131946871 0 0.30074944021728928 -0.38929713796567278 0 0.31200834663845739 -0.38513152131946871 0 0.30724237529501802 -0.39070686845439251 0 0.30074944021728928 -0.38929713796567278 0 0.31200834663845739 -0.38513152131946871 0 0.31473524050889778 -0.39070492601665763 0 0.31200834663845739 -0.38513152131946871 0 0.30724237529501802 -0.39070686845439251 0 0.31473524050889778 -0.39070492601665763 0 0.30281862903424178 -0.39541006475509671 0 0.29727024040171812 -0.40892052213655988 0 0.31473524050889778 -0.39070492601665763 0 0.30281862903424178 -0.39541006475509671 0 0.31473524050889778 -0.39070492601665763 0 0.29727024040171812 -0.40892052213655988 0 0.31473524050889778 -0.39070492601665763 0 0.30724237529501802 -0.39070686845439251 0 0.30281862903424178 -0.39541006475509671 0 0.31473524050889778 -0.39070492601665763 0 0.31184844400754602 -0.40115600451131522 0 0.29727024040171812 -0.40892052213655988 0 0.30281862903424178 -0.39541006475509671 0 0.29430326242677091 -0.39954524430462851 0 0.29727024040171812 -0.40892052213655988 0 0.30281862903424178 -0.39541006475509671 0 0.29597039466305758 -0.39461290342059629 0 0.29430326242677091 -0.39954524430462851 0 0.30074944021728928 -0.38929713796567278 0 0.30724237529501802 -0.39070686845439251 0 0.30281862903424178 -0.39541006475509671 0 0.30074944021728928 -0.38929713796567278 0 0.29731078109748571 -0.39056938725297102 0 0.30281862903424178 -0.39541006475509671 0 0.29731078109748571 -0.39056938725297102 0 0.30281862903424178 -0.39541006475509671 0 0.29597039466305758 -0.39461290342059629 0 0.29731078109748571 -0.39056938725297102 0 0.29597039466305758 -0.39461290342059629 0 0.28944890609373197 -0.39292691736968888 0 0.28944890609373197 -0.39292691736968888 0 0.29430326242677091 -0.39954524430462851 0 0.28483851071920502 -0.39971744616474059 0 0.29597039466305758 -0.39461290342059629 0 0.28944890609373197 -0.39292691736968888 0 0.29430326242677091 -0.39954524430462851 0 0.29430326242677091 -0.39954524430462851 0 0.28483851071920502 -0.39971744616474059 0 0.29727024040171812 -0.40892052213655988 0 0.28944890609373197 -0.39292691736968888 0 0.28483851071920502 -0.39971744616474059 0 0.28044175211659811 -0.38488798143965519 0 0.30074944021728928 -0.38929713796567278 0 0.29731078109748571 -0.39056938725297102 0 0.28044175211659811 -0.38488798143965519 0 0.30074944021728928 -0.38929713796567278 0 0.28044175211659811 -0.38488798143965519 0 0.30074944021728928 -0.38929713796567278 0 0.29272165566417968 -0.38148077414825782 0 0.28044175211659811 -0.38488798143965519 0 0.29731078109748571 -0.39056938725297102 0 0.28944890609373197 -0.39292691736968888 0 0.28044175211659811 -0.38488798143965519 0 0.30087887191891721 -0.38237028820663072 0 0.29468253797650962 -0.37505353359411409 0 0.29272165566417968 -0.38148077414825782 0 0.29468253797650962 -0.37505353359411409 0 0.29272165566417968 -0.38148077414825782 0 0.28712009536255512 -0.37555389988898102 0 0.29272165566417968 -0.38148077414825782 0 0.28712009536255512 -0.37555389988898102 0 0.28044175211659811 -0.38488798143965519 0 0.28712009536255512 -0.37555389988898102 0 0.28044175211659811 -0.38488798143965519 0 0.28062042269181919 -0.37395588221133558 0 0.28044175211659811 -0.38488798143965519 0 0.26013406401590672 -0.38047882491363849 0 0.26624182353569531 -0.37453487882786929 0 0.28044175211659811 -0.38488798143965519 0 0.26013406401590672 -0.38047882491363849 0 0.28044175211659811 -0.38488798143965519 0 0.26759888073157778 -0.38965162053523827 0 0.26013406401590672 -0.38047882491363849 0 0.28044175211659811 -0.38488798143965519 0 0.27302933098373239 -0.3720445187767164 0 0.28062042269181919 -0.37395588221133558 0 0.28044175211659811 -0.38488798143965519 0 0.26624182353569531 -0.37453487882786929 0 0.27302933098373239 -0.3720445187767164 0 0.26013406401590672 -0.38047882491363849 0 0.25831589449737669 -0.38339136364634541 0 0.23982637591521519 -0.37606966838762163 0 0.26013406401590672 -0.38047882491363849 0 0.25375531452165939 -0.37623440762837412 0 0.23982637591521519 -0.37606966838762163 0 0.25831589449737669 -0.38339136364634541 0 0.25262985795907278 -0.38262555595729458 0 0.23982637591521519 -0.37606966838762163 0 0.26039509775932151 -0.37535611644817157 0 0.26013406401590672 -0.38047882491363849 0 0.26624182353569531 -0.37453487882786929 0 0.26039509775932151 -0.37535611644817157 0 0.26013406401590672 -0.38047882491363849 0 0.25375531452165939 -0.37623440762837412 0 0.26759888073157778 -0.38965162053523827 0 0.25262985795907278 -0.38262555595729458 0 0.26759888073157778 -0.38965162053523827 0 0.26013406401590672 -0.38047882491363849 0 0.25831589449737669 -0.38339136364634541 0 0.26759888073157778 -0.38965162053523827 0 0.25262985795907278 -0.38262555595729458 0 0.25527927598515687 -0.39257823752362669 0 0.26759888073157778 -0.38965162053523827 0 0.25831589449737669 -0.38339136364634541 0 0.25262985795907278 -0.38262555595729458 0 0.25262985795907278 -0.38262555595729458 0 0.25527927598515687 -0.39257823752362669 0 0.24797184102598641 -0.38734771304747279 0 0.25191562489914582 -0.403836855131881 0 0.26357342846648779 -0.39829469068007012 0 0.26883282526468583 -0.40733423329173191 0 0.25191562489914582 -0.403836855131881 0 0.25527927598515687 -0.39257823752362669 0 0.26357342846648779 -0.39829469068007012 0 0.25191562489914582 -0.403836855131881 0 0.25527927598515687 -0.39257823752362669 0 0.24749080516554131 -0.39358411427499751 0 0.25527927598515687 -0.39257823752362669 0 0.24749080516554131 -0.39358411427499751 0 0.24797184102598641 -0.38734771304747279 0 0.26759888073157778 -0.38965162053523827 0 0.25527927598515687 -0.39257823752362669 0 0.26357342846648779 -0.39829469068007012 0 0.26357342846648779 -0.39829469068007012 0 0.27424053545187299 -0.39807250691787238 0 0.26883282526468583 -0.40733423329173191 0 0.26759888073157778 -0.38965162053523827 0 0.26357342846648779 -0.39829469068007012 0 0.27424053545187299 -0.39807250691787238 0 0.28044175211659811 -0.38488798143965519 0 0.26759888073157778 -0.38965162053523827 0 0.27424053545187299 -0.39807250691787238 0 0.28483851071920502 -0.39971744616474059 0 0.28044175211659811 -0.38488798143965519 0 0.27424053545187299 -0.39807250691787238 0 0.27424053545187299 -0.39807250691787238 0 0.26883282526468583 -0.40733423329173191 0 0.28134935645493048 -0.41196038256586631 0 0.28483851071920502 -0.39971744616474059 0 0.27424053545187299 -0.39807250691787238 0 0.28134935645493048 -0.41196038256586631 0 0.26883282526468583 -0.40733423329173191 0 0.27980524029453868 -0.42713611825646253 0 0.28134935645493048 -0.41196038256586631 0 0.26883282526468583 -0.40733423329173191 0 0.25879287694914321 -0.41560606491866858 0 0.27980524029453868 -0.42713611825646253 0 0.25191562489914582 -0.403836855131881 0 0.26883282526468583 -0.40733423329173191 0 0.25879287694914321 -0.41560606491866858 0 0.25879287694914321 -0.41560606491866858 0 0.25604227931608808 -0.42832054380316031 0 0.24595077245144839 -0.41665411901766092 0 0.25191562489914582 -0.403836855131881 0 0.25879287694914321 -0.41560606491866858 0 0.24595077245144839 -0.41665411901766092 0 0.25879287694914321 -0.41560606491866858 0 0.25604227931608808 -0.42832054380316031 0 0.27980524029453868 -0.42713611825646253 0 0.25604227931608808 -0.42832054380316031 0 0.27980524029453868 -0.42713611825646253 0 0.26568370113119583 -0.44669878343255831 0 0.27980524029453868 -0.42713611825646253 0 0.29688666743636921 -0.42429159524699372 0 0.29687926099881168 -0.43966745170869109 0 0.27980524029453868 -0.42713611825646253 0 0.29727024040171812 -0.40892052213655988 0 0.29688666743636921 -0.42429159524699372 0 0.27980524029453868 -0.42713611825646253 0 0.28134935645493048 -0.41196038256586631 0 0.29727024040171812 -0.40892052213655988 0 0.28483851071920502 -0.39971744616474059 0 0.28134935645493048 -0.41196038256586631 0 0.29727024040171812 -0.40892052213655988 0 0.27980524029453868 -0.42713611825646253 0 0.29727024040171812 -0.40892052213655988 0 0.29727024040171812 -0.40892052213655988 0 0.31118591922025568 -0.41568402757079898 0 0.29688666743636921 -0.42429159524699372 0 0.31184844400754602 -0.40115600451131522 0 0.29727024040171812 -0.40892052213655988 0 0.31118591922025568 -0.41568402757079898 0 0.31118591922025568 -0.41568402757079898 0 0.31076565243682508 -0.42931543849232362 0 0.29688666743636921 -0.42429159524699372 0 0.31076565243682508 -0.42931543849232362 0 0.29688666743636921 -0.42429159524699372 0 0.29687926099881168 -0.43966745170869109 0 0.26435448448350718 -0.4787772290542629 0 0.29358541846982961 -0.5 0 0.2268251930842379 -0.49999999999999889 0 0.31983498040145031 -0.44649870074235598 0 0.29687926099881168 -0.43966745170869109 0 0.28868033354972678 -0.46487323705950839 0 0.31983498040145031 -0.44649870074235598 0 0.31076565243682508 -0.42931543849232362 0 0.29687926099881168 -0.43966745170869109 0 0.31868831182379492 -0.47460448765723601 0 0.31983498040145031 -0.44649870074235598 0 0.28868033354972678 -0.46487323705950839 0 0.29687926099881168 -0.43966745170869109 0 0.28868033354972678 -0.46487323705950839 0 0.26568370113119583 -0.44669878343255831 0 0.27980524029453868 -0.42713611825646253 0 0.29687926099881168 -0.43966745170869109 0 0.26568370113119583 -0.44669878343255831 0 0.26568370113119583 -0.44669878343255831 0 0.2461781339165178 -0.45593835348483308 0 0.23968257135213941 -0.44784739402877238 0 0.25604227931608808 -0.42832054380316031 0 0.26568370113119583 -0.44669878343255831 0 0.23968257135213941 -0.44784739402877238 0 0.26568370113119583 -0.44669878343255831 0 0.23968257135213941 -0.44784739402877238 0 0.26568370113119583 -0.44669878343255831 0 0.26274331173437537 -0.46330535361607011 0 0.2461781339165178 -0.45593835348483308 0 0.26274331173437537 -0.46330535361607011 0 0.25066913662040152 -0.46960567687327343 0 0.2461781339165178 -0.45593835348483308 0 0.28868033354972678 -0.46487323705950839 0 0.26568370113119583 -0.44669878343255831 0 0.26274331173437537 -0.46330535361607011 0 0.28868033354972678 -0.46487323705950839 0 0.26274331173437537 -0.46330535361607011 0 0.26435448448350718 -0.4787772290542629 0 0.26435448448350718 -0.4787772290542629 0 0.25066913662040152 -0.46960567687327343 0 0.2365016635003776 -0.4779691767424159 0 0.26274331173437537 -0.46330535361607011 0 0.26435448448350718 -0.4787772290542629 0 0.25066913662040152 -0.46960567687327343 0 0.31868831182379492 -0.47460448765723601 0 0.28868033354972678 -0.46487323705950839 0 0.29358541846982961 -0.5 0 0.28868033354972678 -0.46487323705950839 0 0.26435448448350718 -0.4787772290542629 0 0.29358541846982961 -0.5 0 0.33080434841695783 -0.29074829287130521 0 0.32965780542240031 -0.27691611536811839 0 0.34653660693114219 -0.28206710405808127 0 0.33080434841695783 -0.29074829287130521 0 0.34048218640109079 -0.29769810510013028 0 0.34653660693114219 -0.28206710405808127 0 0.33080434841695783 -0.29074829287130521 0 0.34048218640109079 -0.29769810510013028 0 0.32882547648512522 -0.30000389176608211 0 0.34048218640109079 -0.29769810510013028 0 0.33873551144038527 -0.31192472829795859 0 0.32882547648512522 -0.30000389176608211 0 0.33873551144038527 -0.31192472829795859 0 0.31462670788880859 -0.30514034638872811 0 0.32882547648512522 -0.30000389176608211 0 0.31462670788880859 -0.30514034638872811 0 0.31947862827838341 -0.29450798617228829 0 0.31462670788880859 -0.30514034638872811 0 0.32356643349366909 -0.315722087904166 0 0.30768770755148411 -0.31625887968496008 0 0.33873551144038527 -0.31192472829795859 0 0.32882547648512522 -0.30000389176608211 0 0.31462670788880859 -0.30514034638872811 0 0.33873551144038527 -0.31192472829795859 0 0.31462670788880859 -0.30514034638872811 0 0.32356643349366909 -0.315722087904166 0 0.31462670788880859 -0.30514034638872811 0 0.31947862827838341 -0.29450798617228829 0 0.3091931624115945 -0.29635899131314541 0 0.31947862827838341 -0.29450798617228829 0 0.30977078155910132 -0.2883419886758033 0 0.3091931624115945 -0.29635899131314541 0 0.33080434841695783 -0.29074829287130521 0 0.32882547648512522 -0.30000389176608211 0 0.31947862827838341 -0.29450798617228829 0 0.33080434841695783 -0.29074829287130521 0 0.31947862827838341 -0.29450798617228829 0 0.3197131959765161 -0.28239582380179301 0 0.33080434841695783 -0.29074829287130521 0 0.3197131959765161 -0.28239582380179301 0 0.32965780542240031 -0.27691611536811839 0 0.31947862827838341 -0.29450798617228829 0 0.3197131959765161 -0.28239582380179301 0 0.30977078155910132 -0.2883419886758033 0 0.31509102578424852 -0.27192589933182021 0 0.32132836083141447 -0.25869816695462983 0 0.32965780542240031 -0.27691611536811839 0 0.3197131959765161 -0.28239582380179301 0 0.31509102578424852 -0.27192589933182021 0 0.30470102983776048 -0.27729653019685002 0 0.3197131959765161 -0.28239582380179301 0 0.31509102578424852 -0.27192589933182021 0 0.32965780542240031 -0.27691611536811839 0 0.31509102578424852 -0.27192589933182021 0 0.32132836083141447 -0.25869816695462983 0 0.30142790699742789 -0.26480033043832729 0 0.33084431285168597 -0.2421128803149821 0 0.32132836083141447 -0.25869816695462983 0 0.33552640377636223 -0.26286363857661149 0 0.34511110575225162 -0.2497895771887422 0 0.33552640377636223 -0.26286363857661149 0 0.34987549789431899 -0.26546285629266247 0 0.33084431285168597 -0.2421128803149821 0 0.34511110575225162 -0.2497895771887422 0 0.33552640377636223 -0.26286363857661149 0 0.33552640377636223 -0.26286363857661149 0 0.32965780542240031 -0.27691611536811839 0 0.34653660693114219 -0.28206710405808127 0 0.32132836083141447 -0.25869816695462983 0 0.33552640377636223 -0.26286363857661149 0 0.32965780542240031 -0.27691611536811839 0 0.33552640377636223 -0.26286363857661149 0 0.34987549789431899 -0.26546285629266247 0 0.34653660693114219 -0.28206710405808127 0 0.34987549789431899 -0.26546285629266247 0 0.36329898133796179 -0.27118029427363299 0 0.34653660693114219 -0.28206710405808127 0 0.34511110575225162 -0.2497895771887422 0 0.34987549789431899 -0.26546285629266247 0 0.35999001524652302 -0.25407051354681798 0 0.34987549789431899 -0.26546285629266247 0 0.35999001524652302 -0.25407051354681798 0 0.36329898133796179 -0.27118029427363299 0 0.37599739442549401 -0.25413598833060908 0 0.35999001524652302 -0.25407051354681798 0 0.36329898133796179 -0.27118029427363299 0 0.37988327898556268 -0.28017831707622581 0 0.36329898133796179 -0.27118029427363299 0 0.36659040915697022 -0.29146125278917062 0 0.37988327898556268 -0.28017831707622581 0 0.37599739442549401 -0.25413598833060908 0 0.36329898133796179 -0.27118029427363299 0 0.36659040915697022 -0.29146125278917062 0 0.34653660693114219 -0.28206710405808127 0 0.35250551392271168 -0.29832796041331611 0 0.34048218640109079 -0.29769810510013028 0 0.34653660693114219 -0.28206710405808127 0 0.35250551392271168 -0.29832796041331611 0 0.36329898133796179 -0.27118029427363299 0 0.36659040915697022 -0.29146125278917062 0 0.34653660693114219 -0.28206710405808127 0 0.33873551144038527 -0.31192472829795859 0 0.36089048936834089 -0.30627297123289249 0 0.3628443149919619 -0.31870911020718928 0 0.33873551144038527 -0.31192472829795859 0 0.35250551392271168 -0.29832796041331611 0 0.36089048936834089 -0.30627297123289249 0 0.34048218640109079 -0.29769810510013028 0 0.33873551144038527 -0.31192472829795859 0 0.35250551392271168 -0.29832796041331611 0 0.36089048936834089 -0.30627297123289249 0 0.3740360814172552 -0.30482459059460548 0 0.3628443149919619 -0.31870911020718928 0 0.36659040915697022 -0.29146125278917062 0 0.36089048936834089 -0.30627297123289249 0 0.3740360814172552 -0.30482459059460548 0 0.36659040915697022 -0.29146125278917062 0 0.35250551392271168 -0.29832796041331611 0 0.36089048936834089 -0.30627297123289249 0 0.3822115312300981 -0.32415917707579478 0 0.3628443149919619 -0.31870911020718928 0 0.37056996727289587 -0.32839188471441277 0 0.3822115312300981 -0.32415917707579478 0 0.3628443149919619 -0.31870911020718928 0 0.3628443149919619 -0.31870911020718928 0 0.37056996727289587 -0.32839188471441277 0 0.36117448259664181 -0.33019331593686058 0 0.37056996727289587 -0.32839188471441277 0 0.37348363934412848 -0.34063857354721577 0 0.36117448259664181 -0.33019331593686058 0 0.37348363934412848 -0.34063857354721577 0 0.36117448259664181 -0.33019331593686058 0 0.35555444199428993 -0.34179213160359412 0 0.36117448259664181 -0.33019331593686058 0 0.35555444199428993 -0.34179213160359412 0 0.34920381617543628 -0.32189932771988228 0 0.35555444199428993 -0.34179213160359412 0 0.34920381617543628 -0.32189932771988228 0 0.33162107477288688 -0.32902550564427702 0 0.33873551144038527 -0.31192472829795859 0 0.3628443149919619 -0.31870911020718928 0 0.33873551144038527 -0.31192472829795859 0 0.3628443149919619 -0.31870911020718928 0 0.34920381617543628 -0.32189932771988228 0 0.3628443149919619 -0.31870911020718928 0 0.34920381617543628 -0.32189932771988228 0 0.3628443149919619 -0.31870911020718928 0 0.36117448259664181 -0.33019331593686058 0 0.34920381617543628 -0.32189932771988228 0 0.37648520032120342 -0.3663236554996292 0 0.35670474165818711 -0.37413374501353031 0 0.3749751666447283 -0.36183479748459391 0 0.3497455307085422 -0.37116936227286262 0 0.3749751666447283 -0.36183479748459391 0 0.3497455307085422 -0.37116936227286262 0 0.35670474165818711 -0.37413374501353031 0 0.3749751666447283 -0.36183479748459391 0 0.36105171601068331 -0.36232965853858817 0 0.3497455307085422 -0.37116936227286262 0 0.37648520032120342 -0.3663236554996292 0 0.3749751666447283 -0.36183479748459391 0 0.35670474165818711 -0.37413374501353031 0 0.37648520032120342 -0.3663236554996292 0 0.36550550193374109 -0.37967124366964988 0 0.35670474165818711 -0.37413374501353031 0 0.37648520032120342 -0.3663236554996292 0 0.37575133369273522 -0.37683273687038998 0 0.36550550193374109 -0.37967124366964988 0 0.3749751666447283 -0.36183479748459391 0 0.36105171601068331 -0.36232965853858817 0 0.36704415181528538 -0.35766707909708162 0 0.37348363934412848 -0.34063857354721577 0 0.36403277299619102 -0.34988609376421143 0 0.34822379045186957 -0.34941274506706399 0 0.37348363934412848 -0.34063857354721577 0 0.34822379045186957 -0.34941274506706399 0 0.36105171601068331 -0.36232965853858817 0 0.36218961946005129 -0.35741102277749331 0 0.35672374461363249 -0.35708525648515582 0 0.36218961946005129 -0.35741102277749331 0 0.36403277299619102 -0.34988609376421143 0 0.35672374461363249 -0.35708525648515582 0 0.36218961946005129 -0.35741102277749331 0 0.36704415181528538 -0.35766707909708162 0 0.36403277299619102 -0.34988609376421143 0 0.36105171601068331 -0.36232965853858817 0 0.36218961946005129 -0.35741102277749331 0 0.36704415181528538 -0.35766707909708162 0 0.3749751666447283 -0.36183479748459391 0 0.36704415181528538 -0.35766707909708162 0 0.37243122142124518 -0.35615963110985549 0 0.37243122142124518 -0.35615963110985549 0 0.3744951480075942 -0.35066427621442442 0 0.36403277299619102 -0.34988609376421143 0 0.36704415181528538 -0.35766707909708162 0 0.37243122142124518 -0.35615963110985549 0 0.36403277299619102 -0.34988609376421143 0 0.37348363934412848 -0.34063857354721577 0 0.3744951480075942 -0.35066427621442442 0 0.36403277299619102 -0.34988609376421143 0 0.37348363934412848 -0.34063857354721577 0 0.35555444199428993 -0.34179213160359412 0 0.34822379045186957 -0.34941274506706399 0 0.35555444199428993 -0.34179213160359412 0 0.34822379045186957 -0.34941274506706399 0 0.33532521964461848 -0.34424399163981551 0 0.36403277299619102 -0.34988609376421143 0 0.34822379045186957 -0.34941274506706399 0 0.35112450151104518 -0.35275175811233189 0 0.34822379045186957 -0.34941274506706399 0 0.35112450151104518 -0.35275175811233189 0 0.33782019814170111 -0.3666278425867322 0 0.36403277299619102 -0.34988609376421143 0 0.35112450151104518 -0.35275175811233189 0 0.35672374461363249 -0.35708525648515582 0 0.35112450151104518 -0.35275175811233189 0 0.35672374461363249 -0.35708525648515582 0 0.35072776353668861 -0.35960044939757441 0 0.36105171601068331 -0.36232965853858817 0 0.35344819685459278 -0.36288375508335119 0 0.3497455307085422 -0.37116936227286262 0 0.36105171601068331 -0.36232965853858817 0 0.35672374461363249 -0.35708525648515582 0 0.35344819685459278 -0.36288375508335119 0 0.35672374461363249 -0.35708525648515582 0 0.35344819685459278 -0.36288375508335119 0 0.35072776353668861 -0.35960044939757441 0 0.35344819685459278 -0.36288375508335119 0 0.35072776353668861 -0.35960044939757441 0 0.34899222940341751 -0.36423404872257509 0 0.35112450151104518 -0.35275175811233189 0 0.35072776353668861 -0.35960044939757441 0 0.33782019814170111 -0.3666278425867322 0 0.35344819685459278 -0.36288375508335119 0 0.34899222940341751 -0.36423404872257509 0 0.3497455307085422 -0.37116936227286262 0 0.35112450151104518 -0.35275175811233189 0 0.33782019814170111 -0.3666278425867322 0 0.35072776353668861 -0.35960044939757441 0 0.34899222940341751 -0.36423404872257509 0 0.33782019814170111 -0.3666278425867322 0 0.34899222940341751 -0.36423404872257509 0 0.3497455307085422 -0.37116936227286262 0 0.33782019814170111 -0.3666278425867322 0 0.32451589477235632 -0.3805039270611319 0 0.3497455307085422 -0.37116936227286262 0 0.33782019814170111 -0.3666278425867322 0 0.32451589477235632 -0.3805039270611319 0 0.33782019814170111 -0.3666278425867322 0 0.32656154733158371 -0.36914920215321162 0 0.32451589477235632 -0.3805039270611319 0 0.33782019814170111 -0.3666278425867322 0 0.33782019814170111 -0.3666278425867322 0 0.32296394155961072 -0.35818691658691232 0 0.32656154733158371 -0.36914920215321162 0 0.34822379045186957 -0.34941274506706399 0 0.32296394155961072 -0.35818691658691232 0 0.34822379045186957 -0.34941274506706399 0 0.33782019814170111 -0.3666278425867322 0 0.32296394155961072 -0.35818691658691232 0 0.34822379045186957 -0.34941274506706399 0 0.33532521964461848 -0.34424399163981551 0 0.32296394155961072 -0.35818691658691232 0 0.33532521964461848 -0.34424399163981551 0 0.32296394155961072 -0.35818691658691232 0 0.32174015242745169 -0.34211471974346991 0 0.32296394155961072 -0.35818691658691232 0 0.32174015242745169 -0.34211471974346991 0 0.30607567145869519 -0.34974754393905277 0 0.32296394155961072 -0.35818691658691232 0 0.31651823040137472 -0.37104163235717103 0 0.32656154733158371 -0.36914920215321162 0 0.32296394155961072 -0.35818691658691232 0 0.31651823040137472 -0.37104163235717103 0 0.30985171353929869 -0.36954539251995883 0 0.31733818943790881 -0.37790850518960978 0 0.31651823040137472 -0.37104163235717103 0 0.32656154733158371 -0.36914920215321162 0 0.33873551144038527 -0.31192472829795859 0 0.33162107477288688 -0.32902550564427702 0 0.32356643349366909 -0.315722087904166 0 0.33873551144038527 -0.31192472829795859 0 0.34920381617543628 -0.32189932771988228 0 0.33162107477288688 -0.32902550564427702 0 0.35555444199428993 -0.34179213160359412 0 0.33162107477288688 -0.32902550564427702 0 0.35555444199428993 -0.34179213160359412 0 0.33532521964461848 -0.34424399163981551 0 0.33162107477288688 -0.32902550564427702 0 0.33532521964461848 -0.34424399163981551 0 0.33162107477288688 -0.32902550564427702 0 0.32174015242745169 -0.34211471974346991 0 0.33162107477288688 -0.32902550564427702 0 0.32174015242745169 -0.34211471974346991 0 0.31271485470144728 -0.32936964090729148 0 0.32174015242745169 -0.34211471974346991 0 0.31271485470144728 -0.32936964090729148 0 0.30607567145869519 -0.34974754393905277 0 0.33162107477288688 -0.32902550564427702 0 0.32356643349366909 -0.315722087904166 0 0.30768770755148411 -0.31625887968496008 0 0.33162107477288688 -0.32902550564427702 0 0.31271485470144728 -0.32936964090729148 0 0.30768770755148411 -0.31625887968496008 0 0.33162107477288688 -0.32902550564427702 0 0.30768770755148411 -0.31625887968496008 0 0.30768770755148411 -0.31625887968496008 0 0.29988541917444728 -0.3275991343708759 0 0.28875665365127451 -0.32195426472718308 0 0.31271485470144728 -0.32936964090729148 0 0.30768770755148411 -0.31625887968496008 0 0.29988541917444728 -0.3275991343708759 0 0.31271485470144728 -0.32936964090729148 0 0.29038246079358332 -0.34281375216406879 0 0.31271485470144728 -0.32936964090729148 0 0.29988541917444728 -0.3275991343708759 0 0.29038246079358332 -0.34281375216406879 0 0.31271485470144728 -0.32936964090729148 0 0.29038246079358332 -0.34281375216406879 0 0.30607567145869519 -0.34974754393905277 0 0.29988541917444728 -0.3275991343708759 0 0.29038246079358332 -0.34281375216406879 0 0.28875665365127451 -0.32195426472718308 0 0.29038246079358332 -0.34281375216406879 0 0.28875665365127451 -0.32195426472718308 0 0.27683504241329188 -0.33049491812134291 0 0.30768770755148411 -0.31625887968496008 0 0.28875665365127451 -0.32195426472718308 0 0.28375434033008118 -0.30349225372564309 0 0.28875665365127451 -0.32195426472718308 0 0.27323789935828491 -0.31622117181775677 0 0.28375434033008118 -0.30349225372564309 0 0.32296394155961072 -0.35818691658691232 0 0.29770409266735193 -0.36696108810676059 0 0.32296394155961072 -0.35818691658691232 0 0.30985171353929869 -0.36954539251995883 0 0.29770409266735193 -0.36696108810676059 0 0.30125491439284202 -0.37545244228412589 0 0.29468253797650962 -0.37505353359411409 0 0.29770409266735193 -0.36696108810676059 0 0.30125491439284202 -0.37545244228412589 0 0.30985171353929869 -0.36954539251995883 0 0.29770409266735193 -0.36696108810676059 0 0.30125491439284202 -0.37545244228412589 0 0.31081738867531422 -0.37608488326482409 0 0.30985171353929869 -0.36954539251995883 0 0.31081738867531422 -0.37608488326482409 0 0.31651823040137472 -0.37104163235717103 0 0.30985171353929869 -0.36954539251995883 0 0.29770409266735193 -0.36696108810676059 0 0.30607567145869519 -0.34974754393905277 0 0.29372861888937002 -0.3549828264727507 0 0.32296394155961072 -0.35818691658691232 0 0.29770409266735193 -0.36696108810676059 0 0.30607567145869519 -0.34974754393905277 0 0.29038246079358332 -0.34281375216406879 0 0.30607567145869519 -0.34974754393905277 0 0.29372861888937002 -0.3549828264727507 0 0.29038246079358332 -0.34281375216406879 0 0.28571565320688569 -0.35958239212715642 0 0.27884910825837089 -0.35831130741316702 0 0.29038246079358332 -0.34281375216406879 0 0.29372861888937002 -0.3549828264727507 0 0.28571565320688569 -0.35958239212715642 0 0.29770409266735193 -0.36696108810676059 0 0.29372861888937002 -0.3549828264727507 0 0.28993865285400239 -0.36711437816761389 0 0.29372861888937002 -0.3549828264727507 0 0.28993865285400239 -0.36711437816761389 0 0.28571565320688569 -0.35958239212715642 0 0.28571565320688569 -0.35958239212715642 0 0.28353722644380402 -0.36810993956364257 0 0.27993677318408078 -0.36378492370177701 0 0.28993865285400239 -0.36711437816761389 0 0.28571565320688569 -0.35958239212715642 0 0.28353722644380402 -0.36810993956364257 0 0.28571565320688569 -0.35958239212715642 0 0.27993677318408078 -0.36378492370177701 0 0.27884910825837089 -0.35831130741316702 0 0.28712009536255512 -0.37555389988898102 0 0.28993865285400239 -0.36711437816761389 0 0.28353722644380402 -0.36810993956364257 0 0.28712009536255512 -0.37555389988898102 0 0.28353722644380402 -0.36810993956364257 0 0.28062042269181919 -0.37395588221133558 0 0.29468253797650962 -0.37505353359411409 0 0.28712009536255512 -0.37555389988898102 0 0.28993865285400239 -0.36711437816761389 0 0.29468253797650962 -0.37505353359411409 0 0.29770409266735193 -0.36696108810676059 0 0.28993865285400239 -0.36711437816761389 0 0.26624182353569531 -0.37453487882786929 0 0.26817992700408011 -0.36975106750584191 0 0.26336664063451592 -0.3664414862695069 0 0.26624182353569531 -0.37453487882786929 0 0.26817992700408011 -0.36975106750584191 0 0.27302933098373239 -0.3720445187767164 0 0.26817992700408011 -0.36975106750584191 0 0.27008191286237682 -0.36598338614927522 0 0.26336664063451592 -0.3664414862695069 0 0.27302933098373239 -0.3720445187767164 0 0.27531540539501931 -0.36495411832062141 0 0.27008191286237682 -0.36598338614927522 0 0.26817992700408011 -0.36975106750584191 0 0.27302933098373239 -0.3720445187767164 0 0.27008191286237682 -0.36598338614927522 0 0.27302933098373239 -0.3720445187767164 0 0.28062042269181919 -0.37395588221133558 0 0.27831946892852222 -0.36885271396938552 0 0.28353722644380402 -0.36810993956364257 0 0.28062042269181919 -0.37395588221133558 0 0.27831946892852222 -0.36885271396938552 0 0.27302933098373239 -0.3720445187767164 0 0.27831946892852222 -0.36885271396938552 0 0.27531540539501931 -0.36495411832062141 0 0.28353722644380402 -0.36810993956364257 0 0.27831946892852222 -0.36885271396938552 0 0.27993677318408078 -0.36378492370177701 0 0.27831946892852222 -0.36885271396938552 0 0.27531540539501931 -0.36495411832062141 0 0.27993677318408078 -0.36378492370177701 0 0.27531540539501931 -0.36495411832062141 0 0.27993677318408078 -0.36378492370177701 0 0.27884910825837089 -0.35831130741316702 0 0.27531540539501931 -0.36495411832062141 0 0.27250911956336249 -0.36168928176346582 0 0.27884910825837089 -0.35831130741316702 0 0.27250911956336249 -0.36168928176346582 0 0.26859758350991669 -0.36156744990319573 0 0.26975620697552632 -0.35764263303335508 0 0.27250911956336249 -0.36168928176346582 0 0.27008191286237682 -0.36598338614927522 0 0.26859758350991669 -0.36156744990319573 0 0.26859758350991669 -0.36156744990319573 0 0.26805006688571931 -0.35625786342084631 0 0.26336664063451592 -0.3664414862695069 0 0.27531540539501931 -0.36495411832062141 0 0.27250911956336249 -0.36168928176346582 0 0.27008191286237682 -0.36598338614927522 0 0.27008191286237682 -0.36598338614927522 0 0.26859758350991669 -0.36156744990319573 0 0.26336664063451592 -0.3664414862695069 0 0.29038246079358332 -0.34281375216406879 0 0.26805006688571931 -0.35625786342084631 0 0.29038246079358332 -0.34281375216406879 0 0.26805006688571931 -0.35625786342084631 0 0.26975620697552632 -0.35764263303335508 0 0.29038246079358332 -0.34281375216406879 0 0.26975620697552632 -0.35764263303335508 0 0.27884910825837089 -0.35831130741316702 0 0.29038246079358332 -0.34281375216406879 0 0.26805006688571931 -0.35625786342084631 0 0.27463130633286931 -0.34191960504490437 0 0.26859758350991669 -0.36156744990319573 0 0.26805006688571931 -0.35625786342084631 0 0.26975620697552632 -0.35764263303335508 0 0.26805006688571931 -0.35625786342084631 0 0.26975620697552632 -0.35764263303335508 0 0.27250911956336249 -0.36168928176346582 0 0.26975620697552632 -0.35764263303335508 0 0.27884910825837089 -0.35831130741316702 0 0.26805006688571931 -0.35625786342084631 0 0.26492603941162168 -0.34492990828652131 0 0.27463130633286931 -0.34191960504490437 0 0.26805006688571931 -0.35625786342084631 0 0.25350575188741481 -0.34445313204813149 0 0.24758329680607269 -0.35476217619659811 0 0.26805006688571931 -0.35625786342084631 0 0.2525248183514478 -0.36560407007674622 0 0.24758329680607269 -0.35476217619659811 0 0.26805006688571931 -0.35625786342084631 0 0.26492603941162168 -0.34492990828652131 0 0.25350575188741481 -0.34445313204813149 0 0.26805006688571931 -0.35625786342084631 0 0.25350575188741481 -0.34445313204813149 0 0.26805006688571931 -0.35625786342084631 0 0.26336664063451592 -0.3664414862695069 0 0.2525248183514478 -0.36560407007674622 0 0.26805006688571931 -0.35625786342084631 0 0.2525248183514478 -0.36560407007674622 0 0.2525248183514478 -0.36560407007674622 0 0.25606429151247068 -0.37194659175708572 0 0.247834074023594 -0.37296100291649509 0 0.26336664063451592 -0.3664414862695069 0 0.2525248183514478 -0.36560407007674622 0 0.25606429151247068 -0.37194659175708572 0 0.25375531452165939 -0.37623440762837412 0 0.25606429151247068 -0.37194659175708572 0 0.247834074023594 -0.37296100291649509 0 0.26039509775932151 -0.37535611644817157 0 0.25375531452165939 -0.37623440762837412 0 0.25606429151247068 -0.37194659175708572 0 0.26039509775932151 -0.37535611644817157 0 0.26624182353569531 -0.37453487882786929 0 0.26336664063451592 -0.3664414862695069 0 0.26039509775932151 -0.37535611644817157 0 0.26336664063451592 -0.3664414862695069 0 0.25606429151247068 -0.37194659175708572 0 0.27323789935828491 -0.31622117181775677 0 0.27683504241329188 -0.33049491812134291 0 0.26447202090310318 -0.3291757726400365 0 0.28875665365127451 -0.32195426472718308 0 0.27323789935828491 -0.31622117181775677 0 0.27683504241329188 -0.33049491812134291 0 0.29038246079358332 -0.34281375216406879 0 0.27683504241329188 -0.33049491812134291 0 0.27463130633286931 -0.34191960504490437 0 0.27683504241329188 -0.33049491812134291 0 0.27463130633286931 -0.34191960504490437 0 0.26796639071671552 -0.3373114020383991 0 0.26492603941162168 -0.34492990828652131 0 0.27463130633286931 -0.34191960504490437 0 0.26796639071671552 -0.3373114020383991 0 0.27683504241329188 -0.33049491812134291 0 0.26796639071671552 -0.3373114020383991 0 0.26447202090310318 -0.3291757726400365 0 0.25896754452269127 -0.34003680609919001 0 0.25221426436745747 -0.32636962411678461 0 0.2389614368891104 -0.33264840067541668 0 0.25350575188741481 -0.34445313204813149 0 0.25896754452269127 -0.34003680609919001 0 0.2389614368891104 -0.33264840067541668 0 0.26796639071671552 -0.3373114020383991 0 0.26447202090310318 -0.3291757726400365 0 0.25896754452269127 -0.34003680609919001 0 0.26447202090310318 -0.3291757726400365 0 0.25896754452269127 -0.34003680609919001 0 0.25221426436745747 -0.32636962411678461 0 0.26492603941162168 -0.34492990828652131 0 0.26796639071671552 -0.3373114020383991 0 0.25896754452269127 -0.34003680609919001 0 0.26492603941162168 -0.34492990828652131 0 0.25350575188741481 -0.34445313204813149 0 0.25896754452269127 -0.34003680609919001 0 0.27323789935828491 -0.31622117181775677 0 0.26447202090310318 -0.3291757726400365 0 0.25775611908170121 -0.31253688977625182 0 0.25221426436745747 -0.32636962411678461 0 0.25775611908170121 -0.31253688977625182 0 0.24074369189693359 -0.31761255446677472 0 0.26447202090310318 -0.3291757726400365 0 0.25221426436745747 -0.32636962411678461 0 0.25775611908170121 -0.31253688977625182 0 0.25775611908170121 -0.31253688977625182 0 0.25259339633976108 -0.29130236208149418 0 0.26785321977025761 -0.29967293191608357 0 0.25259339633976108 -0.29130236208149418 0 0.27415931588549169 -0.28458432674766432 0 0.26785321977025761 -0.29967293191608357 0 0.25259339633976108 -0.29130236208149418 0 0.27415931588549169 -0.28458432674766432 0 0.25219259065276622 -0.27031256554595451 0 0.27415931588549169 -0.28458432674766432 0 0.26785321977025761 -0.29967293191608357 0 0.28375434033008118 -0.30349225372564309 0 0.27323789935828491 -0.31622117181775677 0 0.26785321977025761 -0.29967293191608357 0 0.28375434033008118 -0.30349225372564309 0 0.27323789935828491 -0.31622117181775677 0 0.25775611908170121 -0.31253688977625182 0 0.26785321977025761 -0.29967293191608357 0 0.30768770755148411 -0.31625887968496008 0 0.29051790433723201 -0.29835596447949753 0 0.28375434033008118 -0.30349225372564309 0 0.30768770755148411 -0.31625887968496008 0 0.28375434033008118 -0.30349225372564309 0 0.27415931588549169 -0.28458432674766432 0 0.29612604111821722 -0.29885608794937418 0 0.27415931588549169 -0.28458432674766432 0 0.2932156501306426 -0.28765763697567859 0 0.29239501919513289 -0.27819738546767259 0 0.27415931588549169 -0.28458432674766432 0 0.29051790433723201 -0.29835596447949753 0 0.28375434033008118 -0.30349225372564309 0 0.27415931588549169 -0.28458432674766432 0 0.29612604111821722 -0.29885608794937418 0 0.2932156501306426 -0.28765763697567859 0 0.27415931588549169 -0.28458432674766432 0 0.29051790433723201 -0.29835596447949753 0 0.29612604111821722 -0.29885608794937418 0 0.2932156501306426 -0.28765763697567859 0 0.30043639458113869 -0.28462172048830009 0 0.29239501919513289 -0.27819738546767259 0 0.29612604111821722 -0.29885608794937418 0 0.30209949218305598 -0.29161506112549612 0 0.3091931624115945 -0.29635899131314541 0 0.29612604111821722 -0.29885608794937418 0 0.2932156501306426 -0.28765763697567859 0 0.30209949218305598 -0.29161506112549612 0 0.30209949218305598 -0.29161506112549612 0 0.30043639458113869 -0.28462172048830009 0 0.30977078155910132 -0.2883419886758033 0 0.2932156501306426 -0.28765763697567859 0 0.30209949218305598 -0.29161506112549612 0 0.30043639458113869 -0.28462172048830009 0 0.3197131959765161 -0.28239582380179301 0 0.30977078155910132 -0.2883419886758033 0 0.30470102983776048 -0.27729653019685002 0 0.30043639458113869 -0.28462172048830009 0 0.30977078155910132 -0.2883419886758033 0 0.30470102983776048 -0.27729653019685002 0 0.30209949218305598 -0.29161506112549612 0 0.30977078155910132 -0.2883419886758033 0 0.3091931624115945 -0.29635899131314541 0 0.31462670788880859 -0.30514034638872811 0 0.29051790433723201 -0.29835596447949753 0 0.31462670788880859 -0.30514034638872811 0 0.30768770755148411 -0.31625887968496008 0 0.29051790433723201 -0.29835596447949753 0 0.31462670788880859 -0.30514034638872811 0 0.29051790433723201 -0.29835596447949753 0 0.29612604111821722 -0.29885608794937418 0 0.31462670788880859 -0.30514034638872811 0 0.29612604111821722 -0.29885608794937418 0 0.3091931624115945 -0.29635899131314541 0 0.30849651450414628 -0.24795182056728149 0 0.32132836083141447 -0.25869816695462983 0 0.30142790699742789 -0.26480033043832729 0 0.30849651450414628 -0.24795182056728149 0 0.30142790699742789 -0.26480033043832729 0 0.28793584206126588 -0.25107015271538341 0 0.31509102578424852 -0.27192589933182021 0 0.30142790699742789 -0.26480033043832729 0 0.30470102983776048 -0.27729653019685002 0 0.30043639458113869 -0.28462172048830009 0 0.30470102983776048 -0.27729653019685002 0 0.29239501919513289 -0.27819738546767259 0 0.30142790699742789 -0.26480033043832729 0 0.30470102983776048 -0.27729653019685002 0 0.29239501919513289 -0.27819738546767259 0 0.30142790699742789 -0.26480033043832729 0 0.29239501919513289 -0.27819738546767259 0 0.27927751772558901 -0.26614999846553228 0 0.27415931588549169 -0.28458432674766432 0 0.29239501919513289 -0.27819738546767259 0 0.27927751772558901 -0.26614999846553228 0 0.30142790699742789 -0.26480033043832729 0 0.28793584206126588 -0.25107015271538341 0 0.27927751772558901 -0.26614999846553228 0 0.26755443156144948 -0.24793522987819169 0 0.27927751772558901 -0.26614999846553228 0 0.25219259065276622 -0.27031256554595451 0 0.26755443156144948 -0.24793522987819169 0 0.28793584206126588 -0.25107015271538341 0 0.27927751772558901 -0.26614999846553228 0 0.27415931588549169 -0.28458432674766432 0 0.27927751772558901 -0.26614999846553228 0 0.25219259065276622 -0.27031256554595451 0 0.27415931588549169 -0.28458432674766432 0 0.25219259065276622 -0.27031256554595451 0 0.26755443156144948 -0.24793522987819169 0 0.25219259065276622 -0.27031256554595451 0 0.2458949266121517 -0.24119477616399751 0 0.25219259065276622 -0.27031256554595451 0 0.2302258654200407 -0.25604080434424459 0 0.2458949266121517 -0.24119477616399751 0 0.25219259065276622 -0.27031256554595451 0 0.2302258654200407 -0.25604080434424459 0 0.25219259065276622 -0.27031256554595451 0 0.2302258654200407 -0.25604080434424459 0 0.22796051236103529 -0.28362809442334119 0 0.2302258654200407 -0.25604080434424459 0 0.21297749869702209 -0.27370876728105381 0 0.22796051236103529 -0.28362809442334119 0 0.2302258654200407 -0.25604080434424459 0 0.21297749869702209 -0.27370876728105381 0 0.20245690766587529 -0.2622195216635434 0 0.2302258654200407 -0.25604080434424459 0 0.20245690766587529 -0.2622195216635434 0 0.20825914018731509 -0.24176904314253461 0 0.21297749869702209 -0.27370876728105381 0 0.19577054630340601 -0.27719280299441063 0 0.20245690766587529 -0.2622195216635434 0 0.21297749869702209 -0.27370876728105381 0 0.19577054630340601 -0.27719280299441063 0 0.20847366173475351 -0.28946261297972919 0 0.19577054630340601 -0.27719280299441063 0 0.20245690766587529 -0.2622195216635434 0 0.19577054630340601 -0.27719280299441063 0 0.20245690766587529 -0.2622195216635434 0 0.18231756712108699 -0.26383775936566878 0 0.20245690766587529 -0.2622195216635434 0 0.18231756712108699 -0.26383775936566878 0 0.19216952572399271 -0.24625439499940641 0 0.20245690766587529 -0.2622195216635434 0 0.20825914018731509 -0.24176904314253461 0 0.19216952572399271 -0.24625439499940641 0 0.19298791571575999 -0.30755098768990691 0 0.18908418494093721 -0.29216608432527802 0 0.18062694267570731 -0.31110503495265029 0 0.19298791571575999 -0.30755098768990691 0 0.20007177408017551 -0.31828615686023759 0 0.18062694267570731 -0.31110503495265029 0 0.18908418494093721 -0.29216608432527802 0 0.2057099355903291 -0.30566018977532322 0 0.19298791571575999 -0.30755098768990691 0 0.18908418494093721 -0.29216608432527802 0 0.2057099355903291 -0.30566018977532322 0 0.19298791571575999 -0.30755098768990691 0 0.2057099355903291 -0.30566018977532322 0 0.20007177408017551 -0.31828615686023759 0 0.18908418494093721 -0.29216608432527802 0 0.20847366173475351 -0.28946261297972919 0 0.2057099355903291 -0.30566018977532322 0 0.19577054630340601 -0.27719280299441063 0 0.18908418494093721 -0.29216608432527802 0 0.20847366173475351 -0.28946261297972919 0 0.19577054630340601 -0.27719280299441063 0 0.18908418494093721 -0.29216608432527802 0 0.21297749869702209 -0.27370876728105381 0 0.20847366173475351 -0.28946261297972919 0 0.22796051236103529 -0.28362809442334119 0 0.2057099355903291 -0.30566018977532322 0 0.22233568623972 -0.31915429522536959 0 0.20847366173475351 -0.28946261297972919 0 0.2057099355903291 -0.30566018977532322 0 0.2206990143771978 -0.30086585935086718 0 0.2057099355903291 -0.30566018977532322 0 0.2206990143771978 -0.30086585935086718 0 0.22233568623972 -0.31915429522536959 0 0.2206990143771978 -0.30086585935086718 0 0.23741511933110421 -0.30176401854185908 0 0.22233568623972 -0.31915429522536959 0 0.2206990143771978 -0.30086585935086718 0 0.22796051236103529 -0.28362809442334119 0 0.23741511933110421 -0.30176401854185908 0 0.20847366173475351 -0.28946261297972919 0 0.2206990143771978 -0.30086585935086718 0 0.22796051236103529 -0.28362809442334119 0 0.25259339633976108 -0.29130236208149418 0 0.25219259065276622 -0.27031256554595451 0 0.22796051236103529 -0.28362809442334119 0 0.25259339633976108 -0.29130236208149418 0 0.22796051236103529 -0.28362809442334119 0 0.23741511933110421 -0.30176401854185908 0 0.25775611908170121 -0.31253688977625182 0 0.25259339633976108 -0.29130236208149418 0 0.23741511933110421 -0.30176401854185908 0 0.25775611908170121 -0.31253688977625182 0 0.23741511933110421 -0.30176401854185908 0 0.24074369189693359 -0.31761255446677472 0 0.25221426436745747 -0.32636962411678461 0 0.24074369189693359 -0.31761255446677472 0 0.2389614368891104 -0.33264840067541668 0 0.25896754452269127 -0.34003680609919001 0 0.2389614368891104 -0.33264840067541668 0 0.25350575188741481 -0.34445313204813149 0 0.2389614368891104 -0.33264840067541668 0 0.23812126686143489 -0.34962330130308239 0 0.25350575188741481 -0.34445313204813149 0 0.2389614368891104 -0.33264840067541668 0 0.2389614368891104 -0.33264840067541668 0 0.21951660548464291 -0.32546727876782749 0 0.2389614368891104 -0.33264840067541668 0 0.22275218125969681 -0.3421285430696277 0 0.21951660548464291 -0.32546727876782749 0 0.2389614368891104 -0.33264840067541668 0 0.22275218125969681 -0.3421285430696277 0 0.23812126686143489 -0.34962330130308239 0 0.2389614368891104 -0.33264840067541668 0 0.22233568623972 -0.31915429522536959 0 0.21951660548464291 -0.32546727876782749 0 0.24074369189693359 -0.31761255446677472 0 0.2389614368891104 -0.33264840067541668 0 0.22233568623972 -0.31915429522536959 0 0.2389614368891104 -0.33264840067541668 0 0.22233568623972 -0.31915429522536959 0 0.23741511933110421 -0.30176401854185908 0 0.24074369189693359 -0.31761255446677472 0 0.22233568623972 -0.31915429522536959 0 0.2525248183514478 -0.36560407007674622 0 0.2388492865026699 -0.36353477295182429 0 0.23642754580480091 -0.37529463544741981 0 0.2525248183514478 -0.36560407007674622 0 0.23642754580480091 -0.37529463544741981 0 0.2525248183514478 -0.36560407007674622 0 0.247834074023594 -0.37296100291649509 0 0.23642754580480091 -0.37529463544741981 0 0.2388492865026699 -0.36353477295182429 0 0.2323821666879651 -0.37312182357695689 0 0.23642754580480091 -0.37529463544741981 0 0.247834074023594 -0.37296100291649509 0 0.23982637591521519 -0.37606966838762163 0 0.23642754580480091 -0.37529463544741981 0 0.2323821666879651 -0.37312182357695689 0 0.23642754580480091 -0.37529463544741981 0 0.2525248183514478 -0.36560407007674622 0 0.2388492865026699 -0.36353477295182429 0 0.24758329680607269 -0.35476217619659811 0 0.2388492865026699 -0.36353477295182429 0 0.23812126686143489 -0.34962330130308239 0 0.2288410778689817 -0.3579523375073505 0 0.2388492865026699 -0.36353477295182429 0 0.24758329680607269 -0.35476217619659811 0 0.23812126686143489 -0.34962330130308239 0 0.25350575188741481 -0.34445313204813149 0 0.24758329680607269 -0.35476217619659811 0 0.23812126686143489 -0.34962330130308239 0 0.22275218125969681 -0.3421285430696277 0 0.2288410778689817 -0.3579523375073505 0 0.2104881552217899 -0.36284535190813549 0 0.22275218125969681 -0.3421285430696277 0 0.23812126686143489 -0.34962330130308239 0 0.2288410778689817 -0.3579523375073505 0 0.2323821666879651 -0.37312182357695689 0 0.2141485145971371 -0.37049455273470289 0 0.23642754580480091 -0.37529463544741981 0 0.2141485145971371 -0.37049455273470289 0 0.23642754580480091 -0.37529463544741981 0 0.22380639522206469 -0.37549259574283528 0 0.2323821666879651 -0.37312182357695689 0 0.2141485145971371 -0.37049455273470289 0 0.2104881552217899 -0.36284535190813549 0 0.2323821666879651 -0.37312182357695689 0 0.2104881552217899 -0.36284535190813549 0 0.2288410778689817 -0.3579523375073505 0 0.2323821666879651 -0.37312182357695689 0 0.2104881552217899 -0.36284535190813549 0 0.2141485145971371 -0.37049455273470289 0 0.23642754580480091 -0.37529463544741981 0 0.2388492865026699 -0.36353477295182429 0 0.2288410778689817 -0.3579523375073505 0 0.2323821666879651 -0.37312182357695689 0 0.2141485145971371 -0.37049455273470289 0 0.2104881552217899 -0.36284535190813549 0 0.20133278074283961 -0.37645701622005928 0 0.2141485145971371 -0.37049455273470289 0 0.22380639522206469 -0.37549259574283528 0 0.21729133252485441 -0.37717975934536557 0 0.22275218125969681 -0.3421285430696277 0 0.2104881552217899 -0.36284535190813549 0 0.20559014228838191 -0.3450523763621357 0 0.20559014228838191 -0.3450523763621357 0 0.1885941437556147 -0.35256888023931432 0 0.1964870824405926 -0.33862665069502479 0 0.2104881552217899 -0.36284535190813549 0 0.20559014228838191 -0.3450523763621357 0 0.1885941437556147 -0.35256888023931432 0 0.2104881552217899 -0.36284535190813549 0 0.1885941437556147 -0.35256888023931432 0 0.2104881552217899 -0.36284535190813549 0 0.1885941437556147 -0.35256888023931432 0 0.1873748639993143 -0.35529930682298511 0 0.2104881552217899 -0.36284535190813549 0 0.1873748639993143 -0.35529930682298511 0 0.2104881552217899 -0.36284535190813549 0 0.1863121642240772 -0.37048192246816652 0 0.1873748639993143 -0.35529930682298511 0 0.2104881552217899 -0.36284535190813549 0 0.1863121642240772 -0.37048192246816652 0 0.20133278074283961 -0.37645701622005928 0 0.21951660548464291 -0.32546727876782749 0 0.206911707711252 -0.33133770239716043 0 0.20007177408017551 -0.31828615686023759 0 0.21951660548464291 -0.32546727876782749 0 0.20007177408017551 -0.31828615686023759 0 0.2057099355903291 -0.30566018977532322 0 0.22233568623972 -0.31915429522536959 0 0.20007177408017551 -0.31828615686023759 0 0.22233568623972 -0.31915429522536959 0 0.21951660548464291 -0.32546727876782749 0 0.20007177408017551 -0.31828615686023759 0 0.22275218125969681 -0.3421285430696277 0 0.20559014228838191 -0.3450523763621357 0 0.206911707711252 -0.33133770239716043 0 0.22275218125969681 -0.3421285430696277 0 0.21951660548464291 -0.32546727876782749 0 0.206911707711252 -0.33133770239716043 0 0.206911707711252 -0.33133770239716043 0 0.1964870824405926 -0.33862665069502479 0 0.19688437115496191 -0.32595043097964121 0 0.20559014228838191 -0.3450523763621357 0 0.206911707711252 -0.33133770239716043 0 0.1964870824405926 -0.33862665069502479 0 0.1885941437556147 -0.35256888023931432 0 0.1964870824405926 -0.33862665069502479 0 0.1844550472927525 -0.33822386349687261 0 0.1964870824405926 -0.33862665069502479 0 0.19688437115496191 -0.32595043097964121 0 0.1844550472927525 -0.33822386349687261 0 0.20007177408017551 -0.31828615686023759 0 0.18062694267570731 -0.31110503495265029 0 0.19688437115496191 -0.32595043097964121 0 0.20007177408017551 -0.31828615686023759 0 0.18201326139010079 -0.32591143716851512 0 0.20007177408017551 -0.31828615686023759 0 0.18201326139010079 -0.32591143716851512 0 0.18062694267570731 -0.31110503495265029 0 0.206911707711252 -0.33133770239716043 0 0.19688437115496191 -0.32595043097964121 0 0.20007177408017551 -0.31828615686023759 0 0.18201326139010079 -0.32591143716851512 0 0.17006275041133989 -0.33476224015481698 0 0.18062694267570731 -0.31110503495265029 0 0.17006275041133989 -0.33476224015481698 0 0.16742957888073379 -0.31791064082249182 0 0.18062694267570731 -0.31110503495265029 0 0.17006275041133989 -0.33476224015481698 0 0.18062694267570731 -0.31110503495265029 0 0.19688437115496191 -0.32595043097964121 0 0.17006275041133989 -0.33476224015481698 0 0.1844550472927525 -0.33822386349687261 0 0.17006275041133989 -0.33476224015481698 0 0.1667001322894385 -0.34229240857049498 0 0.19688437115496191 -0.32595043097964121 0 0.18201326139010079 -0.32591143716851512 0 0.17006275041133989 -0.33476224015481698 0 0.19688437115496191 -0.32595043097964121 0 0.1844550472927525 -0.33822386349687261 0 0.17006275041133989 -0.33476224015481698 0 0.17006275041133989 -0.33476224015481698 0 0.1667001322894385 -0.34229240857049498 0 0.1586472750631677 -0.33851260973067482 0 0.17006275041133989 -0.33476224015481698 0 0.1586472750631677 -0.33851260973067482 0 0.17006275041133989 -0.33476224015481698 0 0.1667001322894385 -0.34229240857049498 0 0.1667001322894385 -0.34229240857049498 0 0.1586472750631677 -0.33851260973067482 0 0.1667001322894385 -0.34229240857049498 0 0.1586472750631677 -0.33851260973067482 0 0.16487121265498861 -0.34638804844599991 0 0.1586472750631677 -0.33851260973067482 0 0.16487121265498861 -0.34638804844599991 0 0.15117919905164229 -0.34096612517436359 0 0.16487121265498861 -0.34638804844599991 0 0.15117919905164229 -0.34096612517436359 0 0.17006275041133989 -0.33476224015481698 0 0.1586472750631677 -0.33851260973067482 0 0.15854267577228451 -0.33203757090818847 0 0.17006275041133989 -0.33476224015481698 0 0.15854267577228451 -0.33203757090818847 0 0.1610351896070813 -0.32497326650839697 0 0.1586472750631677 -0.33851260973067482 0 0.15854267577228451 -0.33203757090818847 0 0.15318439061781461 -0.33594847582038267 0 0.17006275041133989 -0.33476224015481698 0 0.1610351896070813 -0.32497326650839697 0 0.16742957888073379 -0.31791064082249182 0 0.15854267577228451 -0.33203757090818847 0 0.1610351896070813 -0.32497326650839697 0 0.14978377316201991 -0.32599126232667042 0 0.16742957888073379 -0.31791064082249182 0 0.1561768831418939 -0.31493776838462112 0 0.16502668359358499 -0.30534374240510859 0 0.1610351896070813 -0.32497326650839697 0 0.16742957888073379 -0.31791064082249182 0 0.1561768831418939 -0.31493776838462112 0 0.1863121642240772 -0.37048192246816652 0 0.1725939065739176 -0.36143467139509838 0 0.16586473307507801 -0.37334626187033249 0 0.1863121642240772 -0.37048192246816652 0 0.1725939065739176 -0.36143467139509838 0 0.1873748639993143 -0.35529930682298511 0 0.1873748639993143 -0.35529930682298511 0 0.16487121265498861 -0.34638804844599991 0 0.1725939065739176 -0.36143467139509838 0 0.1873748639993143 -0.35529930682298511 0 0.16487121265498861 -0.34638804844599991 0 0.1885941437556147 -0.35256888023931432 0 0.1844550472927525 -0.33822386349687261 0 0.1667001322894385 -0.34229240857049498 0 0.1667001322894385 -0.34229240857049498 0 0.1873748639993143 -0.35529930682298511 0 0.16487121265498861 -0.34638804844599991 0 0.1885941437556147 -0.35256888023931432 0 0.1667001322894385 -0.34229240857049498 0 0.1873748639993143 -0.35529930682298511 0 0.1885941437556147 -0.35256888023931432 0 0.1667001322894385 -0.34229240857049498 0 0.1667001322894385 -0.34229240857049498 0 0.16487121265498861 -0.34638804844599991 0 0.16487121265498861 -0.34638804844599991 0 0.15829011304517601 -0.36112560906862728 0 0.16487121265498861 -0.34638804844599991 0 0.15829011304517601 -0.36112560906862728 0 0.15119319059276909 -0.35229505863841032 0 0.1725939065739176 -0.36143467139509838 0 0.16487121265498861 -0.34638804844599991 0 0.15829011304517601 -0.36112560906862728 0 0.1725939065739176 -0.36143467139509838 0 0.15829011304517601 -0.36112560906862728 0 0.16586473307507801 -0.37334626187033249 0 0.15829011304517601 -0.36112560906862728 0 0.16586473307507801 -0.37334626187033249 0 0.15170901343536339 -0.37586316969125472 0 0.14250759595021889 -0.35956866674590371 0 0.12964343717385621 -0.367966648186694 0 0.15170901343536339 -0.37586316969125472 0 0.15829011304517601 -0.36112560906862728 0 0.14250759595021889 -0.35956866674590371 0 0.15170901343536339 -0.37586316969125472 0 0.15829011304517601 -0.36112560906862728 0 0.15170901343536339 -0.37586316969125472 0 0.14250759595021889 -0.35956866674590371 0 0.15119319059276909 -0.35229505863841032 0 0.13285301213736089 -0.34698689713072628 0 0.15829011304517601 -0.36112560906862728 0 0.14250759595021889 -0.35956866674590371 0 0.15119319059276909 -0.35229505863841032 0 0.13285301213736089 -0.34698689713072628 0 0.15117919905164229 -0.34096612517436359 0 0.15119319059276909 -0.35229505863841032 0 0.13285301213736089 -0.34698689713072628 0 0.15117919905164229 -0.34096612517436359 0 0.16487121265498861 -0.34638804844599991 0 0.15119319059276909 -0.35229505863841032 0 0.15117919905164229 -0.34096612517436359 0 0.13285301213736089 -0.34698689713072628 0 0.12964343717385621 -0.367966648186694 0 0.1145268252230785 -0.35300766908708592 0 0.14250759595021889 -0.35956866674590371 0 0.13285301213736089 -0.34698689713072628 0 0.12964343717385621 -0.367966648186694 0 0.1422499266094501 -0.31660967253405531 0 0.1561768831418939 -0.31493776838462112 0 0.14978377316201991 -0.32599126232667042 0 0.1610351896070813 -0.32497326650839697 0 0.1561768831418939 -0.31493776838462112 0 0.14978377316201991 -0.32599126232667042 0 0.15854267577228451 -0.33203757090818847 0 0.14978377316201991 -0.32599126232667042 0 0.15318439061781461 -0.33594847582038267 0 0.14978377316201991 -0.32599126232667042 0 0.15318439061781461 -0.33594847582038267 0 0.1277096158765349 -0.33167236584288751 0 0.15318439061781461 -0.33594847582038267 0 0.15117919905164229 -0.34096612517436359 0 0.1277096158765349 -0.33167236584288751 0 0.1586472750631677 -0.33851260973067482 0 0.15318439061781461 -0.33594847582038267 0 0.1586472750631677 -0.33851260973067482 0 0.15318439061781461 -0.33594847582038267 0 0.15117919905164229 -0.34096612517436359 0 0.1586472750631677 -0.33851260973067482 0 0.15117919905164229 -0.34096612517436359 0 0.13285301213736089 -0.34698689713072628 0 0.15117919905164229 -0.34096612517436359 0 0.1277096158765349 -0.33167236584288751 0 0.15117919905164229 -0.34096612517436359 0 0.1277096158765349 -0.33167236584288751 0 0.13285301213736089 -0.34698689713072628 0 0.1277096158765349 -0.33167236584288751 0 0.1175933922248182 -0.34031097300678109 0 0.1422499266094501 -0.31660967253405531 0 0.14978377316201991 -0.32599126232667042 0 0.1277096158765349 -0.33167236584288751 0 0.1422499266094501 -0.31660967253405531 0 0.1277096158765349 -0.33167236584288751 0 0.12683322860644439 -0.31098052818449412 0 0.12683322860644439 -0.31098052818449412 0 0.1401134834850129 -0.29069959292781089 0 0.1278890963722015 -0.28956777061598998 0 0.12683322860644439 -0.31098052818449412 0 0.14661875021173451 -0.29854555470513761 0 0.1401134834850129 -0.29069959292781089 0 0.1422499266094501 -0.31660967253405531 0 0.12683322860644439 -0.31098052818449412 0 0.14942642451146149 -0.2995824498575701 0 0.12683322860644439 -0.31098052818449412 0 0.14942642451146149 -0.2995824498575701 0 0.1422499266094501 -0.31660967253405531 0 0.1561768831418939 -0.31493776838462112 0 0.14942642451146149 -0.2995824498575701 0 0.12683322860644439 -0.31098052818449412 0 0.14661875021173451 -0.29854555470513761 0 0.14942642451146149 -0.2995824498575701 0 0.14661875021173451 -0.29854555470513761 0 0.14942642451146149 -0.2995824498575701 0 0.1466794613861967 -0.29377083497606099 0 0.14661875021173451 -0.29854555470513761 0 0.14942642451146149 -0.2995824498575701 0 0.14942642451146149 -0.2995824498575701 0 0.1595618869819069 -0.29446919383113762 0 0.1508292363689587 -0.28932805491236291 0 0.1467666386820988 -0.27833762361772918 0 0.16091224763727771 -0.28314036009338062 0 0.14942642451146149 -0.2995824498575701 0 0.1508292363689587 -0.28932805491236291 0 0.1595618869819069 -0.29446919383113762 0 0.14942642451146149 -0.2995824498575701 0 0.1508292363689587 -0.28932805491236291 0 0.1466794613861967 -0.29377083497606099 0 0.14661875021173451 -0.29854555470513761 0 0.1466794613861967 -0.29377083497606099 0 0.1401134834850129 -0.29069959292781089 0 0.1508292363689587 -0.28932805491236291 0 0.1466794613861967 -0.29377083497606099 0 0.1401134834850129 -0.29069959292781089 0 0.1508292363689587 -0.28932805491236291 0 0.1401134834850129 -0.29069959292781089 0 0.1467666386820988 -0.27833762361772918 0 0.1401134834850129 -0.29069959292781089 0 0.1278890963722015 -0.28956777061598998 0 0.13398591315260419 -0.27567973463621481 0 0.1401134834850129 -0.29069959292781089 0 0.13398591315260419 -0.27567973463621481 0 0.1467666386820988 -0.27833762361772918 0 0.13398591315260419 -0.27567973463621481 0 0.1417327159860497 -0.26177566485948067 0 0.1208808610854319 -0.25970788443117943 0 0.1278890963722015 -0.28956777061598998 0 0.13398591315260419 -0.27567973463621481 0 0.1189280483528791 -0.27808952203523229 0 0.1417327159860497 -0.26177566485948067 0 0.1208808610854319 -0.25970788443117943 0 0.1313098299079942 -0.24396976042201809 0 0.1417327159860497 -0.26177566485948067 0 0.14457918263284869 -0.24901401909077739 0 0.1313098299079942 -0.24396976042201809 0 0.1417327159860497 -0.26177566485948067 0 0.1578031145482737 -0.25808536852191172 0 0.14457918263284869 -0.24901401909077739 0 0.1417327159860497 -0.26177566485948067 0 0.15406655483346779 -0.26946469125216171 0 0.1578031145482737 -0.25808536852191172 0 0.13398591315260419 -0.27567973463621481 0 0.1417327159860497 -0.26177566485948067 0 0.1467666386820988 -0.27833762361772918 0 0.1417327159860497 -0.26177566485948067 0 0.1467666386820988 -0.27833762361772918 0 0.15406655483346779 -0.26946469125216171 0 0.1467666386820988 -0.27833762361772918 0 0.15406655483346779 -0.26946469125216171 0 0.16091224763727771 -0.28314036009338062 0 0.15406655483346779 -0.26946469125216171 0 0.1655019821859241 -0.27302585195735052 0 0.16091224763727771 -0.28314036009338062 0 0.1655019821859241 -0.27302585195735052 0 0.17729308356343121 -0.28259596814131349 0 0.16091224763727771 -0.28314036009338062 0 0.15406655483346779 -0.26946469125216171 0 0.1655019821859241 -0.27302585195735052 0 0.1578031145482737 -0.25808536852191172 0 0.1655019821859241 -0.27302585195735052 0 0.17729308356343121 -0.28259596814131349 0 0.1578031145482737 -0.25808536852191172 0 0.16999054138435979 -0.26125902205485563 0 0.1735801302704959 -0.25009110129751427 0 0.1655019821859241 -0.27302585195735052 0 0.1578031145482737 -0.25808536852191172 0 0.16999054138435979 -0.26125902205485563 0 0.16999054138435979 -0.26125902205485563 0 0.1735801302704959 -0.25009110129751427 0 0.18231756712108699 -0.26383775936566878 0 0.1655019821859241 -0.27302585195735052 0 0.16999054138435979 -0.26125902205485563 0 0.18231756712108699 -0.26383775936566878 0 0.1655019821859241 -0.27302585195735052 0 0.18231756712108699 -0.26383775936566878 0 0.17729308356343121 -0.28259596814131349 0 0.19577054630340601 -0.27719280299441063 0 0.18231756712108699 -0.26383775936566878 0 0.17729308356343121 -0.28259596814131349 0 0.19577054630340601 -0.27719280299441063 0 0.18908418494093721 -0.29216608432527802 0 0.17729308356343121 -0.28259596814131349 0 0.18908418494093721 -0.29216608432527802 0 0.17729308356343121 -0.28259596814131349 0 0.17236635084515639 -0.29476113694160883 0 0.18908418494093721 -0.29216608432527802 0 0.17729308356343121 -0.28259596814131349 0 0.17236635084515639 -0.29476113694160883 0 0.18062694267570731 -0.31110503495265029 0 0.16502668359358499 -0.30534374240510859 0 0.18908418494093721 -0.29216608432527802 0 0.18062694267570731 -0.31110503495265029 0 0.18908418494093721 -0.29216608432527802 0 0.17236635084515639 -0.29476113694160883 0 0.18062694267570731 -0.31110503495265029 0 0.18062694267570731 -0.31110503495265029 0 0.16502668359358499 -0.30534374240510859 0 0.17236635084515639 -0.29476113694160883 0 0.16502668359358499 -0.30534374240510859 0 0.1595618869819069 -0.29446919383113762 0 0.16742957888073379 -0.31791064082249182 0 0.18062694267570731 -0.31110503495265029 0 0.16502668359358499 -0.30534374240510859 0 0.1561768831418939 -0.31493776838462112 0 0.14942642451146149 -0.2995824498575701 0 0.16502668359358499 -0.30534374240510859 0 0.14942642451146149 -0.2995824498575701 0 0.16502668359358499 -0.30534374240510859 0 0.14942642451146149 -0.2995824498575701 0 0.16502668359358499 -0.30534374240510859 0 0.1595618869819069 -0.29446919383113762 0 0.17729308356343121 -0.28259596814131349 0 0.17236635084515639 -0.29476113694160883 0 0.16091224763727771 -0.28314036009338062 0 0.1508292363689587 -0.28932805491236291 0 0.1595618869819069 -0.29446919383113762 0 0.16091224763727771 -0.28314036009338062 0 0.17236635084515639 -0.29476113694160883 0 0.1595618869819069 -0.29446919383113762 0 0.16091224763727771 -0.28314036009338062 0 0.19648463516558981 -0.5 0 0.2040874442982562 -0.4750723076105986 0 0.18224081239923159 -0.48483550761679223 0 0.2040874442982562 -0.4750723076105986 0 0.18153695454437119 -0.46683529523665163 0 0.18224081239923159 -0.48483550761679223 0 0.2040874442982562 -0.4750723076105986 0 0.22049457680248391 -0.49999999999999928 0 0.2040874442982562 -0.4750723076105986 0 0.22049457680248391 -0.49999999999999928 0 0.2236301761340489 -0.48302415704983448 0 0.19648463516558981 -0.5 0 0.2040874442982562 -0.4750723076105986 0 0.22049457680248391 -0.49999999999999928 0 0.26435448448350718 -0.4787772290542629 0 0.2268251930842379 -0.49999999999999889 0 0.2365016635003776 -0.4779691767424159 0 0.2268251930842379 -0.49999999999999889 0 0.2365016635003776 -0.4779691767424159 0 0.2268251930842379 -0.49999999999999889 0 0.22049457680248391 -0.49999999999999928 0 0.2236301761340489 -0.48302415704983448 0 0.2268251930842379 -0.49999999999999889 0 0.2365016635003776 -0.4779691767424159 0 0.2236301761340489 -0.48302415704983448 0 0.2040874442982562 -0.4750723076105986 0 0.2236301761340489 -0.48302415704983448 0 0.23024200298488881 -0.46207930089615779 0 0.2365016635003776 -0.4779691767424159 0 0.2236301761340489 -0.48302415704983448 0 0.23024200298488881 -0.46207930089615779 0 0.25066913662040152 -0.46960567687327343 0 0.2365016635003776 -0.4779691767424159 0 0.2461781339165178 -0.45593835348483308 0 0.2365016635003776 -0.4779691767424159 0 0.2461781339165178 -0.45593835348483308 0 0.2365016635003776 -0.4779691767424159 0 0.23024200298488881 -0.46207930089615779 0 0.2461781339165178 -0.45593835348483308 0 0.23024200298488881 -0.46207930089615779 0 0.2461781339165178 -0.45593835348483308 0 0.23968257135213941 -0.44784739402877238 0 0.23968257135213941 -0.44784739402877238 0 0.21368144157308289 -0.44899600462498662 0 0.2288235487429581 -0.4277697562869478 0 0.23024200298488881 -0.46207930089615779 0 0.23968257135213941 -0.44784739402877238 0 0.21368144157308289 -0.44899600462498662 0 0.23968257135213941 -0.44784739402877238 0 0.21368144157308289 -0.44899600462498662 0 0.21368144157308289 -0.44899600462498662 0 0.19492301548916299 -0.43939045711320551 0 0.20160481816982831 -0.4272189687707354 0 0.2040874442982562 -0.4750723076105986 0 0.23024200298488881 -0.46207930089615779 0 0.21368144157308289 -0.44899600462498662 0 0.2040874442982562 -0.4750723076105986 0 0.18768031179402631 -0.45014461522119947 0 0.18153695454437119 -0.46683529523665163 0 0.2040874442982562 -0.4750723076105986 0 0.18768031179402631 -0.45014461522119947 0 0.2040874442982562 -0.4750723076105986 0 0.21368144157308289 -0.44899600462498662 0 0.18768031179402631 -0.45014461522119947 0 0.21368144157308289 -0.44899600462498662 0 0.18768031179402631 -0.45014461522119947 0 0.19492301548916299 -0.43939045711320551 0 0.21368144157308289 -0.44899600462498662 0 0.18768031179402631 -0.45014461522119947 0 0.18768031179402631 -0.45014461522119947 0 0.19492301548916299 -0.43939045711320551 0 0.18286475826282811 -0.4428282461311383 0 0.19492301548916299 -0.43939045711320551 0 0.20160481816982831 -0.4272189687707354 0 0.17438608759669841 -0.42666818125452288 0 0.20160481816982831 -0.4272189687707354 0 0.17438608759669841 -0.42666818125452288 0 0.20160481816982831 -0.4272189687707354 0 0.2086283830616808 -0.40733293002118898 0 0.19289629213530571 -0.40153387565190818 0 0.20160481816982831 -0.4272189687707354 0 0.19289629213530571 -0.40153387565190818 0 0.18491556676122409 -0.41482795304818149 0 0.2086283830616808 -0.40733293002118898 0 0.2196390259597796 -0.41485447665358749 0 0.22109399866912671 -0.39881904305015847 0 0.20160481816982831 -0.4272189687707354 0 0.2086283830616808 -0.40733293002118898 0 0.2196390259597796 -0.41485447665358749 0 0.21368144157308289 -0.44899600462498662 0 0.20160481816982831 -0.4272189687707354 0 0.2288235487429581 -0.4277697562869478 0 0.20160481816982831 -0.4272189687707354 0 0.2288235487429581 -0.4277697562869478 0 0.20160481816982831 -0.4272189687707354 0 0.2288235487429581 -0.4277697562869478 0 0.2196390259597796 -0.41485447665358749 0 0.25604227931608808 -0.42832054380316031 0 0.2288235487429581 -0.4277697562869478 0 0.25604227931608808 -0.42832054380316031 0 0.23968257135213941 -0.44784739402877238 0 0.2288235487429581 -0.4277697562869478 0 0.25604227931608808 -0.42832054380316031 0 0.2288235487429581 -0.4277697562869478 0 0.24595077245144839 -0.41665411901766092 0 0.25191562489914582 -0.403836855131881 0 0.24595077245144839 -0.41665411901766092 0 0.23417953234990649 -0.40773737494764661 0 0.2288235487429581 -0.4277697562869478 0 0.24595077245144839 -0.41665411901766092 0 0.23417953234990649 -0.40773737494764661 0 0.2196390259597796 -0.41485447665358749 0 0.23417953234990649 -0.40773737494764661 0 0.22109399866912671 -0.39881904305015847 0 0.2288235487429581 -0.4277697562869478 0 0.2196390259597796 -0.41485447665358749 0 0.23417953234990649 -0.40773737494764661 0 0.22109399866912671 -0.39881904305015847 0 0.2271044003362597 -0.38774329918042172 0 0.21807952791558899 -0.38844114998579821 0 0.22109399866912671 -0.39881904305015847 0 0.23301430555117841 -0.39392370191501308 0 0.2271044003362597 -0.38774329918042172 0 0.23417953234990649 -0.40773737494764661 0 0.22109399866912671 -0.39881904305015847 0 0.23301430555117841 -0.39392370191501308 0 0.25191562489914582 -0.403836855131881 0 0.23417953234990649 -0.40773737494764661 0 0.24094093667886171 -0.39725557204583978 0 0.23417953234990649 -0.40773737494764661 0 0.23301430555117841 -0.39392370191501308 0 0.24094093667886171 -0.39725557204583978 0 0.23301430555117841 -0.39392370191501308 0 0.24094093667886171 -0.39725557204583978 0 0.2407773248044412 -0.38859031849946579 0 0.25191562489914582 -0.403836855131881 0 0.24094093667886171 -0.39725557204583978 0 0.24749080516554131 -0.39358411427499751 0 0.24094093667886171 -0.39725557204583978 0 0.24749080516554131 -0.39358411427499751 0 0.2407773248044412 -0.38859031849946579 0 0.26013406401590672 -0.38047882491363849 0 0.23982637591521519 -0.37606966838762163 0 0.25262985795907278 -0.38262555595729458 0 0.23982637591521519 -0.37606966838762163 0 0.23642754580480091 -0.37529463544741981 0 0.25262985795907278 -0.38262555595729458 0 0.24055694029639499 -0.37889327973663239 0 0.23642754580480091 -0.37529463544741981 0 0.25831589449737669 -0.38339136364634541 0 0.23982637591521519 -0.37606966838762163 0 0.25262985795907278 -0.38262555595729458 0 0.23642754580480091 -0.37529463544741981 0 0.25375531452165939 -0.37623440762837412 0 0.247834074023594 -0.37296100291649509 0 0.23982637591521519 -0.37606966838762163 0 0.25262985795907278 -0.38262555595729458 0 0.24614515364075229 -0.38323594071672878 0 0.24055694029639499 -0.37889327973663239 0 0.24614515364075229 -0.38323594071672878 0 0.24342197528155529 -0.38407721412551549 0 0.24055694029639499 -0.37889327973663239 0 0.25262985795907278 -0.38262555595729458 0 0.24614515364075229 -0.38323594071672878 0 0.24797184102598641 -0.38734771304747279 0 0.24749080516554131 -0.39358411427499751 0 0.24797184102598641 -0.38734771304747279 0 0.2407773248044412 -0.38859031849946579 0 0.24797184102598641 -0.38734771304747279 0 0.24342197528155529 -0.38407721412551549 0 0.2407773248044412 -0.38859031849946579 0 0.24614515364075229 -0.38323594071672878 0 0.24797184102598641 -0.38734771304747279 0 0.24342197528155529 -0.38407721412551549 0 0.24342197528155529 -0.38407721412551549 0 0.239706928213968 -0.38291371747540731 0 0.2407773248044412 -0.38859031849946579 0 0.239706928213968 -0.38291371747540731 0 0.2407773248044412 -0.38859031849946579 0 0.23533994528121571 -0.38329647407915662 0 0.23301430555117841 -0.39392370191501308 0 0.2407773248044412 -0.38859031849946579 0 0.23533994528121571 -0.38329647407915662 0 0.23533994528121571 -0.38329647407915662 0 0.23527527895307479 -0.379273866306584 0 0.23759654761254489 -0.37990744517117692 0 0.239706928213968 -0.38291371747540731 0 0.23533994528121571 -0.38329647407915662 0 0.23759654761254489 -0.37990744517117692 0 0.239706928213968 -0.38291371747540731 0 0.23759654761254489 -0.37990744517117692 0 0.24055694029639499 -0.37889327973663239 0 0.24342197528155529 -0.38407721412551549 0 0.239706928213968 -0.38291371747540731 0 0.24055694029639499 -0.37889327973663239 0 0.23527527895307479 -0.379273866306584 0 0.23642754580480091 -0.37529463544741981 0 0.2366646985295161 -0.37747021052599122 0 0.23982637591521519 -0.37606966838762163 0 0.23642754580480091 -0.37529463544741981 0 0.24055694029639499 -0.37889327973663239 0 0.23642754580480091 -0.37529463544741981 0 0.2366646985295161 -0.37747021052599122 0 0.23527527895307479 -0.379273866306584 0 0.23642754580480091 -0.37529463544741981 0 0.23312232593844179 -0.3771655245687674 0 0.23759654761254489 -0.37990744517117692 0 0.24055694029639499 -0.37889327973663239 0 0.2366646985295161 -0.37747021052599122 0 0.23527527895307479 -0.379273866306584 0 0.23759654761254489 -0.37990744517117692 0 0.2366646985295161 -0.37747021052599122 0 0.23642754580480091 -0.37529463544741981 0 0.23312232593844179 -0.3771655245687674 0 0.22935422823584611 -0.37695552342907868 0 0.23312232593844179 -0.3771655245687674 0 0.23075238460300621 -0.38090926466039121 0 0.22935422823584611 -0.37695552342907868 0 0.23642754580480091 -0.37529463544741981 0 0.22935422823584611 -0.37695552342907868 0 0.22380639522206469 -0.37549259574283528 0 0.23533994528121571 -0.38329647407915662 0 0.23527527895307479 -0.379273866306584 0 0.23075238460300621 -0.38090926466039121 0 0.23527527895307479 -0.379273866306584 0 0.23312232593844179 -0.3771655245687674 0 0.23075238460300621 -0.38090926466039121 0 0.23075238460300621 -0.38090926466039121 0 0.22935422823584611 -0.37695552342907868 0 0.2243462399974421 -0.38107016139201311 0 0.23301430555117841 -0.39392370191501308 0 0.23533994528121571 -0.38329647407915662 0 0.2271044003362597 -0.38774329918042172 0 0.23533994528121571 -0.38329647407915662 0 0.23075238460300621 -0.38090926466039121 0 0.2271044003362597 -0.38774329918042172 0 0.23075238460300621 -0.38090926466039121 0 0.2271044003362597 -0.38774329918042172 0 0.2243462399974421 -0.38107016139201311 0 0.2271044003362597 -0.38774329918042172 0 0.2243462399974421 -0.38107016139201311 0 0.21807952791558899 -0.38844114998579821 0 0.2243462399974421 -0.38107016139201311 0 0.21729133252485441 -0.37717975934536557 0 0.21807952791558899 -0.38844114998579821 0 0.22935422823584611 -0.37695552342907868 0 0.22380639522206469 -0.37549259574283528 0 0.2243462399974421 -0.38107016139201311 0 0.22380639522206469 -0.37549259574283528 0 0.2243462399974421 -0.38107016139201311 0 0.21729133252485441 -0.37717975934536557 0 0.21729133252485441 -0.37717975934536557 0 0.21172146962880081 -0.38203217310278498 0 0.21807952791558899 -0.38844114998579821 0 0.2141485145971371 -0.37049455273470289 0 0.21729133252485441 -0.37717975934536557 0 0.21172146962880081 -0.38203217310278498 0 0.21172146962880081 -0.38203217310278498 0 0.2079077803743635 -0.39423828597955568 0 0.19462390421506151 -0.38765940086423678 0 0.2141485145971371 -0.37049455273470289 0 0.21172146962880081 -0.38203217310278498 0 0.20133278074283961 -0.37645701622005928 0 0.21172146962880081 -0.38203217310278498 0 0.21807952791558899 -0.38844114998579821 0 0.2079077803743635 -0.39423828597955568 0 0.2086283830616808 -0.40733293002118898 0 0.2079077803743635 -0.39423828597955568 0 0.19289629213530571 -0.40153387565190818 0 0.22109399866912671 -0.39881904305015847 0 0.21807952791558899 -0.38844114998579821 0 0.2079077803743635 -0.39423828597955568 0 0.2086283830616808 -0.40733293002118898 0 0.22109399866912671 -0.39881904305015847 0 0.2079077803743635 -0.39423828597955568 0 0.2079077803743635 -0.39423828597955568 0 0.19289629213530571 -0.40153387565190818 0 0.19462390421506151 -0.38765940086423678 0 0.19289629213530571 -0.40153387565190818 0 0.19462390421506151 -0.38765940086423678 0 0.17645588608826671 -0.38306977467941727 0 0.21172146962880081 -0.38203217310278498 0 0.19462390421506151 -0.38765940086423678 0 0.20133278074283961 -0.37645701622005928 0 0.19462390421506151 -0.38765940086423678 0 0.20133278074283961 -0.37645701622005928 0 0.17645588608826671 -0.38306977467941727 0 0.20133278074283961 -0.37645701622005928 0 0.17645588608826671 -0.38306977467941727 0 0.1863121642240772 -0.37048192246816652 0 0.20133278074283961 -0.37645701622005928 0 0.17645588608826671 -0.38306977467941727 0 0.1863121642240772 -0.37048192246816652 0 0.16586473307507801 -0.37334626187033249 0 0.17645588608826671 -0.38306977467941727 0 0.19289629213530571 -0.40153387565190818 0 0.17645588608826671 -0.38306977467941727 0 0.1707750691430642 -0.40389078651555937 0 0.1707750691430642 -0.40389078651555937 0 0.15157899143369369 -0.38968253313877532 0 0.15078338402556021 -0.40807071556887242 0 0.17645588608826671 -0.38306977467941727 0 0.1707750691430642 -0.40389078651555937 0 0.15157899143369369 -0.38968253313877532 0 0.16586473307507801 -0.37334626187033249 0 0.17645588608826671 -0.38306977467941727 0 0.15157899143369369 -0.38968253313877532 0 0.16586473307507801 -0.37334626187033249 0 0.15170901343536339 -0.37586316969125472 0 0.15157899143369369 -0.38968253313877532 0 0.17645588608826671 -0.38306977467941727 0 0.15157899143369369 -0.38968253313877532 0 0.15170901343536339 -0.37586316969125472 0 0.15157899143369369 -0.38968253313877532 0 0.13614122473974241 -0.38234841372082068 0 0.12964343717385621 -0.367966648186694 0 0.15170901343536339 -0.37586316969125472 0 0.13614122473974241 -0.38234841372082068 0 0.15157899143369369 -0.38968253313877532 0 0.13614122473974241 -0.38234841372082068 0 0.12670209677912081 -0.39629529159813331 0 0.13614122473974241 -0.38234841372082068 0 0.12670209677912081 -0.39629529159813331 0 0.1210725848766777 -0.38193442598924598 0 0.12964343717385621 -0.367966648186694 0 0.13614122473974241 -0.38234841372082068 0 0.1210725848766777 -0.38193442598924598 0 0.15157899143369369 -0.38968253313877532 0 0.12670209677912081 -0.39629529159813331 0 0.15157899143369369 -0.38968253313877532 0 0.12670209677912081 -0.39629529159813331 0 0.15078338402556021 -0.40807071556887242 0 0.15078338402556021 -0.40807071556887242 0 0.14716735702356859 -0.42611739373831048 0 0.1210404942669823 -0.41796687969920998 0 0.12670209677912081 -0.39629529159813331 0 0.15078338402556021 -0.40807071556887242 0 0.1210404942669823 -0.41796687969920998 0 0.14716735702356859 -0.42611739373831048 0 0.12824500471797429 -0.44111862644875499 0 0.1210404942669823 -0.41796687969920998 0 0.14716735702356859 -0.42611739373831048 0 0.1668897182361771 -0.43896749182371869 0 0.1531527583814484 -0.44627970193302202 0 0.14716735702356859 -0.42611739373831048 0 0.17438608759669841 -0.42666818125452288 0 0.14716735702356859 -0.42611739373831048 0 0.17438608759669841 -0.42666818125452288 0 0.1668897182361771 -0.43896749182371869 0 0.15078338402556021 -0.40807071556887242 0 0.14716735702356859 -0.42611739373831048 0 0.17438608759669841 -0.42666818125452288 0 0.1707750691430642 -0.40389078651555937 0 0.15078338402556021 -0.40807071556887242 0 0.17438608759669841 -0.42666818125452288 0 0.19289629213530571 -0.40153387565190818 0 0.1707750691430642 -0.40389078651555937 0 0.18491556676122409 -0.41482795304818149 0 0.1707750691430642 -0.40389078651555937 0 0.18491556676122409 -0.41482795304818149 0 0.17438608759669841 -0.42666818125452288 0 0.19492301548916299 -0.43939045711320551 0 0.17438608759669841 -0.42666818125452288 0 0.18286475826282811 -0.4428282461311383 0 0.20160481816982831 -0.4272189687707354 0 0.18491556676122409 -0.41482795304818149 0 0.17438608759669841 -0.42666818125452288 0 0.17438608759669841 -0.42666818125452288 0 0.18286475826282811 -0.4428282461311383 0 0.1668897182361771 -0.43896749182371869 0 0.17394576450835539 -0.4507513444933739 0 0.18286475826282811 -0.4428282461311383 0 0.1668897182361771 -0.43896749182371869 0 0.18768031179402631 -0.45014461522119947 0 0.17394576450835539 -0.4507513444933739 0 0.17886338369508259 -0.45709669188121332 0 0.18768031179402631 -0.45014461522119947 0 0.18286475826282811 -0.4428282461311383 0 0.18768031179402631 -0.45014461522119947 0 0.17394576450835539 -0.4507513444933739 0 0.18286475826282811 -0.4428282461311383 0 0.18768031179402631 -0.45014461522119947 0 0.17394576450835539 -0.4507513444933739 0 0.18153695454437119 -0.46683529523665163 0 0.17886338369508259 -0.45709669188121332 0 0.16365799726421909 -0.46024830085937901 0 0.18768031179402631 -0.45014461522119947 0 0.18153695454437119 -0.46683529523665163 0 0.17886338369508259 -0.45709669188121332 0 0.17394576450835539 -0.4507513444933739 0 0.17886338369508259 -0.45709669188121332 0 0.16365799726421909 -0.46024830085937901 0 0.18153695454437119 -0.46683529523665163 0 0.16365799726421909 -0.46024830085937901 0 0.165325283380862 -0.47414975733316572 0 0.16365799726421909 -0.46024830085937901 0 0.14976704045446479 -0.47161351470140328 0 0.165325283380862 -0.47414975733316572 0 0.17394576450835539 -0.4507513444933739 0 0.1668897182361771 -0.43896749182371869 0 0.1531527583814484 -0.44627970193302202 0 0.17394576450835539 -0.4507513444933739 0 0.16365799726421909 -0.46024830085937901 0 0.1531527583814484 -0.44627970193302202 0 0.14716735702356859 -0.42611739373831048 0 0.1531527583814484 -0.44627970193302202 0 0.12824500471797429 -0.44111862644875499 0 0.1531527583814484 -0.44627970193302202 0 0.12824500471797429 -0.44111862644875499 0 0.1395425460212113 -0.4600171342137287 0 0.12824500471797429 -0.44111862644875499 0 0.1395425460212113 -0.4600171342137287 0 0.1104953765956751 -0.45877784573399649 0 0.16365799726421909 -0.46024830085937901 0 0.1395425460212113 -0.4600171342137287 0 0.14976704045446479 -0.47161351470140328 0 0.16365799726421909 -0.46024830085937901 0 0.1531527583814484 -0.44627970193302202 0 0.1395425460212113 -0.4600171342137287 0 0.1395425460212113 -0.4600171342137287 0 0.14976704045446479 -0.47161351470140328 0 0.13696113909529911 -0.4763510840783734 0 0.14489004681788481 -0.48707487866658411 0 0.165325283380862 -0.47414975733316572 0 0.14976704045446479 -0.47161351470140328 0 0.14489004681788481 -0.48707487866658411 0 0.165325283380862 -0.47414975733316572 0 0.14976704045446479 -0.47161351470140328 0 0.13696113909529911 -0.4763510840783734 0 0.14489004681788481 -0.48707487866658411 0 0.1395425460212113 -0.4600171342137287 0 0.13696113909529911 -0.4763510840783734 0 0.1234056689517148 -0.4753591627729189 0 0.13696113909529911 -0.4763510840783734 0 0.124454810254907 -0.50000000000000133 0 0.1234056689517148 -0.4753591627729189 0 0.13696113909529911 -0.4763510840783734 0 0.14489004681788481 -0.48707487866658411 0 0.124454810254907 -0.50000000000000133 0 0.14846475189180119 -0.5 0 0.14489004681788481 -0.48707487866658411 0 0.124454810254907 -0.50000000000000133 0 0.14489004681788481 -0.48707487866658411 0 0.124454810254907 -0.50000000000000133 0 0.14846475189180119 -0.5 0 0.14489004681788481 -0.48707487866658411 0 0.16064007625764709 -0.48935932530963699 0 0.14846475189180119 -0.5 0 0.16064007625764709 -0.48935932530963699 0 0.17247469352869549 -0.5 0 0.16064007625764709 -0.48935932530963699 0 0.17247469352869549 -0.5 0 0.18224081239923159 -0.48483550761679223 0 0.16064007625764709 -0.48935932530963699 0 0.165325283380862 -0.47414975733316572 0 0.18224081239923159 -0.48483550761679223 0 0.14489004681788481 -0.48707487866658411 0 0.16064007625764709 -0.48935932530963699 0 0.165325283380862 -0.47414975733316572 0 0.18153695454437119 -0.46683529523665163 0 0.165325283380862 -0.47414975733316572 0 0.18224081239923159 -0.48483550761679223 0 0.19648463516558981 -0.5 0 0.17247469352869549 -0.5 0 0.18224081239923159 -0.48483550761679223 0 0.075561413286511586 -0.48341774274696919 0 0.05997095786520034 -0.47738020212921378 0 0.054311841330275681 -0.50000000000000222 0 0.077692830971819449 -0.5 0 0.075561413286511586 -0.48341774274696919 0 0.054311841330275681 -0.50000000000000222 0 0.075561413286511586 -0.48341774274696919 0 0.089907080202995024 -0.47228698575551681 0 0.065630074400124444 -0.45476040425842512 0 0.075561413286511586 -0.48341774274696919 0 0.065630074400124444 -0.45476040425842512 0 0.05997095786520034 -0.47738020212921378 0 0.075561413286511586 -0.48341774274696919 0 0.089907080202995024 -0.47228698575551681 0 0.1010738206133632 -0.5 0 0.077692830971819449 -0.5 0 0.075561413286511586 -0.48341774274696919 0 0.1010738206133632 -0.5 0 0.089907080202995024 -0.47228698575551681 0 0.1010738206133632 -0.5 0 0.1071389328979864 -0.48151675020802559 0 0.1010738206133632 -0.5 0 0.124454810254907 -0.50000000000000133 0 0.1071389328979864 -0.48151675020802559 0 0.124454810254907 -0.50000000000000133 0 0.1234056689517148 -0.4753591627729189 0 0.1071389328979864 -0.48151675020802559 0 0.1234056689517148 -0.4753591627729189 0 0.1071389328979864 -0.48151675020802559 0 0.1104953765956751 -0.45877784573399649 0 0.089907080202995024 -0.47228698575551681 0 0.1071389328979864 -0.48151675020802559 0 0.1104953765956751 -0.45877784573399649 0 0.089907080202995024 -0.47228698575551681 0 0.1104953765956751 -0.45877784573399649 0 0.087691320410763801 -0.45057620523792929 0 0.1395425460212113 -0.4600171342137287 0 0.1234056689517148 -0.4753591627729189 0 0.1104953765956751 -0.45877784573399649 0 0.12824500471797429 -0.44111862644875499 0 0.1104953765956751 -0.45877784573399649 0 0.1011348799199759 -0.43491518405407159 0 0.1104953765956751 -0.45877784573399649 0 0.087691320410763801 -0.45057620523792929 0 0.1011348799199759 -0.43491518405407159 0 0.087691320410763801 -0.45057620523792929 0 0.071289190935048555 -0.43214060638763652 0 0.1011348799199759 -0.43491518405407159 0 0.089907080202995024 -0.47228698575551681 0 0.087691320410763801 -0.45057620523792929 0 0.065630074400124444 -0.45476040425842512 0 0.065630074400124444 -0.45476040425842512 0 0.05997095786520034 -0.47738020212921378 0 0.065630074400124444 -0.45476040425842512 0 0.071289190935048555 -0.43214060638763652 0 0.065630074400124444 -0.45476040425842512 0 0.071289190935048555 -0.43214060638763652 0 0.056783731180929831 -0.44052937899198569 0 0.087691320410763801 -0.45057620523792929 0 0.065630074400124444 -0.45476040425842512 0 0.071289190935048555 -0.43214060638763652 0 0.076948307469974747 -0.40952080851684841 0 0.051981409302680248 -0.41615749164600191 0 0.071289190935048555 -0.43214060638763652 0 0.076948307469974747 -0.40952080851684841 0 0.051981409302680248 -0.41615749164600191 0 0.076948307469974747 -0.40952080851684841 0 0.060671962008258362 -0.3976415879987123 0 0.051981409302680248 -0.41615749164600191 0 0.071289190935048555 -0.43214060638763652 0 0.076948307469974747 -0.40952080851684841 0 0.071289190935048555 -0.43214060638763652 0 0.076948307469974747 -0.40952080851684841 0 0.093227904486638716 -0.41772443015035837 0 0.076948307469974747 -0.40952080851684841 0 0.093227904486638716 -0.41772443015035837 0 0.1018252021245479 -0.40290805005749131 0 0.071289190935048555 -0.43214060638763652 0 0.093227904486638716 -0.41772443015035837 0 0.1011348799199759 -0.43491518405407159 0 0.093227904486638716 -0.41772443015035837 0 0.1011348799199759 -0.43491518405407159 0 0.1210404942669823 -0.41796687969920998 0 0.12824500471797429 -0.44111862644875499 0 0.1011348799199759 -0.43491518405407159 0 0.1210404942669823 -0.41796687969920998 0 0.093227904486638716 -0.41772443015035837 0 0.1210404942669823 -0.41796687969920998 0 0.1018252021245479 -0.40290805005749131 0 0.12670209677912081 -0.39629529159813331 0 0.1018252021245479 -0.40290805005749131 0 0.12670209677912081 -0.39629529159813331 0 0.1210404942669823 -0.41796687969920998 0 0.1018252021245479 -0.40290805005749131 0 0.12670209677912081 -0.39629529159813331 0 0.1018252021245479 -0.40290805005749131 0 0.1210725848766777 -0.38193442598924598 0 0.1018252021245479 -0.40290805005749131 0 0.1210725848766777 -0.38193442598924598 0 0.10713483520734431 -0.37185186770187001 0 0.1018252021245479 -0.40290805005749131 0 0.091579777613193067 -0.3805998763552591 0 0.10713483520734431 -0.37185186770187001 0 0.091579777613193067 -0.3805998763552591 0 0.081501561354335506 -0.39132120405861381 0 0.077446040688824352 -0.37322460432357518 0 0.076948307469974747 -0.40952080851684841 0 0.1018252021245479 -0.40290805005749131 0 0.081501561354335506 -0.39132120405861381 0 0.1018252021245479 -0.40290805005749131 0 0.091579777613193067 -0.3805998763552591 0 0.081501561354335506 -0.39132120405861381 0 0.076948307469974747 -0.40952080851684841 0 0.1018252021245479 -0.40290805005749131 0 0.076948307469974747 -0.40952080851684841 0 0.081501561354335506 -0.39132120405861381 0 0.076948307469974747 -0.40952080851684841 0 0.081501561354335506 -0.39132120405861381 0 0.060671962008258362 -0.3976415879987123 0 0.081501561354335506 -0.39132120405861381 0 0.063808457074631231 -0.38151283302859251 0 0.060671962008258362 -0.3976415879987123 0 0.081501561354335506 -0.39132120405861381 0 0.063808457074631231 -0.38151283302859251 0 0.077446040688824352 -0.37322460432357518 0 0.063808457074631231 -0.38151283302859251 0 0.048134006740101917 -0.38510721858403829 0 0.060671962008258362 -0.3976415879987123 0 0.063808457074631231 -0.38151283302859251 0 0.048134006740101917 -0.38510721858403829 0 0.052224593376763599 -0.37423672689752291 0 0.048134006740101917 -0.38510721858403829 0 0.052224593376763599 -0.37423672689752291 0 0.041122553359336518 -0.3745189396943413 0 0.048134006740101917 -0.38510721858403829 0 0.060671962008258362 -0.3976415879987123 0 0.040799338141474989 -0.40028610027700767 0 0.060671962008258362 -0.3976415879987123 0 0.040799338141474989 -0.40028610027700767 0 0.051981409302680248 -0.41615749164600191 0 0.040799338141474989 -0.40028610027700767 0 0.031450163804322147 -0.38299648014708249 0 0.02273834873978673 -0.39721307904883207 0 0.048134006740101917 -0.38510721858403829 0 0.031450163804322147 -0.38299648014708249 0 0.041122553359336518 -0.3745189396943413 0 0.048134006740101917 -0.38510721858403829 0 0.040799338141474989 -0.40028610027700767 0 0.031450163804322147 -0.38299648014708249 0 0.031450163804322147 -0.38299648014708249 0 0.014416824747154619 -0.37592328633005739 0 0.02273834873978673 -0.39721307904883207 0 0.031450163804322147 -0.38299648014708249 0 0.014416824747154619 -0.37592328633005739 0 0.030258067008644449 -0.3667440264152243 0 0.014416824747154619 -0.37592328633005739 0 0.001178295979689481 -0.3881409324793787 0 0.02273834873978673 -0.39721307904883207 0 0.014416824747154619 -0.37592328633005739 0 0.001178295979689481 -0.3881409324793787 0 0.0014496837259096161 -0.37019917058000251 0 0.001178295979689481 -0.3881409324793787 0 0.02273834873978673 -0.39721307904883207 0 0.0080763184361985277 -0.4079839549095946 0 0.040799338141474989 -0.40028610027700767 0 0.02273834873978673 -0.39721307904883207 0 0.030081462129137919 -0.41744632225413558 0 0.030081462129137919 -0.41744632225413558 0 0.0080763184361985277 -0.4079839549095946 0 0.010569624309191479 -0.42328766487564329 0 0.02273834873978673 -0.39721307904883207 0 0.030081462129137919 -0.41744632225413558 0 0.0080763184361985277 -0.4079839549095946 0 -0.0062201247180692348 -0.41868752424963762 0 0.0080763184361985277 -0.4079839549095946 0 0.010569624309191479 -0.42328766487564329 0 -0.0062201247180692348 -0.41868752424963762 0 0.00098278496791487282 -0.43499994183307022 0 0.010569624309191479 -0.42328766487564329 0 0.00098278496791487282 -0.43499994183307022 0 0.010569624309191479 -0.42328766487564329 0 0.021992614728686671 -0.4340029927020036 0 0.030081462129137919 -0.41744632225413558 0 0.021992614728686671 -0.4340029927020036 0 0.038465138029012913 -0.44150166477683561 0 0.030081462129137919 -0.41744632225413558 0 0.010569624309191479 -0.42328766487564329 0 0.021992614728686671 -0.4340029927020036 0 0.030081462129137919 -0.41744632225413558 0 0.051981409302680248 -0.41615749164600191 0 0.038465138029012913 -0.44150166477683561 0 0.040799338141474989 -0.40028610027700767 0 0.030081462129137919 -0.41744632225413558 0 0.051981409302680248 -0.41615749164600191 0 0.051981409302680248 -0.41615749164600191 0 0.056783731180929831 -0.44052937899198569 0 0.038465138029012913 -0.44150166477683561 0 0.071289190935048555 -0.43214060638763652 0 0.051981409302680248 -0.41615749164600191 0 0.056783731180929831 -0.44052937899198569 0 0.065630074400124444 -0.45476040425842512 0 0.056783731180929831 -0.44052937899198569 0 0.048539989077827868 -0.46041700379042189 0 0.056783731180929831 -0.44052937899198569 0 0.048539989077827868 -0.46041700379042189 0 0.038465138029012913 -0.44150166477683561 0 0.065630074400124444 -0.45476040425842512 0 0.048539989077827868 -0.46041700379042189 0 0.05997095786520034 -0.47738020212921378 0 0.048539989077827868 -0.46041700379042189 0 0.038465138029012913 -0.44150166477683561 0 0.029297258176345299 -0.46836801061636929 0 0.021992614728686671 -0.4340029927020036 0 0.038465138029012913 -0.44150166477683561 0 0.01414289402616341 -0.45028778696906641 0 -0.01021388243781865 -0.45148415516460921 0 0.00098278496791487282 -0.43499994183307022 0 0.01414289402616341 -0.45028778696906641 0 0.00098278496791487282 -0.43499994183307022 0 0.021992614728686671 -0.4340029927020036 0 0.01414289402616341 -0.45028778696906641 0 -0.01021388243781865 -0.45148415516460921 0 0.01414289402616341 -0.45028778696906641 0 0.0058249948487519992 -0.47378655522329088 0 0.038465138029012913 -0.44150166477683561 0 0.01414289402616341 -0.45028778696906641 0 0.029297258176345299 -0.46836801061636929 0 0.01414289402616341 -0.45028778696906641 0 0.029297258176345299 -0.46836801061636929 0 0.0058249948487519992 -0.47378655522329088 0 0.029297258176345299 -0.46836801061636929 0 0.0058249948487519992 -0.47378655522329088 0 0.024390952079798359 -0.5 0 -0.0055299371706789557 -0.5 0 0.0058249948487519992 -0.47378655522329088 0 0.024390952079798359 -0.5 0 0.024390952079798359 -0.5 0 0.043002343019838969 -0.48403489736873301 0 0.054311841330275681 -0.50000000000000222 0 0.029297258176345299 -0.46836801061636929 0 0.024390952079798359 -0.5 0 0.043002343019838969 -0.48403489736873301 0 0.048539989077827868 -0.46041700379042189 0 0.029297258176345299 -0.46836801061636929 0 0.043002343019838969 -0.48403489736873301 0 0.048539989077827868 -0.46041700379042189 0 0.043002343019838969 -0.48403489736873301 0 0.05997095786520034 -0.47738020212921378 0 0.05997095786520034 -0.47738020212921378 0 0.054311841330275681 -0.50000000000000222 0 0.043002343019838969 -0.48403489736873301 0 0.05997095786520034 -0.47738020212921378 0 0.054311841330275681 -0.50000000000000222 0 0.087241639590741368 -0.28936629262043623 0 0.090461813947703196 -0.30275748092437949 0 0.074265614944040576 -0.29537428178351749 0 0.087241639590741368 -0.28936629262043623 0 0.077654089852171287 -0.28125970022802832 0 0.092016692267343686 -0.27859791770952169 0 0.087241639590741368 -0.28936629262043623 0 0.074265614944040576 -0.29537428178351749 0 0.077654089852171287 -0.28125970022802832 0 0.087241639590741368 -0.28936629262043623 0 0.092016692267343686 -0.27859791770952169 0 0.10180998694244819 -0.28884208245673387 0 0.087241639590741368 -0.28936629262043623 0 0.090461813947703196 -0.30275748092437949 0 0.10180998694244819 -0.28884208245673387 0 0.090461813947703196 -0.30275748092437949 0 0.076933733953785777 -0.312287948792907 0 0.06912499697456273 -0.30911339078243538 0 0.090461813947703196 -0.30275748092437949 0 0.092387068917125961 -0.3119314518137129 0 0.086387084638438055 -0.31128763931219089 0 0.090461813947703196 -0.30275748092437949 0 0.086387084638438055 -0.31128763931219089 0 0.076933733953785777 -0.312287948792907 0 0.090461813947703196 -0.30275748092437949 0 0.06912499697456273 -0.30911339078243538 0 0.060914123683401412 -0.30514867006951879 0 0.090461813947703196 -0.30275748092437949 0 0.074265614944040576 -0.29537428178351749 0 0.060914123683401412 -0.30514867006951879 0 0.090461813947703196 -0.30275748092437949 0 0.060914123683401412 -0.30514867006951879 0 0.076933733953785777 -0.312287948792907 0 0.06912499697456273 -0.30911339078243538 0 0.068385718831499187 -0.3157777733773246 0 0.06912499697456273 -0.30911339078243538 0 0.064288197420267479 -0.30787531134681517 0 0.060914123683401412 -0.30514867006951879 0 0.06912499697456273 -0.30911339078243538 0 0.065378483169108007 -0.31173360782830978 0 0.068385718831499187 -0.3157777733773246 0 0.064288197420267479 -0.30787531134681517 0 0.061864727394912708 -0.30757379433864318 0 0.062113958188891441 -0.30992056793374018 0 0.065378483169108007 -0.31173360782830978 0 0.061487738162087698 -0.31450880719725333 0 0.062113958188891441 -0.30992056793374018 0 0.06912499697456273 -0.30911339078243538 0 0.064288197420267479 -0.30787531134681517 0 0.065378483169108007 -0.31173360782830978 0 0.064288197420267479 -0.30787531134681517 0 0.065378483169108007 -0.31173360782830978 0 0.062113958188891441 -0.30992056793374018 0 0.064131802234868335 -0.29764185839350082 0 0.074265614944040576 -0.29537428178351749 0 0.060914123683401412 -0.30514867006951879 0 0.064131802234868335 -0.29764185839350082 0 0.064929538038565784 -0.29313043204618 0 0.074265614944040576 -0.29537428178351749 0 0.064929538038565784 -0.29313043204618 0 0.074265614944040576 -0.29537428178351749 0 0.070108322175904653 -0.28853399361832732 0 0.074265614944040576 -0.29537428178351749 0 0.077654089852171287 -0.28125970022802832 0 0.070108322175904653 -0.28853399361832732 0 0.064929538038565784 -0.29313043204618 0 0.070108322175904653 -0.28853399361832732 0 0.062765143881292465 -0.28424374038480138 0 0.077654089852171287 -0.28125970022802832 0 0.070108322175904653 -0.28853399361832732 0 0.062765143881292465 -0.28424374038480138 0 0.062765143881292465 -0.28424374038480138 0 0.071803253486697013 -0.26766580004284579 0 0.056220440876533863 -0.26916260607052173 0 0.077654089852171287 -0.28125970022802832 0 0.062765143881292465 -0.28424374038480138 0 0.071803253486697013 -0.26766580004284579 0 0.071803253486697013 -0.26766580004284579 0 0.065335708183982863 -0.25499807618111581 0 0.08209704847362069 -0.25074917337938168 0 0.071803253486697013 -0.26766580004284579 0 0.065335708183982863 -0.25499807618111581 0 0.056220440876533863 -0.26916260607052173 0 0.071803253486697013 -0.26766580004284579 0 0.08209704847362069 -0.25074917337938168 0 0.087435426970014343 -0.26572614325516442 0 0.08209704847362069 -0.25074917337938168 0 0.087435426970014343 -0.26572614325516442 0 0.10195227185327931 -0.25264655321542367 0 0.077654089852171287 -0.28125970022802832 0 0.071803253486697013 -0.26766580004284579 0 0.087435426970014343 -0.26572614325516442 0 0.077654089852171287 -0.28125970022802832 0 0.087435426970014343 -0.26572614325516442 0 0.092016692267343686 -0.27859791770952169 0 0.087435426970014343 -0.26572614325516442 0 0.092016692267343686 -0.27859791770952169 0 0.10383721457856609 -0.27060168385054262 0 0.10383721457856609 -0.27060168385054262 0 0.1189280483528791 -0.27808952203523229 0 0.10180998694244819 -0.28884208245673387 0 0.092016692267343686 -0.27859791770952169 0 0.10383721457856609 -0.27060168385054262 0 0.10180998694244819 -0.28884208245673387 0 0.10383721457856609 -0.27060168385054262 0 0.10195227185327931 -0.25264655321542367 0 0.1208808610854319 -0.25970788443117943 0 0.087435426970014343 -0.26572614325516442 0 0.10383721457856609 -0.27060168385054262 0 0.10195227185327931 -0.25264655321542367 0 0.10383721457856609 -0.27060168385054262 0 0.1208808610854319 -0.25970788443117943 0 0.1189280483528791 -0.27808952203523229 0 0.13398591315260419 -0.27567973463621481 0 0.1208808610854319 -0.25970788443117943 0 0.1189280483528791 -0.27808952203523229 0 0.1189280483528791 -0.27808952203523229 0 0.1158438525028663 -0.29545281856486583 0 0.10180998694244819 -0.28884208245673387 0 0.1278890963722015 -0.28956777061598998 0 0.1189280483528791 -0.27808952203523229 0 0.1158438525028663 -0.29545281856486583 0 0.090461813947703196 -0.30275748092437949 0 0.10180998694244819 -0.28884208245673387 0 0.10424538547426861 -0.30742011652108298 0 0.1158438525028663 -0.29545281856486583 0 0.10180998694244819 -0.28884208245673387 0 0.10424538547426861 -0.30742011652108298 0 0.090461813947703196 -0.30275748092437949 0 0.092387068917125961 -0.3119314518137129 0 0.10424538547426861 -0.30742011652108298 0 0.12683322860644439 -0.31098052818449412 0 0.1278890963722015 -0.28956777061598998 0 0.1158438525028663 -0.29545281856486583 0 0.12683322860644439 -0.31098052818449412 0 0.1158438525028663 -0.29545281856486583 0 0.10424538547426861 -0.30742011652108298 0 0.1277096158765349 -0.33167236584288751 0 0.1042400327014259 -0.32237860651141509 0 0.1277096158765349 -0.33167236584288751 0 0.12683322860644439 -0.31098052818449412 0 0.1042400327014259 -0.32237860651141509 0 0.12683322860644439 -0.31098052818449412 0 0.1042400327014259 -0.32237860651141509 0 0.12683322860644439 -0.31098052818449412 0 0.10424538547426861 -0.30742011652108298 0 0.1042400327014259 -0.32237860651141509 0 0.1277096158765349 -0.33167236584288751 0 0.1132844846321505 -0.33349979137663632 0 0.1042400327014259 -0.32237860651141509 0 0.1277096158765349 -0.33167236584288751 0 0.1175933922248182 -0.34031097300678109 0 0.1132844846321505 -0.33349979137663632 0 0.1175933922248182 -0.34031097300678109 0 0.1132844846321505 -0.33349979137663632 0 0.1035948977258222 -0.33963722014545972 0 0.1132844846321505 -0.33349979137663632 0 0.1035948977258222 -0.33963722014545972 0 0.1042400327014259 -0.32237860651141509 0 0.1035948977258222 -0.33963722014545972 0 0.1042400327014259 -0.32237860651141509 0 0.089330709239924519 -0.32990023547130659 0 0.1035948977258222 -0.33963722014545972 0 0.08844116445073813 -0.34624952808908871 0 0.089330709239924519 -0.32990023547130659 0 0.1042400327014259 -0.32237860651141509 0 0.089330709239924519 -0.32990023547130659 0 0.097574461564347639 -0.31973909589494359 0 0.1042400327014259 -0.32237860651141509 0 0.089330709239924519 -0.32990023547130659 0 0.097574461564347639 -0.31973909589494359 0 0.1042400327014259 -0.32237860651141509 0 0.092387068917125961 -0.3119314518137129 0 0.10424538547426861 -0.30742011652108298 0 0.097574461564347639 -0.31973909589494359 0 0.10424538547426861 -0.30742011652108298 0 0.097574461564347639 -0.31973909589494359 0 0.1042400327014259 -0.32237860651141509 0 0.12964343717385621 -0.367966648186694 0 0.1145268252230785 -0.35300766908708592 0 0.10713483520734431 -0.37185186770187001 0 0.12964343717385621 -0.367966648186694 0 0.1210725848766777 -0.38193442598924598 0 0.10713483520734431 -0.37185186770187001 0 0.13285301213736089 -0.34698689713072628 0 0.1145268252230785 -0.35300766908708592 0 0.13285301213736089 -0.34698689713072628 0 0.1175933922248182 -0.34031097300678109 0 0.1145268252230785 -0.35300766908708592 0 0.1175933922248182 -0.34031097300678109 0 0.1035948977258222 -0.33963722014545972 0 0.1145268252230785 -0.35300766908708592 0 0.1035948977258222 -0.33963722014545972 0 0.1145268252230785 -0.35300766908708592 0 0.10073779425957929 -0.3548879881316499 0 0.1035948977258222 -0.33963722014545972 0 0.10073779425957929 -0.3548879881316499 0 0.08844116445073813 -0.34624952808908871 0 0.1145268252230785 -0.35300766908708592 0 0.10073779425957929 -0.3548879881316499 0 0.10713483520734431 -0.37185186770187001 0 0.091579777613193067 -0.3805998763552591 0 0.10713483520734431 -0.37185186770187001 0 0.089991248690913239 -0.36369365563474498 0 0.10073779425957929 -0.3548879881316499 0 0.10713483520734431 -0.37185186770187001 0 0.089991248690913239 -0.36369365563474498 0 0.089991248690913239 -0.36369365563474498 0 0.072640683984735846 -0.35365963884978319 0 0.077446040688824352 -0.37322460432357518 0 0.091579777613193067 -0.3805998763552591 0 0.089991248690913239 -0.36369365563474498 0 0.077446040688824352 -0.37322460432357518 0 0.08844116445073813 -0.34624952808908871 0 0.072640683984735846 -0.35365963884978319 0 0.074421385778422167 -0.33742186443119598 0 0.089991248690913239 -0.36369365563474498 0 0.08844116445073813 -0.34624952808908871 0 0.072640683984735846 -0.35365963884978319 0 0.10073779425957929 -0.3548879881316499 0 0.089991248690913239 -0.36369365563474498 0 0.08844116445073813 -0.34624952808908871 0 0.072640683984735846 -0.35365963884978319 0 0.058342421804239 -0.34172675570256861 0 0.056843790210672762 -0.35498064084795322 0 0.072640683984735846 -0.35365963884978319 0 0.074421385778422167 -0.33742186443119598 0 0.058342421804239 -0.34172675570256861 0 0.072640683984735846 -0.35365963884978319 0 0.062047863969529 -0.36677367950336531 0 0.056843790210672762 -0.35498064084795322 0 0.072640683984735846 -0.35365963884978319 0 0.077446040688824352 -0.37322460432357518 0 0.062047863969529 -0.36677367950336531 0 0.063808457074631231 -0.38151283302859251 0 0.077446040688824352 -0.37322460432357518 0 0.062047863969529 -0.36677367950336531 0 0.085765721735137301 -0.3181736757177645 0 0.089330709239924519 -0.32990023547130659 0 0.074003159071310554 -0.32450105695314002 0 0.086387084638438055 -0.31128763931219089 0 0.076933733953785777 -0.312287948792907 0 0.085765721735137301 -0.3181736757177645 0 0.076933733953785777 -0.312287948792907 0 0.085765721735137301 -0.3181736757177645 0 0.074003159071310554 -0.32450105695314002 0 0.092387068917125961 -0.3119314518137129 0 0.097574461564347639 -0.31973909589494359 0 0.085765721735137301 -0.3181736757177645 0 0.092387068917125961 -0.3119314518137129 0 0.086387084638438055 -0.31128763931219089 0 0.085765721735137301 -0.3181736757177645 0 0.097574461564347639 -0.31973909589494359 0 0.085765721735137301 -0.3181736757177645 0 0.089330709239924519 -0.32990023547130659 0 0.08844116445073813 -0.34624952808908871 0 0.089330709239924519 -0.32990023547130659 0 0.074421385778422167 -0.33742186443119598 0 0.089330709239924519 -0.32990023547130659 0 0.074421385778422167 -0.33742186443119598 0 0.089330709239924519 -0.32990023547130659 0 0.074421385778422167 -0.33742186443119598 0 0.074003159071310554 -0.32450105695314002 0 0.074421385778422167 -0.33742186443119598 0 0.064566739271179424 -0.331130734387865 0 0.074003159071310554 -0.32450105695314002 0 0.074421385778422167 -0.33742186443119598 0 0.064566739271179424 -0.331130734387865 0 0.058342421804239 -0.34172675570256861 0 0.064566739271179424 -0.331130734387865 0 0.063075408685592166 -0.3222151227715731 0 0.074003159071310554 -0.32450105695314002 0 0.063075408685592166 -0.3222151227715731 0 0.074003159071310554 -0.32450105695314002 0 0.068385718831499187 -0.3157777733773246 0 0.076933733953785777 -0.312287948792907 0 0.074003159071310554 -0.32450105695314002 0 0.068385718831499187 -0.3157777733773246 0 0.063075408685592166 -0.3222151227715731 0 0.068385718831499187 -0.3157777733773246 0 0.061487738162087698 -0.31450880719725333 0 0.065378483169108007 -0.31173360782830978 0 0.068385718831499187 -0.3157777733773246 0 0.061487738162087698 -0.31450880719725333 0 0.061487738162087698 -0.31450880719725333 0 0.054861015916559057 -0.31255298228487299 0 0.059651335638657182 -0.31108324635509133 0 0.054861015916559057 -0.31255298228487299 0 0.048434365152107688 -0.3172097267298345 0 0.038648865542104401 -0.31139385333291081 0 0.063075408685592166 -0.3222151227715731 0 0.061487738162087698 -0.31450880719725333 0 0.055931140911825307 -0.31815135617537532 0 0.061487738162087698 -0.31450880719725333 0 0.055931140911825307 -0.31815135617537532 0 0.054861015916559057 -0.31255298228487299 0 0.055931140911825307 -0.31815135617537532 0 0.054861015916559057 -0.31255298228487299 0 0.048434365152107688 -0.3172097267298345 0 0.055931140911825307 -0.31815135617537532 0 0.048434365152107688 -0.3172097267298345 0 0.050105753047099112 -0.32184788155245603 0 0.055931140911825307 -0.31815135617537532 0 0.050105753047099112 -0.32184788155245603 0 0.053109718468583013 -0.32911568875116232 0 0.050105753047099112 -0.32184788155245603 0 0.053109718468583013 -0.32911568875116232 0 0.042947787655880407 -0.32291475455345192 0 0.048434365152107688 -0.3172097267298345 0 0.050105753047099112 -0.32184788155245603 0 0.042947787655880407 -0.32291475455345192 0 0.063075408685592166 -0.3222151227715731 0 0.055931140911825307 -0.31815135617537532 0 0.053109718468583013 -0.32911568875116232 0 0.064566739271179424 -0.331130734387865 0 0.063075408685592166 -0.3222151227715731 0 0.053109718468583013 -0.32911568875116232 0 0.064566739271179424 -0.331130734387865 0 0.058342421804239 -0.34172675570256861 0 0.053109718468583013 -0.32911568875116232 0 0.058342421804239 -0.34172675570256861 0 0.043898289860272111 -0.33612530774742699 0 0.04517789555464069 -0.34947216650677171 0 0.058342421804239 -0.34172675570256861 0 0.053109718468583013 -0.32911568875116232 0 0.043898289860272111 -0.33612530774742699 0 0.053109718468583013 -0.32911568875116232 0 0.043898289860272111 -0.33612530774742699 0 0.042947787655880407 -0.32291475455345192 0 0.043898289860272111 -0.33612530774742699 0 0.033965247158650493 -0.32796308058773721 0 0.042947787655880407 -0.32291475455345192 0 0.043898289860272111 -0.33612530774742699 0 0.04517789555464069 -0.34947216650677171 0 0.030576482396173471 -0.34187909507352537 0 0.043898289860272111 -0.33612530774742699 0 0.033965247158650493 -0.32796308058773721 0 0.030576482396173471 -0.34187909507352537 0 0.036165871615285963 -0.32037030487902329 0 0.033965247158650493 -0.32796308058773721 0 0.042947787655880407 -0.32291475455345192 0 0.036165871615285963 -0.32037030487902329 0 0.033965247158650493 -0.32796308058773721 0 0.029101586104508539 -0.31920953104199379 0 0.036165871615285963 -0.32037030487902329 0 0.029101586104508539 -0.31920953104199379 0 0.038648865542104401 -0.31139385333291081 0 0.048434365152107688 -0.3172097267298345 0 0.042947787655880407 -0.32291475455345192 0 0.038648865542104401 -0.31139385333291081 0 0.036165871615285963 -0.32037030487902329 0 0.042947787655880407 -0.32291475455345192 0 0.038648865542104401 -0.31139385333291081 0 0.052224593376763599 -0.37423672689752291 0 0.062047863969529 -0.36677367950336531 0 0.046010085740219302 -0.36327096367727718 0 0.062047863969529 -0.36677367950336531 0 0.056843790210672762 -0.35498064084795322 0 0.046010085740219302 -0.36327096367727718 0 0.063808457074631231 -0.38151283302859251 0 0.052224593376763599 -0.37423672689752291 0 0.062047863969529 -0.36677367950336531 0 0.056843790210672762 -0.35498064084795322 0 0.04517789555464069 -0.34947216650677171 0 0.046010085740219302 -0.36327096367727718 0 0.058342421804239 -0.34172675570256861 0 0.056843790210672762 -0.35498064084795322 0 0.04517789555464069 -0.34947216650677171 0 0.04517789555464069 -0.34947216650677171 0 0.034378023159232919 -0.35491652084408781 0 0.030576482396173471 -0.34187909507352537 0 0.04517789555464069 -0.34947216650677171 0 0.034378023159232919 -0.35491652084408781 0 0.046010085740219302 -0.36327096367727718 0 0.031450163804322147 -0.38299648014708249 0 0.041122553359336518 -0.3745189396943413 0 0.030258067008644449 -0.3667440264152243 0 0.046010085740219302 -0.36327096367727718 0 0.041122553359336518 -0.3745189396943413 0 0.030258067008644449 -0.3667440264152243 0 0.034378023159232919 -0.35491652084408781 0 0.046010085740219302 -0.36327096367727718 0 0.030258067008644449 -0.3667440264152243 0 0.052224593376763599 -0.37423672689752291 0 0.046010085740219302 -0.36327096367727718 0 0.041122553359336518 -0.3745189396943413 0 0.014416824747154619 -0.37592328633005739 0 0.030258067008644449 -0.3667440264152243 0 0.016897664443211911 -0.35643251698494471 0 0.016897664443211911 -0.35643251698494471 0 0.030576482396173471 -0.34187909507352537 0 0.016875997546474369 -0.34008768535312273 0 0.034378023159232919 -0.35491652084408781 0 0.030258067008644449 -0.3667440264152243 0 0.016897664443211911 -0.35643251698494471 0 0.034378023159232919 -0.35491652084408781 0 0.016897664443211911 -0.35643251698494471 0 0.030576482396173471 -0.34187909507352537 0 0.016897664443211911 -0.35643251698494471 0 0.0083774951014328053 -0.3479500164165038 0 0.016875997546474369 -0.34008768535312273 0 -0.00075274073939014601 -0.3564584525775914 0 0.016897664443211911 -0.35643251698494471 0 0.0083774951014328053 -0.3479500164165038 0 -0.0073683429415816156 -0.34561773438271709 0 -0.00075274073939014601 -0.3564584525775914 0 0.0083774951014328053 -0.3479500164165038 0 -0.0073683429415816156 -0.34561773438271709 0 0.0083774951014328053 -0.3479500164165038 0 0.0044609759893579036 -0.33771915893773408 0 -0.00075274073939014601 -0.3564584525775914 0 0.016897664443211911 -0.35643251698494471 0 0.0014496837259096161 -0.37019917058000251 0 0.014416824747154619 -0.37592328633005739 0 0.016897664443211911 -0.35643251698494471 0 0.0014496837259096161 -0.37019917058000251 0 0.017155100797118461 -0.31543707866132359 0 0.029101586104508539 -0.31920953104199379 0 0.038648865542104401 -0.31139385333291081 0 0.017155100797118461 -0.31543707866132359 0 0.038648865542104401 -0.31139385333291081 0 0.017155100797118461 -0.31543707866132359 0 0.02229327079121305 -0.3284747106140557 0 0.010620082302586761 -0.32779600885994298 0 0.017155100797118461 -0.31543707866132359 0 0.029101586104508539 -0.31920953104199379 0 0.02229327079121305 -0.3284747106140557 0 0.033965247158650493 -0.32796308058773721 0 0.029101586104508539 -0.31920953104199379 0 0.02229327079121305 -0.3284747106140557 0 0.033965247158650493 -0.32796308058773721 0 0.030576482396173471 -0.34187909507352537 0 0.02229327079121305 -0.3284747106140557 0 0.030576482396173471 -0.34187909507352537 0 0.016875997546474369 -0.34008768535312273 0 0.02229327079121305 -0.3284747106140557 0 0.016875997546474369 -0.34008768535312273 0 0.02229327079121305 -0.3284747106140557 0 0.010620082302586761 -0.32779600885994298 0 0.016875997546474369 -0.34008768535312273 0 0.0044609759893579036 -0.33771915893773408 0 0.010620082302586761 -0.32779600885994298 0 0.0083774951014328053 -0.3479500164165038 0 0.016875997546474369 -0.34008768535312273 0 0.0044609759893579036 -0.33771915893773408 0 -0.0053138169306343359 -0.33563337472114801 0 0.0044609759893579036 -0.33771915893773408 0 0.0016103038837324639 -0.33199173929296572 0 0.0044609759893579036 -0.33771915893773408 0 0.0016103038837324639 -0.33199173929296572 0 0.010620082302586761 -0.32779600885994298 0 -0.0033260258263804669 -0.32681841465303751 0 0.0016103038837324639 -0.33199173929296572 0 0.010620082302586761 -0.32779600885994298 0 -0.0033260258263804669 -0.32681841465303751 0 0.017155100797118461 -0.31543707866132359 0 -0.0031332965675300618 -0.3192535604675994 0 0.017155100797118461 -0.31543707866132359 0 -0.0033260258263804669 -0.32681841465303751 0 0.017155100797118461 -0.31543707866132359 0 0.010620082302586761 -0.32779600885994298 0 -0.0033260258263804669 -0.32681841465303751 0 -0.0031332965675300618 -0.3192535604675994 0 0.017155100797118461 -0.31543707866132359 0 -0.0031332965675300618 -0.3192535604675994 0 0.017155100797118461 -0.31543707866132359 0 0.0068436558020707403 -0.30952440010844662 0 -0.0064590071102648833 -0.30689811281617091 0 0.0068436558020707403 -0.30952440010844662 0 0.001060383604688247 -0.30155388938627731 0 0.0068436558020707403 -0.30952440010844662 0 0.001060383604688247 -0.30155388938627731 0 0.007984160493644676 -0.29957063481236962 0 0.001060383604688247 -0.30155388938627731 0 0.007984160493644676 -0.29957063481236962 0 0.0021455206274590228 -0.29404508635188592 0 0.007984160493644676 -0.29957063481236962 0 0.011885276994896891 -0.29235765001613923 0 0.017860696452828381 -0.30014143553418582 0 0.0068436558020707403 -0.30952440010844662 0 0.007984160493644676 -0.29957063481236962 0 0.017860696452828381 -0.30014143553418582 0 0.007984160493644676 -0.29957063481236962 0 0.0021455206274590228 -0.29404508635188592 0 0.011885276994896891 -0.29235765001613923 0 0.0045612647380138989 -0.28431467149452821 0 0.0021455206274590228 -0.29404508635188592 0 0.011885276994896891 -0.29235765001613923 0 0.0045612647380138989 -0.28431467149452821 0 0.011885276994896891 -0.29235765001613923 0 0.016822878392555071 -0.28350544084455848 0 0.016822878392555071 -0.28350544084455848 0 0.021937141264880309 -0.29256863105930753 0 0.026088200524735872 -0.2849450754268692 0 0.011885276994896891 -0.29235765001613923 0 0.016822878392555071 -0.28350544084455848 0 0.021937141264880309 -0.29256863105930753 0 0.011885276994896891 -0.29235765001613923 0 0.021937141264880309 -0.29256863105930753 0 0.017860696452828381 -0.30014143553418582 0 0.021937141264880309 -0.29256863105930753 0 0.027099238805566458 -0.29877494142714739 0 0.033727925389907411 -0.29257463336042661 0 0.021937141264880309 -0.29256863105930753 0 0.026088200524735872 -0.2849450754268692 0 0.033727925389907411 -0.29257463336042661 0 0.026088200524735872 -0.2849450754268692 0 0.033727925389907411 -0.29257463336042661 0 0.033869175146827163 -0.28033214879746882 0 0.0068436558020707403 -0.30952440010844662 0 0.017860696452828381 -0.30014143553418582 0 0.031366433419099539 -0.30753985921465771 0 0.017155100797118461 -0.31543707866132359 0 0.038648865542104401 -0.31139385333291081 0 0.031366433419099539 -0.30753985921465771 0 0.017155100797118461 -0.31543707866132359 0 0.0068436558020707403 -0.30952440010844662 0 0.031366433419099539 -0.30753985921465771 0 0.0068436558020707403 -0.30952440010844662 0 0.031366433419099539 -0.30753985921465771 0 0.021937141264880309 -0.29256863105930753 0 0.017860696452828381 -0.30014143553418582 0 0.027099238805566458 -0.29877494142714739 0 0.017860696452828381 -0.30014143553418582 0 0.027099238805566458 -0.29877494142714739 0 0.031366433419099539 -0.30753985921465771 0 0.027099238805566458 -0.29877494142714739 0 0.031366433419099539 -0.30753985921465771 0 0.033727925389907411 -0.29257463336042661 0 0.017155100797118461 -0.31543707866132359 0 0.031366433419099539 -0.30753985921465771 0 0.031366433419099539 -0.30753985921465771 0 0.033727925389907411 -0.29257463336042661 0 0.047362887493082352 -0.29865065004961477 0 0.031366433419099539 -0.30753985921465771 0 0.060914123683401412 -0.30514867006951879 0 0.031366433419099539 -0.30753985921465771 0 0.047362887493082352 -0.29865065004961477 0 0.038648865542104401 -0.31139385333291081 0 0.031366433419099539 -0.30753985921465771 0 0.060914123683401412 -0.30514867006951879 0 0.031366433419099539 -0.30753985921465771 0 0.060914123683401412 -0.30514867006951879 0 0.047362887493082352 -0.29865065004961477 0 0.033727925389907411 -0.29257463336042661 0 0.046925802589697863 -0.28483489502681869 0 0.033869175146827163 -0.28033214879746882 0 0.033727925389907411 -0.29257463336042661 0 0.046925802589697863 -0.28483489502681869 0 0.047362887493082352 -0.29865065004961477 0 0.046925802589697863 -0.28483489502681869 0 0.056417932273465581 -0.29691404967478707 0 0.047362887493082352 -0.29865065004961477 0 0.062765143881292465 -0.28424374038480138 0 0.046925802589697863 -0.28483489502681869 0 0.056417932273465581 -0.29691404967478707 0 0.064131802234868335 -0.29764185839350082 0 0.064929538038565784 -0.29313043204618 0 0.056417932273465581 -0.29691404967478707 0 0.064929538038565784 -0.29313043204618 0 0.062765143881292465 -0.28424374038480138 0 0.056417932273465581 -0.29691404967478707 0 0.038648865542104401 -0.31139385333291081 0 0.060914123683401412 -0.30514867006951879 0 0.060142630287090521 -0.30735062800449892 0 0.064131802234868335 -0.29764185839350082 0 0.056417932273465581 -0.29691404967478707 0 0.060914123683401412 -0.30514867006951879 0 0.038648865542104401 -0.31139385333291081 0 0.060142630287090521 -0.30735062800449892 0 0.054861015916559057 -0.31255298228487299 0 0.038648865542104401 -0.31139385333291081 0 0.060142630287090521 -0.30735062800449892 0 0.056417932273465581 -0.29691404967478707 0 0.060914123683401412 -0.30514867006951879 0 0.047362887493082352 -0.29865065004961477 0 0.060914123683401412 -0.30514867006951879 0 0.061864727394912708 -0.30757379433864318 0 0.060142630287090521 -0.30735062800449892 0 0.064288197420267479 -0.30787531134681517 0 0.060914123683401412 -0.30514867006951879 0 0.061864727394912708 -0.30757379433864318 0 0.061864727394912708 -0.30757379433864318 0 0.060142630287090521 -0.30735062800449892 0 0.062113958188891441 -0.30992056793374018 0 0.061487738162087698 -0.31450880719725333 0 0.062113958188891441 -0.30992056793374018 0 0.059651335638657182 -0.31108324635509133 0 0.060142630287090521 -0.30735062800449892 0 0.062113958188891441 -0.30992056793374018 0 0.059651335638657182 -0.31108324635509133 0 0.054861015916559057 -0.31255298228487299 0 0.060142630287090521 -0.30735062800449892 0 0.059651335638657182 -0.31108324635509133 0 0.051347829525214328 -0.25516012630376839 0 0.056220440876533863 -0.26916260607052173 0 0.039156849566354693 -0.26866517233414422 0 0.065335708183982863 -0.25499807618111581 0 0.051347829525214328 -0.25516012630376839 0 0.065379640124951593 -0.24066628117503369 0 0.065335708183982863 -0.25499807618111581 0 0.051347829525214328 -0.25516012630376839 0 0.056220440876533863 -0.26916260607052173 0 0.062765143881292465 -0.28424374038480138 0 0.046925802589697863 -0.28483489502681869 0 0.056220440876533863 -0.26916260607052173 0 0.046925802589697863 -0.28483489502681869 0 0.056220440876533863 -0.26916260607052173 0 0.039156849566354693 -0.26866517233414422 0 0.046925802589697863 -0.28483489502681869 0 0.039156849566354693 -0.26866517233414422 0 0.033869175146827163 -0.28033214879746882 0 0.039156849566354693 -0.26866517233414422 0 0.033869175146827163 -0.28033214879746882 0 0.023811996408049509 -0.2735459935247111 0 0.039156849566354693 -0.26866517233414422 0 0.035838626459895932 -0.25445004493449003 0 0.026491815037631671 -0.26159265953373739 0 0.051347829525214328 -0.25516012630376839 0 0.039156849566354693 -0.26866517233414422 0 0.035838626459895932 -0.25445004493449003 0 0.035838626459895932 -0.25445004493449003 0 0.026491815037631671 -0.26159265953373739 0 0.021593778469048891 -0.24814621671119719 0 0.026491815037631671 -0.26159265953373739 0 0.023811996408049509 -0.2735459935247111 0 0.01498682322944711 -0.2611745207366058 0 0.026491815037631671 -0.26159265953373739 0 0.01498682322944711 -0.2611745207366058 0 0.021593778469048891 -0.24814621671119719 0 0.026088200524735872 -0.2849450754268692 0 0.033869175146827163 -0.28033214879746882 0 0.023811996408049509 -0.2735459935247111 0 0.039156849566354693 -0.26866517233414422 0 0.026491815037631671 -0.26159265953373739 0 0.023811996408049509 -0.2735459935247111 0 0.023811996408049509 -0.2735459935247111 0 0.0097409198957476087 -0.27304631943005481 0 0.01498682322944711 -0.2611745207366058 0 0.016822878392555071 -0.28350544084455848 0 0.023811996408049509 -0.2735459935247111 0 0.0097409198957476087 -0.27304631943005481 0 0.016822878392555071 -0.28350544084455848 0 0.026088200524735872 -0.2849450754268692 0 0.023811996408049509 -0.2735459935247111 0 0.0045612647380138989 -0.28431467149452821 0 0.016822878392555071 -0.28350544084455848 0 0.0097409198957476087 -0.27304631943005481 0 -0.0046885611662538448 -0.27467123434601781 0 0.0097409198957476087 -0.27304631943005481 0 0.001638160530432056 -0.26101289470167283 0 -0.0046885611662538448 -0.27467123434601781 0 0.0045612647380138989 -0.28431467149452821 0 0.0097409198957476087 -0.27304631943005481 0 0.01498682322944711 -0.2611745207366058 0 0.001638160530432056 -0.26101289470167283 0 0.0072561364612929646 -0.24875986379435261 0 0.01498682322944711 -0.2611745207366058 0 0.0072561364612929646 -0.24875986379435261 0 0.021593778469048891 -0.24814621671119719 0 0.0097409198957476087 -0.27304631943005481 0 0.01498682322944711 -0.2611745207366058 0 0.001638160530432056 -0.26101289470167283 0 -0.0074019412988201817 -0.24854936663358451 0 0.001638160530432056 -0.26101289470167283 0 0.0072561364612929646 -0.24875986379435261 0 -0.0074019412988201817 -0.24854936663358451 0 0.0072561364612929646 -0.24875986379435261 0 0.0019815391129595372 -0.23326154048766989 0 0.0072561364612929646 -0.24875986379435261 0 0.01353775404639445 -0.23686482468736381 0 0.021593778469048891 -0.24814621671119719 0 0.0072561364612929646 -0.24875986379435261 0 0.01353775404639445 -0.23686482468736381 0 0.0019815391129595372 -0.23326154048766989 0 -0.00053481913395022479 -0.2137630812897415 0 0.0019815391129595372 -0.23326154048766989 0 0.01471451644136655 -0.22181613358337859 0 0.01353775404639445 -0.23686482468736381 0 0.0019815391129595372 -0.23326154048766989 0 0.01471451644136655 -0.22181613358337859 0 0.01353775404639445 -0.23686482468736381 0 0.01471451644136655 -0.22181613358337859 0 0.026999032769611631 -0.22954365399234661 0 0.01471451644136655 -0.22181613358337859 0 0.026999032769611631 -0.22954365399234661 0 0.03016143607599606 -0.21166961041805371 0 0.026999032769611631 -0.22954365399234661 0 0.021593778469048891 -0.24814621671119719 0 0.040898115418389967 -0.237290015030903 0 0.01353775404639445 -0.23686482468736381 0 0.026999032769611631 -0.22954365399234661 0 0.021593778469048891 -0.24814621671119719 0 -0.00053481913395022479 -0.2137630812897415 0 0.01471451644136655 -0.22181613358337859 0 0.016409805742316461 -0.20642863036497339 0 -0.00053481913395022479 -0.2137630812897415 0 0.0058434739981291749 -0.19505996769432099 0 0.016409805742316461 -0.20642863036497339 0 -0.00053481913395022479 -0.2137630812897415 0 0.0058434739981291749 -0.19505996769432099 0 0.01471451644136655 -0.22181613358337859 0 0.03016143607599606 -0.21166961041805371 0 0.016409805742316461 -0.20642863036497339 0 0.03016143607599606 -0.21166961041805371 0 0.016409805742316461 -0.20642863036497339 0 0.031864421330040749 -0.18983435883937211 0 0.0058434739981291749 -0.19505996769432099 0 0.016409805742316461 -0.20642863036497339 0 0.031864421330040749 -0.18983435883937211 0 0.031864421330040749 -0.18983435883937211 0 0.05150707552987499 -0.2033118635798416 0 0.047455261874821172 -0.18005746989323271 0 0.03016143607599606 -0.21166961041805371 0 0.031864421330040749 -0.18983435883937211 0 0.05150707552987499 -0.2033118635798416 0 0.031864421330040749 -0.18983435883937211 0 0.05150707552987499 -0.2033118635798416 0 0.03016143607599606 -0.21166961041805371 0 0.05150707552987499 -0.2033118635798416 0 0.041088596166473867 -0.22147512352318341 0 0.05150707552987499 -0.2033118635798416 0 0.041088596166473867 -0.22147512352318341 0 0.055407999529823303 -0.22602584764872671 0 0.05150707552987499 -0.2033118635798416 0 0.071149729729709177 -0.21678936832031101 0 0.05150707552987499 -0.2033118635798416 0 0.055407999529823303 -0.22602584764872671 0 0.071149729729709177 -0.21678936832031101 0 0.05150707552987499 -0.2033118635798416 0 0.070179327469090461 -0.20063938955103139 0 0.064189474076591924 -0.1864951449916771 0 0.05150707552987499 -0.2033118635798416 0 0.064189474076591924 -0.1864951449916771 0 0.047455261874821172 -0.18005746989323271 0 0.051347829525214328 -0.25516012630376839 0 0.035838626459895932 -0.25445004493449003 0 0.040898115418389967 -0.237290015030903 0 0.035838626459895932 -0.25445004493449003 0 0.021593778469048891 -0.24814621671119719 0 0.040898115418389967 -0.237290015030903 0 0.026999032769611631 -0.22954365399234661 0 0.040898115418389967 -0.237290015030903 0 0.041088596166473867 -0.22147512352318341 0 0.026999032769611631 -0.22954365399234661 0 0.03016143607599606 -0.21166961041805371 0 0.041088596166473867 -0.22147512352318341 0 0.040898115418389967 -0.237290015030903 0 0.041088596166473867 -0.22147512352318341 0 0.055407999529823303 -0.22602584764872671 0 0.040898115418389967 -0.237290015030903 0 0.055407999529823303 -0.22602584764872671 0 0.065379640124951593 -0.24066628117503369 0 0.051347829525214328 -0.25516012630376839 0 0.040898115418389967 -0.237290015030903 0 0.065379640124951593 -0.24066628117503369 0 0.065335708183982863 -0.25499807618111581 0 0.08209704847362069 -0.25074917337938168 0 0.065379640124951593 -0.24066628117503369 0 0.08209704847362069 -0.25074917337938168 0 0.10195227185327931 -0.25264655321542367 0 0.090792383929543391 -0.23026687306078061 0 0.08209704847362069 -0.25074917337938168 0 0.065379640124951593 -0.24066628117503369 0 0.090792383929543391 -0.23026687306078061 0 0.090792383929543391 -0.23026687306078061 0 0.071149729729709177 -0.21678936832031101 0 0.090792383929543391 -0.23026687306078061 0 0.071149729729709177 -0.21678936832031101 0 0.089414017858259531 -0.20970881774356209 0 0.055407999529823303 -0.22602584764872671 0 0.065379640124951593 -0.24066628117503369 0 0.071149729729709177 -0.21678936832031101 0 0.065379640124951593 -0.24066628117503369 0 0.090792383929543391 -0.23026687306078061 0 0.071149729729709177 -0.21678936832031101 0 0.071149729729709177 -0.21678936832031101 0 0.070179327469090461 -0.20063938955103139 0 0.089414017858259531 -0.20970881774356209 0 0.05150707552987499 -0.2033118635798416 0 0.071149729729709177 -0.21678936832031101 0 0.070179327469090461 -0.20063938955103139 0 0.070179327469090461 -0.20063938955103139 0 0.083271349076903922 -0.19114288263661861 0 0.064189474076591924 -0.1864951449916771 0 0.070179327469090461 -0.20063938955103139 0 0.083271349076903922 -0.19114288263661861 0 0.089414017858259531 -0.20970881774356209 0 0.083271349076903922 -0.19114288263661861 0 0.089414017858259531 -0.20970881774356209 0 0.098963235842677563 -0.19657029782595231 0 0.089414017858259531 -0.20970881774356209 0 0.098963235842677563 -0.19657029782595231 0 0.1110756185422275 -0.21313599349844231 0 0.090792383929543391 -0.23026687306078061 0 0.089414017858259531 -0.20970881774356209 0 0.1110756185422275 -0.21313599349844231 0 0.098963235842677563 -0.19657029782595231 0 0.1110756185422275 -0.21313599349844231 0 0.11107417708151569 -0.18559489645479299 0 0.1110756185422275 -0.21313599349844231 0 0.11107417708151569 -0.18559489645479299 0 0.1314761689024517 -0.19219162598023959 0 0.1110756185422275 -0.21313599349844231 0 0.11107417708151569 -0.18559489645479299 0 0.1110756185422275 -0.21313599349844231 0 0.11318810299470369 -0.23598163823489529 0 0.12850364820595331 -0.22750422579700491 0 0.1208808610854319 -0.25970788443117943 0 0.11318810299470369 -0.23598163823489529 0 0.1313098299079942 -0.24396976042201809 0 0.10195227185327931 -0.25264655321542367 0 0.1208808610854319 -0.25970788443117943 0 0.11318810299470369 -0.23598163823489529 0 0.11318810299470369 -0.23598163823489529 0 0.12850364820595331 -0.22750422579700491 0 0.1313098299079942 -0.24396976042201809 0 0.10195227185327931 -0.25264655321542367 0 0.090792383929543391 -0.23026687306078061 0 0.11318810299470369 -0.23598163823489529 0 0.090792383929543391 -0.23026687306078061 0 0.1110756185422275 -0.21313599349844231 0 0.11318810299470369 -0.23598163823489529 0 0.094839186637113104 -0.14947227465157251 0 0.1110712941600925 -0.13051270236749449 0 0.111072735620804 -0.1580537994111437 0 0.094839186637113104 -0.14947227465157251 0 0.095625712457041295 -0.1334101419337802 0 0.1110712941600925 -0.13051270236749449 0 0.095625712457041295 -0.1334101419337802 0 0.1110712941600925 -0.13051270236749449 0 0.10134097292599541 -0.121259740946941 0 0.095625712457041295 -0.1334101419337802 0 0.1110712941600925 -0.13051270236749449 0 0.1110712941600925 -0.13051270236749449 0 0.12662101070287141 -0.13750334345265089 0 0.13508646391308621 -0.12600769217292379 0 0.1110712941600925 -0.13051270236749449 0 0.13508646391308621 -0.12600769217292379 0 0.1110712941600925 -0.13051270236749449 0 0.12203859052377219 -0.14663482975687511 0 0.12662101070287141 -0.13750334345265089 0 0.1110712941600925 -0.13051270236749449 0 0.1244951109857452 -0.1203529848868761 0 0.13508646391308621 -0.12600769217292379 0 0.12203859052377219 -0.14663482975687511 0 0.111072735620804 -0.1580537994111437 0 0.12892468117211131 -0.15666310802434039 0 0.1110712941600925 -0.13051270236749449 0 0.111072735620804 -0.1580537994111437 0 0.1110712941600925 -0.13051270236749449 0 0.12203859052377219 -0.14663482975687511 0 0.111072735620804 -0.1580537994111437 0 0.111072735620804 -0.1580537994111437 0 0.1234787183091393 -0.17217479769050981 0 0.12892468117211131 -0.15666310802434039 0 0.111072735620804 -0.1580537994111437 0 0.11107417708151569 -0.18559489645479299 0 0.1234787183091393 -0.17217479769050981 0 0.11107417708151569 -0.18559489645479299 0 0.1314761689024517 -0.19219162598023959 0 0.111072735620804 -0.1580537994111437 0 0.1234787183091393 -0.17217479769050981 0 0.11107417708151569 -0.18559489645479299 0 0.098963235842677563 -0.19657029782595231 0 0.11107417708151569 -0.18559489645479299 0 0.093868575766757015 -0.17239581978625759 0 0.111072735620804 -0.1580537994111437 0 0.11107417708151569 -0.18559489645479299 0 0.093868575766757015 -0.17239581978625759 0 0.094839186637113104 -0.14947227465157251 0 0.111072735620804 -0.1580537994111437 0 0.093868575766757015 -0.17239581978625759 0 0.094839186637113104 -0.14947227465157251 0 0.093868575766757015 -0.17239581978625759 0 0.078630377646870073 -0.1609749981264505 0 0.093868575766757015 -0.17239581978625759 0 0.078630377646870073 -0.1609749981264505 0 0.076582835770705515 -0.17621237193012071 0 0.083271349076903922 -0.19114288263661861 0 0.098963235842677563 -0.19657029782595231 0 0.093868575766757015 -0.17239581978625759 0 0.083271349076903922 -0.19114288263661861 0 0.093868575766757015 -0.17239581978625759 0 0.076582835770705515 -0.17621237193012071 0 0.083271349076903922 -0.19114288263661861 0 0.076582835770705515 -0.17621237193012071 0 0.064189474076591924 -0.1864951449916771 0 0.076582835770705515 -0.17621237193012071 0 0.064189474076591924 -0.1864951449916771 0 0.062954402286404629 -0.17005301410959989 0 0.078630377646870073 -0.1609749981264505 0 0.076582835770705515 -0.17621237193012071 0 0.062954402286404629 -0.17005301410959989 0 0.078630377646870073 -0.1609749981264505 0 0.062954402286404629 -0.17005301410959989 0 0.063581600496990548 -0.1519653898852408 0 0.063581600496990548 -0.1519653898852408 0 0.076335658911884069 -0.14477898869177869 0 0.066784943708655592 -0.13540571965542161 0 0.078630377646870073 -0.1609749981264505 0 0.063581600496990548 -0.1519653898852408 0 0.076335658911884069 -0.14477898869177869 0 0.094839186637113104 -0.14947227465157251 0 0.078630377646870073 -0.1609749981264505 0 0.076335658911884069 -0.14477898869177869 0 0.094839186637113104 -0.14947227465157251 0 0.095625712457041295 -0.1334101419337802 0 0.076335658911884069 -0.14477898869177869 0 0.095625712457041295 -0.1334101419337802 0 0.079664021380890612 -0.12566464947746619 0 0.10134097292599541 -0.121259740946941 0 0.095625712457041295 -0.1334101419337802 0 0.076335658911884069 -0.14477898869177869 0 0.079664021380890612 -0.12566464947746619 0 0.079664021380890612 -0.12566464947746619 0 0.066784943708655592 -0.13540571965542161 0 0.058152342805634388 -0.1236805937218577 0 0.076335658911884069 -0.14477898869177869 0 0.079664021380890612 -0.12566464947746619 0 0.066784943708655592 -0.13540571965542161 0 0.053586655481677639 -0.13988048334286629 0 0.045679428127862819 -0.1253315646128193 0 0.058152342805634388 -0.1236805937218577 0 0.066784943708655592 -0.13540571965542161 0 0.053586655481677639 -0.13988048334286629 0 0.058152342805634388 -0.1236805937218577 0 0.063581600496990548 -0.1519653898852408 0 0.066784943708655592 -0.13540571965542161 0 0.053586655481677639 -0.13988048334286629 0 0.063581600496990548 -0.1519653898852408 0 0.053586655481677639 -0.13988048334286629 0 0.044370777803716933 -0.15638887475875299 0 0.053586655481677639 -0.13988048334286629 0 0.039200360943485058 -0.13744629710184589 0 0.044370777803716933 -0.15638887475875299 0 0.039200360943485058 -0.13744629710184589 0 0.044370777803716933 -0.15638887475875299 0 0.02188334785061893 -0.14802613332717449 0 0.045679428127862819 -0.1253315646128193 0 0.039200360943485058 -0.13744629710184589 0 0.031544928571029328 -0.1196954125554483 0 0.053586655481677639 -0.13988048334286629 0 0.045679428127862819 -0.1253315646128193 0 0.039200360943485058 -0.13744629710184589 0 0.064189474076591924 -0.1864951449916771 0 0.062954402286404629 -0.17005301410959989 0 0.047455261874821172 -0.18005746989323271 0 0.062954402286404629 -0.17005301410959989 0 0.063581600496990548 -0.1519653898852408 0 0.044370777803716933 -0.15638887475875299 0 0.062954402286404629 -0.17005301410959989 0 0.047455261874821172 -0.18005746989323271 0 0.044370777803716933 -0.15638887475875299 0 0.044370777803716933 -0.15638887475875299 0 0.031427292507451653 -0.17045034009861471 0 0.02188334785061893 -0.14802613332717449 0 0.047455261874821172 -0.18005746989323271 0 0.044370777803716933 -0.15638887475875299 0 0.031427292507451653 -0.17045034009861471 0 0.031864421330040749 -0.18983435883937211 0 0.047455261874821172 -0.18005746989323271 0 0.031427292507451653 -0.17045034009861471 0 0.031864421330040749 -0.18983435883937211 0 0.031427292507451653 -0.17045034009861471 0 0.012221767130207889 -0.17635685409890031 0 0.031864421330040749 -0.18983435883937211 0 0.012221767130207889 -0.17635685409890031 0 0.0058434739981291749 -0.19505996769432099 0 0.031864421330040749 -0.18983435883937211 0 0.012221767130207889 -0.17635685409890031 0 0.012221767130207889 -0.17635685409890031 0 0.02188334785061893 -0.14802613332717449 0 0.031427292507451653 -0.17045034009861471 0 0.012221767130207889 -0.17635685409890031 0 0.02188334785061893 -0.14802613332717449 0 0.0043408472213855853 -0.1709494822463099 0 0.012221767130207889 -0.17635685409890031 0 0.0044631311353323967 -0.15533498840657239 0 0.012221767130207889 -0.17635685409890031 0 0.02188334785061893 -0.14802613332717449 0 0.0044631311353323967 -0.15533498840657239 0 -0.00089121633836973589 -0.16327629310308001 0 0.0043408472213855853 -0.1709494822463099 0 0.0044631311353323967 -0.15533498840657239 0 0.0058434739981291749 -0.19505996769432099 0 0.012221767130207889 -0.17635685409890031 0 0.0058434739981291749 -0.19505996769432099 0 0.012221767130207889 -0.17635685409890031 0 0.001720711736504155 -0.18321484223918161 0 0.0043408472213855853 -0.1709494822463099 0 0.012221767130207889 -0.17635685409890031 0 0.0043408472213855853 -0.1709494822463099 0 0.012221767130207889 -0.17635685409890031 0 0.001720711736504155 -0.18321484223918161 0 0.01224617715836321 -0.13724651146592881 0 0.012533467824568901 -0.12403542566598751 0 0.031544928571029328 -0.1196954125554483 0 0.039200360943485058 -0.13744629710184589 0 0.02188334785061893 -0.14802613332717449 0 0.031544928571029328 -0.1196954125554483 0 0.02188334785061893 -0.14802613332717449 0 0.01224617715836321 -0.13724651146592881 0 0.031544928571029328 -0.1196954125554483 0 0.02188334785061893 -0.14802613332717449 0 0.031544928571029328 -0.1196954125554483 0 0.0044631311353323967 -0.15533498840657239 0 0.00207234792727306 -0.14230533698230219 0 0.01224617715836321 -0.13724651146592881 0 0.02188334785061893 -0.14802613332717449 0 0.0044631311353323967 -0.15533498840657239 0 0.01224617715836321 -0.13724651146592881 0 -8.7367507044229444e-05 -0.1320758947210427 0 0.00207234792727306 -0.14230533698230219 0 0.01224617715836321 -0.13724651146592881 0 -8.7367507044229444e-05 -0.1320758947210427 0 0.01224617715836321 -0.13724651146592881 0 0.012533467824568901 -0.12403542566598751 0 0.002348869369470805 -0.11731109275913 0 0.023020280963197831 -0.1035081769100045 0 -8.7367507044229444e-05 -0.1320758947210427 0 0.002348869369470805 -0.11731109275913 0 0.012533467824568901 -0.12403542566598751 0 0.002348869369470805 -0.11731109275913 0 0.012533467824568901 -0.12403542566598751 0 0.023020280963197831 -0.1035081769100045 0 0.012533467824568901 -0.12403542566598751 0 0.023020280963197831 -0.1035081769100045 0 0.031544928571029328 -0.1196954125554483 0 0.012533467824568901 -0.12403542566598751 0 0.023020280963197831 -0.1035081769100045 0 0.002348869369470805 -0.11731109275913 0 0.023020280963197831 -0.1035081769100045 0 0.00271208556382007 -0.09883127110100752 0 0.023020280963197831 -0.1035081769100045 0 0.00271208556382007 -0.09883127110100752 0 0.01208762864279588 -0.083210489898039489 0 -0.00083418359899767053 -0.072522553478430687 0 -0.01018293480097566 -0.085106020112889605 0 0.01208762864279588 -0.083210489898039489 0 -0.01018293480097566 -0.085106020112889605 0 0.00271208556382007 -0.09883127110100752 0 0.01208762864279588 -0.083210489898039489 0 -0.01018293480097566 -0.085106020112889605 0 0.01208762864279588 -0.083210489898039489 0 -0.00083418359899767053 -0.072522553478430687 0 0.01244861960884153 -0.069356819812348355 0 0.0055518271476778479 -0.060554578777902927 0 -0.00083418359899767053 -0.072522553478430687 0 0.01208762864279588 -0.083210489898039489 0 0.01244861960884153 -0.069356819812348355 0 0.01244861960884153 -0.069356819812348355 0 0.0055518271476778479 -0.060554578777902927 0 0.020658946618663531 -0.058672826047181707 0 0.02477887923406771 -0.071823650860188049 0 0.042357693807677121 -0.065656459852736215 0 0.020658946618663531 -0.058672826047181707 0 0.01244861960884153 -0.069356819812348355 0 0.02477887923406771 -0.071823650860188049 0 0.020658946618663531 -0.058672826047181707 0 0.01208762864279588 -0.083210489898039489 0 0.01244861960884153 -0.069356819812348355 0 0.02477887923406771 -0.071823650860188049 0 0.01208762864279588 -0.083210489898039489 0 0.034358192086567152 -0.08131495968318711 0 0.01208762864279588 -0.083210489898039489 0 0.02477887923406771 -0.071823650860188049 0 0.034358192086567152 -0.08131495968318711 0 0.023020280963197831 -0.1035081769100045 0 0.01208762864279588 -0.083210489898039489 0 0.034358192086567152 -0.08131495968318711 0 0.023020280963197831 -0.1035081769100045 0 0.034358192086567152 -0.08131495968318711 0 0.023020280963197831 -0.1035081769100045 0 0.034358192086567152 -0.08131495968318711 0 0.041206509291439972 -0.091364691783722515 0 0.034358192086567152 -0.08131495968318711 0 0.044940930060985103 -0.080414223622470873 0 0.044940930060985103 -0.080414223622470873 0 0.041206509291439972 -0.091364691783722515 0 0.034358192086567152 -0.08131495968318711 0 0.044940930060985103 -0.080414223622470873 0 0.041206509291439972 -0.091364691783722515 0 0.02477887923406771 -0.071823650860188049 0 0.034358192086567152 -0.08131495968318711 0 0.042357693807677121 -0.065656459852736215 0 0.034358192086567152 -0.08131495968318711 0 0.042357693807677121 -0.065656459852736215 0 0.034358192086567152 -0.08131495968318711 0 0.044940930060985103 -0.080414223622470873 0 0.042357693807677121 -0.065656459852736215 0 0.044940930060985103 -0.080414223622470873 0 0.042357693807677121 -0.065656459852736215 0 0.04922049719153343 -0.067865218971171398 0 0.042357693807677121 -0.065656459852736215 0 0.04922049719153343 -0.067865218971171398 0 0.042357693807677121 -0.065656459852736215 0 0.04922049719153343 -0.067865218971171398 0 0.047412572973300017 -0.061716556127691148 0 0.04922049719153343 -0.067865218971171398 0 0.052516739773351563 -0.068926098243374923 0 0.057353323497364467 -0.063713891590689298 0 0.04922049719153343 -0.067865218971171398 0 0.052516739773351563 -0.068926098243374923 0 0.044940930060985103 -0.080414223622470873 0 0.052516739773351563 -0.068926098243374923 0 0.059456295693036253 -0.079178767042997367 0 0.044940930060985103 -0.080414223622470873 0 0.04922049719153343 -0.067865218971171398 0 0.044940930060985103 -0.080414223622470873 0 0.04922049719153343 -0.067865218971171398 0 0.052516739773351563 -0.068926098243374923 0 0.052516739773351563 -0.068926098243374923 0 0.059456295693036253 -0.079178767042997367 0 0.064028295168381086 -0.066851515572077122 0 0.052516739773351563 -0.068926098243374923 0 0.057353323497364467 -0.063713891590689298 0 0.064028295168381086 -0.066851515572077122 0 0.041206509291439972 -0.091364691783722515 0 0.059456295693036253 -0.079178767042997367 0 0.06225117261196856 -0.095577457706679927 0 0.044940930060985103 -0.080414223622470873 0 0.041206509291439972 -0.091364691783722515 0 0.059456295693036253 -0.079178767042997367 0 0.041206509291439972 -0.091364691783722515 0 0.059456295693036253 -0.079178767042997367 0 0.044940930060985103 -0.080414223622470873 0 0.059456295693036253 -0.079178767042997367 0 0.059456295693036253 -0.079178767042997367 0 0.062234417156402329 -0.078942310826358914 0 0.041206509291439972 -0.091364691783722515 0 0.06225117261196856 -0.095577457706679927 0 0.048039519072448307 -0.1101370025177419 0 0.06225117261196856 -0.095577457706679927 0 0.048039519072448307 -0.1101370025177419 0 0.06904978789292035 -0.1107599220236726 0 0.058152342805634388 -0.1236805937218577 0 0.048039519072448307 -0.1101370025177419 0 0.06904978789292035 -0.1107599220236726 0 0.048039519072448307 -0.1101370025177419 0 0.06904978789292035 -0.1107599220236726 0 0.045679428127862819 -0.1253315646128193 0 0.058152342805634388 -0.1236805937218577 0 0.048039519072448307 -0.1101370025177419 0 0.045679428127862819 -0.1253315646128193 0 0.048039519072448307 -0.1101370025177419 0 0.031544928571029328 -0.1196954125554483 0 0.023020280963197831 -0.1035081769100045 0 0.041206509291439972 -0.091364691783722515 0 0.031544928571029328 -0.1196954125554483 0 0.041206509291439972 -0.091364691783722515 0 0.048039519072448307 -0.1101370025177419 0 0.031544928571029328 -0.1196954125554483 0 0.023020280963197831 -0.1035081769100045 0 0.041206509291439972 -0.091364691783722515 0 0.041206509291439972 -0.091364691783722515 0 0.031544928571029328 -0.1196954125554483 0 0.0217108161930991 -0.001085578434556951 0 0.02238708532816237 -0.016890391705211571 0 0.038128611492150757 -0.01355130648960292 0 0.0217108161930991 -0.001085578434556951 0 0.0094716142527038819 -0.0079088637512633383 0 0.02238708532816237 -0.016890391705211571 0 -0.008081950935871246 -0.0078643453545879025 0 0.0057465999670243432 0.0055996356184830438 0 0.0094716142527038819 -0.0079088637512633383 0 0.0057465999670243432 0.0055996356184830438 0 0.0217108161930991 -0.001085578434556951 0 0.0094716142527038819 -0.0079088637512633383 0 -0.008081950935871246 -0.0078643453545879025 0 0.0094716142527038819 -0.0079088637512633383 0 0.0069763512184407676 -0.022647556875415451 0 -0.0099906299789442321 -0.0293115812195653 0 0.0069763512184407676 -0.022647556875415451 0 0.0050241786169890248 -0.03713629370316586 0 0.0094716142527038819 -0.0079088637512633383 0 0.0069763512184407676 -0.022647556875415451 0 0.02238708532816237 -0.016890391705211571 0 0.02238708532816237 -0.016890391705211571 0 0.021886622530709179 -0.036171048666990703 0 0.034138560027680287 -0.024152117691514111 0 0.0069763512184407676 -0.022647556875415451 0 0.02238708532816237 -0.016890391705211571 0 0.021886622530709179 -0.036171048666990703 0 0.021886622530709179 -0.036171048666990703 0 0.0050241786169890248 -0.03713629370316586 0 0.020658946618663531 -0.058672826047181707 0 0.021886622530709179 -0.036171048666990703 0 0.020658946618663531 -0.058672826047181707 0 0.035330847008373439 -0.042144240077773162 0 0.021886622530709179 -0.036171048666990703 0 0.032219792099813592 -0.034239878983983049 0 0.034138560027680287 -0.024152117691514111 0 0.021886622530709179 -0.036171048666990703 0 0.035330847008373439 -0.042144240077773162 0 0.032219792099813592 -0.034239878983983049 0 0.0069763512184407676 -0.022647556875415451 0 0.021886622530709179 -0.036171048666990703 0 0.0050241786169890248 -0.03713629370316586 0 -0.0071811579328509706 -0.049712626935109173 0 0.0055518271476778479 -0.060554578777902927 0 0.020658946618663531 -0.058672826047181707 0 -0.0071811579328509706 -0.049712626935109173 0 0.020658946618663531 -0.058672826047181707 0 -0.0071811579328509706 -0.049712626935109173 0 0.0050241786169890248 -0.03713629370316586 0 0.020658946618663531 -0.058672826047181707 0 0.0055518271476778479 -0.060554578777902927 0 0.020658946618663531 -0.058672826047181707 0 0.020658946618663531 -0.058672826047181707 0 0.047642533568066622 -0.055311732721341003 0 0.035330847008373439 -0.042144240077773162 0 0.020658946618663531 -0.058672826047181707 0 0.047642533568066622 -0.055311732721341003 0 0.042357693807677121 -0.065656459852736215 0 0.020658946618663531 -0.058672826047181707 0 0.047642533568066622 -0.055311732721341003 0 0.042357693807677121 -0.065656459852736215 0 0.020658946618663531 -0.058672826047181707 0 0.042357693807677121 -0.065656459852736215 0 0.047642533568066622 -0.055311732721341003 0 0.042357693807677121 -0.065656459852736215 0 0.047412572973300017 -0.061716556127691148 0 0.047642533568066622 -0.055311732721341003 0 0.04922049719153343 -0.067865218971171398 0 0.053761519378825527 -0.054549547826943351 0 0.047642533568066622 -0.055311732721341003 0 0.053761519378825527 -0.054549547826943351 0 0.057477536026820139 -0.036060360610697888 0 0.04922049719153343 -0.067865218971171398 0 0.047412572973300017 -0.061716556127691148 0 0.053761519378825527 -0.054549547826943351 0 0.04922049719153343 -0.067865218971171398 0 0.057353323497364467 -0.063713891590689298 0 0.053761519378825527 -0.054549547826943351 0 0.047412572973300017 -0.061716556127691148 0 0.047642533568066622 -0.055311732721341003 0 0.053761519378825527 -0.054549547826943351 0 0.047642533568066622 -0.055311732721341003 0 0.053761519378825527 -0.054549547826943351 0 0.057353323497364467 -0.063713891590689298 0 0.053761519378825527 -0.054549547826943351 0 0.06723956597473027 -0.060377077339879508 0 0.053761519378825527 -0.054549547826943351 0 0.061655070364728309 -0.031403233020862488 0 0.057477536026820139 -0.036060360610697888 0 0.053761519378825527 -0.054549547826943351 0 0.061655070364728309 -0.031403233020862488 0 0.066082813200167345 -0.044591377035408969 0 0.047642533568066622 -0.055311732721341003 0 0.057477536026820139 -0.036060360610697888 0 0.047718036491888341 -0.036244064231816073 0 0.053761519378825527 -0.054549547826943351 0 0.061655070364728309 -0.031403233020862488 0 0.047642533568066622 -0.055311732721341003 0 0.057477536026820139 -0.036060360610697888 0 0.061655070364728309 -0.031403233020862488 0 0.057477536026820139 -0.036060360610697888 0 0.055324357297392018 -0.030367969142294511 0 0.057477536026820139 -0.036060360610697888 0 0.047718036491888341 -0.036244064231816073 0 0.055324357297392018 -0.030367969142294511 0 0.047718036491888341 -0.036244064231816073 0 0.039686342753942019 -0.032099660641540233 0 0.035330847008373439 -0.042144240077773162 0 0.047642533568066622 -0.055311732721341003 0 0.047718036491888341 -0.036244064231816073 0 0.035330847008373439 -0.042144240077773162 0 0.039686342753942019 -0.032099660641540233 0 0.035330847008373439 -0.042144240077773162 0 0.032219792099813592 -0.034239878983983049 0 0.02238708532816237 -0.016890391705211571 0 0.034138560027680287 -0.024152117691514111 0 0.038128611492150757 -0.01355130648960292 0 0.039686342753942019 -0.032099660641540233 0 0.032219792099813592 -0.034239878983983049 0 0.034138560027680287 -0.024152117691514111 0 0.034138560027680287 -0.024152117691514111 0 0.049024478141954458 -0.023718002222614741 0 0.038128611492150757 -0.01355130648960292 0 0.049024478141954458 -0.023718002222614741 0 0.053333918461092873 -0.01328775243377656 0 0.038128611492150757 -0.01355130648960292 0 0.047718036491888341 -0.036244064231816073 0 0.039686342753942019 -0.032099660641540233 0 0.049024478141954458 -0.023718002222614741 0 0.039686342753942019 -0.032099660641540233 0 0.034138560027680287 -0.024152117691514111 0 0.049024478141954458 -0.023718002222614741 0 0.047718036491888341 -0.036244064231816073 0 0.049024478141954458 -0.023718002222614741 0 0.055324357297392018 -0.030367969142294511 0 0.049024478141954458 -0.023718002222614741 0 0.055324357297392018 -0.030367969142294511 0 0.056680071202434228 -0.025913299250085391 0 0.061655070364728309 -0.031403233020862488 0 0.056680071202434228 -0.025913299250085391 0 0.060716379005662152 -0.01816399261456984 0 0.061655070364728309 -0.031403233020862488 0 0.055324357297392018 -0.030367969142294511 0 0.056680071202434228 -0.025913299250085391 0 0.049024478141954458 -0.023718002222614741 0 0.056680071202434228 -0.025913299250085391 0 0.060716379005662152 -0.01816399261456984 0 0.049024478141954458 -0.023718002222614741 0 0.060716379005662152 -0.01816399261456984 0 0.053333918461092873 -0.01328775243377656 0 0.060716379005662152 -0.01816399261456984 0 0.053333918461092873 -0.01328775243377656 0 0.069548621350630641 -0.0082569182147814307 0 0.053333918461092873 -0.01328775243377656 0 0.049251502315066371 -0.0027485426273138819 0 0.069548621350630641 -0.0082569182147814307 0 0.053333918461092873 -0.01328775243377656 0 0.049251502315066371 -0.0027485426273138819 0 0.038128611492150757 -0.01355130648960292 0 0.061392891900666088 0.0054489801558786077 0 0.049251502315066371 -0.0027485426273138819 0 0.076792188437033629 -0.0044115068200708124 0 0.0217108161930991 -0.001085578434556951 0 0.049251502315066371 -0.0027485426273138819 0 0.038128611492150757 -0.01355130648960292 0 0.0217108161930991 -0.001085578434556951 0 0.049251502315066371 -0.0027485426273138819 0 0.076792188437033629 -0.0044115068200708124 0 0.1043328745590008 -0.006074471012827736 0 0.095468603896129905 0.0032048388713090512 0 0.076792188437033629 -0.0044115068200708124 0 0.1043328745590008 -0.006074471012827736 0 0.089373688792089206 -0.011043439040499229 0 0.076792188437033629 -0.0044115068200708124 0 0.1043328745590008 -0.006074471012827736 0 0.089373688792089206 -0.011043439040499229 0 0.079601028667628138 -0.0150023615810559 0 0.089862916173340357 -0.01708762558901326 0 0.089373688792089206 -0.011043439040499229 0 0.089862916173340357 -0.01708762558901326 0 0.096279436123443099 -0.01264123019952843 0 0.089373688792089206 -0.011043439040499229 0 0.079601028667628138 -0.0150023615810559 0 0.076792188437033629 -0.0044115068200708124 0 0.049251502315066371 -0.0027485426273138819 0 0.076792188437033629 -0.0044115068200708124 0 0.049251502315066371 -0.0027485426273138819 0 0.076792188437033629 -0.0044115068200708124 0 0.069548621350630641 -0.0082569182147814307 0 0.069548621350630641 -0.0082569182147814307 0 0.07420405090032231 -0.012324735278690029 0 0.070874365145996834 -0.02162815449885196 0 0.076792188437033629 -0.0044115068200708124 0 0.069548621350630641 -0.0082569182147814307 0 0.07420405090032231 -0.012324735278690029 0 0.079601028667628138 -0.0150023615810559 0 0.076792188437033629 -0.0044115068200708124 0 0.07420405090032231 -0.012324735278690029 0 0.079601028667628138 -0.0150023615810559 0 0.07420405090032231 -0.012324735278690029 0 0.070874365145996834 -0.02162815449885196 0 0.061655070364728309 -0.031403233020862488 0 0.069548621350630641 -0.0082569182147814307 0 0.079601028667628138 -0.0150023615810559 0 0.070874365145996834 -0.02162815449885196 0 0.083110828861718888 -0.024746455878309429 0 0.061655070364728309 -0.031403233020862488 0 0.060716379005662152 -0.01816399261456984 0 0.069548621350630641 -0.0082569182147814307 0 0.061655070364728309 -0.031403233020862488 0 0.069548621350630641 -0.0082569182147814307 0 0.070874365145996834 -0.02162815449885196 0 0.061655070364728309 -0.031403233020862488 0 0.070874365145996834 -0.02162815449885196 0 0.074255817864639778 -0.034265107270482049 0 0.070874365145996834 -0.02162815449885196 0 0.083110828861718888 -0.024746455878309429 0 0.074255817864639778 -0.034265107270482049 0 0.079601028667628138 -0.0150023615810559 0 0.083110828861718888 -0.024746455878309429 0 0.089862916173340357 -0.01708762558901326 0 0.083110828861718888 -0.024746455878309429 0 0.089862916173340357 -0.01708762558901326 0 0.094022778193201012 -0.026123982876348699 0 0.083110828861718888 -0.024746455878309429 0 0.091714906782867311 -0.036797226709749317 0 0.094022778193201012 -0.026123982876348699 0 0.091714906782867311 -0.036797226709749317 0 0.079933656766624769 -0.051289529191830711 0 0.1061057941544242 -0.048029510556719501 0 0.091714906782867311 -0.036797226709749317 0 0.074255817864639778 -0.034265107270482049 0 0.079933656766624769 -0.051289529191830711 0 0.083110828861718888 -0.024746455878309429 0 0.091714906782867311 -0.036797226709749317 0 0.074255817864639778 -0.034265107270482049 0 0.074255817864639778 -0.034265107270482049 0 0.066082813200167345 -0.044591377035408969 0 0.079933656766624769 -0.051289529191830711 0 0.061655070364728309 -0.031403233020862488 0 0.074255817864639778 -0.034265107270482049 0 0.066082813200167345 -0.044591377035408969 0 0.053761519378825527 -0.054549547826943351 0 0.066082813200167345 -0.044591377035408969 0 0.079933656766624769 -0.051289529191830711 0 0.053761519378825527 -0.054549547826943351 0 0.079933656766624769 -0.051289529191830711 0 0.053761519378825527 -0.054549547826943351 0 0.06723956597473027 -0.060377077339879508 0 0.079933656766624769 -0.051289529191830711 0 0.06723956597473027 -0.060377077339879508 0 0.079933656766624769 -0.051289529191830711 0 0.082781044923730202 -0.063604138799858309 0 0.079933656766624769 -0.051289529191830711 0 0.1061057941544242 -0.048029510556719501 0 0.082781044923730202 -0.063604138799858309 0 0.079933656766624769 -0.051289529191830711 0 0.1061057941544242 -0.048029510556719501 0 0.1061057941544242 -0.048029510556719501 0 0.082781044923730202 -0.063604138799858309 0 0.111068071689429 -0.068942951262236568 0 0.1061057941544242 -0.048029510556719501 0 0.082781044923730202 -0.063604138799858309 0 0.1061057941544242 -0.048029510556719501 0 0.11106694476720951 -0.047411546375587969 0 0.11106694476720951 -0.047411546375587969 0 0.111068071689429 -0.068942951262236568 0 0.12044520320843211 -0.058176758004082361 0 0.11106694476720951 -0.047411546375587969 0 0.111068071689429 -0.068942951262236568 0 0.1061057941544242 -0.048029510556719501 0 0.11106694476720951 -0.047411546375587969 0 0.111068071689429 -0.068942951262236568 0 0.12044520320843211 -0.058176758004082361 0 0.11106694476720951 -0.047411546375587969 0 0.1268960241544852 -0.045439865843174693 0 0.1145384225706095 -0.042398793956269408 0 0.11874886145434339 -0.01988594297582702 0 0.1268960241544852 -0.045439865843174693 0 0.11106694476720951 -0.047411546375587969 0 0.1268960241544852 -0.045439865843174693 0 0.1110668037332045 -0.044716897026090753 0 0.1110657475635783 -0.024537318092090879 0 0.11106694476720951 -0.047411546375587969 0 0.1110668037332045 -0.044716897026090753 0 0.1145384225706095 -0.042398793956269408 0 0.11106694476720951 -0.047411546375587969 0 0.1145384225706095 -0.042398793956269408 0 0.1268960241544852 -0.045439865843174693 0 0.1061057941544242 -0.048029510556719501 0 0.11106694476720951 -0.047411546375587969 0 0.1110668037332045 -0.044716897026090753 0 0.1110668037332045 -0.044716897026090753 0 0.1145384225706095 -0.042398793956269408 0 0.1110657475635783 -0.024537318092090879 0 0.11874886145434339 -0.01988594297582702 0 0.1268960241544852 -0.045439865843174693 0 0.11106694476720951 -0.047411546375587969 0 0.1110668037332045 -0.044716897026090753 0 0.1110668037332045 -0.044716897026090753 0 0.1145384225706095 -0.042398793956269408 0 0.1110668037332045 -0.044716897026090753 0 0.1055557892623542 -0.033443297064595402 0 0.1033412620220773 -0.038743671180952483 0 0.1110668037332045 -0.044716897026090753 0 0.1055557892623542 -0.033443297064595402 0 0.1110657475635783 -0.024537318092090879 0 0.1055557892623542 -0.033443297064595402 0 0.1033412620220773 -0.038743671180952483 0 0.099735706130166191 -0.032363650611350291 0 0.1061057941544242 -0.048029510556719501 0 0.1110668037332045 -0.044716897026090753 0 0.1033412620220773 -0.038743671180952483 0 0.1061057941544242 -0.048029510556719501 0 0.1110668037332045 -0.044716897026090753 0 0.091714906782867311 -0.036797226709749317 0 0.1061057941544242 -0.048029510556719501 0 0.1033412620220773 -0.038743671180952483 0 0.091714906782867311 -0.036797226709749317 0 0.099735706130166191 -0.032363650611350291 0 0.094022778193201012 -0.026123982876348699 0 0.091714906782867311 -0.036797226709749317 0 0.1033412620220773 -0.038743671180952483 0 0.099735706130166191 -0.032363650611350291 0 0.094022778193201012 -0.026123982876348699 0 0.099939803117056927 -0.019438719481823939 0 0.10256942686274539 -0.02685494841249338 0 0.099735706130166191 -0.032363650611350291 0 0.094022778193201012 -0.026123982876348699 0 0.10256942686274539 -0.02685494841249338 0 0.089862916173340357 -0.01708762558901326 0 0.099939803117056927 -0.019438719481823939 0 0.096279436123443099 -0.01264123019952843 0 0.089862916173340357 -0.01708762558901326 0 0.094022778193201012 -0.026123982876348699 0 0.099939803117056927 -0.019438719481823939 0 0.099939803117056927 -0.019438719481823939 0 0.1110657475635783 -0.024537318092090879 0 0.1038427994338427 -0.01228339429365575 0 0.099939803117056927 -0.019438719481823939 0 0.10256942686274539 -0.02685494841249338 0 0.1110657475635783 -0.024537318092090879 0 0.1055557892623542 -0.033443297064595402 0 0.10256942686274539 -0.02685494841249338 0 0.1110657475635783 -0.024537318092090879 0 0.1055557892623542 -0.033443297064595402 0 0.099735706130166191 -0.032363650611350291 0 0.10256942686274539 -0.02685494841249338 0 0.1110657475635783 -0.024537318092090879 0 0.11874886145434339 -0.01988594297582702 0 0.11106469139395241 -0.0043577391580909642 0 0.1145384225706095 -0.042398793956269408 0 0.1110657475635783 -0.024537318092090879 0 0.11874886145434339 -0.01988594297582702 0 0.1110657475635783 -0.024537318092090879 0 0.11106469139395241 -0.0043577391580909642 0 0.1241013306504634 -0.00126979730434574 0 0.11106469139395241 -0.0043577391580909642 0 0.13403156470564001 -0.01549442786512698 0 0.11874886145434339 -0.01988594297582702 0 0.11106469139395241 -0.0043577391580909642 0 0.13403156470564001 -0.01549442786512698 0 0.11106469139395241 -0.0043577391580909642 0 0.13403156470564001 -0.01549442786512698 0 0.11616446291822149 0.0009867659353553224 0 0.1241013306504634 -0.00126979730434574 0 0.11106469139395241 -0.0043577391580909642 0 0.1110642626353554 0.0038342857635015049 0 0.11106469139395241 -0.0043577391580909642 0 0.1110657475635783 -0.024537318092090879 0 0.11106469139395241 -0.0043577391580909642 0 0.1038427994338427 -0.01228339429365575 0 0.11106469139395241 -0.0043577391580909642 0 0.1043328745590008 -0.006074471012827736 0 0.1038427994338427 -0.01228339429365575 0 0.095468603896129905 0.0032048388713090512 0 0.11106469139395241 -0.0043577391580909642 0 0.095468603896129905 0.0032048388713090512 0 0.11106469139395241 -0.0043577391580909642 0 0.1043328745590008 -0.006074471012827736 0 0.1043328745590008 -0.006074471012827736 0 0.1038427994338427 -0.01228339429365575 0 0.096279436123443099 -0.01264123019952843 0 0.089373688792089206 -0.011043439040499229 0 0.1043328745590008 -0.006074471012827736 0 0.096279436123443099 -0.01264123019952843 0 0.099939803117056927 -0.019438719481823939 0 0.1038427994338427 -0.01228339429365575 0 0.096279436123443099 -0.01264123019952843 0 0.079765876201786601 -0.094234890917057473 0 0.090060056713392317 -0.1113828415296032 0 0.097109735642090717 -0.098021729451106668 0 0.079765876201786601 -0.094234890917057473 0 0.090060056713392317 -0.1113828415296032 0 0.06904978789292035 -0.1107599220236726 0 0.090060056713392317 -0.1113828415296032 0 0.06904978789292035 -0.1107599220236726 0 0.079664021380890612 -0.12566464947746619 0 0.090060056713392317 -0.1113828415296032 0 0.10134097292599541 -0.121259740946941 0 0.079664021380890612 -0.12566464947746619 0 0.090060056713392317 -0.1113828415296032 0 0.06904978789292035 -0.1107599220236726 0 0.079664021380890612 -0.12566464947746619 0 0.058152342805634388 -0.1236805937218577 0 0.06904978789292035 -0.1107599220236726 0 0.06225117261196856 -0.095577457706679927 0 0.079765876201786601 -0.094234890917057473 0 0.06904978789292035 -0.1107599220236726 0 0.062234417156402329 -0.078942310826358914 0 0.068332551824409768 -0.085783267286662093 0 0.077954997458855341 -0.080982909940217215 0 0.059456295693036253 -0.079178767042997367 0 0.06225117261196856 -0.095577457706679927 0 0.068332551824409768 -0.085783267286662093 0 0.06225117261196856 -0.095577457706679927 0 0.079765876201786601 -0.094234890917057473 0 0.068332551824409768 -0.085783267286662093 0 0.059456295693036253 -0.079178767042997367 0 0.062234417156402329 -0.078942310826358914 0 0.068332551824409768 -0.085783267286662093 0 0.079765876201786601 -0.094234890917057473 0 0.068332551824409768 -0.085783267286662093 0 0.077954997458855341 -0.080982909940217215 0 0.06723956597473027 -0.060377077339879508 0 0.064028295168381086 -0.066851515572077122 0 0.082781044923730202 -0.063604138799858309 0 0.059456295693036253 -0.079178767042997367 0 0.062234417156402329 -0.078942310826358914 0 0.082781044923730202 -0.063604138799858309 0 0.059456295693036253 -0.079178767042997367 0 0.064028295168381086 -0.066851515572077122 0 0.082781044923730202 -0.063604138799858309 0 0.059456295693036253 -0.079178767042997367 0 0.082781044923730202 -0.063604138799858309 0 0.062234417156402329 -0.078942310826358914 0 0.077954997458855341 -0.080982909940217215 0 0.082781044923730202 -0.063604138799858309 0 0.057353323497364467 -0.063713891590689298 0 0.06723956597473027 -0.060377077339879508 0 0.064028295168381086 -0.066851515572077122 0 0.077954997458855341 -0.080982909940217215 0 0.082781044923730202 -0.063604138799858309 0 0.093583221149761669 -0.082010797624453624 0 0.079765876201786601 -0.094234890917057473 0 0.093583221149761669 -0.082010797624453624 0 0.097109735642090717 -0.098021729451106668 0 0.079765876201786601 -0.094234890917057473 0 0.077954997458855341 -0.080982909940217215 0 0.093583221149761669 -0.082010797624453624 0 0.093583221149761669 -0.082010797624453624 0 0.111068071689429 -0.068942951262236568 0 0.1110691986116488 -0.090474356148885188 0 0.093583221149761669 -0.082010797624453624 0 0.1110691986116488 -0.090474356148885188 0 0.097109735642090717 -0.098021729451106668 0 0.082781044923730202 -0.063604138799858309 0 0.093583221149761669 -0.082010797624453624 0 0.111068071689429 -0.068942951262236568 0 0.12044520320843211 -0.058176758004082361 0 0.111068071689429 -0.068942951262236568 0 0.12359760756783621 -0.077980187999416875 0 0.111068071689429 -0.068942951262236568 0 0.1110691986116488 -0.090474356148885188 0 0.111068071689429 -0.068942951262236568 0 0.12359760756783621 -0.077980187999416875 0 0.1110691986116488 -0.090474356148885188 0 0.12359760756783621 -0.077980187999416875 0 0.1110691986116488 -0.090474356148885188 0 0.1247667822469833 -0.094603111154835509 0 0.1247667822469833 -0.094603111154835509 0 0.1110703255338643 -0.11200576103553379 0 0.13251754910958141 -0.1022781194865121 0 0.1110691986116488 -0.090474356148885188 0 0.1110703255338643 -0.11200576103553379 0 0.1110691986116488 -0.090474356148885188 0 0.1247667822469833 -0.094603111154835509 0 0.1110703255338643 -0.11200576103553379 0 0.1110691986116488 -0.090474356148885188 0 0.097109735642090717 -0.098021729451106668 0 0.1110703255338643 -0.11200576103553379 0 0.090060056713392317 -0.1113828415296032 0 0.097109735642090717 -0.098021729451106668 0 0.1110703255338643 -0.11200576103553379 0 0.090060056713392317 -0.1113828415296032 0 0.1110703255338643 -0.11200576103553379 0 0.1110712941600925 -0.13051270236749449 0 0.10134097292599541 -0.121259740946941 0 0.1110703255338643 -0.11200576103553379 0 0.090060056713392317 -0.1113828415296032 0 0.10134097292599541 -0.121259740946941 0 0.1110703255338643 -0.11200576103553379 0 0.1110712941600925 -0.13051270236749449 0 0.1110703255338643 -0.11200576103553379 0 0.1244951109857452 -0.1203529848868761 0 0.1110712941600925 -0.13051270236749449 0 0.1110703255338643 -0.11200576103553379 0 0.1110703255338643 -0.11200576103553379 0 0.14075236033593799 -0.1128857839715522 0 0.1110703255338643 -0.11200576103553379 0 0.1244951109857452 -0.1203529848868761 0 0.14075236033593799 -0.1128857839715522 0 0.1244951109857452 -0.1203529848868761 0 0.14075236033593799 -0.1128857839715522 0 0.13508646391308621 -0.12600769217292379 0 0.14075236033593799 -0.1128857839715522 0 0.17043439513801181 -0.1137658069075705 0 0.14075236033593799 -0.1128857839715522 0 0.1591016336660796 -0.1215026819783514 0 0.13508646391308621 -0.12600769217292379 0 0.1591016336660796 -0.1215026819783514 0 0.13508646391308621 -0.12600769217292379 0 0.14621976162777481 -0.1060495915937488 0 0.13977851580334641 -0.085846349676890296 0 0.1533153804440896 -0.092729166951817821 0 0.14075236033593799 -0.1128857839715522 0 0.14621976162777481 -0.1060495915937488 0 0.1600023654421576 -0.1046503988106547 0 0.14621976162777481 -0.1060495915937488 0 0.13977851580334641 -0.085846349676890296 0 0.14621976162777481 -0.1060495915937488 0 0.1533153804440896 -0.092729166951817821 0 0.1600023654421576 -0.1046503988106547 0 0.1110703255338643 -0.11200576103553379 0 0.14075236033593799 -0.1128857839715522 0 0.13251754910958141 -0.1022781194865121 0 0.1247667822469833 -0.094603111154835509 0 0.13251754910958141 -0.1022781194865121 0 0.13977851580334641 -0.085846349676890296 0 0.14621976162777481 -0.1060495915937488 0 0.13251754910958141 -0.1022781194865121 0 0.13977851580334641 -0.085846349676890296 0 0.14075236033593799 -0.1128857839715522 0 0.14621976162777481 -0.1060495915937488 0 0.13251754910958141 -0.1022781194865121 0 0.12359760756783621 -0.077980187999416875 0 0.1247667822469833 -0.094603111154835509 0 0.13977851580334641 -0.085846349676890296 0 0.12359760756783621 -0.077980187999416875 0 0.13977851580334641 -0.085846349676890296 0 0.13333726997891801 -0.065643107760031738 0 0.13977851580334641 -0.085846349676890296 0 0.13333726997891801 -0.065643107760031738 0 0.14752880998169199 -0.069126175059886052 0 0.13977851580334641 -0.085846349676890296 0 0.13333726997891801 -0.065643107760031738 0 0.12044520320843211 -0.058176758004082361 0 0.12359760756783621 -0.077980187999416875 0 0.13333726997891801 -0.065643107760031738 0 0.14752880998169199 -0.069126175059886052 0 0.15449844762979709 -0.079210062000389603 0 0.16534332314343919 -0.066172810310391433 0 0.13977851580334641 -0.085846349676890296 0 0.14752880998169199 -0.069126175059886052 0 0.15449844762979709 -0.079210062000389603 0 0.13977851580334641 -0.085846349676890296 0 0.15449844762979709 -0.079210062000389603 0 0.1533153804440896 -0.092729166951817821 0 0.15449844762979709 -0.079210062000389603 0 0.1533153804440896 -0.092729166951817821 0 0.16638174870055461 -0.088044902470279018 0 0.15449844762979709 -0.079210062000389603 0 0.16638174870055461 -0.088044902470279018 0 0.16534332314343919 -0.066172810310391433 0 0.16534332314343919 -0.066172810310391433 0 0.18600015293391889 -0.083587075069055661 0 0.16534332314343919 -0.066172810310391433 0 0.18600015293391889 -0.083587075069055661 0 0.1902408166419349 -0.063653690646425509 0 0.16638174870055461 -0.088044902470279018 0 0.16534332314343919 -0.066172810310391433 0 0.18600015293391889 -0.083587075069055661 0 0.16638174870055461 -0.088044902470279018 0 0.18600015293391889 -0.083587075069055661 0 0.1815388957007569 -0.10312750993221841 0 0.1815388957007569 -0.10312750993221841 0 0.18311680341907299 -0.1169976717837789 0 0.19708371769526301 -0.1150201012677961 0 0.1815388957007569 -0.10312750993221841 0 0.18311680341907299 -0.1169976717837789 0 0.17043439513801181 -0.1137658069075705 0 0.18311680341907299 -0.1169976717837789 0 0.1591016336660796 -0.1215026819783514 0 0.18311680341907299 -0.1169976717837789 0 0.17043439513801181 -0.1137658069075705 0 0.1591016336660796 -0.1215026819783514 0 0.18311680341907299 -0.1169976717837789 0 0.1591016336660796 -0.1215026819783514 0 0.17103137087963541 -0.1290824278749787 0 0.14075236033593799 -0.1128857839715522 0 0.17043439513801181 -0.1137658069075705 0 0.1591016336660796 -0.1215026819783514 0 0.14075236033593799 -0.1128857839715522 0 0.17043439513801181 -0.1137658069075705 0 0.1600023654421576 -0.1046503988106547 0 0.1533153804440896 -0.092729166951817821 0 0.16638174870055461 -0.088044902470279018 0 0.1600023654421576 -0.1046503988106547 0 0.1815388957007569 -0.10312750993221841 0 0.17043439513801181 -0.1137658069075705 0 0.1600023654421576 -0.1046503988106547 0 0.16638174870055461 -0.088044902470279018 0 0.1815388957007569 -0.10312750993221841 0 0.1600023654421576 -0.1046503988106547 0 0.1454712798881049 -0.003730971849526866 0 0.13403156470564001 -0.01549442786512698 0 0.1569984380173273 -0.026631116572163761 0 0.1454712798881049 -0.003730971849526866 0 0.1569984380173273 -0.026631116572163761 0 0.1637454324533367 -0.01207635113786649 0 0.1454712798881049 -0.003730971849526866 0 0.13373112663479869 -0.0028115886610750019 0 0.13403156470564001 -0.01549442786512698 0 0.1241013306504634 -0.00126979730434574 0 0.13373112663479869 -0.0028115886610750019 0 0.13403156470564001 -0.01549442786512698 0 0.13403156470564001 -0.01549442786512698 0 0.13006182297500279 -0.02818687572521553 0 0.14057084158554251 -0.031927266216732593 0 0.11874886145434339 -0.01988594297582702 0 0.13006182297500279 -0.02818687572521553 0 0.1268960241544852 -0.045439865843174693 0 0.11874886145434339 -0.01988594297582702 0 0.13403156470564001 -0.01549442786512698 0 0.13006182297500279 -0.02818687572521553 0 0.13403156470564001 -0.01549442786512698 0 0.14057084158554251 -0.031927266216732593 0 0.1569984380173273 -0.026631116572163761 0 0.13403156470564001 -0.01549442786512698 0 0.1569984380173273 -0.026631116572163761 0 0.14057084158554251 -0.031927266216732593 0 0.1268960241544852 -0.045439865843174693 0 0.1562816529443998 -0.041779572606894091 0 0.14057084158554251 -0.031927266216732593 0 0.1562816529443998 -0.041779572606894091 0 0.1569984380173273 -0.026631116572163761 0 0.1268960241544852 -0.045439865843174693 0 0.1562816529443998 -0.041779572606894091 0 0.1268960241544852 -0.045439865843174693 0 0.14468649335295949 -0.048758545551727199 0 0.1562816529443998 -0.041779572606894091 0 0.13006182297500279 -0.02818687572521553 0 0.14057084158554251 -0.031927266216732593 0 0.1268960241544852 -0.045439865843174693 0 0.12044520320843211 -0.058176758004082361 0 0.13333726997891801 -0.065643107760031738 0 0.1268960241544852 -0.045439865843174693 0 0.13333726997891801 -0.065643107760031738 0 0.1268960241544852 -0.045439865843174693 0 0.13333726997891801 -0.065643107760031738 0 0.1268960241544852 -0.045439865843174693 0 0.14468649335295949 -0.048758545551727199 0 0.13333726997891801 -0.065643107760031738 0 0.14752880998169199 -0.069126175059886052 0 0.14468649335295949 -0.048758545551727199 0 0.16534332314343919 -0.066172810310391433 0 0.14468649335295949 -0.048758545551727199 0 0.1562816529443998 -0.041779572606894091 0 0.16534332314343919 -0.066172810310391433 0 0.14468649335295949 -0.048758545551727199 0 0.14752880998169199 -0.069126175059886052 0 0.16534332314343919 -0.066172810310391433 0 0.14468649335295949 -0.048758545551727199 0 0.16534332314343919 -0.066172810310391433 0 0.1743832686160221 -0.052431338233580919 0 0.1562816529443998 -0.041779572606894091 0 0.16534332314343919 -0.066172810310391433 0 0.1743832686160221 -0.052431338233580919 0 0.1902408166419349 -0.063653690646425509 0 0.1743832686160221 -0.052431338233580919 0 0.18566728173431429 -0.038119279370612658 0 0.1902408166419349 -0.063653690646425509 0 0.1743832686160221 -0.052431338233580919 0 0.18566728173431429 -0.038119279370612658 0 0.1562816529443998 -0.041779572606894091 0 0.18566728173431429 -0.038119279370612658 0 0.1799653113290145 -0.037767805279200532 0 0.1562816529443998 -0.041779572606894091 0 0.18566728173431429 -0.038119279370612658 0 0.1799653113290145 -0.037767805279200532 0 0.18352544288220721 -0.02643904852971838 0 0.1799653113290145 -0.037767805279200532 0 0.1569984380173273 -0.026631116572163761 0 0.1799653113290145 -0.037767805279200532 0 0.1562816529443998 -0.041779572606894091 0 0.1569984380173273 -0.026631116572163761 0 0.18566728173431429 -0.038119279370612658 0 0.1562816529443998 -0.041779572606894091 0 0.1799653113290145 -0.037767805279200532 0 0.1569984380173273 -0.026631116572163761 0 0.17157070889149501 -0.02546215785151933 0 0.17157070889149501 -0.02546215785151933 0 0.17532609562794901 -0.017265125093693819 0 0.1637454324533367 -0.01207635113786649 0 0.1569984380173273 -0.026631116572163761 0 0.17157070889149501 -0.02546215785151933 0 0.1637454324533367 -0.01207635113786649 0 0.1799653113290145 -0.037767805279200532 0 0.17157070889149501 -0.02546215785151933 0 0.18352544288220721 -0.02643904852971838 0 0.18352544288220721 -0.02643904852971838 0 0.17532609562794901 -0.017265125093693819 0 0.18464571804255381 -0.01434874739392517 0 0.17157070889149501 -0.02546215785151933 0 0.18352544288220721 -0.02643904852971838 0 0.17532609562794901 -0.017265125093693819 0 0.17532609562794901 -0.017265125093693819 0 0.18464571804255381 -0.01434874739392517 0 0.17522714050184721 -0.0049488647019317131 0 0.18464571804255381 -0.01434874739392517 0 0.17522714050184721 -0.0049488647019317131 0 0.1875025085325798 -0.00089400050155696853 0 0.1601032952255865 0.003960831588106911 0 0.1454712798881049 -0.003730971849526866 0 0.1637454324533367 -0.01207635113786649 0 0.1601032952255865 0.003960831588106911 0 0.17522714050184721 -0.0049488647019317131 0 0.1637454324533367 -0.01207635113786649 0 0.17532609562794901 -0.017265125093693819 0 0.17522714050184721 -0.0049488647019317131 0 0.1637454324533367 -0.01207635113786649 0 0.20658404310945239 -0.0047970488307741092 0 0.19732880705779859 -0.02003632072507585 0 0.21527408670860021 -0.016870533990492289 0 0.2148085754180758 0.0052537978973309406 0 0.20658404310945239 -0.0047970488307741092 0 0.2227394312342845 -0.0066353046367786921 0 0.20658404310945239 -0.0047970488307741092 0 0.21527408670860021 -0.016870533990492289 0 0.2227394312342845 -0.0066353046367786921 0 0.18464571804255381 -0.01434874739392517 0 0.1875025085325798 -0.00089400050155696853 0 0.19732880705779859 -0.02003632072507585 0 0.20658404310945239 -0.0047970488307741092 0 0.1875025085325798 -0.00089400050155696853 0 0.19732880705779859 -0.02003632072507585 0 0.18566728173431429 -0.038119279370612658 0 0.19732880705779859 -0.02003632072507585 0 0.2150529105242289 -0.034458986134331217 0 0.18566728173431429 -0.038119279370612658 0 0.18352544288220721 -0.02643904852971838 0 0.19732880705779859 -0.02003632072507585 0 0.18352544288220721 -0.02643904852971838 0 0.18464571804255381 -0.01434874739392517 0 0.19732880705779859 -0.02003632072507585 0 0.19732880705779859 -0.02003632072507585 0 0.21527408670860021 -0.016870533990492289 0 0.2150529105242289 -0.034458986134331217 0 0.18566728173431429 -0.038119279370612658 0 0.2150529105242289 -0.034458986134331217 0 0.18566728173431429 -0.038119279370612658 0 0.2150529105242289 -0.034458986134331217 0 0.20491372214368109 -0.052751152430799877 0 0.18566728173431429 -0.038119279370612658 0 0.20491372214368109 -0.052751152430799877 0 0.1902408166419349 -0.063653690646425509 0 0.20491372214368109 -0.052751152430799877 0 0.1902408166419349 -0.063653690646425509 0 0.21150083880492521 -0.067705321726837742 0 0.20491372214368109 -0.052751152430799877 0 0.22178985079401409 -0.054693465837619838 0 0.21150083880492521 -0.067705321726837742 0 0.2150529105242289 -0.034458986134331217 0 0.20491372214368109 -0.052751152430799877 0 0.22178985079401409 -0.054693465837619838 0 0.22178985079401409 -0.054693465837619838 0 0.23873029704772 -0.060004330127490971 0 0.2254105552342264 -0.069340092208567308 0 0.22178985079401409 -0.054693465837619838 0 0.23873029704772 -0.060004330127490971 0 0.23000289942002669 -0.044988868749372947 0 0.23873029704772 -0.060004330127490971 0 0.24861083198888209 -0.053598656101898408 0 0.24443853931414289 -0.030798692898044659 0 0.25571340908958867 -0.062031832045884867 0 0.24861083198888209 -0.053598656101898408 0 0.24529266408970271 -0.065670516910433796 0 0.23873029704772 -0.060004330127490971 0 0.24861083198888209 -0.053598656101898408 0 0.24529266408970271 -0.065670516910433796 0 0.23873029704772 -0.060004330127490971 0 0.24443853931414289 -0.030798692898044659 0 0.23873029704772 -0.060004330127490971 0 0.23000289942002669 -0.044988868749372947 0 0.24443853931414289 -0.030798692898044659 0 0.2150529105242289 -0.034458986134331217 0 0.24443853931414289 -0.030798692898044659 0 0.2150529105242289 -0.034458986134331217 0 0.23000289942002669 -0.044988868749372947 0 0.24443853931414289 -0.030798692898044659 0 0.2150529105242289 -0.034458986134331217 0 0.22178985079401409 -0.054693465837619838 0 0.23000289942002669 -0.044988868749372947 0 0.21527408670860021 -0.016870533990492289 0 0.2150529105242289 -0.034458986134331217 0 0.2314216026089275 -0.01657052648233805 0 0.2150529105242289 -0.034458986134331217 0 0.2314216026089275 -0.01657052648233805 0 0.24443853931414289 -0.030798692898044659 0 0.2314216026089275 -0.01657052648233805 0 0.24443853931414289 -0.030798692898044659 0 0.24837822010643121 -0.01064171941143479 0 0.24443853931414289 -0.030798692898044659 0 0.24837822010643121 -0.01064171941143479 0 0.23486169414593761 0.0044328377206448756 0 0.2314216026089275 -0.01657052648233805 0 0.24837822010643121 -0.01064171941143479 0 0.23486169414593761 0.0044328377206448756 0 0.24837822010643121 -0.01064171941143479 0 0.23486169414593761 0.0044328377206448756 0 0.2314216026089275 -0.01657052648233805 0 0.2227394312342845 -0.0066353046367786921 0 0.21527408670860021 -0.016870533990492289 0 0.2314216026089275 -0.01657052648233805 0 0.2227394312342845 -0.0066353046367786921 0 0.20665698272439861 -0.1010013398277199 0 0.20584527481288081 -0.083162880912667866 0 0.21995740980504969 -0.097151917108780711 0 0.20665698272439861 -0.1010013398277199 0 0.21995740980504969 -0.097151917108780711 0 0.22731381251487801 -0.11841560458638439 0 0.20665698272439861 -0.1010013398277199 0 0.21131158985563189 -0.1225609285287194 0 0.19708371769526301 -0.1150201012677961 0 0.20665698272439861 -0.1010013398277199 0 0.21131158985563189 -0.1225609285287194 0 0.22731381251487801 -0.11841560458638439 0 0.20665698272439861 -0.1010013398277199 0 0.22731381251487801 -0.11841560458638439 0 0.21131158985563189 -0.1225609285287194 0 0.19708371769526301 -0.1150201012677961 0 0.20204244888725309 -0.12834584035683219 0 0.19708371769526301 -0.1150201012677961 0 0.19170225420145701 -0.1255490584026607 0 0.20204244888725309 -0.12834584035683219 0 0.18311680341907299 -0.1169976717837789 0 0.19708371769526301 -0.1150201012677961 0 0.19170225420145701 -0.1255490584026607 0 0.1815388957007569 -0.10312750993221841 0 0.20665698272439861 -0.1010013398277199 0 0.19708371769526301 -0.1150201012677961 0 0.18600015293391889 -0.083587075069055661 0 0.1815388957007569 -0.10312750993221841 0 0.20665698272439861 -0.1010013398277199 0 0.18600015293391889 -0.083587075069055661 0 0.20665698272439861 -0.1010013398277199 0 0.20584527481288081 -0.083162880912667866 0 0.18600015293391889 -0.083587075069055661 0 0.20665698272439861 -0.1010013398277199 0 0.1902408166419349 -0.063653690646425509 0 0.21150083880492521 -0.067705321726837742 0 0.20584527481288081 -0.083162880912667866 0 0.18600015293391889 -0.083587075069055661 0 0.1902408166419349 -0.063653690646425509 0 0.20584527481288081 -0.083162880912667866 0 0.21150083880492521 -0.067705321726837742 0 0.20584527481288081 -0.083162880912667866 0 0.22056734931864541 -0.081637123969937081 0 0.20584527481288081 -0.083162880912667866 0 0.22056734931864541 -0.081637123969937081 0 0.21995740980504969 -0.097151917108780711 0 0.22056734931864541 -0.081637123969937081 0 0.23302205478129859 -0.089209967356937619 0 0.2254105552342264 -0.069340092208567308 0 0.22056734931864541 -0.081637123969937081 0 0.23302205478129859 -0.089209967356937619 0 0.21995740980504969 -0.097151917108780711 0 0.23873029704772 -0.060004330127490971 0 0.23302205478129859 -0.089209967356937619 0 0.2254105552342264 -0.069340092208567308 0 0.22178985079401409 -0.054693465837619838 0 0.21150083880492521 -0.067705321726837742 0 0.2254105552342264 -0.069340092208567308 0 0.21150083880492521 -0.067705321726837742 0 0.22056734931864541 -0.081637123969937081 0 0.2254105552342264 -0.069340092208567308 0 0.25462483508046457 -0.083048591473203981 0 0.24529266408970271 -0.065670516910433796 0 0.23873029704772 -0.060004330127490971 0 0.23302205478129859 -0.089209967356937619 0 0.23873029704772 -0.060004330127490971 0 0.24319344378213639 -0.077541246202979044 0 0.24529266408970271 -0.065670516910433796 0 0.25462483508046457 -0.083048591473203981 0 0.24319344378213639 -0.077541246202979044 0 0.24529266408970271 -0.065670516910433796 0 0.23873029704772 -0.060004330127490971 0 0.23302205478129859 -0.089209967356937619 0 0.24319344378213639 -0.077541246202979044 0 0.23302205478129859 -0.089209967356937619 0 0.24319344378213639 -0.077541246202979044 0 0.24429744486126961 -0.092415030224378816 0 0.25462483508046457 -0.083048591473203981 0 0.24319344378213639 -0.077541246202979044 0 0.24429744486126961 -0.092415030224378816 0 0.23302205478129859 -0.089209967356937619 0 0.24429744486126961 -0.092415030224378816 0 0.23338547966978729 -0.1068379626933337 0 0.2528876129834236 -0.094220099255164988 0 0.24429744486126961 -0.092415030224378816 0 0.24867124287050699 -0.1036323143646536 0 0.24867124287050699 -0.1036323143646536 0 0.23338547966978729 -0.1068379626933337 0 0.24429744486126961 -0.092415030224378816 0 0.24867124287050699 -0.1036323143646536 0 0.23338547966978729 -0.1068379626933337 0 0.23302205478129859 -0.089209967356937619 0 0.21995740980504969 -0.097151917108780711 0 0.22731381251487801 -0.11841560458638439 0 0.23302205478129859 -0.089209967356937619 0 0.22731381251487801 -0.11841560458638439 0 0.23302205478129859 -0.089209967356937619 0 0.23338547966978729 -0.1068379626933337 0 0.22731381251487801 -0.11841560458638439 0 0.21131158985563189 -0.1225609285287194 0 0.22731381251487801 -0.11841560458638439 0 0.2243374920012384 -0.13364364382207591 0 0.23338547966978729 -0.1068379626933337 0 0.22731381251487801 -0.11841560458638439 0 0.2421878029690071 -0.11792375126597229 0 0.22731381251487801 -0.11841560458638439 0 0.2421878029690071 -0.11792375126597229 0 0.245910845877507 -0.13409340539063849 0 0.24867124287050699 -0.1036323143646536 0 0.23338547966978729 -0.1068379626933337 0 0.2421878029690071 -0.11792375126597229 0 0.25101743794683912 -0.1146121967995704 0 0.24867124287050699 -0.1036323143646536 0 0.2421878029690071 -0.11792375126597229 0 0.25101743794683912 -0.1146121967995704 0 0.25433990433771841 -0.1243544269907422 0 0.2421878029690071 -0.11792375126597229 0 0.22731381251487801 -0.11841560458638439 0 0.245910845877507 -0.13409340539063849 0 0.245910845877507 -0.13409340539063849 0 0.23480427244398749 -0.14470340832726761 0 0.2243374920012384 -0.13364364382207591 0 0.25433990433771841 -0.1243544269907422 0 0.2421878029690071 -0.11792375126597229 0 0.245910845877507 -0.13409340539063849 0 0.25172611852857912 -0.16117425348272191 0 0.24825163994429519 -0.14855324651142299 0 0.24139489266072089 -0.15489719825353579 0 0.245910845877507 -0.13409340539063849 0 0.24825163994429519 -0.14855324651142299 0 0.23480427244398749 -0.14470340832726761 0 0.23480427244398749 -0.14470340832726761 0 0.24139489266072089 -0.15489719825353579 0 0.22950912267113219 -0.1579286806245345 0 0.24825163994429519 -0.14855324651142299 0 0.23480427244398749 -0.14470340832726761 0 0.24139489266072089 -0.15489719825353579 0 0.23480427244398749 -0.14470340832726761 0 0.22136117148759951 -0.1488716830577676 0 0.22950912267113219 -0.1579286806245345 0 0.23480427244398749 -0.14470340832726761 0 0.22136117148759951 -0.1488716830577676 0 0.2243374920012384 -0.13364364382207591 0 0.22136117148759951 -0.1488716830577676 0 0.2243374920012384 -0.13364364382207591 0 0.22731381251487801 -0.11841560458638439 0 0.245910845877507 -0.13409340539063849 0 0.2243374920012384 -0.13364364382207591 0 0.22731381251487801 -0.11841560458638439 0 0.2243374920012384 -0.13364364382207591 0 0.21131158985563189 -0.1225609285287194 0 0.2243374920012384 -0.13364364382207591 0 0.20933898145883961 -0.14011376792283381 0 0.21131158985563189 -0.1225609285287194 0 0.20933898145883961 -0.14011376792283381 0 0.20204244888725309 -0.12834584035683219 0 0.22136117148759951 -0.1488716830577676 0 0.20933898145883961 -0.14011376792283381 0 0.2046869147736663 -0.1547144632641109 0 0.22136117148759951 -0.1488716830577676 0 0.2046869147736663 -0.1547144632641109 0 0.2150163908689125 -0.1627032594048381 0 0.22136117148759951 -0.1488716830577676 0 0.2243374920012384 -0.13364364382207591 0 0.20933898145883961 -0.14011376792283381 0 0.20933898145883961 -0.14011376792283381 0 0.2046869147736663 -0.1547144632641109 0 0.19991565863556859 -0.14511136399123001 0 0.20933898145883961 -0.14011376792283381 0 0.19991565863556859 -0.14511136399123001 0 0.1959755485336879 -0.13697594020718429 0 0.2046869147736663 -0.1547144632641109 0 0.19991565863556859 -0.14511136399123001 0 0.18966118977608079 -0.1486412845707909 0 0.19991565863556859 -0.14511136399123001 0 0.18966118977608079 -0.1486412845707909 0 0.1959755485336879 -0.13697594020718429 0 0.18966118977608079 -0.1486412845707909 0 0.1959755485336879 -0.13697594020718429 0 0.18288499689202431 -0.13393341546785001 0 0.19170225420145701 -0.1255490584026607 0 0.1959755485336879 -0.13697594020718429 0 0.18288499689202431 -0.13393341546785001 0 0.19170225420145701 -0.1255490584026607 0 0.20204244888725309 -0.12834584035683219 0 0.1959755485336879 -0.13697594020718429 0 0.20933898145883961 -0.14011376792283381 0 0.20204244888725309 -0.12834584035683219 0 0.1959755485336879 -0.13697594020718429 0 0.19432264321285611 -0.1816642756381843 0 0.20617363014839349 -0.17138394852464489 0 0.20786688018092489 -0.1870703820251727 0 0.19432264321285611 -0.1816642756381843 0 0.1922402646605145 -0.1654529865563992 0 0.20617363014839349 -0.17138394852464489 0 0.19432264321285611 -0.1816642756381843 0 0.1922402646605145 -0.1654529865563992 0 0.17984174796593341 -0.17708923445271119 0 0.2046869147736663 -0.1547144632641109 0 0.1922402646605145 -0.1654529865563992 0 0.20617363014839349 -0.17138394852464489 0 0.2046869147736663 -0.1547144632641109 0 0.18966118977608079 -0.1486412845707909 0 0.1922402646605145 -0.1654529865563992 0 0.2046869147736663 -0.1547144632641109 0 0.20617363014839349 -0.17138394852464489 0 0.2150163908689125 -0.1627032594048381 0 0.20617363014839349 -0.17138394852464489 0 0.2150163908689125 -0.1627032594048381 0 0.2186364061125603 -0.17810730856617929 0 0.20617363014839349 -0.17138394852464489 0 0.2186364061125603 -0.17810730856617929 0 0.20786688018092489 -0.1870703820251727 0 0.2186364061125603 -0.17810730856617929 0 0.20786688018092489 -0.1870703820251727 0 0.21908074750825621 -0.19026954482832831 0 0.2299670202167462 -0.18426705026212989 0 0.22478585645270571 -0.16835020989676461 0 0.23838650933985181 -0.17066499135125021 0 0.2186364061125603 -0.17810730856617929 0 0.2299670202167462 -0.18426705026212989 0 0.22478585645270571 -0.16835020989676461 0 0.2186364061125603 -0.17810730856617929 0 0.2299670202167462 -0.18426705026212989 0 0.21908074750825621 -0.19026954482832831 0 0.2150163908689125 -0.1627032594048381 0 0.22478585645270571 -0.16835020989676461 0 0.22950912267113219 -0.1579286806245345 0 0.22136117148759951 -0.1488716830577676 0 0.2150163908689125 -0.1627032594048381 0 0.22950912267113219 -0.1579286806245345 0 0.2150163908689125 -0.1627032594048381 0 0.2186364061125603 -0.17810730856617929 0 0.22478585645270571 -0.16835020989676461 0 0.22478585645270571 -0.16835020989676461 0 0.22950912267113219 -0.1579286806245345 0 0.23838650933985181 -0.17066499135125021 0 0.25172611852857912 -0.16117425348272191 0 0.24139489266072089 -0.15489719825353579 0 0.23838650933985181 -0.17066499135125021 0 0.24139489266072089 -0.15489719825353579 0 0.22950912267113219 -0.1579286806245345 0 0.23838650933985181 -0.17066499135125021 0 0.25232087801029662 -0.1743036082448125 0 0.25172611852857912 -0.16117425348272191 0 0.23838650933985181 -0.17066499135125021 0 0.2299670202167462 -0.18426705026212989 0 0.24088166612482639 -0.18220765828638469 0 0.2388908918787678 -0.19256860285265909 0 0.2299670202167462 -0.18426705026212989 0 0.23838650933985181 -0.17066499135125021 0 0.24088166612482639 -0.18220765828638469 0 0.25232087801029662 -0.1743036082448125 0 0.23838650933985181 -0.17066499135125021 0 0.24088166612482639 -0.18220765828638469 0 0.25232087801029662 -0.1743036082448125 0 0.24088166612482639 -0.18220765828638469 0 0.2494281514357099 -0.18788699375990289 0 0.2494281514357099 -0.18788699375990289 0 0.2388908918787678 -0.19256860285265909 0 0.24761350086738881 -0.19571291374376831 0 0.24088166612482639 -0.18220765828638469 0 0.2494281514357099 -0.18788699375990289 0 0.2388908918787678 -0.19256860285265909 0 0.2388908918787678 -0.19256860285265909 0 0.2423767928016016 -0.20294914559991359 0 0.22809607852579289 -0.19997878680688611 0 0.25542854451629388 -0.1998498607268 0 0.2423767928016016 -0.20294914559991359 0 0.24761350086738881 -0.19571291374376831 0 0.2388908918787678 -0.19256860285265909 0 0.2423767928016016 -0.20294914559991359 0 0.24761350086738881 -0.19571291374376831 0 0.25147688088271641 -0.21194752874198031 0 0.25542854451629388 -0.1998498607268 0 0.2423767928016016 -0.20294914559991359 0 0.25147688088271641 -0.21194752874198031 0 0.2423767928016016 -0.20294914559991359 0 0.2355474620994345 -0.21068857441053529 0 0.25147688088271641 -0.21194752874198031 0 0.2355474620994345 -0.21068857441053529 0 0.23934177232259221 -0.22380736018715999 0 0.2423767928016016 -0.20294914559991359 0 0.2355474620994345 -0.21068857441053529 0 0.22809607852579289 -0.19997878680688611 0 0.22168370940054469 -0.21540197150896589 0 0.22809607852579289 -0.19997878680688611 0 0.21083735250525679 -0.20192419648127349 0 0.2355474620994345 -0.21068857441053529 0 0.22168370940054469 -0.21540197150896589 0 0.22809607852579289 -0.19997878680688611 0 0.2355474620994345 -0.21068857441053529 0 0.22168370940054469 -0.21540197150896589 0 0.23934177232259221 -0.22380736018715999 0 0.2299670202167462 -0.18426705026212989 0 0.2388908918787678 -0.19256860285265909 0 0.22809607852579289 -0.19997878680688611 0 0.2299670202167462 -0.18426705026212989 0 0.21908074750825621 -0.19026954482832831 0 0.22809607852579289 -0.19997878680688611 0 0.21908074750825621 -0.19026954482832831 0 0.22809607852579289 -0.19997878680688611 0 0.21083735250525679 -0.20192419648127349 0 0.25956792639756249 -0.22419618385450099 0 0.2458949266121517 -0.24119477616399751 0 0.23934177232259221 -0.22380736018715999 0 0.2458949266121517 -0.24119477616399751 0 0.23934177232259221 -0.22380736018715999 0 0.22657928359371141 -0.23525257407078701 0 0.22168370940054469 -0.21540197150896589 0 0.23934177232259221 -0.22380736018715999 0 0.22657928359371141 -0.23525257407078701 0 0.22168370940054469 -0.21540197150896589 0 0.22657928359371141 -0.23525257407078701 0 0.2115991114340609 -0.22695975730143261 0 0.2302258654200407 -0.25604080434424459 0 0.22657928359371141 -0.23525257407078701 0 0.20825914018731509 -0.24176904314253461 0 0.2302258654200407 -0.25604080434424459 0 0.20825914018731509 -0.24176904314253461 0 0.2302258654200407 -0.25604080434424459 0 0.2458949266121517 -0.24119477616399751 0 0.22657928359371141 -0.23525257407078701 0 0.22657928359371141 -0.23525257407078701 0 0.20825914018731509 -0.24176904314253461 0 0.2115991114340609 -0.22695975730143261 0 0.20825914018731509 -0.24176904314253461 0 0.2115991114340609 -0.22695975730143261 0 0.20062311415931891 -0.2256504216691933 0 0.22168370940054469 -0.21540197150896589 0 0.2115991114340609 -0.22695975730143261 0 0.20430044051251961 -0.21548295975203391 0 0.2115991114340609 -0.22695975730143261 0 0.20062311415931891 -0.2256504216691933 0 0.20430044051251961 -0.21548295975203391 0 0.20825914018731509 -0.24176904314253461 0 0.20062311415931891 -0.2256504216691933 0 0.1862924149545897 -0.22749728194082469 0 0.20062311415931891 -0.2256504216691933 0 0.20430044051251961 -0.21548295975203391 0 0.1926644637081093 -0.21654306620914071 0 0.20062311415931891 -0.2256504216691933 0 0.1926644637081093 -0.21654306620914071 0 0.1862924149545897 -0.22749728194082469 0 0.20825914018731509 -0.24176904314253461 0 0.1862924149545897 -0.22749728194082469 0 0.20825914018731509 -0.24176904314253461 0 0.19216952572399271 -0.24625439499940641 0 0.1862924149545897 -0.22749728194082469 0 0.20786688018092489 -0.1870703820251727 0 0.21083735250525679 -0.20192419648127349 0 0.1958608584331378 -0.1970601101099905 0 0.20786688018092489 -0.1870703820251727 0 0.21908074750825621 -0.19026954482832831 0 0.21083735250525679 -0.20192419648127349 0 0.22168370940054469 -0.21540197150896589 0 0.21083735250525679 -0.20192419648127349 0 0.20430044051251961 -0.21548295975203391 0 0.21083735250525679 -0.20192419648127349 0 0.20430044051251961 -0.21548295975203391 0 0.19687774908402619 -0.20781386219113809 0 0.19687774908402619 -0.20781386219113809 0 0.1958608584331378 -0.1970601101099905 0 0.18072563026110719 -0.20805897840325191 0 0.19687774908402619 -0.20781386219113809 0 0.1926644637081093 -0.21654306620914071 0 0.18072563026110719 -0.20805897840325191 0 0.20430044051251961 -0.21548295975203391 0 0.19687774908402619 -0.20781386219113809 0 0.1926644637081093 -0.21654306620914071 0 0.1958608584331378 -0.1970601101099905 0 0.18072563026110719 -0.20805897840325191 0 0.21083735250525679 -0.20192419648127349 0 0.19687774908402619 -0.20781386219113809 0 0.1958608584331378 -0.1970601101099905 0 0.19432264321285611 -0.1816642756381843 0 0.20786688018092489 -0.1870703820251727 0 0.1958608584331378 -0.1970601101099905 0 0.19432264321285611 -0.1816642756381843 0 0.1958608584331378 -0.1970601101099905 0 0.18028368911352 -0.19257410642798159 0 0.18028368911352 -0.19257410642798159 0 0.18072563026110719 -0.20805897840325191 0 0.16123398134048339 -0.19992518084684799 0 0.1958608584331378 -0.1970601101099905 0 0.18028368911352 -0.19257410642798159 0 0.18072563026110719 -0.20805897840325191 0 0.18028368911352 -0.19257410642798159 0 0.18072563026110719 -0.20805897840325191 0 0.1926644637081093 -0.21654306620914071 0 0.18072563026110719 -0.20805897840325191 0 0.1862924149545897 -0.22749728194082469 0 0.18072563026110719 -0.20805897840325191 0 0.16409835017509311 -0.22014213048147699 0 0.18072563026110719 -0.20805897840325191 0 0.16123398134048339 -0.19992518084684799 0 0.16409835017509311 -0.22014213048147699 0 0.16123398134048339 -0.19992518084684799 0 0.15415387058183119 -0.18125047226734689 0 0.1680194230563424 -0.18517538835000391 0 0.18028368911352 -0.19257410642798159 0 0.16123398134048339 -0.19992518084684799 0 0.1680194230563424 -0.18517538835000391 0 0.1735801302704959 -0.25009110129751427 0 0.18231756712108699 -0.26383775936566878 0 0.18152159869109671 -0.23594836888446041 0 0.18231756712108699 -0.26383775936566878 0 0.19216952572399271 -0.24625439499940641 0 0.18152159869109671 -0.23594836888446041 0 0.18231756712108699 -0.26383775936566878 0 0.18152159869109671 -0.23594836888446041 0 0.19216952572399271 -0.24625439499940641 0 0.18152159869109671 -0.23594836888446041 0 0.1862924149545897 -0.22749728194082469 0 0.1735801302704959 -0.25009110129751427 0 0.18152159869109671 -0.23594836888446041 0 0.17235773068871291 -0.23931872091140829 0 0.18152159869109671 -0.23594836888446041 0 0.17235773068871291 -0.23931872091140829 0 0.17055663314039701 -0.23052911234105941 0 0.18072563026110719 -0.20805897840325191 0 0.18152159869109671 -0.23594836888446041 0 0.17055663314039701 -0.23052911234105941 0 0.18072563026110719 -0.20805897840325191 0 0.18152159869109671 -0.23594836888446041 0 0.18072563026110719 -0.20805897840325191 0 0.18152159869109671 -0.23594836888446041 0 0.1862924149545897 -0.22749728194082469 0 0.18072563026110719 -0.20805897840325191 0 0.16409835017509311 -0.22014213048147699 0 0.17055663314039701 -0.23052911234105941 0 0.16409835017509311 -0.22014213048147699 0 0.16377256065286189 -0.24070630112259919 0 0.14747107008907701 -0.23222528255969921 0 0.16409835017509311 -0.22014213048147699 0 0.17055663314039701 -0.23052911234105941 0 0.16377256065286189 -0.24070630112259919 0 0.1578031145482737 -0.25808536852191172 0 0.1735801302704959 -0.25009110129751427 0 0.16377256065286189 -0.24070630112259919 0 0.1578031145482737 -0.25808536852191172 0 0.16377256065286189 -0.24070630112259919 0 0.14747107008907701 -0.23222528255969921 0 0.17235773068871291 -0.23931872091140829 0 0.17055663314039701 -0.23052911234105941 0 0.16377256065286189 -0.24070630112259919 0 0.1735801302704959 -0.25009110129751427 0 0.17235773068871291 -0.23931872091140829 0 0.16377256065286189 -0.24070630112259919 0 0.1578031145482737 -0.25808536852191172 0 0.14747107008907701 -0.23222528255969921 0 0.1578031145482737 -0.25808536852191172 0 0.14457918263284869 -0.24901401909077739 0 0.14747107008907701 -0.23222528255969921 0 0.14457918263284869 -0.24901401909077739 0 0.14747107008907701 -0.23222528255969921 0 0.1313098299079942 -0.24396976042201809 0 0.16409835017509311 -0.22014213048147699 0 0.14747107008907701 -0.23222528255969921 0 0.13947361949576409 -0.21220845426996951 0 0.14747107008907701 -0.23222528255969921 0 0.13947361949576409 -0.21220845426996951 0 0.16409835017509311 -0.22014213048147699 0 0.14747107008907701 -0.23222528255969921 0 0.14747107008907701 -0.23222528255969921 0 0.12850364820595331 -0.22750422579700491 0 0.13947361949576409 -0.21220845426996951 0 0.14747107008907701 -0.23222528255969921 0 0.12850364820595331 -0.22750422579700491 0 0.1313098299079942 -0.24396976042201809 0 0.14747107008907701 -0.23222528255969921 0 0.1313098299079942 -0.24396976042201809 0 0.16123398134048339 -0.19992518084684799 0 0.1458632593072765 -0.19371399483855309 0 0.15415387058183119 -0.18125047226734689 0 0.16123398134048339 -0.19992518084684799 0 0.1458632593072765 -0.19371399483855309 0 0.13947361949576409 -0.21220845426996951 0 0.16123398134048339 -0.19992518084684799 0 0.16409835017509311 -0.22014213048147699 0 0.13947361949576409 -0.21220845426996951 0 0.1110756185422275 -0.21313599349844231 0 0.12850364820595331 -0.22750422579700491 0 0.13947361949576409 -0.21220845426996951 0 0.1110756185422275 -0.21313599349844231 0 0.13947361949576409 -0.21220845426996951 0 0.1314761689024517 -0.19219162598023959 0 0.1458632593072765 -0.19371399483855309 0 0.13947361949576409 -0.21220845426996951 0 0.1314761689024517 -0.19219162598023959 0 0.13947361949576409 -0.21220845426996951 0 0.1314761689024517 -0.19219162598023959 0 0.1458632593072765 -0.19371399483855309 0 0.1314761689024517 -0.19219162598023959 0 0.1410235773105491 -0.1820434389066494 0 0.1234787183091393 -0.17217479769050981 0 0.1314761689024517 -0.19219162598023959 0 0.1234787183091393 -0.17217479769050981 0 0.1314761689024517 -0.19219162598023959 0 0.1410235773105491 -0.1820434389066494 0 0.1234787183091393 -0.17217479769050981 0 0.1410235773105491 -0.1820434389066494 0 0.14269071920786239 -0.16764499463070739 0 0.1458632593072765 -0.19371399483855309 0 0.1410235773105491 -0.1820434389066494 0 0.15415387058183119 -0.18125047226734689 0 0.15415387058183119 -0.18125047226734689 0 0.14269071920786239 -0.16764499463070739 0 0.16237258593310269 -0.16763516319551089 0 0.1410235773105491 -0.1820434389066494 0 0.15415387058183119 -0.18125047226734689 0 0.14269071920786239 -0.16764499463070739 0 0.14269071920786239 -0.16764499463070739 0 0.14326268672299791 -0.14958371871869361 0 0.15407762764822189 -0.15578564611827431 0 0.14269071920786239 -0.16764499463070739 0 0.15407762764822189 -0.15578564611827431 0 0.16237258593310269 -0.16763516319551089 0 0.1234787183091393 -0.17217479769050981 0 0.14269071920786239 -0.16764499463070739 0 0.12892468117211131 -0.15666310802434039 0 0.14269071920786239 -0.16764499463070739 0 0.12892468117211131 -0.15666310802434039 0 0.14326268672299791 -0.14958371871869361 0 0.12203859052377219 -0.14663482975687511 0 0.12892468117211131 -0.15666310802434039 0 0.13100463664809181 -0.14588650793811311 0 0.12203859052377219 -0.14663482975687511 0 0.13100463664809181 -0.14588650793811311 0 0.12662101070287141 -0.13750334345265089 0 0.13100463664809181 -0.14588650793811311 0 0.13736152323831141 -0.13809920111329721 0 0.14326268672299791 -0.14958371871869361 0 0.12892468117211131 -0.15666310802434039 0 0.13100463664809181 -0.14588650793811311 0 0.14326268672299791 -0.14958371871869361 0 0.13100463664809181 -0.14588650793811311 0 0.12662101070287141 -0.13750334345265089 0 0.13736152323831141 -0.13809920111329721 0 0.12662101070287141 -0.13750334345265089 0 0.13736152323831141 -0.13809920111329721 0 0.13508646391308621 -0.12600769217292379 0 0.13736152323831141 -0.13809920111329721 0 0.13508646391308621 -0.12600769217292379 0 0.14910529173173581 -0.13489940437613571 0 0.1591016336660796 -0.1215026819783514 0 0.13508646391308621 -0.12600769217292379 0 0.14910529173173581 -0.13489940437613571 0 0.14910529173173581 -0.13489940437613571 0 0.157247889196341 -0.1443703901609793 0 0.16138232676985481 -0.13378653540933219 0 0.13736152323831141 -0.13809920111329721 0 0.14910529173173581 -0.13489940437613571 0 0.14326268672299791 -0.14958371871869361 0 0.14910529173173581 -0.13489940437613571 0 0.14326268672299791 -0.14958371871869361 0 0.157247889196341 -0.1443703901609793 0 0.14326268672299791 -0.14958371871869361 0 0.15407762764822189 -0.15578564611827431 0 0.157247889196341 -0.1443703901609793 0 0.15407762764822189 -0.15578564611827431 0 0.157247889196341 -0.1443703901609793 0 0.16616179783317361 -0.1522713547655983 0 0.16616179783317361 -0.1522713547655983 0 0.16949760447206219 -0.1398956815778416 0 0.1778306107057574 -0.1473298984325099 0 0.157247889196341 -0.1443703901609793 0 0.16616179783317361 -0.1522713547655983 0 0.16949760447206219 -0.1398956815778416 0 0.1591016336660796 -0.1215026819783514 0 0.16138232676985481 -0.13378653540933219 0 0.17103137087963541 -0.1290824278749787 0 0.1591016336660796 -0.1215026819783514 0 0.14910529173173581 -0.13489940437613571 0 0.16138232676985481 -0.13378653540933219 0 0.157247889196341 -0.1443703901609793 0 0.16138232676985481 -0.13378653540933219 0 0.16949760447206219 -0.1398956815778416 0 0.16138232676985481 -0.13378653540933219 0 0.16949760447206219 -0.1398956815778416 0 0.17103137087963541 -0.1290824278749787 0 0.18311680341907299 -0.1169976717837789 0 0.19170225420145701 -0.1255490584026607 0 0.18288499689202431 -0.13393341546785001 0 0.18311680341907299 -0.1169976717837789 0 0.17103137087963541 -0.1290824278749787 0 0.18288499689202431 -0.13393341546785001 0 0.16949760447206219 -0.1398956815778416 0 0.18288499689202431 -0.13393341546785001 0 0.1778306107057574 -0.1473298984325099 0 0.16949760447206219 -0.1398956815778416 0 0.17103137087963541 -0.1290824278749787 0 0.18288499689202431 -0.13393341546785001 0 0.16616179783317361 -0.1522713547655983 0 0.1778306107057574 -0.1473298984325099 0 0.17763854884376859 -0.1595500476903812 0 0.18966118977608079 -0.1486412845707909 0 0.18288499689202431 -0.13393341546785001 0 0.1778306107057574 -0.1473298984325099 0 0.18966118977608079 -0.1486412845707909 0 0.1778306107057574 -0.1473298984325099 0 0.17763854884376859 -0.1595500476903812 0 0.18966118977608079 -0.1486412845707909 0 0.1922402646605145 -0.1654529865563992 0 0.17763854884376859 -0.1595500476903812 0 0.1922402646605145 -0.1654529865563992 0 0.17763854884376859 -0.1595500476903812 0 0.17984174796593341 -0.17708923445271119 0 0.17763854884376859 -0.1595500476903812 0 0.17984174796593341 -0.17708923445271119 0 0.16237258593310269 -0.16763516319551089 0 0.19432264321285611 -0.1816642756381843 0 0.18028368911352 -0.19257410642798159 0 0.17984174796593341 -0.17708923445271119 0 0.18028368911352 -0.19257410642798159 0 0.17984174796593341 -0.17708923445271119 0 0.18028368911352 -0.19257410642798159 0 0.17984174796593341 -0.17708923445271119 0 0.1680194230563424 -0.18517538835000391 0 0.15415387058183119 -0.18125047226734689 0 0.1680194230563424 -0.18517538835000391 0 0.16237258593310269 -0.16763516319551089 0 0.17984174796593341 -0.17708923445271119 0 0.1680194230563424 -0.18517538835000391 0 0.16237258593310269 -0.16763516319551089 0 0.15407762764822189 -0.15578564611827431 0 0.16616179783317361 -0.1522713547655983 0 0.16237258593310269 -0.16763516319551089 0 0.16616179783317361 -0.1522713547655983 0 0.17763854884376859 -0.1595500476903812 0 0.16237258593310269 -0.16763516319551089 0 
</DataArray>
</Points>
<Cells>
<DataArray type="UInt32" Name="connectivity" format="ascii">
0 1 2 3 4 5 6 7 8 9 10 11 12 13 14 15 16 17 18 19 20 21 22 23 24 25 26 27 28 29 30 31 32 33 34 35 36 37 38 39 40 41 42 43 44 45 46 47 48 49 50 51 52 53 54 55 56 57 58 59 60 61 62 63 64 65 66 67 68 69 70 71 72 73 74 75 76 77 78 79 80 81 82 83 84 85 86 87 88 89 90 91 92 93 94 95 96 97 98 99 100 101 102 103 104 105 106 107 108 109 110 111 112 113 114 115 116 117 118 119 120 121 122 123 124 125 126 127 128 129 130 131 132 133 134 135 136 137 138 139 140 141 142 143 144 145 146 147 148 149 150 151 152 153 154 155 156 157 158 159 160 161 162 163 164 165 166 167 168 169 170 171 172 173 174 175 176 177 178 179 180 181 182 183 184 185 186 187 188 189 190 191 192 193 194 195 196 197 198 199 200 201 202 203 204 205 206 207 208 209 210 211 212 213 214 215 216 217 218 219 220 221 222 223 224 225 226 227 228 229 230 231 232 233 234 235 236 237 238 239 240 241 242 243 244 245 246 247 248 249 250 251 252 253 254 255 256 257 258 259 260 261 262 263 264 265 266 267 268 269 270 271 272 273 274 275 276 277 278 279 280 281 282 283 284 285 286 287 288 289 290 291 292 293 294 295 296 297 298 299 300 301 302 303 304 305 306 307 308 309 310 311 312 313 314 315 316 317 318 319 320 321 322 323 324 325 326 327 328 329 330 331 332 333 334 335 336 337 338 339 340 341 342 343 344 345 346 347 348 349 350 351 352 353 354 355 356 357 358 359 360 361 362 363 364 365 366 367 368 369 370 371 372 373 374 375 376 377 378 379 380 381 382 383 384 385 386 387 388 389 390 391 392 393 394 395 396 397 398 399 400 401 402 403 404 405 406 407 408 409 410 411 412 413 414 415 416 417 418 419 420 421 422 423 424 425 426 427 428 429 430 431 432 433 434 435 436 437 438 439 440 441 442 443 444 445 446 447 448 449 450 451 452 453 454 455 456 457 458 459 460 461 462 463 464 465 466 467 468 469 470 471 472 473 474 475 476 477 478 479 480 481 482 483 484 485 486 487 488 489 490 491 492 493 494 495 496 497 498 499 500 501 502 503 504 505 506 507 508 509 510 511 512 513 514 515 516 517 518 519 520 521 522 523 524 525 526 527 528 529 530 531 532 533 534 535 536 537 538 539 540 541 542 543 544 545 546 547 548 549 550 551 552 553 554 555 556 557 558 559 560 561 562 563 564 565 566 567 568 569 570 571 572 573 574 575 576 577 578 579 580 581 582 583 584 585 586 587 588 589 590 591 592 593 594 595 596 597 598 599 600 601 602 603 604 605 606 607 608 609 610 611 612 613 614 615 616 617 618 619 620 621 622 623 624 625 626 627 628 629 630 631 632 633 634 635 636 637 638 639 640 641 642 643 644 645 646 647 648 649 650 651 652 653 654 655 656 657 658 659 660 661 662 663 664 665 666 667 668 669 670 671 672 673 674 675 676 677 678 679 680 681 682 683 684 685 686 687 688 689 690 691 692 693 694 695 696 697 698 699 700 701 702 703 704 705 706 707 708 709 710 711 712 713 714 715 716 717 718 719 720 721 722 723 724 725 726 727 728 729 730 731 732 733 734 735 736 737 738 739 740 741 742 743 744 745 746 747 748 749 750 751 752 753 754 755 756 757 758 759 760 761 762 763 764 765 766 767 768 769 770 771 772 773 774 775 776 777 778 779 780 781 782 783 784 785 786 787 788 789 790 791 792 793 794 795 796 797 798 799 800 801 802 803 804 805 806 807 808 809 810 811 812 813 814 815 816 817 818 819 820 821 822 823 824 825 826 827 828 829 830 831 832 833 834 835 836 837 838 839 840 841 842 843 844 845 846 847 848 849 850 851 852 853 854 855 856 857 858 859 860 861 862 863 864 865 866 867 868 869 870 871 872 873 874 875 876 877 878 879 880 881 882 883 884 885 886 887 888 889 890 891 892 893 894 895 896 897 898 899 900 901 902 903 904 905 906 907 908 909 910 911 912 913 914 915 916 917 918 919 920 921 922 923 924 925 926 927 928 929 930 931 932 933 934 935 936 937 938 939 940 941 942 943 944 945 946 947 948 949 950 951 952 953 954 955 956 957 958 959 960 961 962 963 964 965 966 967 968 969 970 971 972 973 974 975 976 977 978 979 980 981 982 983 984 985 986 987 988 989 990 991 992 993 994 995 996 997 998 999 1000 1001 1002 1003 1004 1005 1006 1007 1008 1009 1010 1011 1012 1013 1014 1015 1016 1017 1018 1019 1020 1021 1022 1023 1024 1025 1026 1027 1028 1029 1030 1031 1032 1033 1034 1035 1036 1037 1038 1039 1040 1041 1042 1043 1044 1045 1046 1047 1048 1049 1050 1051 1052 1053 1054 1055 1056 1057 1058 1059 1060 1061 1062 1063 1064 1065 1066 1067 1068 1069 1070 1071 1072 1073 1074 1075 1076 1077 1078 1079 1080 1081 1082 1083 1084 1085 1086 1087 1088 1089 1090 1091 1092 1093 1094 1095 1096 1097 1098 1099 1100 1101 1102 1103 1104 1105 1106 1107 1108 1109 1110 1111 1112 1113 1114 1115 1116 1117 1118 1119 1120 1121 1122 1123 1124 1125 1126 1127 1128 1129 1130 1131 1132 1133 1134 1135 1136 1137 1138 1139 1140 1141 1142 1143 1144 1145 1146 1147 1148 1149 1150 1151 1152 1153 1154 1155 1156 1157 1158 1159 1160 1161 1162 1163 1164 1165 1166 1167 1168 1169 1170 1171 1172 1173 1174 1175 1176 1177 1178 1179 1180 1181 1182 1183 1184 1185 1186 1187 1188 1189 1190 1191 1192 1193 1194 1195 1196 1197 1198 1199 1200 1201 1202 1203 1204 1205 1206 1207 1208 1209 1210 1211 1212 1213 1214 1215 1216 1217 1218 1219 1220 1221 1222 1223 1224 1225 1226 1227 1228 1229 1230 1231 1232 1233 1234 1235 1236 1237 1238 1239 1240 1241 1242 1243 1244 1245 1246 1247 1248 1249 1250 1251 1252 1253 1254 1255 1256 1257 1258 1259 1260 1261 1262 1263 1264 1265 1266 1267 1268 1269 1270 1271 1272 1273 1274 1275 1276 1277 1278 1279 1280 1281 1282 1283 1284 1285 1286 1287 1288 1289 1290 1291 1292 1293 1294 1295 1296 1297 1298 1299 1300 1301 1302 1303 1304 1305 1306 1307 1308 1309 1310 1311 1312 1313 1314 1315 1316 1317 1318 1319 1320 1321 1322 1323 1324 1325 1326 1327 1328 1329 1330 1331 1332 1333 1334 1335 1336 1337 1338 1339 1340 1341 1342 1343 1344 1345 1346 1347 1348 1349 1350 1351 1352 1353 1354 1355 1356 1357 1358 1359 1360 1361 1362 1363 1364 1365 1366 1367 1368 1369 1370 1371 1372 1373 1374 1375 1376 1377 1378 1379 1380 1381 1382 1383 1384 1385 1386 1387 1388 1389 1390 1391 1392 1393 1394 1395 1396 1397 1398 1399 1400 1401 1402 1403 1404 1405 1406 1407 1408 1409 1410 1411 1412 1413 1414 1415 1416 1417 1418 1419 1420 1421 1422 1423 1424 1425 1426 1427 1428 1429 1430 1431 1432 1433 1434 1435 1436 1437 1438 1439 1440 1441 1442 1443 1444 1445 1446 1447 1448 1449 1450 1451 1452 1453 1454 1455 1456 1457 1458 1459 1460 1461 1462 1463 1464 1465 1466 1467 1468 1469 1470 1471 1472 1473 1474 1475 1476 1477 1478 1479 1480 1481 1482 1483 1484 1485 1486 1487 1488 1489 1490 1491 1492 1493 1494 1495 1496 1497 1498 1499 1500 1501 1502 1503 1504 1505 1506 1507 1508 1509 1510 1511 1512 1513 1514 1515 1516 1517 1518 1519 1520 1521 1522 1523 1524 1525 1526 1527 1528 1529 1530 1531 1532 1533 1534 1535 1536 1537 1538 1539 1540 1541 1542 1543 1544 1545 1546 1547 1548 1549 1550 1551 1552 1553 1554 1555 1556 1557 1558 1559 1560 1561 1562 1563 1564 1565 1566 1567 1568 1569 1570 1571 1572 1573 1574 1575 1576 1577 1578 1579 1580 1581 1582 1583 1584 1585 1586 1587 1588 1589 1590 1591 1592 1593 1594 1595 1596 1597 1598 1599 1600 1601 1602 1603 1604 1605 1606 1607 1608 1609 1610 1611 1612 1613 1614 1615 1616 1617 1618 1619 1620 1621 1622 1623 1624 1625 1626 1627 1628 1629 1630 1631 1632 1633 1634 1635 1636 1637 1638 1639 1640 1641 1642 1643 1644 1645 1646 1647 1648 1649 1650 1651 1652 1653 1654 1655 1656 1657 1658 1659 1660 1661 1662 1663 1664 1665 1666 1667 1668 1669 1670 1671 1672 1673 1674 1675 1676 1677 1678 1679 1680 1681 1682 1683 1684 1685 1686 1687 1688 1689 1690 1691 1692 1693 1694 1695 1696 1697 1698 1699 1700 1701 1702 1703 1704 1705 1706 1707 1708 1709 1710 1711 1712 1713 1714 1715 1716 1717 1718 1719 1720 1721 1722 1723 1724 1725 1726 1727 1728 1729 1730 1731 1732 1733 1734 1735 1736 1737 1738 1739 1740 1741 1742 1743 1744 1745 1746 1747 1748 1749 1750 1751 1752 1753 1754 1755 1756 1757 1758 1759 1760 1761 1762 1763 1764 1765 1766 1767 1768 1769 1770 1771 1772 1773 1774 1775 1776 1777 1778 1779 1780 1781 1782 1783 1784 1785 1786 1787 1788 1789 1790 1791 1792 1793 1794 1795 1796 1797 1798 1799 1800 1801 1802 1803 1804 1805 1806 1807 1808 1809 1810 1811 1812 1813 1814 1815 1816 1817 1818 1819 1820 1821 1822 1823 1824 1825 1826 1827 1828 1829 1830 1831 1832 1833 1834 1835 1836 1837 1838 1839 1840 1841 1842 1843 1844 1845 1846 1847 1848 1849 1850 1851 1852 1853 1854 1855 1856 1857 1858 1859 1860 1861 1862 1863 1864 1865 1866 1867 1868 1869 1870 1871 1872 1873 1874 1875 1876 1877 1878 1879 1880 1881 1882 1883 1884 1885 1886 1887 1888 1889 1890 1891 1892 1893 1894 1895 1896 1897 1898 1899 1900 1901 1902 1903 1904 1905 1906 1907 1908 1909 1910 1911 1912 1913 1914 1915 1916 1917 1918 1919 1920 1921 1922 1923 1924 1925 1926 1927 1928 1929 1930 1931 1932 1933 1934 1935 1936 1937 1938 1939 1940 1941 1942 1943 1944 1945 1946 1947 1948 1949 1950 1951 1952 1953 1954 1955 1956 1957 1958 1959 1960 1961 1962 1963 1964 1965 1966 1967 1968 1969 1970 1971 1972 1973 1974 1975 1976 1977 1978 1979 1980 1981 1982 1983 1984 1985 1986 1987 1988 1989 1990 1991 1992 1993 1994 1995 1996 1997 1998 1999 2000 2001 2002 2003 2004 2005 2006 2007 2008 2009 2010 2011 2012 2013 2014 2015 2016 2017 2018 2019 2020 2021 2022 2023 2024 2025 2026 2027 2028 2029 2030 2031 2032 2033 2034 2035 2036 2037 2038 2039 2040 2041 2042 2043 2044 2045 2046 2047 2048 2049 2050 2051 2052 2053 2054 2055 2056 2057 2058 2059 2060 2061 2062 2063 2064 2065 2066 2067 2068 2069 2070 2071 2072 2073 2074 2075 2076 2077 2078 2079 2080 2081 2082 2083 2084 2085 2086 2087 2088 2089 2090 2091 2092 2093 2094 2095 2096 2097 2098 2099 2100 2101 2102 2103 2104 2105 2106 2107 2108 2109 2110 2111 2112 2113 2114 2115 2116 2117 2118 2119 2120 2121 2122 2123 2124 2125 2126 2127 2128 2129 2130 2131 2132 2133 2134 2135 2136 2137 2138 2139 2140 2141 2142 2143 2144 2145 2146 2147 2148 2149 2150 2151 2152 2153 2154 2155 2156 2157 2158 2159 2160 2161 2162 2163 2164 2165 2166 2167 2168 2169 2170 2171 2172 2173 2174 2175 2176 2177 2178 2179 2180 2181 2182 2183 2184 2185 2186 2187 2188 2189 2190 2191 2192 2193 2194 2195 2196 2197 2198 2199 2200 2201 2202 2203 2204 2205 2206 2207 2208 2209 2210 2211 2212 2213 2214 2215 2216 2217 2218 2219 2220 2221 2222 2223 2224 2225 2226 2227 2228 2229 2230 2231 2232 2233 2234 2235 2236 2237 2238 2239 2240 2241 2242 2243 2244 2245 2246 2247 2248 2249 2250 2251 2252 2253 2254 2255 2256 2257 2258 2259 2260 2261 2262 2263 2264 2265 2266 2267 2268 2269 2270 2271 2272 2273 2274 2275 2276 2277 2278 2279 2280 2281 2282 2283 2284 2285 2286 2287 2288 2289 2290 2291 2292 2293 2294 2295 2296 2297 2298 2299 2300 2301 2302 2303 2304 2305 2306 2307 2308 2309 2310 2311 2312 2313 2314 2315 2316 2317 2318 2319 2320 2321 2322 2323 2324 2325 2326 2327 2328 2329 2330 2331 2332 2333 2334 2335 2336 2337 2338 2339 2340 2341 2342 2343 2344 2345 2346 2347 2348 2349 2350 2351 2352 2353 2354 2355 2356 2357 2358 2359 2360 2361 2362 2363 2364 2365 2366 2367 2368 2369 2370 2371 2372 2373 2374 2375 2376 2377 2378 2379 2380 2381 2382 2383 2384 2385 2386 2387 2388 2389 2390 2391 2392 2393 2394 2395 2396 2397 2398 2399 2400 2401 2402 2403 2404 2405 2406 2407 2408 2409 2410 2411 2412 2413 2414 2415 2416 2417 2418 2419 2420 2421 2422 2423 2424 2425 2426 2427 2428 2429 2430 2431 2432 2433 2434 2435 2436 2437 2438 2439 2440 2441 2442 2443 2444 2445 2446 2447 2448 2449 2450 2451 2452 2453 2454 2455 2456 2457 2458 2459 2460 2461 2462 2463 2464 2465 2466 2467 2468 2469 2470 2471 2472 2473 2474 2475 2476 2477 2478 2479 2480 2481 2482 2483 2484 2485 2486 2487 2488 2489 2490 2491 2492 2493 2494 2495 2496 2497 2498 2499 2500 2501 2502 2503 2504 2505 2506 2507 2508 2509 2510 2511 2512 2513 2514 2515 2516 2517 2518 2519 2520 2521 2522 2523 2524 2525 2526 2527 2528 2529 2530 2531 2532 2533 2534 2535 2536 2537 2538 2539 2540 2541 2542 2543 2544 2545 2546 2547 2548 2549 2550 2551 2552 2553 2554 2555 2556 2557 2558 2559 2560 2561 2562 2563 2564 2565 2566 2567 2568 2569 2570 2571 2572 2573 2574 2575 2576 2577 2578 2579 2580 2581 2582 2583 2584 2585 2586 2587 2588 2589 2590 2591 2592 2593 2594 2595 2596 2597 2598 2599 2600 2601 2602 2603 2604 2605 2606 2607 2608 2609 2610 2611 2612 2613 2614 2615 2616 2617 2618 2619 2620 2621 2622 2623 2624 2625 2626 2627 2628 2629 2630 2631 2632 2633 2634 2635 2636 2637 2638 2639 2640 2641 2642 2643 2644 2645 2646 2647 2648 2649 2650 2651 2652 2653 2654 2655 2656 2657 2658 2659 2660 2661 2662 2663 2664 2665 2666 2667 2668 2669 2670 2671 2672 2673 2674 2675 2676 2677 2678 2679 2680 2681 2682 2683 2684 2685 2686 2687 2688 2689 2690 2691 2692 2693 2694 2695 2696 2697 2698 2699 2700 2701 2702 2703 2704 2705 2706 2707 2708 2709 2710 2711 2712 2713 2714 2715 2716 2717 2718 2719 2720 2721 2722 2723 2724 2725 2726 2727 2728 2729 2730 2731 2732 2733 2734 2735 2736 2737 2738 2739 2740 2741 2742 2743 2744 2745 2746 2747 2748 2749 2750 2751 2752 2753 2754 2755 2756 2757 2758 2759 2760 2761 2762 2763 2764 2765 2766 2767 2768 2769 2770 2771 2772 2773 2774 2775 2776 2777 2778 2779 2780 2781 2782 2783 2784 2785 2786 2787 2788 2789 2790 2791 2792 2793 2794 2795 2796 2797 2798 2799 2800 2801 2802 2803 2804 2805 2806 2807 2808 2809 2810 2811 2812 2813 2814 2815 2816 2817 2818 2819 2820 2821 2822 2823 2824 2825 2826 2827 2828 2829 2830 2831 2832 2833 2834 2835 2836 2837 2838 2839 2840 2841 2842 2843 2844 2845 2846 2847 2848 2849 2850 2851 2852 2853 2854 2855 2856 2857 2858 2859 2860 2861 2862 2863 2864 2865 2866 2867 2868 2869 2870 2871 2872 2873 2874 2875 2876 2877 2878 2879 2880 2881 2882 2883 2884 2885 2886 2887 2888 2889 2890 2891 2892 2893 2894 2895 2896 2897 2898 2899 2900 2901 2902 2903 2904 2905 2906 2907 2908 2909 2910 2911 2912 2913 2914 2915 2916 2917 2918 2919 2920 2921 2922 2923 2924 2925 2926 2927 2928 2929 2930 2931 2932 2933 2934 2935 2936 2937 2938 2939 2940 2941 2942 2943 2944 2945 2946 2947 2948 2949 2950 2951 2952 2953 2954 2955 2956 2957 2958 2959 2960 2961 2962 2963 2964 2965 2966 2967 2968 2969 2970 2971 2972 2973 2974 2975 2976 2977 2978 2979 2980 2981 2982 2983 2984 2985 2986 2987 2988 2989 2990 2991 2992 2993 2994 2995 2996 2997 2998 2999 3000 3001 3002 3003 3004 3005 3006 3007 3008 3009 3010 3011 3012 3013 3014 3015 3016 3017 3018 3019 3020 3021 3022 3023 3024 3025 3026 3027 3028 3029 3030 3031 3032 3033 3034 3035 3036 3037 3038 3039 3040 3041 3042 3043 3044 3045 3046 3047 3048 3049 3050 3051 3052 3053 3054 3055 3056 3057 3058 3059 3060 3061 3062 3063 3064 3065 3066 3067 3068 3069 3070 3071 3072 3073 3074 3075 3076 3077 3078 3079 3080 3081 3082 3083 3084 3085 3086 3087 3088 3089 3090 3091 3092 3093 3094 3095 3096 3097 3098 3099 3100 3101 3102 3103 3104 3105 3106 3107 3108 3109 3110 3111 3112 3113 3114 3115 3116 3117 3118 3119 3120 3121 3122 3123 3124 3125 3126 3127 3128 3129 3130 3131 3132 3133 3134 3135 3136 3137 3138 3139 3140 3141 3142 3143 3144 3145 3146 3147 3148 3149 3150 3151 3152 3153 3154 3155 3156 3157 3158 3159 3160 3161 3162 3163 3164 3165 3166 3167 3168 3169 3170 3171 3172 3173 3174 3175 3176 3177 3178 3179 3180 3181 3182 3183 3184 3185 3186 3187 3188 3189 3190 3191 3192 3193 3194 3195 3196 3197 3198 3199 3200 3201 3202 3203 3204 3205 3206 3207 3208 3209 3210 3211 3212 3213 3214 3215 3216 3217 3218 3219 3220 3221 3222 3223 3224 3225 3226 3227 3228 3229 3230 3231 3232 3233 3234 3235 3236 3237 3238 3239 3240 3241 3242 3243 3244 3245 3246 3247 3248 3249 3250 3251 3252 3253 3254 3255 3256 3257 3258 3259 3260 3261 3262 3263 3264 3265 3266 3267 3268 3269 3270 3271 3272 3273 3274 3275 3276 3277 3278 3279 3280 3281 3282 3283 3284 3285 3286 3287 3288 3289 3290 3291 3292 3293 3294 3295 3296 3297 3298 3299 3300 3301 3302 3303 3304 3305 3306 3307 3308 3309 3310 3311 3312 3313 3314 3315 3316 3317 3318 3319 3320 3321 3322 3323 3324 3325 3326 3327 3328 3329 3330 3331 3332 3333 3334 3335 3336 3337 3338 3339 3340 3341 3342 3343 3344 3345 3346 3347 3348 3349 3350 3351 3352 3353 3354 3355 3356 3357 3358 3359 3360 3361 3362 3363 3364 3365 3366 3367 3368 3369 3370 3371 3372 3373 3374 3375 3376 3377 3378 3379 3380 3381 3382 3383 3384 3385 3386 3387 3388 3389 3390 3391 3392 3393 3394 3395 3396 3397 3398 3399 3400 3401 3402 3403 3404 3405 3406 3407 3408 3409 3410 3411 3412 3413 3414 3415 3416 3417 3418 3419 3420 3421 3422 3423 3424 3425 3426 3427 3428 3429 3430 3431 3432 3433 3434 3435 3436 3437 3438 3439 3440 3441 3442 3443 3444 3445 3446 3447 3448 3449 3450 3451 3452 3453 3454 3455 3456 3457 3458 3459 3460 3461 3462 3463 3464 3465 3466 3467 3468 3469 3470 3471 3472 3473 3474 3475 3476 3477 3478 3479 3480 3481 3482 3483 3484 3485 3486 3487 3488 3489 3490 3491 3492 3493 3494 3495 3496 3497 3498 3499 3500 3501 3502 3503 3504 3505 3506 3507 3508 3509 3510 3511 3512 3513 3514 3515 3516 3517 3518 3519 3520 3521 3522 3523 3524 3525 3526 3527 3528 3529 3530 3531 3532 3533 3534 3535 3536 3537 3538 3539 3540 3541 3542 3543 3544 3545 3546 3547 3548 3549 3550 3551 3552 3553 3554 3555 3556 3557 3558 3559 3560 3561 3562 3563 3564 3565 3566 3567 3568 3569 3570 3571 3572 3573 3574 3575 3576 3577 3578 3579 3580 3581 3582 3583 3584 3585 3586 3587 3588 3589 3590 3591 3592 3593 3594 3595 3596 3597 3598 3599 3600 3601 3602 3603 3604 3605 3606 3607 3608 3609 3610 3611 3612 3613 3614 3615 3616 3617 3618 3619 3620 3621 3622 3623 3624 3625 3626 3627 3628 3629 3630 3631 3632 3633 3634 3635 3636 3637 3638 3639 3640 3641 3642 3643 3644 3645 3646 3647 3648 3649 3650 3651 3652 3653 3654 3655 3656 3657 3658 3659 3660 3661 3662 3663 3664 3665 3666 3667 3668 3669 3670 3671 3672 3673 3674 3675 3676 3677 3678 3679 3680 3681 3682 3683 3684 3685 3686 3687 3688 3689 3690 3691 3692 3693 3694 3695 3696 3697 3698 3699 3700 3701 3702 3703 3704 3705 3706 3707 3708 3709 3710 3711 3712 3713 3714 3715 3716 3717 3718 3719 3720 3721 3722 3723 3724 3725 3726 3727 3728 3729 3730 3731 3732 3733 3734 3735 3736 3737 3738 3739 3740 3741 3742 3743 3744 3745 3746 3747 3748 3749 3750 3751 3752 3753 3754 3755 3756 3757 3758 3759 3760 3761 3762 3763 3764 3765 3766 3767 3768 3769 3770 3771 3772 3773 3774 3775 3776 3777 3778 3779 3780 3781 3782 3783 3784 3785 3786 3787 3788 3789 3790 3791 3792 3793 3794 3795 3796 3797 3798 3799 3800 3801 3802 3803 3804 3805 3806 3807 3808 3809 3810 3811 3812 3813 3814 3815 3816 3817 3818 3819 3820 3821 3822 3823 3824 3825 3826 3827 3828 3829 3830 3831 3832 3833 3834 3835 3836 3837 3838 3839 3840 3841 3842 3843 3844 3845 3846 3847 3848 3849 3850 3851 3852 3853 3854 3855 3856 3857 3858 3859 3860 3861 3862 3863 3864 3865 3866 3867 3868 3869 3870 3871 3872 3873 3874 3875 3876 3877 3878 3879 3880 3881 3882 3883 3884 3885 3886 3887 3888 3889 3890 3891 3892 3893 3894 3895 3896 3897 3898 3899 3900 3901 3902 3903 3904 3905 3906 3907 3908 3909 3910 3911 3912 3913 3914 3915 3916 3917 3918 3919 3920 3921 3922 3923 3924 3925 3926 3927 3928 3929 3930 3931 3932 3933 3934 3935 3936 3937 3938 3939 3940 3941 3942 3943 3944 3945 3946 3947 3948 3949 3950 3951 3952 3953 3954 3955 3956 3957 3958 3959 3960 3961 3962 3963 3964 3965 3966 3967 3968 3969 3970 3971 3972 3973 3974 3975 3976 3977 3978 3979 3980 3981 3982 3983 3984 3985 3986 3987 3988 3989 3990 3991 3992 3993 3994 3995 3996 3997 3998 3999 4000 4001 4002 4003 4004 4005 4006 4007 4008 4009 4010 4011 4012 4013 4014 4015 4016 4017 4018 4019 4020 4021 4022 4023 4024 4025 4026 4027 4028 4029 4030 4031 4032 4033 4034 4035 4036 4037 4038 4039 4040 4041 4042 4043 4044 4045 4046 4047 4048 4049 4050 4051 4052 4053 4054 4055 4056 4057 4058 4059 4060 4061 4062 4063 4064 4065 4066 4067 4068 4069 4070 4071 4072 4073 4074 4075 4076 4077 4078 4079 4080 4081 4082 4083 4084 4085 4086 4087 4088 4089 4090 4091 4092 4093 4094 4095 4096 4097 4098 4099 4100 4101 4102 4103 4104 4105 4106 4107 4108 4109 4110 4111 4112 4113 4114 4115 4116 4117 4118 4119 4120 4121 4122 4123 4124 4125 4126 4127 4128 4129 4130 4131 4132 4133 4134 4135 4136 4137 4138 4139 4140 4141 4142 4143 4144 4145 4146 4147 4148 4149 4150 4151 4152 4153 4154 4155 4156 4157 4158 4159 4160 4161 4162 4163 4164 4165 4166 4167 4168 4169 4170 4171 4172 4173 4174 4175 4176 4177 4178 4179 4180 4181 4182 4183 4184 4185 4186 4187 4188 4189 4190 4191 4192 4193 4194 4195 4196 4197 4198 4199 4200 4201 4202 4203 4204 4205 4206 4207 4208 4209 4210 4211 4212 4213 4214 4215 4216 4217 4218 4219 4220 4221 4222 4223 4224 4225 4226 4227 4228 4229 4230 4231 4232 4233 4234 4235 4236 4237 4238 4239 4240 4241 4242 4243 4244 4245 4246 4247 4248 4249 4250 4251 4252 4253 4254 4255 4256 4257 4258 4259 4260 4261 4262 4263 4264 4265 4266 4267 4268 4269 4270 4271 4272 4273 4274 4275 4276 4277 4278 4279 4280 4281 4282 4283 4284 4285 4286 4287 4288 4289 4290 4291 4292 4293 4294 4295 4296 4297 4298 4299 4300 4301 4302 4303 4304 4305 4306 4307 4308 4309 4310 4311 4312 4313 4314 4315 4316 4317 4318 4319 4320 4321 4322 4323 4324 4325 4326 4327 4328 4329 4330 4331 4332 4333 4334 4335 4336 4337 4338 4339 4340 4341 4342 4343 4344 4345 4346 4347 4348 4349 4350 4351 4352 4353 4354 4355 4356 4357 4358 4359 4360 4361 4362 4363 4364 4365 4366 4367 4368 4369 4370 4371 4372 4373 4374 4375 4376 4377 4378 4379 4380 4381 4382 4383 4384 4385 4386 4387 4388 4389 4390 4391 4392 4393 4394 4395 4396 4397 4398 4399 4400 4401 4402 4403 4404 4405 4406 4407 4408 4409 4410 4411 4412 4413 4414 4415 4416 4417 4418 4419 4420 4421 4422 4423 4424 4425 4426 4427 4428 4429 4430 4431 4432 4433 4434 4435 4436 4437 4438 4439 4440 4441 4442 4443 4444 4445 4446 4447 4448 4449 4450 4451 4452 4453 4454 4455 4456 4457 4458 4459 4460 4461 4462 4463 4464 4465 4466 4467 4468 4469 4470 4471 4472 4473 4474 4475 4476 4477 4478 4479 4480 4481 4482 4483 4484 4485 4486 4487 4488 4489 4490 4491 4492 4493 4494 4495 4496 4497 4498 4499 4500 4501 4502 4503 4504 4505 4506 4507 4508 4509 4510 4511 4512 4513 4514 4515 4516 4517 4518 4519 4520 4521 4522 4523 4524 4525 4526 4527 4528 4529 4530 4531 4532 4533 4534 4535 4536 4537 4538 4539 4540 4541 4542 4543 4544 4545 4546 4547 4548 4549 4550 4551 4552 4553 4554 4555 4556 4557 4558 4559 4560 4561 4562 4563 4564 4565 4566 4567 4568 4569 4570 4571 4572 4573 4574 4575 4576 4577 4578 4579 4580 4581 4582 4583 4584 4585 4586 4587 4588 4589 4590 4591 4592 4593 4594 4595 4596 4597 4598 4599 4600 4601 4602 4603 4604 4605 4606 4607 4608 4609 4610 4611 4612 4613 4614 4615 4616 4617 4618 4619 4620 4621 4622 4623 4624 4625 4626 4627 4628 4629 4630 4631 4632 4633 4634 4635 4636 4637 4638 4639 4640 4641 4642 4643 4644 4645 4646 4647 4648 4649 4650 4651 4652 4653 4654 4655 4656 4657 4658 4659 4660 4661 4662 4663 4664 4665 4666 4667 4668 4669 4670 4671 4672 4673 4674 4675 4676 4677 4678 4679 4680 4681 4682 4683 4684 4685 4686 4687 4688 4689 4690 4691 4692 4693 4694 4695 4696 4697 4698 4699 4700 4701 4702 4703 4704 4705 4706 4707 4708 4709 4710 4711 4712 4713 4714 4715 4716 4717 4718 4719 4720 4721 4722 4723 4724 4725 4726 4727 4728 4729 4730 4731 4732 4733 4734 4735 4736 4737 4738 4739 4740 4741 4742 4743 4744 4745 4746 4747 4748 4749 4750 4751 4752 4753 4754 4755 4756 4757 4758 4759 4760 4761 4762 4763 4764 4765 4766 4767 4768 4769 4770 4771 4772 4773 4774 4775 4776 4777 4778 4779 4780 4781 4782 4783 4784 4785 4786 4787 4788 4789 4790 4791 4792 4793 4794 4795 4796 4797 4798 4799 4800 4801 4802 4803 4804 4805 4806 4807 4808 4809 4810 4811 4812 4813 4814 4815 4816 4817 4818 4819 4820 4821 4822 4823 4824 4825 4826 4827 4828 4829 4830 4831 4832 4833 4834 4835 4836 4837 4838 4839 4840 4841 4842 4843 4844 4845 4846 4847 4848 4849 4850 4851 4852 4853 4854 4855 4856 4857 4858 4859 4860 4861 4862 4863 4864 4865 4866 4867 4868 4869 4870 4871 4872 4873 4874 4875 4876 4877 4878 4879 4880 4881 4882 4883 4884 4885 4886 4887 4888 4889 4890 4891 4892 4893 4894 4895 4896 4897 4898 4899 4900 4901 4902 4903 4904 4905 4906 4907 4908 4909 4910 4911 4912 4913 4914 4915 4916 4917 4918 4919 4920 4921 4922 4923 4924 4925 4926 4927 4928 4929 4930 4931 4932 4933 4934 4935 4936 4937 4938 4939 4940 4941 4942 4943 4944 4945 4946 4947 4948 4949 4950 4951 4952 4953 4954 4955 4956 4957 4958 4959 4960 4961 4962 4963 4964 4965 4966 4967 4968 4969 4970 4971 4972 4973 4974 4975 4976 4977 4978 4979 4980 4981 4982 4983 4984 4985 4986 4987 4988 4989 4990 4991 4992 4993 4994 4995 4996 4997 4998 4999 5000 5001 5002 5003 5004 5005 5006 5007 5008 5009 5010 5011 5012 5013 5014 5015 5016 5017 5018 5019 5020 5021 5022 5023 5024 5025 5026 5027 5028 5029 5030 5031 5032 5033 5034 5035 5036 5037 5038 5039 5040 5041 5042 5043 5044 5045 5046 5047 5048 5049 5050 5051 5052 5053 5054 5055 5056 5057 5058 5059 5060 5061 5062 5063 5064 5065 5066 5067 5068 5069 5070 5071 5072 5073 5074 5075 5076 5077 5078 5079 5080 5081 5082 5083 5084 5085 5086 5087 5088 5089 5090 5091 5092 5093 5094 5095 5096 5097 5098 5099 5100 5101 5102 5103 5104 5105 5106 5107 5108 5109 5110 5111 5112 5113 5114 5115 5116 5117 5118 5119 5120 5121 5122 5123 5124 5125 5126 5127 5128 5129 5130 5131 5132 5133 5134 5135 5136 5137 5138 5139 5140 5141 5142 5143 5144 5145 5146 5147 5148 5149 5150 5151 5152 5153 5154 5155 5156 5157 5158 5159 5160 5161 5162 5163 5164 5165 5166 5167 5168 5169 5170 5171 5172 5173 5174 5175 5176 5177 5178 5179 5180 5181 5182 5183 5184 5185 5186 5187 5188 5189 5190 5191 5192 5193 5194 5195 5196 5197 5198 5199 5200 5201 5202 5203 5204 5205 5206 5207 5208 5209 5210 5211 5212 5213 5214 5215 5216 5217 5218 5219 5220 5221 5222 5223 5224 5225 5226 5227 5228 5229 5230 5231 5232 5233 5234 5235 5236 5237 5238 5239 5240 5241 5242 5243 5244 5245 5246 5247 5248 5249 5250 5251 5252 5253 5254 5255 5256 5257 5258 5259 5260 5261 5262 5263 5264 5265 5266 5267 5268 5269 5270 5271 5272 5273 5274 5275 5276 5277 5278 5279 5280 5281 5282 5283 5284 5285 5286 5287 5288 5289 5290 5291 5292 5293 5294 5295 5296 5297 5298 5299 5300 5301 5302 5303 5304 5305 5306 5307 5308 5309 5310 5311 5312 5313 5314 5315 5316 5317 5318 5319 5320 5321 5322 5323 5324 5325 5326 5327 5328 5329 5330 5331 5332 5333 5334 5335 5336 5337 5338 5339 5340 5341 5342 5343 5344 5345 5346 5347 5348 5349 5350 5351 5352 5353 5354 5355 5356 5357 5358 5359 5360 5361 5362 5363 5364 5365 5366 5367 5368 5369 5370 5371 5372 5373 5374 5375 5376 5377 5378 5379 5380 5381 5382 5383 5384 5385 5386 5387 5388 5389 5390 5391 5392 5393 5394 5395 5396 5397 5398 5399 5400 5401 5402 5403 5404 5405 5406 5407 5408 5409 5410 5411 5412 5413 5414 5415 5416 5417 5418 5419 5420 5421 5422 5423 5424 5425 5426 5427 5428 5429 5430 5431 5432 5433 5434 5435 5436 5437 5438 5439 5440 5441 5442 5443 5444 5445 5446 5447 5448 5449 5450 5451 5452 5453 5454 5455 5456 5457 5458 5459 5460 5461 5462 5463 5464 5465 5466 5467 5468 5469 5470 5471 5472 5473 5474 5475 5476 5477 5478 5479 5480 5481 5482 5483 5484 5485 5486 5487 5488 5489 5490 5491 5492 5493 5494 5495 5496 5497 5498 5499 5500 5501 5502 5503 5504 5505 5506 5507 5508 5509 5510 5511 5512 5513 5514 5515 5516 5517 5518 5519 5520 5521 5522 5523 5524 5525 5526 5527 5528 5529 5530 5531 5532 5533 5534 5535 5536 5537 5538 5539 5540 5541 5542 5543 5544 5545 5546 5547 5548 5549 5550 5551 5552 5553 5554 5555 5556 5557 5558 5559 5560 5561 5562 5563 5564 5565 5566 5567 5568 5569 5570 5571 5572 5573 5574 5575 5576 5577 5578 5579 5580 5581 5582 5583 5584 5585 5586 5587 5588 5589 5590 5591 5592 5593 5594 5595 5596 5597 5598 5599 5600 5601 5602 5603 5604 5605 5606 5607 5608 5609 5610 5611 5612 5613 5614 5615 5616 5617 5618 5619 5620 5621 5622 5623 5624 5625 5626 5627 5628 5629 5630 5631 5632 5633 5634 5635 5636 5637 5638 5639 5640 5641 5642 5643 5644 5645 5646 5647 5648 5649 5650 5651 5652 5653 5654 5655 5656 5657 5658 5659 5660 5661 5662 5663 5664 5665 5666 5667 5668 5669 5670 5671 5672 5673 5674 5675 5676 5677 5678 5679 5680 5681 5682 5683 5684 5685 5686 5687 5688 5689 5690 5691 5692 5693 5694 5695 5696 5697 5698 5699 5700 5701 5702 5703 5704 5705 5706 5707 5708 5709 5710 5711 5712 5713 5714 5715 5716 5717 5718 5719 5720 5721 5722 5723 5724 5725 5726 5727 5728 5729 5730 5731 5732 5733 5734 5735 5736 5737 5738 5739 5740 5741 5742 5743 5744 5745 5746 5747 5748 5749 5750 5751 5752 5753 5754 5755 5756 5757 5758 5759 5760 5761 5762 5763 5764 5765 5766 5767 5768 5769 5770 5771 5772 5773 5774 5775 5776 5777 5778 5779 5780 5781 5782 5783 5784 5785 5786 5787 5788 5789 5790 5791 5792 5793 5794 5795 5796 5797 5798 5799 5800 5801 5802 5803 5804 5805 5806 5807 5808 5809 5810 5811 5812 5813 5814 5815 5816 5817 5818 5819 5820 5821 5822 5823 5824 5825 5826 5827 5828 5829 5830 5831 5832 5833 5834 5835 5836 5837 5838 5839 5840 5841 5842 5843 5844 5845 5846 5847 5848 5849 5850 5851 5852 5853 5854 5855 5856 5857 5858 5859 5860 5861 5862 5863 5864 5865 5866 5867 5868 5869 5870 5871 5872 5873 5874 5875 5876 5877 5878 5879 5880 5881 5882 5883 5884 5885 5886 5887 5888 5889 5890 5891 5892 5893 5894 5895 5896 5897 5898 5899 5900 5901 5902 5903 5904 5905 5906 5907 5908 5909 5910 5911 5912 5913 5914 5915 5916 5917 5918 5919 5920 5921 5922 5923 5924 5925 5926 5927 5928 5929 5930 5931 5932 5933 5934 5935 5936 5937 5938 5939 5940 5941 5942 5943 5944 5945 5946 5947 5948 5949 5950 5951 5952 5953 5954 5955 5956 5957 5958 5959 5960 5961 5962 5963 5964 5965 5966 5967 5968 5969 5970 5971 5972 5973 5974 5975 5976 5977 5978 5979 5980 5981 5982 5983 5984 5985 5986 5987 5988 5989 5990 5991 5992 5993 5994 5995 5996 5997 5998 5999 6000 6001 6002 6003 6004 6005 6006 6007 6008 6009 6010 6011 6012 6013 6014 6015 6016 6017 6018 6019 6020 6021 6022 6023 6024 6025 6026 6027 6028 6029 6030 6031 6032 6033 6034 6035 6036 6037 6038 6039 6040 6041 6042 6043 6044 6045 6046 6047 6048 6049 6050 6051 6052 6053 6054 6055 6056 6057 6058 6059 6060 6061 6062 6063 6064 6065 6066 6067 6068 6069 6070 6071 6072 6073 6074 6075 6076 6077 6078 6079 6080 6081 6082 6083 6084 6085 6086 6087 6088 6089 6090 6091 6092 6093 6094 6095 6096 6097 6098 6099 6100 6101 6102 6103 6104 6105 6106 6107 6108 6109 6110 6111 6112 6113 6114 6115 6116 6117 6118 6119 6120 6121 6122 6123 6124 6125 6126 6127 6128 6129 6130 6131 6132 6133 6134 6135 6136 6137 6138 6139 6140 6141 6142 6143 6144 6145 6146 6147 6148 6149 6150 6151 6152 6153 6154 6155 6156 6157 6158 6159 6160 6161 6162 6163 6164 6165 6166 6167 6168 6169 6170 6171 6172 6173 6174 6175 6176 6177 6178 6179 6180 6181 6182 6183 6184 6185 6186 6187 6188 6189 6190 6191 6192 6193 6194 6195 6196 6197 6198 6199 6200 6201 6202 6203 6204 6205 6206 6207 6208 6209 6210 6211 6212 6213 6214 6215 6216 6217 6218 6219 6220 6221 6222 6223 6224 6225 6226 6227 6228 6229 6230 6231 6232 6233 6234 6235 6236 6237 6238 6239 6240 6241 6242 6243 6244 6245 6246 6247 6248 6249 6250 6251 6252 6253 6254 6255 6256 6257 6258 6259 6260 6261 6262 6263 6264 6265 6266 6267 6268 6269 6270 6271 6272 6273 6274 6275 6276 6277 6278 6279 6280 6281 6282 6283 6284 6285 6286 6287 6288 6289 6290 6291 6292 6293 6294 6295 6296 6297 6298 6299 6300 6301 6302 6303 6304 6305 6306 6307 6308 6309 6310 6311 6312 6313 6314 6315 6316 6317 6318 6319 6320 6321 6322 6323 6324 6325 6326 6327 6328 6329 6330 6331 6332 6333 6334 6335 6336 6337 6338 6339 6340 6341 6342 6343 6344 6345 6346 6347 6348 6349 6350 6351 6352 6353 6354 6355 6356 6357 6358 6359 6360 6361 6362 6363 6364 6365 6366 6367 6368 6369 6370 6371 6372 6373 6374 6375 6376 6377 6378 6379 6380 6381 6382 6383 6384 6385 6386 6387 6388 6389 6390 6391 6392 6393 6394 6395 6396 6397 6398 6399 6400 6401 6402 6403 6404 6405 6406 6407 6408 6409 6410 6411 6412 6413 6414 6415 6416 6417 6418 6419 6420 6421 6422 6423 6424 6425 6426 6427 6428 6429 6430 6431 6432 6433 6434 6435 6436 6437 6438 6439 6440 6441 6442 6443 6444 6445 6446 6447 6448 6449 6450 6451 6452 6453 6454 6455 6456 6457 6458 6459 6460 6461 6462 6463 6464 6465 6466 6467 6468 6469 6470 6471 6472 6473 6474 6475 6476 6477 6478 6479 6480 6481 6482 6483 6484 6485 6486 6487 6488 6489 6490 6491 6492 6493 6494 6495 6496 6497 6498 6499 6500 6501 6502 6503 6504 6505 6506 6507 6508 6509 6510 6511 6512 6513 6514 6515 6516 6517 6518 6519 6520 6521 6522 6523 6524 6525 6526 6527 6528 6529 6530 6531 6532 6533 6534 6535 6536 6537 6538 6539 6540 6541 6542 6543 6544 6545 6546 6547 6548 6549 6550 6551 6552 6553 6554 6555 6556 6557 6558 6559 6560 6561 6562 6563 6564 6565 6566 6567 6568 6569 6570 6571 6572 6573 6574 6575 6576 6577 6578 6579 6580 6581 6582 6583 6584 6585 6586 6587 6588 6589 6590 6591 6592 6593 6594 6595 6596 6597 6598 6599 6600 6601 6602 6603 6604 6605 6606 6607 6608 6609 6610 6611 6612 6613 6614 6615 6616 6617 6618 6619 6620 6621 6622 6623 6624 6625 6626 6627 6628 6629 6630 6631 6632 6633 6634 6635 6636 6637 6638 6639 6640 6641 6642 6643 6644 6645 6646 6647 6648 6649 6650 6651 6652 6653 6654 6655 6656 6657 6658 6659 6660 6661 6662 6663 6664 6665 6666 6667 6668 6669 6670 6671 6672 6673 6674 6675 6676 6677 6678 6679 6680 6681 6682 6683 6684 6685 6686 6687 6688 6689 6690 6691 6692 6693 6694 6695 6696 6697 6698 6699 6700 6701 6702 6703 6704 6705 6706 6707 6708 6709 6710 6711 6712 6713 6714 6715 6716 6717 6718 6719 6720 6721 6722 6723 6724 6725 6726 6727 6728 6729 6730 6731 6732 6733 6734 6735 6736 6737 6738 6739 6740 6741 6742 6743 6744 6745 6746 6747 6748 6749 6750 6751 6752 6753 6754 6755 6756 6757 6758 6759 6760 6761 6762 6763 6764 6765 6766 6767 6768 6769 6770 6771 6772 6773 6774 6775 6776 6777 6778 6779 6780 6781 6782 6783 6784 6785 6786 6787 6788 6789 6790 6791 6792 6793 6794 6795 6796 6797 6798 6799 6800 6801 6802 6803 6804 6805 6806 6807 6808 6809 6810 6811 6812 6813 6814 6815 6816 6817 6818 6819 6820 6821 6822 6823 6824 6825 6826 6827 6828 6829 6830 6831 6832 6833 6834 6835 6836 6837 6838 6839 6840 6841 6842 6843 6844 6845 6846 6847 6848 6849 6850 6851 6852 6853 6854 6855 6856 6857 6858 6859 6860 6861 6862 6863 6864 6865 6866 6867 6868 6869 6870 6871 6872 6873 6874 6875 6876 6877 6878 6879 6880 6881 6882 6883 6884 6885 6886 6887 6888 6889 6890 6891 6892 6893 6894 6895 6896 6897 6898 6899 6900 6901 6902 6903 6904 6905 6906 6907 6908 6909 6910 6911 6912 6913 6914 6915 6916 6917 6918 6919 6920 6921 6922 6923 6924 6925 6926 6927 6928 6929 6930 6931 6932 6933 6934 6935 6936 6937 6938 6939 6940 6941 6942 6943 6944 6945 6946 6947 6948 6949 6950 6951 6952 6953 6954 6955 6956 6957 6958 6959 6960 6961 6962 6963 6964 6965 6966 6967 6968 6969 6970 6971 6972 6973 6974 6975 6976 6977 6978 6979 6980 6981 6982 6983 6984 6985 6986 6987 6988 6989 6990 6991 6992 6993 6994 6995 6996 6997 6998 6999 7000 7001 7002 7003 7004 7005 7006 7007 7008 7009 7010 7011 7012 7013 7014 7015 7016 7017 7018 7019 7020 7021 7022 7023 7024 7025 7026 7027 7028 7029 7030 7031 7032 7033 7034 7035 7036 7037 7038 7039 7040 7041 7042 7043 7044 7045 7046 7047 7048 7049 7050 7051 7052 7053 7054 7055 7056 7057 7058 7059 7060 7061 7062 7063 7064 7065 7066 7067 7068 7069 7070 7071 7072 7073 7074 7075 7076 7077 7078 7079 7080 7081 7082 7083 7084 7085 7086 7087 7088 7089 7090 7091 7092 7093 7094 7095 7096 7097 7098 7099 7100 7101 7102 7103 7104 7105 7106 7107 7108 7109 7110 7111 7112 7113 7114 7115 7116 7117 7118 7119 7120 7121 7122 7123 7124 7125 7126 7127 7128 7129 7130 7131 7132 7133 7134 7135 7136 7137 7138 7139 7140 7141 7142 7143 7144 7145 7146 7147 7148 7149 7150 7151 7152 7153 7154 7155 7156 7157 7158 7159 7160 7161 7162 7163 7164 7165 7166 7167 7168 7169 7170 7171 7172 7173 7174 7175 7176 7177 7178 7179 7180 7181 7182 7183 7184 7185 7186 7187 7188 7189 7190 7191 7192 7193 7194 7195 7196 7197 7198 7199 7200 7201 7202 7203 7204 7205 7206 7207 7208 7209 7210 7211 7212 7213 7214 7215 7216 7217 7218 7219 7220 7221 7222 7223 7224 7225 7226 7227 7228 7229 7230 7231 7232 7233 7234 7235 7236 7237 7238 7239 7240 7241 7242 7243 7244 7245 7246 7247 7248 7249 7250 7251 7252 7253 7254 7255 7256 7257 7258 7259 7260 7261 7262 7263 7264 7265 7266 7267 7268 7269 7270 7271 7272 7273 7274 7275 7276 7277 7278 7279 7280 7281 7282 7283 7284 7285 7286 7287 7288 7289 7290 7291 7292 7293 7294 7295 7296 7297 7298 7299 7300 7301 7302 7303 7304 7305 7306 7307 7308 7309 7310 7311 7312 7313 7314 7315 7316 7317 7318 7319 7320 7321 7322 7323 7324 7325 7326 7327 7328 7329 7330 7331 7332 7333 7334 7335 7336 7337 7338 7339 7340 7341 7342 7343 7344 7345 7346 7347 7348 7349 7350 7351 7352 7353 7354 7355 7356 7357 7358 7359 7360 7361 7362 7363 7364 7365 7366 7367 7368 7369 7370 7371 7372 7373 7374 7375 7376 7377 7378 7379 7380 7381 7382 7383 7384 7385 7386 7387 7388 7389 7390 7391 7392 7393 7394 7395 7396 7397 7398 7399 7400 7401 7402 7403 7404 7405 7406 7407 7408 7409 7410 7411 7412 7413 7414 7415 7416 7417 7418 7419 7420 7421 7422 7423 7424 7425 7426 7427 7428 7429 7430 7431 7432 7433 7434 7435 7436 7437 7438 7439 7440 7441 7442 7443 7444 7445 7446 7447 7448 7449 7450 7451 7452 7453 7454 7455 7456 7457 7458 7459 7460 7461 7462 7463 7464 7465 7466 7467 7468 7469 7470 7471 7472 7473 7474 7475 7476 7477 7478 7479 7480 7481 7482 7483 7484 7485 7486 7487 7488 7489 7490 7491 7492 7493 7494 7495 7496 7497 7498 7499 7500 7501 7502 7503 7504 7505 7506 7507 7508 7509 7510 7511 7512 7513 7514 7515 7516 7517 7518 7519 7520 7521 7522 7523 7524 7525 7526 7527 7528 7529 7530 7531 7532 7533 7534 7535 7536 7537 7538 7539 7540 7541 7542 7543 7544 7545 7546 7547 7548 7549 7550 7551 7552 7553 7554 7555 7556 7557 7558 7559 7560 7561 7562 7563 7564 7565 7566 7567 7568 7569 7570 7571 7572 7573 7574 7575 7576 7577 7578 7579 7580 7581 7582 7583 7584 7585 7586 7587 7588 7589 7590 7591 7592 7593 7594 7595 7596 7597 7598 7599 7600 7601 7602 7603 7604 7605 7606 7607 7608 7609 7610 7611 7612 7613 7614 7615 7616 7617 7618 7619 7620 7621 7622 7623 7624 7625 7626 7627 7628 7629 7630 7631 7632 7633 7634 7635 7636 7637 7638 7639 7640 7641 7642 7643 7644 7645 7646 7647 7648 7649 7650 7651 7652 7653 7654 7655 7656 7657 7658 7659 7660 7661 7662 7663 7664 7665 7666 7667 7668 7669 7670 7671 7672 7673 7674 7675 7676 7677 7678 7679 7680 7681 7682 7683 7684 7685 7686 7687 7688 7689 7690 7691 7692 7693 7694 7695 7696 7697 7698 7699 7700 7701 7702 7703 7704 7705 7706 7707 7708 7709 7710 7711 7712 7713 7714 7715 7716 7717 7718 7719 7720 7721 7722 7723 7724 7725 7726 7727 7728 7729 7730 7731 7732 7733 7734 7735 7736 7737 7738 7739 7740 7741 7742 7743 7744 7745 7746 7747 7748 7749 7750 7751 7752 7753 7754 7755 7756 7757 7758 7759 7760 7761 7762 7763 7764 7765 7766 7767 7768 7769 7770 7771 7772 7773 7774 7775 7776 7777 7778 7779 7780 7781 7782 7783 7784 7785 7786 7787 7788 7789 7790 7791 7792 7793 7794 7795 7796 7797 7798 7799 7800 7801 7802 7803 7804 7805 7806 7807 7808 7809 7810 7811 7812 7813 7814 7815 7816 7817 7818 7819 7820 7821 7822 7823 7824 7825 7826 7827 7828 7829 7830 7831 7832 7833 7834 7835 7836 7837 7838 7839 7840 7841 7842 7843 7844 7845 7846 7847 7848 7849 7850 7851 7852 7853 7854 7855 7856 7857 7858 7859 7860 7861 7862 7863 7864 7865 7866 7867 7868 7869 7870 7871 7872 7873 7874 7875 7876 7877 7878 7879 7880 7881 7882 7883 7884 7885 7886 7887 7888 7889 7890 7891 7892 7893 7894 7895 7896 7897 7898 7899 7900 7901 7902 7903 7904 7905 7906 7907 7908 7909 7910 7911 7912 7913 7914 7915 7916 7917 7918 7919 7920 7921 7922 7923 7924 7925 7926 7927 7928 7929 7930 7931 7932 7933 7934 7935 7936 7937 7938 7939 7940 7941 7942 7943 7944 7945 7946 7947 7948 7949 7950 7951 7952 7953 7954 7955 7956 7957 7958 7959 7960 7961 7962 7963 7964 7965 7966 7967 7968 7969 7970 7971 7972 7973 7974 7975 7976 7977 7978 7979 7980 7981 7982 7983 7984 7985 7986 7987 7988 7989 7990 7991 7992 7993 7994 7995 7996 7997 7998 7999 8000 8001 8002 8003 8004 8005 8006 8007 8008 8009 8010 8011 8012 8013 8014 8015 8016 8017 8018 8019 8020 8021 8022 8023 8024 8025 8026 8027 8028 8029 8030 8031 8032 8033 8034 8035 8036 8037 8038 8039 8040 8041 8042 8043 8044 8045 8046 8047 8048 8049 8050 8051 8052 8053 8054 8055 8056 8057 8058 8059 8060 8061 8062 8063 8064 8065 8066 8067 8068 8069 8070 8071 8072 8073 8074 8075 8076 8077 8078 8079 8080 8081 8082 8083 8084 8085 8086 8087 8088 8089 8090 8091 8092 8093 8094 8095 8096 8097 8098 8099 8100 8101 8102 8103 8104 8105 8106 8107 8108 8109 8110 8111 8112 8113 8114 8115 8116 8117 8118 8119 8120 8121 8122 8123 8124 8125 8126 8127 8128 8129 8130 8131 8132 8133 8134 8135 8136 8137 8138 8139 8140 8141 8142 8143 8144 8145 8146 8147 8148 8149 8150 8151 8152 8153 8154 8155 8156 8157 8158 8159 8160 8161 8162 8163 8164 8165 8166 8167 8168 8169 8170 8171 8172 8173 8174 8175 8176 8177 8178 8179 8180 8181 8182 8183 8184 8185 8186 8187 8188 8189 8190 8191 8192 8193 8194 8195 8196 8197 8198 8199 8200 8201 8202 8203 8204 8205 8206 8207 8208 8209 8210 8211 8212 8213 8214 8215 8216 8217 8218 8219 8220 8221 8222 8223 8224 8225 8226 8227 8228 8229 8230 8231 8232 8233 8234 8235 8236 8237 8238 8239 8240 8241 8242 8243 8244 8245 8246 8247 8248 8249 8250 8251 8252 8253 8254 8255 8256 8257 8258 8259 8260 8261 8262 8263 8264 8265 8266 8267 8268 8269 8270 8271 8272 8273 8274 8275 8276 8277 8278 8279 8280 8281 8282 8283 8284 8285 8286 8287 8288 8289 8290 8291 8292 8293 8294 8295 8296 8297 8298 8299 8300 8301 8302 8303 8304 8305 8306 8307 8308 8309 8310 8311 8312 8313 8314 8315 8316 8317 8318 8319 8320 8321 8322 8323 8324 8325 8326 8327 8328 8329 8330 8331 8332 8333 8334 8335 8336 8337 8338 8339 8340 8341 8342 8343 8344 8345 8346 8347 8348 8349 8350 8351 8352 8353 8354 8355 8356 8357 8358 8359 8360 8361 8362 8363 8364 8365 8366 8367 8368 8369 8370 8371 8372 8373 8374 8375 8376 8377 8378 8379 8380 8381 8382 8383 8384 8385 8386 8387 8388 8389 8390 8391 8392 8393 8394 8395 8396 8397 8398 8399 8400 8401 8402 8403 8404 8405 8406 8407 8408 8409 8410 8411 8412 8413 8414 8415 8416 8417 8418 8419 8420 8421 8422 8423 8424 8425 8426 8427 8428 8429 8430 8431 8432 8433 8434 8435 8436 8437 8438 8439 8440 8441 8442 8443 8444 8445 8446 8447 8448 8449 8450 8451 8452 8453 8454 8455 8456 8457 8458 8459 8460 8461 8462 8463 8464 8465 8466 8467 8468 8469 8470 8471 8472 8473 8474 8475 8476 8477 8478 8479 8480 8481 8482 8483 8484 8485 8486 8487 8488 8489 8490 8491 8492 8493 8494 8495 8496 8497 8498 8499 8500 8501 8502 8503 8504 8505 8506 8507 8508 8509 8510 8511 8512 8513 8514 8515 8516 8517 8518 8519 8520 8521 8522 8523 8524 8525 8526 8527 8528 8529 8530 8531 8532 8533 8534 8535 8536 8537 8538 8539 8540 8541 8542 8543 8544 8545 8546 8547 8548 8549 8550 8551 8552 8553 8554 8555 8556 8557 8558 8559 8560 8561 8562 8563 8564 8565 8566 8567 8568 8569 8570 8571 8572 8573 8574 8575 8576 8577 8578 8579 8580 8581 8582 8583 8584 8585 8586 8587 8588 8589 8590 8591 8592 8593 8594 8595 8596 8597 8598 8599 8600 8601 8602 8603 8604 8605 8606 8607 8608 8609 8610 8611 8612 8613 8614 8615 8616 8617 8618 8619 8620 8621 8622 8623 8624 8625 8626 8627 8628 8629 8630 8631 8632 8633 8634 8635 8636 8637 8638 8639 8640 8641 8642 8643 8644 8645 8646 8647 8648 8649 8650 8651 8652 8653 8654 8655 8656 8657 8658 8659 8660 8661 8662 8663 8664 8665 8666 8667 8668 8669 8670 8671 8672 8673 8674 8675 8676 8677 8678 8679 8680 8681 8682 8683 8684 8685 8686 8687 8688 8689 8690 8691 8692 8693 8694 8695 8696 8697 8698 8699 8700 8701 8702 8703 8704 8705 8706 8707 8708 8709 8710 8711 8712 8713 8714 8715 8716 8717 8718 8719 8720 8721 8722 8723 8724 8725 8726 8727 8728 8729 8730 8731 8732 8733 8734 8735 8736 8737 8738 8739 8740 8741 8742 8743 8744 8745 8746 8747 8748 8749 8750 8751 8752 8753 8754 8755 8756 8757 8758 8759 8760 8761 8762 8763 8764 8765 8766 8767 8768 8769 8770 8771 8772 8773 8774 8775 8776 8777 8778 8779 8780 8781 8782 8783 8784 8785 8786 8787 8788 8789 8790 8791 8792 8793 8794 8795 8796 8797 8798 8799 8800 8801 8802 8803 8804 8805 8806 8807 8808 8809 8810 8811 8812 8813 8814 8815 8816 8817 8818 8819 8820 8821 8822 8823 8824 8825 8826 8827 8828 8829 8830 8831 8832 8833 8834 8835 8836 8837 8838 8839 8840 8841 8842 8843 8844 8845 8846 8847 8848 8849 8850 8851 8852 8853 8854 8855 8856 8857 8858 8859 8860 8861 8862 8863 8864 8865 8866 8867 8868 8869 8870 8871 8872 8873 8874 8875 8876 8877 8878 8879 8880 8881 8882 8883 8884 8885 8886 8887 8888 8889 8890 8891 8892 8893 8894 8895 8896 8897 8898 8899 8900 8901 8902 8903 8904 8905 8906 8907 8908 8909 8910 8911 8912 8913 8914 8915 8916 8917 8918 8919 8920 8921 8922 8923 8924 8925 8926 8927 8928 8929 8930 8931 8932 8933 8934 8935 8936 8937 8938 8939 8940 8941 8942 8943 8944 8945 8946 8947 8948 8949 8950 8951 8952 8953 8954 8955 8956 8957 8958 8959 8960 8961 8962 8963 8964 8965 8966 8967 8968 8969 8970 8971 8972 8973 8974 8975 8976 8977 8978 8979 8980 8981 8982 8983 8984 8985 8986 8987 8988 8989 8990 8991 8992 8993 8994 8995 8996 8997 8998 8999 9000 9001 9002 9003 9004 9005 9006 9007 9008 9009 9010 9011 9012 9013 9014 9015 9016 9017 9018 9019 9020 9021 9022 9023 9024 9025 9026 9027 9028 9029 9030 9031 9032 9033 9034 9035 9036 9037 9038 9039 9040 9041 9042 9043 9044 9045 9046 9047 9048 9049 9050 9051 9052 9053 9054 9055 9056 9057 9058 9059 9060 9061 9062 9063 9064 9065 9066 9067 9068 9069 9070 9071 9072 9073 9074 9075 9076 9077 9078 9079 9080 9081 9082 9083 9084 9085 9086 9087 9088 9089 9090 9091 9092 9093 9094 9095 9096 9097 9098 9099 9100 9101 9102 9103 9104 9105 9106 9107 9108 9109 9110 9111 9112 9113 9114 9115 9116 9117 9118 9119 9120 9121 9122 9123 9124 9125 9126 9127 9128 9129 9130 9131 9132 9133 9134 9135 9136 9137 9138 9139 9140 9141 9142 9143 9144 9145 9146 9147 9148 9149 9150 9151 9152 9153 9154 9155 9156 9157 9158 9159 9160 9161 9162 9163 9164 9165 9166 9167 9168 9169 9170 9171 9172 9173 9174 9175 9176 9177 9178 9179 9180 9181 9182 9183 9184 9185 9186 9187 9188 9189 9190 9191 9192 9193 9194 9195 9196 9197 9198 9199 9200 9201 9202 9203 9204 9205 9206 9207 9208 9209 9210 9211 9212 9213 9214 9215 9216 9217 9218 9219 9220 9221 9222 9223 9224 9225 9226 9227 9228 9229 9230 9231 9232 9233 9234 9235 9236 9237 9238 9239 9240 9241 9242 9243 9244 9245 9246 9247 9248 9249 9250 9251 9252 9253 9254 9255 9256 9257 9258 9259 9260 9261 9262 9263 9264 9265 9266 9267 9268 9269 9270 9271 9272 9273 9274 9275 9276 9277 9278 9279 9280 9281 9282 9283 9284 9285 9286 9287 9288 9289 9290 9291 9292 9293 9294 9295 9296 9297 9298 9299 9300 9301 9302 9303 9304 9305 9306 9307 9308 9309 9310 9311 9312 9313 9314 9315 9316 9317 9318 9319 9320 9321 9322 9323 9324 9325 9326 9327 9328 9329 9330 9331 9332 9333 9334 9335 9336 9337 9338 9339 9340 9341 9342 9343 9344 9345 9346 9347 9348 9349 9350 9351 9352 9353 9354 9355 9356 9357 9358 9359 9360 9361 9362 9363 9364 9365 9366 9367 9368 9369 9370 9371 9372 9373 9374 9375 9376 9377 9378 9379 9380 9381 9382 9383 9384 9385 9386 9387 9388 9389 9390 9391 9392 9393 9394 9395 9396 9397 9398 9399 9400 9401 9402 9403 9404 9405 9406 9407 9408 9409 9410 9411 9412 9413 9414 9415 9416 9417 9418 9419 9420 9421 9422 9423 9424 9425 9426 9427 9428 9429 9430 9431 9432 9433 9434 9435 9436 9437 9438 9439 9440 9441 9442 9443 9444 9445 9446 9447 9448 9449 9450 9451 9452 9453 9454 9455 9456 9457 9458 9459 9460 9461 9462 9463 9464 9465 9466 9467 9468 9469 9470 9471 9472 9473 9474 9475 9476 9477 9478 9479 9480 9481 9482 9483 9484 9485 9486 9487 9488 9489 9490 9491 9492 9493 9494 9495 9496 9497 9498 9499 9500 9501 9502 9503 9504 9505 9506 9507 9508 9509 9510 9511 9512 9513 9514 9515 9516 9517 9518 9519 9520 9521 9522 9523 9524 9525 9526 9527 9528 9529 9530 9531 9532 9533 9534 9535 9536 9537 9538 9539 9540 9541 9542 9543 9544 9545 9546 9547 9548 9549 9550 9551 9552 9553 9554 9555 9556 9557 9558 9559 9560 9561 9562 9563 9564 9565 9566 9567 9568 9569 9570 9571 9572 9573 9574 9575 9576 9577 9578 9579 9580 9581 9582 9583 9584 9585 9586 9587 9588 9589 9590 9591 9592 9593 9594 9595 9596 9597 9598 9599 9600 9601 9602 9603 9604 9605 9606 9607 9608 9609 9610 9611 9612 9613 9614 9615 9616 9617 9618 9619 9620 9621 9622 9623 9624 9625 9626 9627 9628 9629 9630 9631 9632 9633 9634 9635 9636 9637 9638 9639 9640 9641 9642 9643 9644 9645 9646 9647 9648 9649 9650 9651 9652 9653 9654 9655 9656 9657 9658 9659 9660 9661 9662 9663 9664 9665 9666 9667 9668 9669 9670 9671 9672 9673 9674 9675 9676 9677 9678 9679 9680 9681 9682 9683 9684 9685 9686 9687 9688 9689 9690 9691 9692 9693 9694 9695 9696 9697 9698 9699 9700 9701 9702 9703 9704 9705 9706 9707 9708 9709 9710 9711 9712 9713 9714 9715 9716 9717 9718 9719 9720 9721 9722 9723 9724 9725 9726 9727 9728 9729 9730 9731 9732 9733 9734 9735 9736 9737 9738 9739 9740 9741 9742 9743 9744 9745 9746 9747 9748 9749 9750 9751 9752 9753 9754 9755 9756 9757 9758 9759 9760 9761 9762 9763 9764 9765 9766 9767 9768 9769 9770 9771 9772 9773 9774 9775 9776 9777 9778 9779 9780 9781 9782 9783 9784 9785 9786 9787 9788 9789 9790 9791 9792 9793 9794 9795 9796 9797 9798 9799 9800 9801 9802 9803 9804 9805 9806 9807 9808 9809 9810 9811 9812 9813 9814 9815 9816 9817 9818 9819 9820 9821 9822 9823 9824 9825 9826 9827 9828 9829 9830 9831 9832 9833 9834 9835 9836 9837 9838 9839 9840 9841 9842 9843 9844 9845 9846 9847 9848 9849 9850 9851 9852 9853 9854 9855 9856 9857 9858 9859 9860 9861 9862 9863 9864 9865 9866 9867 9868 9869 9870 9871 9872 9873 9874 9875 9876 9877 9878 9879 9880 9881 9882 9883 9884 9885 9886 9887 9888 9889 9890 9891 9892 9893 9894 9895 9896 9897 9898 9899 9900 9901 9902 9903 9904 9905 9906 9907 9908 9909 9910 9911 9912 9913 9914 9915 9916 9917 9918 9919 9920 9921 9922 9923 9924 9925 9926 9927 9928 9929 9930 9931 9932 9933 9934 9935 9936 9937 9938 9939 9940 9941 9942 9943 9944 9945 9946 9947 9948 9949 9950 9951 9952 9953 9954 9955 9956 9957 9958 9959 9960 9961 9962 9963 9964 9965 9966 9967 9968 9969 9970 9971 9972 9973 9974 9975 9976 9977 9978 9979 9980 9981 9982 9983 9984 9985 9986 9987 9988 9989 9990 9991 9992 9993 9994 9995 9996 9997 9998 9999 10000 10001 10002 10003 10004 10005 10006 10007 10008 10009 10010 10011 10012 10013 10014 10015 10016 10017 10018 10019 10020 10021 10022 10023 10024 10025 10026 10027 10028 10029 10030 10031 10032 10033 10034 10035 10036 10037 10038 10039 10040 10041 10042 10043 10044 10045 10046 10047 10048 10049 10050 10051 10052 10053 10054 10055 10056 10057 10058 10059 10060 10061 10062 10063 10064 10065 10066 10067 10068 10069 10070 10071 10072 10073 10074 10075 10076 10077 10078 10079 10080 10081 10082 10083 10084 10085 10086 10087 10088 10089 10090 10091 10092 10093 10094 10095 10096 10097 10098 10099 10100 10101 10102 10103 10104 10105 10106 10107 10108 10109 10110 10111 10112 10113 10114 10115 10116 10117 10118 10119 10120 10121 10122 10123 10124 10125 10126 10127 10128 10129 10130 10131 10132 10133 10134 10135 10136 10137 10138 10139 10140 10141 10142 10143 10144 10145 10146 10147 10148 10149 10150 10151 10152 10153 10154 10155 10156 10157 10158 10159 10160 10161 10162 10163 10164 10165 10166 10167 10168 10169 10170 10171 10172 10173 10174 10175 10176 10177 10178 10179 10180 10181 10182 10183 10184 10185 10186 10187 10188 10189 10190 10191 10192 10193 10194 10195 10196 10197 10198 10199 10200 10201 10202 10203 10204 10205 10206 10207 10208 10209 10210 10211 10212 10213 10214 10215 10216 10217 10218 10219 10220 10221 10222 10223 10224 10225 10226 10227 10228 10229 10230 10231 10232 10233 10234 10235 10236 10237 10238 10239 10240 10241 10242 10243 10244 10245 10246 10247 10248 10249 10250 10251 10252 10253 10254 10255 10256 10257 10258 10259 10260 10261 10262 10263 10264 10265 10266 10267 10268 10269 10270 10271 10272 10273 10274 10275 10276 10277 10278 10279 10280 10281 10282 10283 10284 10285 10286 10287 10288 10289 10290 10291 10292 10293 10294 10295 10296 10297 10298 10299 10300 10301 10302 10303 10304 10305 10306 10307 10308 10309 10310 10311 10312 10313 10314 10315 10316 10317 10318 10319 10320 10321 10322 10323 10324 10325 10326 10327 10328 10329 10330 10331 10332 10333 10334 10335 10336 10337 10338 10339 10340 10341 10342 10343 10344 10345 10346 10347 10348 10349 10350 10351 10352 10353 10354 10355 10356 10357 10358 10359 10360 10361 10362 10363 10364 10365 10366 10367 10368 10369 10370 10371 10372 10373 10374 10375 10376 10377 10378 10379 10380 10381 10382 10383 10384 10385 10386 10387 10388 10389 10390 10391 10392 10393 10394 10395 10396 10397 10398 10399 10400 10401 10402 10403 10404 10405 10406 10407 10408 10409 10410 10411 10412 10413 10414 10415 10416 10417 10418 10419 10420 10421 10422 10423 10424 10425 10426 10427 10428 10429 10430 10431 10432 10433 10434 10435 10436 10437 10438 10439 10440 10441 10442 10443 10444 10445 10446 10447 10448 10449 10450 10451 10452 10453 10454 10455 10456 10457 10458 10459 10460 10461 10462 10463 10464 10465 10466 10467 10468 10469 10470 10471 10472 10473 10474 10475 10476 10477 10478 10479 10480 10481 10482 10483 10484 10485 10486 10487 10488 10489 10490 10491 10492 10493 10494 10495 10496 10497 10498 10499 10500 10501 10502 10503 10504 10505 10506 10507 10508 10509 10510 10511 10512 10513 10514 10515 10516 10517 10518 10519 10520 10521 10522 10523 10524 10525 10526 10527 10528 10529 10530 10531 10532 10533 10534 10535 10536 10537 10538 10539 10540 10541 10542 10543 10544 10545 10546 10547 10548 10549 10550 10551 10552 10553 10554 10555 10556 10557 10558 10559 10560 10561 10562 10563 10564 10565 10566 10567 10568 10569 10570 10571 10572 10573 10574 10575 10576 10577 10578 10579 10580 10581 10582 10583 10584 10585 10586 10587 10588 10589 10590 10591 10592 10593 10594 10595 10596 10597 10598 10599 10600 10601 10602 10603 10604 10605 10606 10607 10608 10609 10610 10611 10612 10613 10614 10615 10616 10617 10618 10619 10620 10621 10622 10623 10624 10625 10626 10627 10628 10629 10630 10631 10632 10633 10634 10635 10636 10637 10638 10639 10640 10641 10642 10643 10644 10645 10646 10647 10648 10649 10650 10651 10652 10653 10654 10655 10656 10657 10658 10659 10660 10661 10662 10663 10664 10665 10666 10667 10668 10669 10670 10671 10672 10673 10674 10675 10676 10677 10678 10679 10680 10681 10682 10683 10684 10685 10686 10687 10688 10689 10690 10691 10692 10693 10694 10695 10696 10697 10698 10699 10700 10701 10702 10703 10704 10705 10706 10707 10708 10709 10710 10711 10712 10713 10714 10715 10716 10717 10718 10719 10720 10721 10722 10723 10724 10725 10726 10727 10728 10729 10730 10731 10732 10733 10734 10735 10736 10737 10738 10739 10740 10741 10742 10743 10744 10745 10746 10747 10748 10749 10750 10751 10752 10753 10754 10755 10756 10757 10758 10759 10760 10761 10762 10763 10764 10765 10766 10767 10768 10769 10770 10771 10772 10773 10774 10775 10776 10777 10778 10779 10780 10781 10782 10783 10784 10785 10786 10787 10788 10789 10790 10791 10792 10793 10794 10795 10796 10797 10798 10799 10800 10801 10802 10803 10804 10805 10806 10807 10808 10809 10810 10811 10812 10813 10814 10815 10816 10817 10818 10819 10820 10821 10822 10823 10824 10825 10826 10827 10828 10829 10830 10831 10832 10833 10834 10835 10836 10837 10838 10839 10840 10841 10842 10843 10844 10845 10846 10847 10848 10849 10850 10851 10852 10853 10854 10855 10856 10857 10858 10859 10860 10861 10862 10863 10864 10865 10866 10867 10868 10869 10870 10871 10872 10873 10874 10875 10876 10877 10878 10879 10880 10881 10882 10883 10884 10885 10886 10887 10888 10889 10890 10891 10892 10893 10894 10895 10896 10897 10898 10899 10900 10901 10902 10903 10904 10905 10906 10907 10908 10909 10910 10911 10912 10913 10914 10915 10916 10917 10918 10919 10920 10921 10922 10923 10924 10925 10926 10927 10928 10929 10930 10931 10932 10933 10934 10935 10936 10937 10938 10939 10940 10941 10942 10943 10944 10945 10946 10947 10948 10949 10950 10951 10952 10953 10954 10955 10956 10957 10958 10959 10960 10961 10962 10963 10964 10965 10966 10967 10968 10969 10970 10971 10972 10973 10974 10975 10976 10977 10978 10979 10980 10981 10982 10983 10984 10985 10986 10987 10988 10989 10990 10991 10992 10993 10994 10995 10996 10997 10998 10999 11000 11001 11002 11003 11004 11005 11006 11007 11008 11009 11010 11011 11012 11013 11014 11015 11016 11017 11018 11019 11020 11021 11022 11023 11024 11025 11026 11027 11028 11029 11030 11031 11032 11033 11034 11035 11036 11037 11038 11039 11040 11041 11042 11043 11044 11045 11046 11047 11048 11049 11050 11051 11052 11053 11054 11055 11056 11057 11058 11059 11060 11061 11062 11063 11064 11065 11066 11067 11068 11069 11070 11071 11072 11073 11074 11075 11076 11077 11078 11079 11080 11081 11082 11083 11084 11085 11086 11087 11088 11089 11090 11091 11092 11093 11094 11095 11096 11097 11098 11099 11100 11101 11102 11103 11104 11105 11106 11107 11108 11109 11110 11111 11112 11113 11114 11115 11116 11117 11118 11119 11120 11121 11122 11123 11124 11125 11126 11127 11128 11129 11130 11131 11132 11133 11134 11135 11136 11137 11138 11139 11140 11141 11142 11143 11144 11145 11146 11147 11148 11149 11150 11151 11152 11153 11154 11155 11156 11157 11158 11159 11160 11161 11162 11163 11164 11165 11166 11167 11168 11169 11170 11171 11172 11173 11174 11175 11176 11177 11178 11179 11180 11181 11182 11183 11184 11185 11186 11187 11188 11189 11190 11191 11192 11193 11194 11195 11196 11197 11198 11199 11200 11201 11202 11203 11204 11205 11206 11207 11208 11209 11210 11211 11212 11213 11214 11215 11216 11217 11218 11219 11220 11221 11222 11223 11224 11225 11226 11227 11228 11229 11230 11231 11232 11233 11234 11235 11236 11237 11238 11239 11240 11241 11242 11243 11244 11245 11246 11247 11248 11249 11250 11251 11252 11253 11254 11255 11256 11257 11258 11259 11260 11261 11262 11263 11264 11265 11266 11267 11268 11269 11270 11271 11272 11273 11274 11275 11276 11277 11278 11279 11280 11281 11282 11283 11284 11285 11286 11287 11288 11289 11290 11291 11292 11293 11294 11295 11296 11297 11298 11299 11300 11301 11302 11303 11304 11305 11306 11307 11308 11309 11310 11311 11312 11313 11314 11315 11316 11317 11318 11319 11320 11321 11322 11323 11324 11325 11326 11327 11328 11329 11330 11331 11332 11333 11334 11335 11336 11337 11338 11339 11340 11341 11342 11343 11344 11345 11346 11347 11348 11349 11350 11351 11352 11353 11354 11355 11356 11357 11358 11359 11360 11361 11362 11363 11364 11365 11366 11367 11368 11369 11370 11371 11372 11373 11374 11375 11376 11377 11378 11379 11380 11381 11382 11383 11384 11385 11386 11387 11388 11389 11390 11391 11392 11393 11394 11395 11396 11397 11398 11399 11400 11401 11402 11403 11404 11405 11406 11407 11408 11409 11410 11411 11412 11413 11414 11415 11416 11417 11418 11419 11420 11421 11422 11423 11424 11425 11426 11427 11428 11429 11430 11431 11432 11433 11434 11435 11436 11437 11438 11439 11440 11441 11442 11443 11444 11445 11446 11447 11448 11449 11450 11451 11452 11453 11454 11455 11456 11457 11458 11459 11460 11461 11462 11463 11464 11465 11466 11467 11468 11469 11470 11471 11472 11473 11474 11475 11476 11477 11478 11479 11480 11481 11482 11483 11484 11485 11486 11487 11488 11489 11490 11491 11492 11493 11494 11495 11496 11497 11498 11499 11500 11501 11502 11503 11504 11505 11506 11507 11508 11509 11510 11511 11512 11513 11514 11515 11516 11517 11518 11519 11520 11521 11522 11523 11524 11525 11526 11527 11528 11529 11530 11531 11532 11533 11534 11535 11536 11537 11538 11539 11540 11541 11542 11543 11544 11545 11546 11547 11548 11549 11550 11551 11552 11553 11554 11555 11556 11557 11558 11559 11560 11561 11562 11563 11564 11565 11566 11567 11568 11569 11570 11571 11572 11573 11574 11575 11576 11577 11578 11579 11580 11581 11582 11583 11584 11585 11586 11587 11588 11589 11590 11591 11592 11593 11594 11595 11596 11597 11598 11599 11600 11601 11602 11603 11604 11605 11606 11607 11608 11609 11610 11611 11612 11613 11614 11615 11616 11617 11618 11619 11620 11621 11622 11623 11624 11625 11626 11627 11628 11629 11630 11631 11632 11633 11634 11635 11636 11637 11638 11639 11640 11641 11642 11643 11644 11645 11646 11647 11648 11649 11650 11651 11652 11653 11654 11655 11656 11657 11658 11659 11660 11661 11662 11663 11664 11665 11666 11667 11668 11669 11670 11671 11672 11673 11674 11675 11676 11677 11678 11679 11680 11681 11682 11683 11684 11685 11686 11687 11688 11689 11690 11691 11692 11693 11694 11695 11696 11697 11698 11699 11700 11701 11702 11703 11704 11705 11706 11707 11708 11709 11710 11711 11712 11713 11714 11715 11716 11717 11718 11719 11720 11721 11722 11723 11724 11725 11726 11727 11728 11729 11730 11731 11732 11733 11734 11735 11736 11737 11738 11739 11740 11741 11742 11743 11744 11745 11746 11747 11748 11749 11750 11751 11752 11753 11754 11755 11756 11757 11758 11759 11760 11761 11762 11763 11764 11765 11766 11767 11768 11769 11770 11771 11772 11773 11774 11775 11776 11777 11778 11779 11780 11781 11782 11783 11784 11785 11786 11787 11788 11789 11790 11791 11792 11793 11794 11795 11796 11797 11798 11799 11800 11801 11802 11803 11804 11805 11806 11807 11808 11809 11810 11811 11812 11813 11814 11815 11816 11817 11818 11819 11820 11821 11822 11823 11824 11825 11826 11827 11828 11829 11830 11831 11832 11833 11834 11835 11836 11837 11838 11839 11840 11841 11842 11843 11844 11845 11846 11847 11848 11849 11850 11851 11852 11853 11854 11855 11856 11857 11858 11859 11860 11861 11862 11863 11864 11865 11866 11867 11868 11869 11870 11871 11872 11873 11874 11875 11876 11877 11878 11879 11880 11881 11882 11883 11884 11885 11886 11887 11888 11889 11890 11891 11892 11893 11894 11895 11896 11897 11898 11899 11900 11901 11902 11903 11904 11905 11906 11907 11908 11909 11910 11911 11912 11913 11914 11915 11916 11917 11918 11919 11920 11921 11922 11923 11924 11925 11926 11927 11928 11929 11930 11931 11932 11933 11934 11935 11936 11937 11938 11939 11940 11941 11942 11943 11944 11945 11946 11947 11948 11949 11950 11951 11952 11953 11954 11955 11956 11957 11958 11959 11960 11961 11962 11963 11964 11965 11966 11967 11968 11969 11970 11971 11972 11973 11974 11975 11976 11977 11978 11979 11980 11981 11982 11983 11984 11985 11986 11987 11988 11989 11990 11991 11992 11993 11994 11995 11996 11997 11998 11999 12000 12001 12002 12003 12004 12005 12006 12007 12008 12009 12010 12011 12012 12013 12014 12015 12016 12017 12018 12019 12020 12021 12022 12023 12024 12025 12026 12027 12028 12029 12030 12031 12032 12033 12034 12035 12036 12037 12038 12039 12040 12041 12042 12043 12044 12045 12046 12047 12048 12049 12050 12051 12052 12053 12054 12055 12056 12057 12058 12059 12060 12061 12062 12063 12064 12065 12066 12067 12068 12069 12070 12071 12072 12073 12074 12075 12076 12077 12078 12079 12080 12081 12082 12083 12084 12085 12086 12087 12088 12089 12090 12091 12092 12093 12094 12095 12096 12097 12098 12099 12100 12101 12102 12103 12104 12105 12106 12107 12108 12109 12110 12111 12112 12113 12114 12115 12116 12117 12118 12119 12120 12121 12122 12123 12124 12125 12126 12127 12128 12129 12130 12131 12132 12133 12134 12135 12136 12137 12138 12139 12140 12141 12142 12143 12144 12145 12146 12147 12148 12149 12150 12151 12152 12153 12154 12155 12156 12157 12158 12159 12160 12161 12162 12163 12164 12165 12166 12167 12168 12169 12170 12171 12172 12173 12174 12175 12176 12177 12178 12179 12180 12181 12182 12183 12184 12185 12186 12187 12188 12189 12190 12191 12192 12193 12194 12195 12196 12197 12198 12199 12200 12201 12202 12203 12204 12205 12206 12207 12208 12209 12210 12211 12212 12213 12214 12215 12216 12217 12218 12219 12220 12221 12222 12223 12224 12225 12226 12227 12228 12229 12230 12231 12232 12233 12234 12235 12236 12237 12238 12239 12240 12241 12242 12243 12244 12245 12246 12247 12248 12249 12250 12251 12252 12253 12254 12255 12256 12257 12258 12259 12260 12261 12262 12263 12264 12265 12266 12267 12268 12269 12270 12271 12272 12273 12274 12275 12276 12277 12278 12279 12280 12281 12282 12283 12284 12285 12286 12287 12288 12289 12290 12291 12292 12293 12294 12295 12296 12297 12298 12299 12300 12301 12302 12303 12304 12305 12306 12307 12308 12309 12310 12311 12312 12313 12314 12315 12316 12317 12318 12319 12320 12321 12322 12323 12324 12325 12326 12327 12328 12329 12330 12331 12332 12333 12334 12335 12336 12337 12338 12339 12340 12341 12342 12343 12344 12345 12346 12347 12348 12349 12350 12351 12352 12353 12354 12355 12356 12357 12358 12359 12360 12361 12362 12363 12364 12365 12366 12367 12368 12369 12370 12371 12372 12373 12374 12375 12376 12377 12378 12379 12380 12381 12382 12383 12384 12385 12386 12387 12388 12389 12390 12391 12392 12393 12394 12395 12396 12397 12398 12399 12400 12401 12402 12403 12404 12405 12406 12407 12408 12409 12410 12411 12412 12413 12414 12415 12416 12417 12418 12419 12420 12421 12422 12423 12424 12425 12426 12427 12428 12429 12430 12431 12432 12433 12434 12435 12436 12437 12438 12439 12440 12441 12442 12443 12444 12445 12446 12447 12448 12449 12450 12451 12452 12453 12454 12455 12456 12457 12458 12459 12460 12461 12462 12463 12464 12465 12466 12467 12468 12469 12470 12471 12472 12473 12474 12475 12476 12477 12478 12479 12480 12481 12482 12483 12484 12485 12486 12487 12488 12489 12490 12491 12492 12493 12494 12495 12496 12497 12498 12499 12500 12501 12502 12503 12504 12505 12506 12507 12508 12509 12510 12511 12512 12513 12514 12515 12516 12517 12518 12519 12520 12521 12522 12523 12524 12525 12526 12527 12528 12529 12530 12531 12532 12533 12534 12535 12536 12537 12538 12539 12540 12541 12542 12543 12544 12545 12546 12547 12548 12549 12550 12551 12552 12553 12554 12555 12556 12557 12558 12559 12560 12561 12562 12563 12564 12565 12566 12567 12568 12569 12570 12571 12572 12573 12574 12575 12576 12577 12578 12579 12580 12581 12582 12583 12584 12585 12586 12587 12588 12589 12590 12591 12592 12593 12594 12595 12596 12597 12598 12599 12600 12601 12602 12603 12604 12605 12606 12607 12608 12609 12610 12611 12612 12613 12614 12615 12616 12617 12618 12619 12620 12621 12622 12623 12624 12625 12626 12627 12628 12629 12630 12631 12632 12633 12634 12635 12636 12637 12638 12639 12640 12641 12642 12643 12644 12645 12646 12647 12648 12649 12650 12651 12652 12653 12654 12655 12656 12657 12658 12659 12660 12661 12662 12663 12664 12665 12666 12667 12668 12669 12670 12671 12672 12673 12674 12675 12676 12677 12678 12679 12680 12681 12682 12683 12684 12685 12686 12687 12688 12689 12690 12691 12692 12693 12694 12695 12696 12697 12698 12699 12700 12701 12702 12703 12704 12705 12706 12707 12708 12709 12710 12711 12712 12713 12714 12715 12716 12717 12718 12719 12720 12721 12722 12723 12724 12725 12726 12727 12728 12729 12730 12731 12732 12733 12734 12735 12736 12737 12738 12739 12740 12741 12742 12743 12744 12745 12746 12747 12748 12749 12750 12751 12752 12753 12754 12755 12756 12757 12758 12759 12760 12761 12762 12763 12764 12765 12766 12767 12768 12769 12770 12771 12772 12773 12774 12775 12776 12777 12778 12779 12780 12781 12782 12783 12784 12785 12786 12787 12788 12789 12790 12791 12792 12793 12794 12795 12796 12797 12798 12799 12800 12801 12802 12803 12804 12805 12806 12807 12808 12809 12810 12811 12812 12813 12814 12815 12816 12817 12818 12819 12820 12821 12822 12823 12824 12825 12826 12827 12828 12829 12830 12831 12832 12833 12834 12835 12836 12837 12838 12839 12840 12841 12842 12843 12844 12845 12846 12847 12848 12849 12850 12851 12852 12853 12854 12855 12856 12857 12858 12859 12860 12861 12862 12863 12864 12865 12866 12867 12868 12869 12870 12871 12872 12873 12874 12875 12876 12877 12878 12879 12880 12881 12882 12883 12884 12885 12886 12887 12888 12889 12890 12891 12892 12893 12894 12895 12896 12897 12898 12899 12900 12901 12902 12903 12904 12905 12906 12907 12908 12909 12910 12911 12912 12913 12914 12915 12916 12917 12918 12919 12920 12921 12922 12923 12924 12925 12926 12927 12928 12929 12930 12931 12932 12933 12934 12935 12936 12937 12938 12939 12940 12941 12942 12943 12944 12945 12946 12947 12948 12949 12950 12951 12952 12953 12954 12955 12956 12957 12958 12959 12960 12961 12962 12963 12964 12965 12966 12967 12968 12969 12970 12971 12972 12973 12974 12975 12976 12977 12978 12979 12980 12981 12982 12983 12984 12985 12986 12987 12988 12989 12990 12991 12992 12993 12994 12995 12996 12997 12998 12999 13000 13001 13002 13003 13004 13005 13006 13007 13008 13009 13010 13011 13012 13013 13014 13015 13016 13017 13018 13019 13020 13021 13022 13023 13024 13025 13026 13027 13028 13029 13030 13031 13032 13033 13034 13035 13036 13037 13038 13039 13040 13041 13042 13043 13044 13045 13046 13047 13048 13049 13050 13051 13052 13053 13054 13055 13056 13057 13058 13059 13060 13061 13062 13063 13064 13065 13066 13067 13068 13069 13070 13071 13072 13073 13074 13075 13076 13077 13078 13079 13080 13081 13082 13083 13084 13085 13086 13087 13088 13089 13090 13091 13092 13093 13094 13095 13096 13097 13098 13099 13100 13101 13102 13103 13104 13105 13106 13107 13108 13109 13110 13111 13112 13113 13114 13115 13116 13117 13118 13119 13120 13121 13122 13123 13124 13125 13126 13127 13128 13129 13130 13131 13132 13133 13134 13135 13136 13137 13138 13139 13140 13141 13142 13143 13144 13145 13146 13147 13148 13149 13150 13151 13152 13153 13154 13155 13156 13157 13158 13159 13160 13161 13162 13163 13164 13165 13166 13167 13168 13169 13170 13171 13172 13173 13174 13175 13176 13177 13178 13179 13180 13181 13182 13183 13184 13185 13186 13187 13188 13189 13190 13191 13192 13193 13194 13195 13196 13197 13198 13199 13200 13201 13202 13203 13204 13205 13206 13207 13208 13209 13210 13211 13212 13213 13214 13215 13216 13217 13218 13219 13220 13221 13222 13223 13224 13225 13226 13227 13228 13229 13230 13231 13232 13233 13234 13235 13236 13237 13238 13239 13240 13241 13242 13243 13244 13245 13246 13247 13248 13249 13250 13251 13252 13253 13254 13255 13256 13257 13258 13259 13260 13261 13262 13263 13264 13265 13266 13267 13268 13269 13270 13271 13272 13273 13274 13275 13276 13277 13278 13279 13280 13281 13282 13283 13284 13285 13286 13287 13288 13289 13290 13291 13292 13293 13294 13295 13296 13297 13298 13299 13300 13301 13302 13303 13304 13305 13306 13307 13308 13309 13310 13311 13312 13313 13314 13315 13316 13317 13318 13319 13320 13321 13322 13323 13324 13325 13326 13327 13328 13329 13330 13331 13332 13333 13334 13335 13336 13337 13338 13339 13340 13341 13342 13343 13344 13345 13346 13347 13348 13349 13350 13351 13352 13353 13354 13355 13356 13357 13358 13359 13360 13361 13362 13363 13364 13365 13366 13367 13368 13369 13370 13371 13372 13373 13374 13375 13376 13377 13378 13379 13380 13381 13382 13383 13384 13385 13386 13387 13388 13389 13390 13391 13392 13393 13394 13395 13396 13397 13398 13399 13400 13401 13402 13403 13404 13405 13406 13407 13408 13409 13410 13411 13412 13413 13414 13415 13416 13417 13418 13419 13420 13421 13422 13423 13424 13425 13426 13427 13428 13429 13430 13431 13432 13433 13434 13435 13436 13437 13438 13439 13440 13441 13442 13443 13444 13445 13446 13447 13448 13449 13450 13451 13452 13453 13454 13455 13456 13457 13458 13459 13460 13461 13462 13463 13464 13465 13466 13467 13468 13469 13470 13471 13472 13473 13474 13475 13476 13477 13478 13479 13480 13481 13482 13483 13484 13485 13486 13487 13488 13489 13490 13491 13492 13493 13494 13495 13496 13497 13498 13499 13500 13501 13502 13503 13504 13505 13506 13507 13508 13509 13510 13511 13512 13513 13514 13515 13516 13517 13518 13519 13520 13521 13522 13523 13524 13525 13526 13527 13528 13529 13530 13531 13532 13533 13534 13535 13536 13537 13538 13539 13540 13541 13542 13543 13544 13545 13546 13547 13548 13549 13550 13551 13552 13553 13554 13555 13556 13557 13558 13559 13560 13561 13562 13563 13564 13565 13566 13567 13568 13569 13570 13571 13572 13573 13574 13575 13576 13577 13578 13579 13580 13581 13582 13583 13584 13585 13586 13587 13588 13589 13590 13591 13592 13593 13594 13595 13596 13597 13598 13599 13600 13601 13602 13603 13604 13605 13606 13607 13608 13609 13610 13611 13612 13613 13614 13615 13616 13617 13618 13619 13620 13621 13622 13623 13624 13625 13626 13627 13628 13629 13630 13631 13632 13633 13634 13635 13636 13637 13638 13639 13640 13641 13642 13643 13644 13645 13646 13647 13648 13649 13650 13651 13652 13653 13654 13655 13656 13657 13658 13659 13660 13661 13662 13663 13664 13665 13666 13667 13668 13669 13670 13671 13672 13673 13674 13675 13676 13677 13678 13679 13680 13681 13682 13683 13684 13685 13686 13687 13688 13689 13690 13691 13692 13693 13694 13695 13696 13697 13698 13699 13700 13701 13702 13703 13704 13705 13706 13707 13708 13709 13710 13711 13712 13713 13714 13715 13716 13717 13718 13719 13720 13721 13722 13723 13724 13725 13726 13727 13728 13729 13730 13731 13732 13733 13734 13735 13736 13737 13738 13739 13740 13741 13742 13743 13744 13745 13746 13747 13748 13749 13750 13751 13752 13753 13754 13755 13756 13757 13758 13759 13760 13761 13762 13763 13764 13765 13766 13767 13768 13769 13770 13771 13772 13773 13774 13775 13776 13777 13778 13779 13780 13781 13782 13783 13784 13785 13786 13787 13788 13789 13790 13791 13792 13793 13794 13795 13796 13797 13798 13799 13800 13801 13802 13803 13804 13805 13806 13807 13808 13809 13810 13811 13812 13813 13814 13815 13816 13817 13818 13819 13820 13821 13822 13823 13824 13825 13826 13827 13828 13829 13830 13831 13832 13833 13834 13835 13836 13837 13838 13839 13840 13841 13842 13843 13844 13845 13846 13847 13848 13849 13850 13851 13852 13853 13854 13855 13856 13857 13858 13859 13860 13861 13862 13863 13864 13865 13866 13867 13868 13869 13870 13871 13872 13873 13874 13875 13876 13877 13878 13879 13880 13881 13882 13883 13884 13885 13886 13887 13888 13889 13890 13891 13892 13893 13894 13895 13896 13897 13898 13899 13900 13901 13902 13903 13904 13905 13906 13907 13908 13909 13910 13911 13912 13913 13914 13915 13916 13917 13918 13919 13920 13921 13922 13923 13924 13925 13926 13927 13928 13929 13930 13931 13932 13933 13934 13935 13936 13937 13938 13939 13940 13941 13942 13943 13944 13945 13946 13947 13948 13949 13950 13951 13952 13953 13954 13955 13956 13957 13958 13959 13960 13961 13962 13963 13964 13965 13966 13967 13968 13969 13970 13971 13972 13973 13974 13975 13976 13977 13978 13979 13980 13981 13982 13983 13984 13985 13986 13987 13988 13989 13990 13991 13992 13993 13994 13995 13996 13997 13998 13999 14000 14001 14002 14003 14004 14005 14006 14007 14008 14009 14010 14011 14012 14013 14014 14015 14016 14017 14018 14019 14020 14021 14022 14023 14024 14025 14026 14027 14028 14029 14030 14031 14032 14033 14034 14035 14036 14037 14038 14039 14040 14041 14042 14043 14044 14045 14046 14047 14048 14049 14050 14051 14052 14053 14054 14055 14056 14057 14058 14059 14060 14061 14062 14063 14064 14065 14066 14067 14068 14069 14070 14071 14072 14073 14074 14075 14076 14077 14078 14079 14080 14081 14082 14083 14084 14085 14086 14087 14088 14089 14090 14091 14092 14093 14094 14095 14096 14097 14098 14099 14100 14101 14102 14103 14104 14105 14106 14107 14108 14109 14110 14111 14112 14113 14114 14115 14116 14117 14118 14119 14120 14121 14122 14123 14124 14125 14126 14127 14128 14129 14130 14131 14132 14133 14134 14135 14136 14137 14138 14139 14140 14141 14142 14143 14144 14145 14146 14147 14148 14149 14150 14151 14152 14153 14154 14155 14156 14157 14158 14159 14160 14161 14162 14163 14164 14165 14166 14167 14168 14169 14170 14171 14172 14173 14174 14175 14176 14177 14178 14179 14180 14181 14182 14183 14184 14185 14186 14187 14188 14189 14190 14191 14192 14193 14194 14195 14196 14197 14198 14199 14200 14201 14202 14203 14204 14205 14206 14207 14208 14209 14210 14211 14212 14213 14214 14215 14216 14217 14218 14219 14220 14221 14222 14223 14224 14225 14226 14227 14228 14229 14230 14231 14232 14233 14234 14235 14236 14237 14238 14239 14240 14241 14242 14243 14244 14245 14246 14247 14248 14249 14250 14251 14252 14253 14254 14255 14256 14257 14258 14259 14260 14261 14262 14263 14264 14265 14266 14267 14268 14269 14270 14271 14272 14273 14274 14275 14276 14277 14278 14279 14280 14281 14282 14283 14284 14285 14286 14287 14288 14289 14290 14291 14292 14293 14294 14295 14296 14297 14298 14299 14300 14301 14302 14303 14304 14305 14306 14307 14308 14309 14310 14311 14312 14313 14314 14315 14316 14317 14318 14319 14320 14321 14322 14323 14324 14325 14326 14327 14328 14329 14330 14331 14332 14333 14334 14335 14336 14337 14338 14339 14340 14341 14342 14343 14344 14345 14346 14347 14348 14349 14350 14351 14352 14353 14354 14355 14356 14357 14358 14359 14360 14361 14362 14363 14364 14365 14366 14367 14368 14369 14370 14371 14372 14373 14374 14375 14376 14377 14378 14379 14380 14381 14382 14383 14384 14385 14386 14387 14388 14389 14390 14391 14392 14393 14394 14395 14396 14397 14398 14399 14400 14401 14402 14403 14404 14405 14406 14407 14408 14409 14410 14411 14412 14413 14414 14415 14416 14417 14418 14419 14420 14421 14422 14423 14424 14425 14426 14427 14428 14429 14430 14431 14432 14433 14434 14435 14436 14437 14438 14439 14440 14441 14442 14443 14444 14445 14446 14447 14448 14449 14450 14451 14452 14453 14454 14455 14456 14457 14458 14459 14460 14461 14462 14463 14464 14465 14466 14467 14468 14469 14470 14471 14472 14473 14474 14475 14476 14477 14478 14479 14480 14481 14482 14483 14484 14485 14486 14487 14488 14489 14490 14491 14492 14493 14494 14495 14496 14497 14498 14499 14500 14501 14502 14503 14504 14505 14506 14507 14508 14509 14510 14511 14512 14513 14514 14515 14516 14517 14518 14519 14520 14521 14522 14523 14524 14525 14526 14527 14528 14529 14530 14531 14532 14533 14534 14535 14536 14537 14538 14539 14540 14541 14542 14543 14544 14545 14546 14547 14548 14549 14550 14551 14552 14553 14554 14555 14556 14557 14558 14559 14560 14561 14562 14563 14564 14565 14566 14567 14568 14569 14570 14571 14572 14573 14574 14575 14576 14577 14578 14579 14580 14581 14582 14583 14584 14585 14586 14587 14588 14589 14590 14591 14592 14593 14594 14595 14596 14597 14598 14599 14600 14601 14602 14603 14604 14605 14606 14607 14608 14609 14610 14611 14612 14613 14614 14615 14616 14617 14618 14619 14620 14621 14622 14623 14624 14625 14626 14627 14628 14629 14630 14631 14632 14633 14634 14635 14636 14637 14638 14639 14640 14641 14642 14643 14644 14645 14646 14647 14648 14649 14650 14651 14652 14653 14654 14655 14656 14657 14658 14659 14660 14661 14662 14663 14664 14665 14666 14667 14668 14669 14670 14671 14672 14673 14674 14675 14676 14677 14678 14679 14680 14681 14682 14683 14684 14685 14686 14687 14688 14689 14690 14691 14692 14693 14694 14695 14696 14697 14698 14699 14700 14701 14702 14703 14704 14705 14706 14707 14708 14709 14710 14711 14712 14713 14714 14715 14716 14717 14718 14719 14720 14721 14722 14723 14724 14725 14726 14727 14728 14729 14730 14731 14732 14733 14734 14735 14736 14737 14738 14739 14740 14741 14742 14743 14744 14745 14746 14747 14748 14749 14750 14751 14752 14753 14754 14755 14756 14757 14758 14759 14760 14761 14762 14763 14764 14765 14766 14767 14768 14769 14770 14771 14772 14773 14774 14775 14776 14777 14778 14779 14780 14781 14782 14783 14784 14785 14786 14787 14788 14789 14790 14791 14792 14793 14794 14795 14796 14797 14798 14799 14800 14801 14802 14803 14804 14805 14806 14807 14808 14809 14810 14811 14812 14813 14814 14815 14816 14817 14818 14819 14820 14821 14822 14823 14824 14825 14826 14827 14828 14829 14830 14831 14832 14833 14834 14835 14836 14837 14838 14839 14840 14841 14842 14843 14844 14845 14846 14847 14848 14849 14850 14851 14852 14853 14854 14855 14856 14857 14858 14859 14860 14861 14862 14863 14864 14865 14866 14867 14868 14869 14870 14871 14872 14873 14874 14875 14876 14877 14878 14879 14880 14881 14882 14883 14884 14885 14886 14887 14888 14889 14890 14891 14892 14893 14894 14895 14896 14897 14898 14899 14900 14901 14902 14903 14904 14905 14906 14907 14908 14909 14910 14911 14912 14913 14914 14915 14916 14917 14918 14919 14920 14921 14922 14923 14924 14925 14926 14927 14928 14929 14930 14931 14932 14933 14934 14935 14936 14937 14938 14939 14940 14941 14942 14943 14944 14945 14946 14947 14948 14949 14950 14951 14952 14953 14954 14955 14956 14957 14958 14959 14960 14961 14962 14963 14964 14965 14966 14967 14968 14969 14970 14971 14972 14973 14974 14975 14976 14977 14978 14979 14980 14981 14982 14983 14984 14985 14986 14987 14988 14989 14990 14991 14992 14993 14994 14995 14996 14997 14998 14999 15000 15001 15002 15003 15004 15005 15006 15007 15008 15009 15010 15011 15012 15013 15014 15015 15016 15017 15018 15019 15020 15021 15022 15023 15024 15025 15026 15027 15028 15029 15030 15031 15032 15033 15034 15035 15036 15037 15038 15039 15040 15041 15042 15043 15044 15045 15046 15047 15048 15049 15050 15051 15052 15053 15054 15055 15056 15057 15058 15059 15060 15061 15062 15063 15064 15065 15066 15067 15068 15069 15070 15071 15072 15073 15074 15075 15076 15077 15078 15079 15080 15081 15082 15083 15084 15085 15086 15087 15088 15089 15090 15091 15092 15093 15094 15095 15096 15097 15098 15099 15100 15101 15102 15103 15104 15105 15106 15107 15108 15109 15110 15111 15112 15113 15114 15115 15116 15117 15118 15119 15120 15121 15122 15123 15124 15125 15126 15127 15128 15129 15130 15131 15132 15133 15134 15135 15136 15137 15138 15139 15140 15141 15142 15143 15144 15145 15146 15147 15148 15149 15150 15151 15152 15153 15154 15155 15156 15157 15158 15159 15160 15161 15162 15163 15164 15165 15166 15167 15168 15169 15170 15171 15172 15173 15174 15175 15176 15177 15178 15179 15180 15181 15182 15183 15184 15185 15186 15187 15188 15189 15190 15191 15192 15193 15194 15195 15196 15197 15198 15199 15200 15201 15202 15203 15204 15205 15206 15207 15208 15209 15210 15211 15212 15213 15214 15215 15216 15217 15218 15219 15220 15221 15222 15223 15224 15225 15226 15227 15228 15229 15230 15231 15232 15233 15234 15235 15236 15237 15238 15239 15240 15241 15242 15243 15244 15245 15246 15247 15248 15249 15250 15251 15252 15253 15254 15255 15256 15257 15258 15259 15260 15261 15262 15263 15264 15265 15266 15267 15268 15269 15270 15271 15272 15273 15274 15275 15276 15277 15278 15279 15280 15281 15282 15283 15284 15285 15286 15287 15288 15289 15290 15291 15292 15293 15294 15295 15296 15297 15298 15299 15300 15301 15302 15303 15304 15305 15306 15307 15308 15309 15310 15311 15312 15313 15314 15315 15316 15317 15318 15319 15320 15321 15322 15323 15324 15325 15326 15327 15328 15329 15330 15331 15332 15333 15334 15335 15336 15337 15338 15339 15340 15341 15342 15343 15344 15345 15346 15347 15348 15349 15350 15351 15352 15353 15354 15355 15356 15357 15358 15359 15360 15361 15362 15363 15364 15365 15366 15367 15368 15369 15370 15371 15372 15373 15374 15375 15376 15377 15378 15379 15380 15381 15382 15383 15384 15385 15386 15387 15388 15389 15390 15391 15392 15393 15394 15395 15396 15397 15398 15399 15400 15401 15402 15403 15404 15405 15406 15407 15408 15409 15410 15411 15412 15413 15414 15415 15416 15417 15418 15419 15420 15421 15422 15423 15424 15425 15426 15427 15428 15429 15430 15431 15432 15433 15434 15435 15436 15437 15438 15439 15440 15441 15442 15443 15444 15445 15446 15447 15448 15449 15450 15451 15452 15453 15454 15455 15456 15457 15458 15459 15460 15461 15462 15463 15464 15465 15466 15467 15468 15469 15470 15471 15472 15473 15474 15475 15476 15477 15478 15479 15480 15481 15482 15483 15484 15485 15486 15487 15488 15489 15490 15491 15492 15493 15494 15495 15496 15497 15498 15499 15500 15501 15502 15503 15504 15505 15506 15507 15508 15509 15510 15511 15512 15513 15514 15515 15516 15517 15518 15519 15520 15521 15522 15523 15524 15525 15526 15527 15528 15529 15530 15531 15532 15533 15534 15535 15536 15537 15538 15539 15540 15541 15542 15543 15544 15545 15546 15547 15548 15549 15550 15551 15552 15553 15554 15555 15556 15557 15558 15559 15560 15561 15562 15563 15564 15565 15566 15567 15568 15569 15570 15571 15572 15573 15574 15575 15576 15577 15578 15579 15580 15581 15582 15583 15584 15585 15586 15587 15588 15589 15590 15591 15592 15593 15594 15595 15596 15597 15598 15599 15600 15601 15602 15603 15604 15605 15606 15607 15608 15609 15610 15611 15612 15613 15614 15615 15616 15617 15618 15619 15620 15621 15622 15623 15624 15625 15626 15627 15628 15629 15630 15631 15632 15633 15634 15635 15636 15637 15638 15639 15640 15641 15642 15643 15644 15645 15646 15647 15648 15649 15650 15651 15652 15653 15654 15655 15656 15657 15658 15659 15660 15661 15662 15663 15664 15665 15666 15667 15668 15669 15670 15671 15672 15673 15674 15675 15676 15677 15678 15679 15680 15681 15682 15683 15684 15685 15686 15687 15688 15689 15690 15691 15692 15693 15694 15695 15696 15697 15698 15699 15700 15701 15702 15703 15704 15705 15706 15707 15708 15709 15710 15711 15712 15713 15714 15715 15716 15717 15718 15719 15720 15721 15722 15723 15724 15725 15726 15727 15728 15729 15730 15731 15732 15733 15734 15735 15736 15737 15738 15739 15740 15741 15742 15743 15744 15745 15746 15747 15748 15749 15750 15751 15752 15753 15754 15755 15756 15757 15758 15759 15760 15761 15762 15763 15764 15765 15766 15767 15768 15769 15770 15771 15772 15773 15774 15775 15776 15777 15778 15779 15780 15781 15782 15783 15784 15785 15786 15787 15788 15789 15790 15791 15792 15793 15794 15795 15796 15797 15798 15799 15800 15801 15802 15803 15804 15805 15806 15807 15808 15809 15810 15811 15812 15813 15814 15815 15816 15817 15818 15819 15820 15821 15822 15823 15824 15825 15826 15827 15828 15829 15830 15831 15832 15833 15834 15835 15836 15837 15838 15839 15840 15841 15842 15843 15844 15845 15846 15847 15848 15849 15850 15851 15852 15853 15854 15855 15856 15857 15858 15859 15860 15861 15862 15863 15864 15865 15866 15867 15868 15869 15870 15871 15872 15873 15874 15875 15876 15877 15878 15879 15880 15881 15882 15883 15884 15885 15886 15887 15888 15889 15890 15891 15892 15893 15894 15895 15896 15897 15898 15899 15900 15901 15902 15903 15904 15905 15906 15907 15908 15909 15910 15911 15912 15913 15914 15915 15916 15917 15918 15919 15920 15921 15922 15923 15924 15925 15926 15927 15928 15929 15930 15931 15932 15933 15934 15935 15936 15937 15938 15939 15940 15941 15942 15943 15944 15945 15946 15947 15948 15949 15950 15951 15952 15953 15954 15955 15956 15957 15958 15959 15960 15961 15962 15963 15964 15965 15966 15967 15968 15969 15970 15971 15972 15973 15974 15975 15976 15977 15978 15979 15980 15981 15982 15983 15984 15985 15986 15987 15988 15989 15990 15991 15992 15993 15994 15995 15996 15997 15998 15999 16000 16001 16002 16003 16004 16005 16006 16007 16008 16009 16010 16011 16012 16013 16014 16015 16016 16017 16018 16019 16020 16021 16022 16023 16024 16025 16026 16027 16028 16029 16030 16031 16032 16033 16034 16035 16036 16037 16038 16039 16040 16041 16042 16043 16044 16045 16046 16047 16048 16049 16050 16051 16052 16053 16054 16055 16056 16057 16058 16059 16060 16061 16062 16063 16064 16065 16066 16067 16068 16069 16070 16071 16072 16073 16074 16075 16076 16077 16078 16079 16080 16081 16082 16083 16084 16085 16086 16087 16088 16089 16090 16091 16092 16093 16094 16095 16096 16097 16098 16099 16100 16101 16102 16103 16104 16105 16106 16107 16108 16109 16110 16111 16112 16113 16114 16115 16116 16117 16118 16119 16120 16121 16122 16123 16124 16125 16126 16127 16128 16129 16130 16131 16132 16133 16134 16135 16136 16137 16138 16139 16140 16141 16142 16143 16144 16145 16146 16147 16148 16149 16150 16151 16152 16153 16154 16155 16156 16157 16158 16159 16160 16161 16162 16163 16164 16165 16166 16167 16168 16169 16170 16171 16172 16173 16174 16175 16176 16177 16178 16179 16180 16181 16182 16183 16184 16185 16186 16187 16188 16189 16190 16191 16192 16193 16194 16195 16196 16197 16198 16199 16200 16201 16202 16203 16204 16205 16206 16207 16208 16209 16210 16211 16212 16213 16214 16215 16216 16217 16218 16219 16220 16221 16222 16223 16224 16225 16226 16227 16228 16229 16230 16231 16232 16233 16234 16235 16236 16237 16238 16239 16240 16241 16242 16243 16244 16245 16246 16247 16248 16249 16250 16251 16252 16253 16254 16255 16256 16257 16258 16259 16260 16261 16262 16263 16264 16265 16266 16267 16268 16269 16270 16271 16272 16273 16274 16275 16276 16277 16278 16279 16280 16281 16282 16283 16284 16285 16286 16287 16288 16289 16290 16291 16292 16293 16294 16295 16296 16297 16298 16299 16300 16301 16302 16303 16304 16305 16306 16307 16308 16309 16310 16311 16312 16313 16314 16315 16316 16317 16318 16319 16320 16321 16322 16323 16324 16325 16326 16327 16328 16329 16330 16331 16332 16333 16334 16335 16336 16337 16338 16339 16340 16341 16342 16343 16344 16345 16346 16347 16348 16349 16350 16351 16352 16353 16354 16355 16356 16357 16358 16359 16360 16361 16362 16363 16364 16365 16366 16367 16368 16369 16370 16371 16372 16373 16374 16375 16376 16377 16378 16379 16380 16381 16382 16383 16384 16385 16386 16387 16388 16389 16390 16391 16392 16393 16394 16395 16396 16397 16398 16399 16400 16401 16402 16403 16404 16405 16406 16407 16408 16409 16410 16411 16412 16413 16414 16415 16416 16417 16418 16419 16420 16421 16422 16423 16424 16425 16426 16427 16428 16429 16430 16431 16432 16433 16434 16435 16436 16437 16438 16439 16440 16441 16442 16443 16444 16445 16446 16447 16448 16449 16450 16451 16452 16453 16454 16455 16456 16457 16458 16459 16460 16461 16462 16463 16464 16465 16466 16467 16468 16469 16470 16471 16472 16473 16474 16475 16476 16477 16478 16479 16480 16481 16482 16483 16484 16485 16486 16487 16488 16489 16490 16491 16492 16493 16494 16495 16496 16497 16498 16499 16500 16501 16502 16503 16504 16505 16506 16507 16508 16509 16510 16511 16512 16513 16514 16515 16516 16517 16518 16519 16520 16521 16522 16523 16524 16525 16526 16527 16528 16529 16530 16531 16532 16533 16534 16535 16536 16537 16538 16539 16540 16541 16542 16543 16544 16545 16546 16547 16548 16549 16550 16551 16552 16553 16554 16555 16556 16557 16558 16559 16560 16561 16562 16563 16564 16565 16566 16567 16568 16569 16570 16571 16572 16573 16574 16575 16576 16577 16578 16579 16580 16581 16582 16583 16584 16585 16586 16587 16588 16589 16590 16591 16592 16593 16594 16595 16596 16597 16598 16599 16600 16601 16602 16603 16604 16605 16606 16607 16608 16609 16610 16611 16612 16613 16614 16615 16616 16617 16618 16619 16620 16621 16622 16623 16624 16625 16626 16627 16628 16629 16630 16631 16632 16633 16634 16635 16636 16637 16638 16639 16640 16641 16642 16643 16644 16645 16646 16647 16648 16649 16650 16651 16652 16653 16654 16655 16656 16657 16658 16659 16660 16661 16662 16663 16664 16665 16666 16667 16668 16669 16670 16671 16672 16673 16674 16675 16676 16677 16678 16679 16680 16681 16682 16683 16684 16685 16686 16687 16688 16689 16690 16691 16692 16693 16694 16695 16696 16697 16698 16699 16700 16701 16702 16703 16704 16705 16706 16707 16708 16709 16710 16711 16712 16713 16714 16715 16716 16717 16718 16719 16720 16721 16722 16723 16724 16725 16726 16727 16728 16729 16730 16731 16732 16733 16734 16735 16736 16737 16738 16739 16740 16741 16742 16743 16744 16745 16746 16747 16748 16749 16750 16751 16752 16753 16754 16755 16756 16757 16758 16759 16760 16761 16762 16763 16764 16765 16766 16767 16768 16769 16770 16771 16772 16773 16774 16775 16776 16777 16778 16779 16780 16781 16782 16783 16784 16785 16786 16787 16788 16789 16790 16791 16792 16793 16794 16795 16796 16797 16798 16799 16800 16801 16802 16803 16804 16805 16806 16807 16808 16809 16810 16811 16812 16813 16814 16815 16816 16817 16818 16819 16820 16821 16822 16823 16824 16825 16826 16827 16828 16829 16830 16831 16832 16833 16834 16835 16836 16837 16838 16839 16840 16841 16842 16843 16844 16845 16846 16847 16848 16849 16850 16851 16852 16853 16854 16855 16856 16857 16858 16859 16860 16861 16862 16863 16864 16865 16866 16867 16868 16869 16870 16871 16872 16873 16874 16875 16876 16877 16878 16879 16880 16881 16882 16883 16884 16885 16886 16887 16888 16889 16890 16891 16892 16893 16894 16895 16896 16897 16898 16899 16900 16901 16902 16903 16904 16905 16906 16907 16908 16909 16910 16911 16912 16913 16914 16915 16916 16917 16918 16919 16920 16921 16922 16923 16924 16925 16926 16927 16928 16929 16930 16931 16932 16933 16934 16935 16936 16937 16938 16939 16940 16941 16942 16943 16944 16945 16946 16947 16948 16949 16950 16951 16952 16953 16954 16955 16956 16957 16958 16959 16960 16961 16962 16963 16964 16965 16966 16967 16968 16969 16970 16971 16972 16973 16974 16975 16976 16977 16978 16979 16980 16981 16982 16983 16984 16985 16986 16987 16988 16989 16990 16991 16992 16993 16994 16995 16996 16997 16998 16999 17000 17001 17002 17003 17004 17005 17006 17007 17008 17009 17010 17011 17012 17013 17014 17015 17016 17017 17018 17019 17020 17021 17022 17023 17024 17025 17026 17027 17028 17029 17030 17031 17032 17033 17034 17035 17036 17037 17038 17039 17040 17041 17042 17043 17044 17045 17046 17047 17048 17049 17050 17051 17052 17053 17054 17055 17056 17057 17058 17059 17060 17061 17062 17063 17064 17065 17066 17067 17068 17069 17070 17071 17072 17073 17074 17075 17076 17077 17078 17079 17080 17081 17082 17083 17084 17085 17086 17087 17088 17089 17090 17091 17092 17093 17094 17095 17096 17097 17098 17099 17100 17101 17102 17103 17104 17105 17106 17107 17108 17109 17110 17111 17112 17113 17114 17115 17116 17117 17118 17119 17120 17121 17122 17123 17124 17125 17126 17127 17128 17129 17130 17131 17132 17133 17134 17135 17136 17137 17138 17139 17140 17141 17142 17143 17144 17145 17146 17147 17148 17149 17150 17151 17152 17153 17154 17155 17156 17157 17158 17159 17160 17161 17162 17163 17164 17165 17166 17167 17168 17169 17170 17171 17172 17173 17174 17175 17176 17177 17178 17179 17180 17181 17182 17183 17184 17185 17186 17187 17188 17189 17190 17191 17192 17193 17194 17195 17196 17197 17198 17199 17200 17201 17202 17203 17204 17205 17206 17207 17208 17209 17210 17211 17212 17213 17214 17215 17216 17217 17218 17219 17220 17221 17222 17223 17224 17225 17226 17227 17228 17229 17230 17231 17232 17233 17234 17235 17236 17237 17238 17239 17240 17241 17242 17243 17244 17245 17246 17247 17248 17249 17250 17251 17252 17253 17254 17255 17256 17257 17258 17259 17260 17261 17262 17263 17264 17265 17266 17267 17268 17269 17270 17271 17272 17273 17274 17275 17276 17277 17278 17279 17280 17281 17282 17283 17284 17285 17286 17287 17288 17289 17290 17291 17292 17293 17294 17295 17296 17297 17298 17299 17300 17301 17302 17303 17304 17305 17306 17307 17308 17309 17310 17311 17312 17313 17314 17315 17316 17317 17318 17319 17320 17321 17322 17323 17324 17325 17326 17327 17328 17329 17330 17331 17332 17333 17334 17335 17336 17337 17338 17339 17340 17341 17342 17343 17344 17345 17346 17347 17348 17349 17350 17351 17352 17353 17354 17355 17356 17357 17358 17359 17360 17361 17362 17363 17364 17365 17366 17367 17368 17369 17370 17371 17372 17373 17374 17375 17376 17377 17378 17379 17380 17381 17382 17383 17384 17385 17386 17387 17388 17389 17390 17391 17392 17393 17394 17395 17396 17397 17398 17399 17400 17401 17402 17403 17404 17405 17406 17407 17408 17409 17410 17411 17412 17413 17414 17415 17416 17417 17418 17419 17420 17421 17422 17423 17424 17425 17426 17427 17428 17429 17430 17431 17432 17433 17434 17435 17436 17437 17438 17439 17440 17441 17442 17443 17444 17445 17446 17447 17448 17449 17450 17451 17452 17453 17454 17455 17456 17457 17458 17459 17460 17461 17462 17463 17464 17465 17466 17467 17468 17469 17470 17471 17472 17473 17474 17475 17476 17477 17478 17479 17480 17481 17482 17483 17484 17485 17486 17487 17488 17489 17490 17491 17492 17493 17494 17495 17496 17497 17498 17499 17500 17501 17502 17503 17504 17505 17506 17507 17508 17509 17510 17511 17512 17513 17514 17515 17516 17517 17518 17519 17520 17521 17522 17523 17524 17525 17526 17527 17528 17529 17530 17531 17532 17533 17534 17535 17536 17537 17538 17539 17540 17541 17542 17543 17544 17545 17546 17547 17548 17549 17550 17551 17552 17553 17554 17555 17556 17557 17558 17559 17560 17561 17562 17563 17564 17565 17566 17567 17568 17569 17570 17571 17572 17573 17574 17575 17576 17577 17578 17579 17580 17581 17582 17583 17584 17585 17586 17587 17588 17589 17590 17591 17592 17593 17594 17595 17596 17597 17598 17599 17600 17601 17602 17603 17604 17605 17606 17607 17608 17609 17610 17611 17612 17613 17614 17615 17616 17617 17618 17619 17620 17621 17622 17623 17624 17625 17626 17627 17628 17629 17630 17631 17632 17633 17634 17635 17636 17637 17638 17639 17640 17641 17642 17643 17644 17645 17646 17647 17648 17649 17650 17651 17652 17653 17654 17655 17656 17657 17658 17659 17660 17661 17662 17663 17664 17665 17666 17667 17668 17669 17670 17671 17672 17673 17674 17675 17676 17677 17678 17679 17680 17681 17682 17683 17684 17685 17686 17687 17688 17689 17690 17691 17692 17693 17694 17695 17696 17697 17698 17699 17700 17701 17702 17703 17704 17705 17706 17707 17708 17709 17710 17711 17712 17713 17714 17715 17716 17717 17718 17719 17720 17721 17722 17723 17724 17725 17726 17727 17728 17729 17730 17731 17732 17733 17734 17735 17736 17737 17738 17739 17740 17741 17742 17743 17744 17745 17746 17747 17748 17749 17750 17751 17752 17753 17754 17755 17756 17757 17758 17759 17760 17761 17762 17763 17764 17765 17766 17767 17768 17769 17770 17771 17772 17773 17774 17775 17776 17777 17778 17779 17780 17781 17782 17783 17784 17785 17786 17787 17788 17789 17790 17791 17792 17793 17794 17795 17796 17797 17798 17799 17800 17801 17802 17803 17804 17805 17806 17807 17808 17809 17810 17811 17812 17813 17814 17815 17816 17817 17818 17819 17820 17821 17822 17823 17824 17825 17826 17827 17828 17829 17830 17831 17832 17833 17834 17835 17836 17837 17838 17839 17840 17841 17842 17843 17844 17845 17846 17847 17848 17849 17850 17851 17852 17853 17854 17855 17856 17857 17858 17859 17860 17861 17862 17863 17864 17865 17866 17867 17868 17869 17870 17871 17872 17873 17874 17875 17876 17877 17878 17879 17880 17881 17882 17883 17884 17885 17886 17887 17888 17889 17890 17891 17892 17893 17894 17895 17896 17897 17898 17899 17900 17901 17902 17903 17904 17905 17906 17907 17908 17909 17910 17911 17912 17913 17914 17915 17916 17917 17918 17919 17920 17921 17922 17923 17924 17925 17926 17927 17928 17929 17930 17931 17932 17933 17934 17935 17936 17937 17938 17939 17940 17941 17942 17943 17944 17945 17946 17947 17948 17949 17950 17951 17952 17953 17954 17955 17956 17957 17958 17959 17960 17961 17962 17963 17964 17965 17966 17967 17968 17969 17970 17971 17972 17973 17974 17975 17976 17977 17978 17979 17980 17981 17982 17983 17984 17985 17986 17987 17988 17989 17990 17991 17992 17993 17994 17995 17996 17997 17998 17999 18000 18001 18002 18003 18004 18005 18006 18007 18008 18009 18010 18011 18012 18013 18014 18015 18016 18017 18018 18019 18020 18021 18022 18023 18024 18025 18026 18027 18028 18029 18030 18031 18032 18033 18034 18035 18036 18037 18038 18039 18040 18041 18042 18043 18044 18045 18046 18047 18048 18049 18050 18051 18052 18053 18054 18055 18056 18057 18058 18059 18060 18061 18062 18063 18064 18065 18066 18067 18068 18069 18070 18071 18072 18073 18074 18075 18076 18077 18078 18079 18080 18081 18082 18083 18084 18085 18086 18087 18088 18089 18090 18091 18092 18093 18094 18095 18096 18097 18098 18099 18100 18101 18102 18103 18104 18105 18106 18107 18108 18109 18110 18111 18112 18113 18114 18115 18116 18117 18118 18119 18120 18121 18122 18123 18124 18125 18126 18127 18128 18129 18130 18131 18132 18133 18134 18135 18136 18137 18138 18139 18140 18141 18142 18143 18144 18145 18146 18147 18148 18149 18150 18151 18152 18153 18154 18155 18156 18157 18158 18159 18160 18161 18162 18163 18164 18165 18166 18167 18168 18169 18170 18171 18172 18173 18174 18175 18176 18177 18178 18179 18180 18181 18182 18183 18184 18185 18186 18187 18188 18189 18190 18191 18192 18193 18194 18195 18196 18197 18198 18199 18200 18201 18202 18203 18204 18205 18206 18207 18208 18209 18210 18211 18212 18213 18214 18215 18216 18217 18218 18219 18220 18221 18222 18223 18224 18225 18226 18227 18228 18229 18230 18231 18232 18233 18234 18235 18236 18237 18238 18239 18240 18241 18242 18243 18244 18245 18246 18247 18248 18249 18250 18251 18252 18253 18254 18255 18256 18257 18258 18259 18260 18261 18262 18263 18264 18265 18266 18267 18268 18269 18270 18271 18272 18273 18274 18275 18276 18277 18278 18279 18280 18281 18282 18283 18284 18285 18286 18287 18288 18289 18290 18291 18292 18293 18294 18295 18296 18297 18298 18299 18300 18301 18302 18303 18304 18305 18306 18307 18308 18309 18310 18311 18312 18313 18314 18315 18316 18317 18318 18319 18320 18321 18322 18323 18324 18325 18326 18327 18328 18329 18330 18331 18332 18333 18334 18335 18336 18337 18338 18339 18340 18341 18342 18343 18344 18345 18346 18347 18348 18349 18350 18351 18352 18353 18354 18355 18356 18357 18358 18359 18360 18361 18362 18363 18364 18365 18366 18367 18368 18369 18370 18371 18372 18373 18374 18375 18376 18377 18378 18379 18380 18381 18382 18383 18384 18385 18386 18387 18388 18389 18390 18391 18392 18393 18394 18395 18396 18397 18398 18399 18400 18401 18402 18403 18404 18405 18406 18407 18408 18409 18410 18411 18412 18413 18414 18415 18416 18417 18418 18419 18420 18421 18422 18423 18424 18425 18426 18427 18428 18429 18430 18431 18432 18433 18434 18435 18436 18437 18438 18439 18440 18441 18442 18443 18444 18445 18446 18447 18448 18449 18450 18451 18452 18453 18454 18455 18456 18457 18458 18459 18460 18461 18462 18463 18464 18465 18466 18467 18468 18469 18470 18471 18472 18473 18474 18475 18476 18477 18478 18479 18480 18481 18482 18483 18484 18485 18486 18487 18488 18489 18490 18491 18492 18493 18494 18495 18496 18497 18498 18499 18500 18501 18502 18503 18504 18505 18506 18507 18508 18509 18510 18511 18512 18513 18514 18515 18516 18517 18518 18519 18520 18521 18522 18523 18524 18525 18526 18527 18528 18529 18530 18531 18532 18533 18534 18535 18536 18537 18538 18539 18540 18541 18542 18543 18544 18545 18546 18547 18548 18549 18550 18551 18552 18553 18554 18555 18556 18557 18558 18559 18560 18561 18562 18563 18564 18565 18566 18567 18568 18569 18570 18571 18572 18573 18574 18575 18576 18577 18578 18579 18580 18581 18582 18583 18584 18585 18586 18587 18588 18589 18590 18591 18592 18593 18594 18595 18596 18597 18598 18599 18600 18601 18602 18603 18604 18605 18606 18607 18608 18609 18610 18611 18612 18613 18614 18615 18616 18617 18618 18619 18620 18621 18622 18623 18624 18625 18626 18627 18628 18629 18630 18631 18632 18633 18634 18635 18636 18637 18638 18639 18640 18641 18642 18643 18644 18645 18646 18647 18648 18649 18650 18651 18652 18653 18654 18655 18656 18657 18658 18659 18660 18661 18662 18663 18664 18665 18666 18667 18668 18669 18670 18671 18672 18673 18674 18675 18676 18677 18678 18679 18680 18681 18682 18683 18684 18685 18686 18687 18688 18689 18690 18691 18692 18693 18694 18695 18696 18697 18698 18699 18700 18701 18702 18703 18704 18705 18706 18707 18708 18709 18710 18711 18712 18713 18714 18715 18716 18717 18718 18719 18720 18721 18722 18723 18724 18725 18726 18727 18728 18729 18730 18731 18732 18733 18734 18735 18736 18737 18738 18739 18740 18741 18742 18743 18744 18745 18746 18747 18748 18749 18750 18751 18752 18753 18754 18755 18756 18757 18758 18759 18760 18761 18762 18763 18764 18765 18766 18767 18768 18769 18770 18771 18772 18773 18774 18775 18776 18777 18778 18779 18780 18781 18782 18783 18784 18785 18786 18787 18788 18789 18790 18791 18792 18793 18794 18795 18796 18797 18798 18799 18800 18801 18802 18803 18804 18805 18806 18807 18808 18809 18810 18811 18812 18813 18814 18815 18816 18817 18818 18819 18820 18821 18822 18823 18824 18825 18826 18827 18828 18829 18830 18831 18832 18833 18834 18835 18836 18837 18838 18839 18840 18841 18842 18843 18844 18845 18846 18847 18848 18849 18850 18851 18852 18853 18854 18855 18856 18857 18858 18859 18860 18861 18862 18863 18864 18865 18866 18867 18868 18869 18870 18871 18872 18873 18874 18875 18876 18877 18878 18879 18880 18881 18882 18883 18884 18885 18886 18887 18888 18889 18890 18891 18892 18893 18894 18895 18896 18897 18898 18899 18900 18901 18902 18903 18904 18905 18906 18907 18908 18909 18910 18911 18912 18913 18914 18915 18916 18917 18918 18919 18920 18921 18922 18923 18924 18925 18926 18927 18928 18929 18930 18931 18932 18933 18934 18935 18936 18937 18938 18939 18940 18941 18942 18943 18944 18945 18946 18947 18948 18949 18950 18951 18952 18953 18954 18955 18956 18957 18958 18959 18960 18961 18962 18963 18964 18965 18966 18967 18968 18969 18970 18971 18972 18973 18974 18975 18976 18977 18978 18979 18980 18981 18982 18983 18984 18985 18986 18987 18988 18989 18990 18991 18992 18993 18994 18995 18996 18997 18998 18999 19000 19001 19002 19003 19004 19005 19006 19007 19008 19009 19010 19011 19012 19013 19014 19015 19016 19017 19018 19019 19020 19021 19022 19023 19024 19025 19026 19027 19028 19029 19030 19031 19032 19033 19034 19035 19036 19037 19038 19039 19040 19041 19042 19043 19044 19045 19046 19047 19048 19049 19050 19051 19052 19053 19054 19055 19056 19057 19058 19059 19060 19061 19062 19063 19064 19065 19066 19067 19068 19069 19070 19071 19072 19073 19074 19075 19076 19077 19078 19079 19080 19081 19082 19083 19084 19085 19086 19087 19088 19089 19090 19091 19092 19093 19094 19095 19096 19097 19098 19099 19100 19101 19102 19103 19104 19105 19106 19107 19108 19109 19110 19111 19112 19113 19114 19115 19116 19117 19118 19119 19120 19121 19122 19123 19124 19125 19126 19127 19128 19129 19130 19131 19132 19133 19134 19135 19136 19137 19138 19139 19140 19141 19142 19143 19144 19145 19146 19147 19148 19149 19150 19151 19152 19153 19154 19155 19156 19157 19158 19159 19160 19161 19162 19163 19164 19165 19166 19167 19168 19169 19170 19171 19172 19173 19174 19175 19176 19177 19178 19179 19180 19181 19182 19183 19184 19185 19186 19187 19188 19189 19190 19191 19192 19193 19194 19195 19196 19197 19198 19199 19200 19201 19202 19203 19204 19205 19206 19207 19208 19209 19210 19211 19212 19213 19214 19215 19216 19217 19218 19219 19220 19221 19222 19223 19224 19225 19226 19227 19228 19229 19230 19231 19232 19233 19234 19235 19236 19237 19238 19239 19240 19241 19242 19243 19244 19245 19246 19247 19248 19249 19250 19251 19252 19253 19254 19255 19256 19257 19258 19259 19260 19261 19262 19263 19264 19265 19266 19267 19268 19269 19270 19271 19272 19273 19274 19275 19276 19277 19278 19279 19280 19281 19282 19283 19284 19285 19286 19287 19288 19289 19290 19291 19292 19293 19294 19295 19296 19297 19298 19299 19300 19301 19302 19303 19304 19305 19306 19307 19308 19309 19310 19311 19312 19313 19314 19315 19316 19317 19318 19319 19320 19321 19322 19323 19324 19325 19326 19327 19328 19329 19330 19331 19332 19333 19334 19335 19336 19337 19338 19339 19340 19341 19342 19343 19344 19345 19346 19347 19348 19349 19350 19351 19352 19353 19354 19355 19356 19357 19358 19359 19360 19361 19362 19363 19364 19365 19366 19367 19368 19369 19370 19371 19372 19373 19374 19375 19376 19377 19378 19379 19380 19381 19382 19383 19384 19385 19386 19387 19388 19389 19390 19391 19392 19393 19394 19395 19396 19397 19398 19399 19400 19401 19402 19403 19404 19405 19406 19407 19408 19409 19410 19411 19412 19413 19414 19415 19416 19417 19418 19419 19420 19421 19422 19423 19424 19425 19426 19427 19428 19429 19430 19431 19432 19433 19434 19435 19436 19437 19438 19439 19440 19441 19442 19443 19444 19445 19446 19447 19448 19449 19450 19451 19452 19453 19454 19455 19456 19457 19458 19459 19460 19461 19462 19463 19464 19465 19466 19467 19468 19469 19470 19471 19472 19473 19474 19475 19476 19477 19478 19479 19480 19481 19482 19483 19484 19485 19486 19487 19488 19489 19490 19491 19492 19493 19494 19495 19496 19497 19498 19499 19500 19501 19502 19503 19504 19505 19506 19507 19508 19509 19510 19511 19512 19513 19514 19515 19516 19517 19518 19519 19520 19521 19522 19523 19524 19525 19526 19527 19528 19529 19530 19531 19532 19533 19534 19535 19536 19537 19538 19539 19540 19541 19542 19543 19544 19545 19546 19547 19548 19549 19550 19551 19552 19553 19554 19555 19556 19557 19558 19559 19560 19561 19562 19563 19564 19565 19566 19567 19568 19569 19570 19571 19572 19573 19574 19575 19576 19577 19578 19579 19580 19581 19582 19583 19584 19585 19586 19587 19588 19589 19590 19591 19592 19593 19594 19595 19596 19597 19598 19599 19600 19601 19602 19603 19604 19605 19606 19607 19608 19609 19610 19611 19612 19613 19614 19615 19616 19617 19618 19619 19620 19621 19622 19623 19624 19625 19626 19627 19628 19629 19630 19631 19632 19633 19634 19635 19636 19637 19638 19639 19640 19641 19642 19643 19644 19645 19646 19647 19648 19649 19650 19651 19652 19653 19654 19655 19656 19657 19658 19659 19660 19661 19662 19663 19664 19665 19666 19667 19668 19669 19670 19671 19672 19673 19674 19675 19676 19677 19678 19679 19680 19681 19682 19683 19684 19685 19686 19687 19688 19689 19690 19691 19692 19693 19694 19695 19696 19697 19698 19699 19700 19701 19702 19703 19704 19705 19706 19707 19708 19709 19710 19711 19712 19713 19714 19715 19716 19717 19718 19719 19720 19721 19722 19723 19724 19725 19726 19727 19728 19729 19730 19731 19732 19733 19734 19735 19736 19737 19738 19739 19740 19741 19742 19743 19744 19745 19746 19747 19748 19749 19750 19751 19752 19753 19754 19755 19756 19757 19758 19759 19760 19761 19762 19763 19764 19765 19766 19767 19768 19769 19770 19771 19772 19773 19774 19775 19776 19777 19778 19779 19780 19781 19782 19783 19784 19785 19786 19787 19788 19789 19790 19791 19792 19793 19794 19795 19796 19797 19798 19799 19800 19801 19802 19803 19804 19805 19806 19807 19808 19809 19810 19811 19812 19813 19814 19815 19816 19817 19818 19819 19820 19821 19822 19823 19824 19825 19826 19827 19828 19829 19830 19831 19832 19833 19834 19835 19836 19837 19838 19839 19840 19841 19842 19843 19844 19845 19846 19847 19848 19849 19850 19851 19852 19853 19854 19855 19856 19857 19858 19859 19860 19861 19862 19863 19864 19865 19866 19867 19868 19869 19870 19871 19872 19873 19874 19875 19876 19877 19878 19879 19880 19881 19882 19883 19884 19885 19886 19887 19888 19889 19890 19891 19892 19893 19894 19895 19896 19897 19898 19899 19900 19901 19902 19903 19904 19905 19906 19907 19908 19909 19910 19911 19912 19913 19914 19915 19916 19917 19918 19919 19920 19921 19922 19923 19924 19925 19926 19927 19928 19929 19930 19931 19932 19933 19934 19935 19936 19937 19938 19939 19940 19941 19942 19943 19944 19945 19946 19947 19948 19949 19950 19951 19952 19953 19954 19955 19956 19957 19958 19959 19960 19961 19962 19963 19964 19965 19966 19967 19968 19969 19970 19971 19972 19973 19974 19975 19976 19977 19978 19979 19980 19981 19982 19983 19984 19985 19986 19987 19988 19989 19990 19991 19992 19993 19994 19995 19996 19997 19998 19999 20000 20001 20002 20003 20004 20005 20006 20007 20008 20009 20010 20011 20012 20013 20014 20015 20016 20017 20018 20019 20020 20021 20022 20023 20024 20025 20026 20027 20028 20029 20030 20031 20032 20033 20034 20035 20036 20037 20038 20039 20040 20041 20042 20043 20044 20045 20046 20047 20048 20049 20050 20051 20052 20053 20054 20055 20056 20057 20058 20059 20060 20061 20062 20063 20064 20065 20066 20067 20068 20069 20070 20071 20072 20073 20074 20075 20076 20077 20078 20079 20080 20081 20082 20083 20084 20085 20086 20087 20088 20089 20090 20091 20092 20093 20094 20095 20096 20097 20098 20099 20100 20101 20102 20103 20104 20105 20106 20107 20108 20109 20110 20111 20112 20113 20114 20115 20116 20117 20118 20119 20120 20121 20122 20123 20124 20125 20126 20127 20128 20129 20130 20131 20132 20133 20134 20135 20136 20137 20138 20139 20140 20141 20142 20143 20144 20145 20146 20147 20148 20149 20150 20151 20152 20153 20154 20155 20156 20157 20158 20159 20160 20161 20162 20163 20164 20165 20166 20167 20168 20169 20170 20171 20172 20173 20174 20175 20176 20177 20178 20179 20180 20181 20182 20183 20184 20185 20186 20187 20188 20189 20190 20191 20192 20193 20194 20195 20196 20197 20198 20199 20200 20201 20202 20203 20204 20205 20206 20207 20208 20209 20210 20211 20212 20213 20214 20215 20216 20217 20218 20219 20220 20221 20222 20223 20224 20225 20226 20227 20228 20229 20230 20231 20232 20233 20234 20235 20236 20237 20238 20239 20240 20241 20242 20243 20244 20245 20246 20247 20248 20249 20250 20251 20252 20253 20254 20255 20256 20257 20258 20259 20260 20261 20262 20263 20264 20265 20266 20267 20268 20269 20270 20271 20272 20273 20274 20275 20276 20277 20278 20279 20280 20281 20282 20283 20284 20285 20286 20287 20288 20289 20290 20291 20292 20293 20294 20295 20296 20297 20298 20299 20300 20301 20302 20303 20304 20305 20306 20307 20308 20309 20310 20311 20312 20313 20314 20315 20316 20317 20318 20319 20320 20321 20322 20323 20324 20325 20326 20327 20328 20329 20330 20331 20332 20333 20334 20335 20336 20337 20338 20339 20340 20341 20342 20343 20344 20345 20346 20347 20348 20349 20350 20351 20352 20353 20354 20355 20356 20357 20358 20359 20360 20361 20362 20363 20364 20365 20366 20367 20368 20369 20370 20371 20372 20373 20374 20375 20376 20377 20378 20379 20380 20381 20382 20383 20384 20385 20386 20387 20388 20389 20390 20391 20392 20393 20394 20395 20396 20397 20398 20399 20400 20401 20402 20403 20404 20405 20406 20407 20408 20409 20410 20411 20412 20413 20414 20415 20416 20417 20418 20419 20420 20421 20422 20423 20424 20425 20426 20427 20428 20429 20430 20431 20432 20433 20434 20435 20436 20437 20438 20439 20440 20441 20442 20443 20444 20445 20446 20447 20448 20449 20450 20451 20452 20453 20454 20455 20456 20457 20458 20459 20460 20461 20462 20463 20464 20465 20466 20467 20468 20469 20470 20471 20472 20473 20474 20475 20476 20477 20478 20479 20480 20481 20482 20483 20484 20485 20486 20487 20488 20489 20490 20491 20492 20493 20494 20495 20496 20497 20498 20499 20500 20501 20502 20503 20504 20505 20506 20507 20508 20509 20510 20511 20512 20513 20514 20515 20516 20517 20518 20519 20520 20521 20522 20523 20524 20525 20526 20527 20528 20529 20530 20531 20532 20533 20534 20535 20536 20537 20538 20539 20540 20541 20542 20543 20544 20545 20546 20547 20548 20549 20550 20551 20552 20553 20554 20555 20556 20557 20558 20559 20560 20561 20562 20563 20564 20565 20566 20567 20568 20569 20570 20571 20572 20573 20574 20575 20576 20577 20578 20579 20580 20581 20582 20583 20584 20585 20586 20587 20588 20589 20590 20591 20592 20593 20594 20595 20596 20597 20598 20599 20600 20601 20602 20603 20604 20605 20606 20607 20608 20609 20610 20611 20612 20613 20614 20615 20616 20617 20618 20619 20620 20621 20622 20623 20624 20625 20626 20627 20628 20629 20630 20631 20632 20633 20634 20635 20636 20637 20638 20639 20640 20641 20642 20643 20644 20645 20646 20647 20648 20649 20650 20651 20652 20653 20654 20655 20656 20657 20658 20659 20660 20661 20662 20663 20664 20665 20666 20667 20668 20669 20670 20671 20672 20673 20674 20675 20676 20677 20678 20679 20680 20681 20682 20683 20684 20685 20686 20687 20688 20689 20690 20691 20692 20693 20694 20695 20696 20697 20698 20699 20700 20701 20702 20703 20704 20705 20706 20707 20708 20709 20710 20711 20712 20713 20714 20715 20716 20717 20718 20719 20720 20721 20722 20723 20724 20725 20726 20727 20728 20729 20730 20731 20732 20733 20734 20735 20736 20737 20738 20739 20740 20741 20742 20743 20744 20745 20746 20747 20748 20749 20750 20751 20752 20753 20754 20755 20756 20757 20758 20759 20760 20761 20762 20763 20764 20765 20766 20767 20768 20769 20770 20771 20772 20773 20774 20775 20776 20777 20778 20779 20780 20781 20782 20783 20784 20785 20786 20787 20788 20789 20790 20791 20792 20793 20794 20795 20796 20797 20798 20799 20800 20801 20802 20803 20804 20805 20806 20807 20808 20809 20810 20811 20812 20813 20814 20815 20816 20817 20818 20819 20820 20821 20822 20823 20824 20825 20826 20827 20828 20829 20830 20831 20832 20833 20834 20835 20836 20837 20838 20839 20840 20841 20842 20843 20844 20845 20846 20847 20848 20849 20850 20851 20852 20853 20854 20855 20856 20857 20858 20859 20860 20861 20862 20863 20864 20865 20866 20867 20868 20869 20870 20871 20872 20873 20874 20875 20876 20877 20878 20879 20880 20881 20882 20883 20884 20885 20886 20887 20888 20889 20890 20891 20892 20893 20894 20895 20896 20897 20898 20899 20900 20901 20902 20903 20904 20905 20906 20907 20908 20909 20910 20911 20912 20913 20914 20915 20916 20917 20918 20919 20920 20921 20922 20923 20924 20925 20926 20927 20928 20929 20930 20931 20932 20933 20934 20935 20936 20937 20938 20939 20940 20941 20942 20943 20944 20945 20946 20947 20948 20949 20950 20951 20952 20953 20954 20955 20956 20957 20958 20959 20960 20961 20962 20963 20964 20965 20966 20967 20968 20969 20970 20971 20972 20973 20974 20975 20976 20977 20978 20979 20980 20981 20982 20983 20984 20985 20986 20987 20988 20989 20990 20991 20992 20993 20994 20995 20996 20997 20998 20999 21000 21001 21002 21003 21004 21005 21006 21007 21008 21009 21010 21011 21012 21013 21014 21015 21016 21017 21018 21019 21020 21021 21022 21023 21024 21025 21026 21027 21028 21029 21030 21031 21032 21033 21034 21035 21036 21037 21038 21039 21040 21041 21042 21043 21044 21045 21046 21047 21048 21049 21050 21051 21052 21053 21054 21055 21056 21057 21058 21059 21060 21061 21062 21063 21064 21065 21066 21067 21068 21069 21070 21071 21072 21073 21074 21075 21076 21077 21078 21079 21080 21081 21082 21083 21084 21085 21086 21087 21088 21089 21090 21091 21092 21093 21094 21095 21096 21097 21098 21099 21100 21101 21102 21103 21104 21105 21106 21107 21108 21109 21110 21111 21112 21113 21114 21115 21116 21117 21118 21119 21120 21121 21122 21123 21124 21125 21126 21127 21128 21129 21130 21131 21132 21133 21134 21135 21136 21137 21138 21139 21140 21141 21142 21143 21144 21145 21146 21147 21148 21149 21150 21151 21152 21153 21154 21155 21156 21157 21158 21159 21160 21161 21162 21163 21164 21165 21166 21167 21168 21169 21170 21171 21172 21173 21174 21175 21176 21177 21178 21179 21180 21181 21182 21183 21184 21185 21186 21187 21188 21189 21190 21191 21192 21193 21194 21195 21196 21197 21198 21199 21200 21201 21202 21203 21204 21205 21206 21207 21208 21209 21210 21211 21212 21213 21214 21215 21216 21217 21218 21219 21220 21221 21222 21223 21224 21225 21226 21227 21228 21229 21230 21231 21232 21233 21234 21235 21236 21237 21238 21239 21240 21241 21242 21243 21244 21245 21246 21247 21248 21249 21250 21251 21252 21253 21254 21255 21256 21257 21258 21259 21260 21261 21262 21263 21264 21265 21266 21267 21268 21269 21270 21271 21272 21273 21274 21275 21276 21277 21278 21279 21280 21281 21282 21283 21284 21285 21286 21287 21288 21289 21290 21291 21292 21293 21294 21295 21296 21297 21298 21299 21300 21301 21302 21303 21304 21305 21306 21307 21308 21309 21310 21311 21312 21313 21314 21315 21316 21317 21318 21319 21320 21321 21322 21323 21324 21325 21326 21327 21328 21329 21330 21331 21332 21333 21334 21335 21336 21337 21338 21339 21340 21341 21342 21343 21344 21345 21346 21347 21348 21349 21350 21351 21352 21353 21354 21355 21356 21357 21358 21359 21360 21361 21362 21363 21364 21365 21366 21367 21368 21369 21370 21371 21372 21373 21374 21375 21376 21377 21378 21379 21380 21381 21382 21383 21384 21385 21386 21387 21388 21389 21390 21391 21392 21393 21394 21395 21396 21397 21398 21399 21400 21401 21402 21403 21404 21405 21406 21407 21408 21409 21410 21411 21412 21413 21414 21415 21416 21417 21418 21419 21420 21421 21422 21423 21424 21425 21426 21427 21428 21429 21430 21431 21432 21433 21434 21435 21436 21437 21438 21439 21440 21441 21442 21443 21444 21445 21446 21447 21448 21449 21450 21451 21452 21453 21454 21455 21456 21457 21458 21459 21460 21461 21462 21463 21464 21465 21466 21467 21468 21469 21470 21471 21472 21473 21474 21475 21476 21477 21478 21479 21480 21481 21482 21483 21484 21485 21486 21487 21488 21489 21490 21491 21492 21493 21494 21495 21496 21497 21498 21499 21500 21501 21502 21503 21504 21505 21506 21507 21508 21509 21510 21511 21512 21513 21514 21515 21516 21517 21518 21519 21520 21521 21522 21523 21524 21525 21526 21527 21528 21529 21530 21531 21532 21533 21534 21535 21536 21537 21538 21539 21540 21541 21542 21543 21544 21545 21546 21547 21548 21549 21550 21551 21552 21553 21554 21555 21556 21557 21558 21559 21560 21561 21562 21563 21564 21565 21566 21567 21568 21569 21570 21571 21572 21573 21574 21575 21576 21577 21578 21579 21580 21581 21582 21583 21584 21585 21586 21587 21588 21589 21590 21591 21592 21593 21594 21595 21596 21597 21598 21599 21600 21601 21602 21603 21604 21605 21606 21607 21608 21609 21610 21611 21612 21613 21614 21615 21616 21617 21618 21619 21620 21621 21622 21623 21624 21625 21626 21627 21628 21629 21630 21631 21632 21633 21634 21635 21636 21637 21638 21639 21640 21641 21642 21643 21644 21645 21646 21647 21648 21649 21650 21651 21652 21653 21654 21655 21656 21657 21658 21659 21660 21661 21662 21663 21664 21665 21666 21667 21668 21669 21670 21671 21672 21673 21674 21675 21676 21677 21678 21679 21680 21681 21682 21683 21684 21685 21686 21687 21688 21689 21690 21691 21692 21693 21694 21695 21696 21697 21698 21699 21700 21701 21702 21703 21704 21705 21706 21707 21708 21709 21710 21711 21712 21713 21714 21715 21716 21717 21718 21719 21720 21721 21722 21723 21724 21725 21726 21727 21728 21729 21730 21731 21732 21733 21734 21735 21736 21737 21738 21739 21740 21741 21742 21743 21744 21745 21746 21747 21748 21749 21750 21751 21752 21753 21754 21755 21756 21757 21758 21759 21760 21761 21762 21763 21764 21765 21766 21767 21768 21769 21770 21771 21772 21773 21774 21775 21776 21777 21778 21779 21780 21781 21782 21783 21784 21785 21786 21787 21788 21789 21790 21791 21792 21793 21794 21795 21796 21797 21798 21799 21800 21801 21802 21803 21804 21805 21806 21807 21808 21809 21810 21811 21812 21813 21814 21815 21816 21817 21818 21819 21820 21821 21822 21823 21824 21825 21826 21827 21828 21829 21830 21831 21832 21833 21834 21835 21836 21837 21838 21839 21840 21841 21842 21843 21844 21845 21846 21847 21848 21849 21850 21851 21852 21853 21854 21855 21856 21857 21858 21859 21860 21861 21862 21863 21864 21865 21866 21867 21868 21869 21870 21871 21872 21873 21874 21875 21876 21877 21878 21879 21880 21881 21882 21883 21884 21885 21886 21887 21888 21889 21890 21891 21892 21893 21894 21895 21896 21897 21898 21899 21900 21901 21902 21903 21904 21905 21906 21907 21908 21909 21910 21911 21912 21913 21914 21915 21916 21917 21918 21919 21920 21921 21922 21923 21924 21925 21926 21927 21928 21929 21930 21931 21932 21933 21934 21935 21936 21937 21938 21939 21940 21941 21942 21943 21944 21945 21946 21947 21948 21949 21950 21951 21952 21953 21954 21955 21956 21957 21958 21959 21960 21961 21962 21963 21964 21965 21966 21967 21968 21969 21970 21971 21972 21973 21974 21975 21976 21977 21978 21979 21980 21981 21982 21983 21984 21985 21986 21987 21988 21989 21990 21991 21992 21993 21994 21995 21996 21997 21998 21999 22000 22001 22002 22003 22004 22005 22006 22007 22008 22009 22010 22011 22012 22013 22014 22015 22016 22017 22018 22019 22020 22021 22022 22023 22024 22025 22026 22027 22028 22029 22030 22031 22032 22033 22034 22035 22036 22037 22038 22039 22040 22041 22042 22043 22044 22045 22046 22047 22048 22049 22050 22051 22052 22053 22054 22055 22056 22057 22058 22059 22060 22061 22062 22063 22064 22065 22066 22067 22068 22069 22070 22071 22072 22073 22074 22075 22076 22077 22078 22079 22080 22081 22082 22083 22084 22085 22086 22087 22088 22089 22090 22091 22092 22093 22094 22095 22096 22097 22098 22099 22100 22101 22102 22103 22104 22105 22106 22107 22108 22109 22110 22111 22112 22113 22114 22115 22116 22117 22118 22119 22120 22121 22122 22123 22124 22125 22126 22127 22128 22129 22130 22131 22132 22133 22134 22135 22136 22137 22138 22139 22140 22141 22142 22143 22144 22145 22146 22147 22148 22149 22150 22151 22152 22153 22154 22155 22156 22157 22158 22159 22160 22161 22162 22163 22164 22165 22166 22167 22168 22169 22170 22171 22172 22173 22174 22175 22176 22177 22178 22179 22180 22181 22182 22183 22184 22185 22186 22187 22188 22189 22190 22191 22192 22193 22194 22195 22196 22197 22198 22199 22200 22201 22202 22203 22204 22205 22206 22207 22208 22209 22210 22211 22212 22213 22214 22215 22216 22217 22218 22219 22220 22221 22222 22223 22224 22225 22226 22227 22228 22229 22230 22231 22232 22233 22234 22235 22236 22237 22238 22239 22240 22241 22242 22243 22244 22245 22246 22247 22248 22249 22250 22251 22252 22253 22254 22255 22256 22257 22258 22259 22260 22261 22262 22263 22264 22265 22266 22267 22268 22269 22270 22271 22272 22273 22274 22275 22276 22277 22278 22279 22280 22281 22282 22283 22284 22285 22286 22287 22288 22289 22290 22291 22292 22293 22294 22295 22296 22297 22298 22299 22300 22301 22302 22303 22304 22305 22306 22307 22308 22309 22310 22311 22312 22313 22314 22315 22316 22317 22318 22319 22320 22321 22322 22323 22324 22325 22326 22327 22328 22329 22330 22331 22332 22333 22334 22335 22336 22337 22338 22339 22340 22341 22342 22343 22344 22345 22346 22347 22348 22349 22350 22351 22352 22353 22354 22355 22356 22357 22358 22359 22360 22361 22362 22363 22364 22365 22366 22367 22368 22369 22370 22371 22372 22373 22374 22375 22376 22377 22378 22379 22380 22381 22382 22383 22384 22385 22386 22387 22388 22389 22390 22391 22392 22393 22394 22395 22396 22397 22398 22399 22400 22401 22402 22403 22404 22405 22406 22407 22408 22409 22410 22411 22412 22413 22414 22415 22416 22417 22418 22419 22420 22421 22422 22423 22424 22425 22426 22427 22428 22429 22430 22431 22432 22433 22434 22435 22436 22437 22438 22439 22440 22441 22442 22443 22444 22445 22446 22447 22448 22449 22450 22451 22452 22453 22454 22455 22456 22457 22458 22459 22460 22461 22462 22463 22464 22465 22466 22467 22468 22469 22470 22471 22472 22473 22474 22475 22476 22477 22478 22479 22480 22481 22482 22483 22484 22485 22486 22487 22488 22489 22490 22491 22492 22493 22494 22495 22496 22497 22498 22499 22500 22501 22502 22503 22504 22505 22506 22507 22508 22509 22510 22511 22512 22513 22514 22515 22516 22517 22518 22519 22520 22521 22522 22523 22524 22525 22526 22527 22528 22529 22530 22531 22532 22533 22534 22535 22536 22537 22538 22539 22540 22541 22542 22543 22544 22545 22546 22547 22548 22549 22550 22551 22552 22553 22554 22555 22556 22557 22558 22559 22560 22561 22562 22563 22564 22565 22566 22567 22568 22569 22570 22571 22572 22573 22574 22575 22576 22577 22578 22579 22580 22581 22582 22583 22584 22585 22586 22587 22588 22589 22590 22591 22592 22593 22594 22595 22596 22597 22598 22599 22600 22601 22602 22603 22604 22605 22606 22607 22608 22609 22610 22611 22612 22613 22614 22615 22616 22617 22618 22619 22620 22621 22622 22623 22624 22625 22626 22627 22628 22629 22630 22631 22632 22633 22634 22635 22636 22637 22638 22639 22640 22641 22642 22643 22644 22645 22646 22647 22648 22649 22650 22651 22652 22653 22654 22655 22656 22657 22658 22659 22660 22661 22662 22663 22664 22665 22666 22667 22668 22669 22670 22671 22672 22673 22674 22675 22676 22677 22678 22679 22680 22681 22682 22683 22684 22685 22686 22687 22688 22689 22690 22691 22692 22693 22694 22695 22696 22697 22698 22699 22700 22701 22702 22703 22704 22705 22706 22707 22708 22709 22710 22711 22712 22713 22714 22715 22716 22717 22718 22719 22720 22721 22722 22723 22724 22725 22726 22727 22728 22729 22730 22731 22732 22733 22734 22735 22736 22737 22738 22739 22740 22741 22742 22743 22744 22745 22746 22747 22748 22749 22750 22751 22752 22753 22754 22755 22756 22757 22758 22759 22760 22761 22762 22763 22764 22765 22766 22767 22768 22769 22770 22771 22772 22773 22774 22775 22776 22777 22778 22779 22780 22781 22782 22783 22784 22785 22786 22787 22788 22789 22790 22791 22792 22793 22794 22795 22796 22797 22798 22799 22800 22801 22802 22803 22804 22805 22806 22807 22808 22809 22810 22811 22812 22813 22814 22815 22816 22817 22818 22819 22820 22821 22822 22823 22824 22825 22826 22827 22828 22829 22830 22831 22832 22833 22834 22835 22836 22837 22838 22839 22840 22841 22842 22843 22844 22845 22846 22847 22848 22849 22850 22851 22852 22853 22854 22855 22856 22857 22858 22859 22860 22861 22862 22863 22864 22865 22866 22867 22868 22869 22870 22871 22872 22873 22874 22875 22876 22877 22878 22879 22880 22881 22882 22883 22884 22885 22886 22887 22888 22889 22890 22891 22892 22893 22894 22895 22896 22897 22898 22899 22900 22901 22902 22903 22904 22905 22906 22907 22908 22909 22910 22911 22912 22913 22914 22915 22916 22917 22918 22919 22920 22921 22922 22923 22924 22925 22926 22927 22928 22929 22930 22931 22932 22933 22934 22935 22936 22937 22938 22939 22940 22941 22942 22943 22944 22945 22946 22947 22948 22949 22950 22951 22952 22953 22954 22955 22956 22957 22958 22959 22960 22961 22962 22963 22964 22965 22966 22967 22968 22969 22970 22971 22972 22973 22974 22975 22976 22977 22978 22979 22980 22981 22982 22983 22984 22985 22986 22987 22988 22989 22990 22991 22992 22993 22994 22995 22996 22997 22998 22999 23000 23001 23002 23003 23004 23005 23006 23007 23008 23009 23010 23011 23012 23013 23014 23015 23016 23017 23018 23019 23020 23021 23022 23023 23024 23025 23026 23027 23028 23029 23030 23031 23032 23033 23034 23035 23036 23037 23038 23039 23040 23041 23042 23043 23044 23045 23046 23047 23048 23049 23050 23051 23052 23053 23054 23055 23056 23057 23058 23059 23060 23061 23062 23063 23064 23065 23066 23067 23068 23069 23070 23071 23072 23073 23074 23075 23076 23077 23078 23079 23080 23081 23082 23083 23084 23085 23086 23087 23088 23089 23090 23091 23092 23093 23094 23095 23096 23097 23098 23099 23100 23101 23102 23103 23104 23105 23106 23107 23108 23109 23110 23111 23112 23113 23114 23115 23116 23117 23118 23119 23120 23121 23122 23123 23124 23125 23126 23127 23128 23129 23130 23131 23132 23133 23134 23135 23136 23137 23138 23139 23140 23141 23142 23143 23144 23145 23146 23147 23148 23149 23150 23151 23152 23153 23154 23155 23156 23157 23158 23159 23160 23161 23162 23163 23164 23165 23166 23167 23168 23169 23170 23171 23172 23173 23174 23175 23176 23177 23178 23179 23180 23181 23182 23183 23184 23185 23186 23187 23188 23189 23190 23191 23192 23193 23194 23195 23196 23197 23198 23199 23200 23201 23202 23203 23204 23205 23206 23207 23208 23209 23210 23211 23212 23213 23214 23215 23216 23217 23218 23219 23220 23221 23222 23223 23224 23225 23226 23227 23228 23229 23230 23231 23232 23233 23234 23235 23236 23237 23238 23239 23240 23241 23242 23243 23244 23245 23246 23247 23248 23249 23250 23251 23252 23253 23254 23255 23256 23257 23258 23259 23260 23261 23262 23263 23264 23265 23266 23267 23268 23269 23270 23271 23272 23273 23274 23275 23276 23277 23278 23279 23280 23281 23282 23283 23284 23285 23286 23287 23288 23289 23290 23291 23292 23293 23294 23295 23296 23297 23298 23299 23300 23301 23302 23303 23304 23305 23306 23307 23308 23309 23310 23311 23312 23313 23314 23315 23316 23317 23318 23319 23320 23321 23322 23323 23324 23325 23326 23327 23328 23329 23330 23331 23332 23333 23334 23335 23336 23337 23338 23339 23340 23341 23342 23343 23344 23345 23346 23347 23348 23349 23350 23351 23352 23353 23354 23355 23356 23357 23358 23359 23360 23361 23362 23363 23364 23365 23366 23367 23368 23369 23370 23371 23372 23373 23374 23375 23376 23377 23378 23379 23380 23381 23382 23383 23384 23385 23386 23387 23388 23389 23390 23391 23392 23393 23394 23395 23396 23397 23398 23399 23400 23401 23402 23403 23404 23405 23406 23407 23408 23409 23410 23411 23412 23413 23414 23415 23416 23417 23418 23419 23420 23421 23422 23423 23424 23425 23426 23427 23428 23429 23430 23431 23432 23433 23434 23435 23436 23437 23438 23439 23440 23441 23442 23443 23444 23445 23446 23447 23448 23449 23450 23451 23452 23453 23454 23455 23456 23457 23458 23459 23460 23461 23462 23463 23464 23465 23466 23467 23468 23469 23470 23471 23472 23473 23474 23475 23476 23477 23478 23479 23480 23481 23482 23483 23484 23485 23486 23487 23488 23489 23490 23491 23492 23493 23494 23495 23496 23497 23498 23499 23500 23501 23502 23503 23504 23505 23506 23507 23508 23509 23510 23511 23512 23513 23514 23515 23516 23517 23518 23519 23520 23521 23522 23523 23524 23525 23526 23527 23528 23529 23530 23531 23532 23533 23534 23535 23536 23537 23538 23539 23540 23541 23542 23543 23544 23545 23546 23547 23548 23549 23550 23551 23552 23553 23554 23555 23556 23557 23558 23559 23560 23561 23562 23563 23564 23565 23566 23567 23568 23569 23570 23571 23572 23573 23574 23575 23576 23577 23578 23579 23580 23581 23582 23583 23584 23585 23586 23587 23588 23589 23590 23591 23592 23593 23594 23595 23596 23597 23598 23599 23600 23601 23602 23603 23604 23605 23606 23607 23608 23609 23610 23611 23612 23613 23614 23615 23616 23617 23618 23619 23620 23621 23622 23623 23624 23625 23626 23627 23628 23629 23630 23631 23632 23633 23634 23635 23636 23637 23638 23639 23640 23641 23642 23643 23644 23645 23646 23647 23648 23649 23650 23651 23652 23653 23654 23655 23656 23657 23658 23659 23660 23661 23662 23663 23664 23665 23666 23667 23668 23669 23670 23671 23672 23673 23674 23675 23676 23677 23678 23679 23680 23681 23682 23683 23684 23685 23686 23687 23688 23689 23690 23691 23692 23693 23694 23695 23696 23697 23698 23699 23700 23701 23702 23703 23704 23705 23706 23707 23708 23709 23710 23711 23712 23713 23714 23715 23716 23717 23718 23719 23720 23721 23722 23723 23724 23725 23726 23727 23728 23729 23730 23731 23732 23733 23734 23735 23736 23737 23738 23739 23740 23741 23742 23743 23744 23745 23746 23747 23748 23749 23750 23751 23752 23753 23754 23755 23756 23757 23758 23759 23760 23761 23762 23763 23764 23765 23766 23767 23768 23769 23770 23771 23772 23773 23774 23775 23776 23777 23778 23779 23780 23781 23782 23783 23784 23785 23786 23787 23788 23789 23790 23791 23792 23793 23794 23795 23796 23797 23798 23799 23800 23801 23802 23803 23804 23805 23806 23807 23808 23809 23810 23811 23812 23813 23814 23815 23816 23817 23818 23819 23820 23821 23822 23823 23824 23825 23826 23827 23828 23829 23830 23831 23832 23833 23834 23835 23836 23837 23838 23839 23840 23841 23842 23843 23844 23845 23846 23847 23848 23849 23850 23851 23852 23853 23854 23855 23856 23857 23858 23859 23860 23861 23862 23863 23864 23865 23866 23867 23868 23869 23870 23871 23872 23873 23874 23875 23876 23877 23878 23879 23880 23881 23882 23883 23884 23885 23886 23887 23888 23889 23890 23891 23892 23893 23894 23895 23896 23897 23898 23899 23900 23901 23902 23903 23904 23905 23906 23907 23908 23909 23910 23911 23912 23913 23914 23915 23916 23917 23918 23919 23920 23921 23922 23923 23924 23925 23926 23927 23928 23929 23930 23931 23932 23933 23934 23935 23936 23937 23938 23939 23940 23941 23942 23943 23944 23945 23946 23947 23948 23949 23950 23951 23952 23953 23954 23955 23956 23957 23958 23959 23960 23961 23962 23963 23964 23965 23966 23967 23968 23969 23970 23971 23972 23973 23974 23975 23976 23977 23978 23979 23980 23981 23982 23983 23984 23985 23986 23987 23988 23989 23990 23991 23992 23993 23994 23995 23996 23997 23998 23999 24000 24001 24002 24003 24004 24005 24006 24007 24008 24009 24010 24011 24012 24013 24014 24015 24016 24017 24018 24019 24020 24021 24022 24023 24024 24025 24026 24027 24028 24029 24030 24031 24032 24033 24034 24035 24036 24037 24038 24039 24040 24041 24042 24043 24044 24045 24046 24047 24048 24049 24050 24051 24052 24053 24054 24055 24056 24057 24058 24059 24060 24061 24062 24063 24064 24065 24066 24067 24068 24069 24070 24071 24072 24073 24074 24075 24076 24077 24078 24079 24080 24081 24082 24083 24084 24085 24086 24087 24088 24089 24090 24091 24092 24093 24094 24095 24096 24097 24098 24099 24100 24101 24102 24103 24104 24105 24106 24107 24108 24109 24110 24111 24112 24113 24114 24115 24116 24117 24118 24119 24120 24121 24122 24123 24124 24125 24126 24127 24128 24129 24130 24131 24132 24133 24134 24135 24136 24137 24138 24139 24140 24141 24142 24143 24144 24145 24146 24147 24148 24149 24150 24151 24152 24153 24154 24155 24156 24157 24158 24159 24160 24161 24162 24163 24164 24165 24166 24167 24168 24169 24170 24171 24172 24173 24174 24175 24176 24177 24178 24179 24180 24181 24182 24183 24184 24185 24186 24187 24188 24189 24190 24191 24192 24193 24194 24195 24196 24197 24198 24199 24200 24201 24202 24203 24204 24205 24206 24207 24208 24209 24210 24211 24212 24213 24214 24215 24216 24217 24218 24219 24220 24221 24222 24223 24224 24225 24226 24227 24228 24229 24230 24231 24232 24233 24234 24235 24236 24237 24238 24239 24240 24241 24242 24243 24244 24245 24246 24247 24248 24249 24250 24251 24252 24253 24254 24255 24256 24257 24258 24259 24260 24261 24262 24263 24264 24265 24266 24267 24268 24269 24270 24271 24272 24273 24274 24275 24276 24277 24278 24279 24280 24281 24282 24283 24284 24285 24286 24287 24288 24289 24290 24291 24292 24293 24294 24295 24296 24297 24298 24299 24300 24301 24302 24303 24304 24305 24306 24307 24308 24309 24310 24311 24312 24313 24314 24315 24316 24317 24318 24319 24320 24321 24322 24323 24324 24325 24326 24327 24328 24329 24330 24331 24332 24333 24334 24335 24336 24337 24338 24339 24340 24341 24342 24343 24344 24345 24346 24347 24348 24349 24350 24351 24352 24353 24354 24355 24356 24357 24358 24359 24360 24361 24362 24363 24364 24365 24366 24367 24368 24369 24370 24371 24372 24373 24374 24375 24376 24377 24378 24379 24380 24381 24382 24383 24384 24385 24386 24387 24388 24389 24390 24391 24392 24393 24394 24395 24396 24397 24398 24399 24400 24401 24402 24403 24404 24405 24406 24407 24408 24409 24410 24411 24412 24413 24414 24415 24416 24417 24418 24419 24420 24421 24422 24423 24424 24425 24426 24427 24428 24429 24430 24431 24432 24433 24434 24435 24436 24437 24438 24439 24440 24441 24442 24443 24444 24445 24446 24447 24448 24449 24450 24451 24452 24453 24454 24455 24456 24457 24458 24459 24460 24461 24462 24463 24464 24465 24466 24467 24468 24469 24470 24471 24472 24473 24474 24475 24476 24477 24478 24479 24480 24481 24482 24483 24484 24485 24486 24487 24488 24489 24490 24491 24492 24493 24494 24495 24496 24497 24498 24499 24500 24501 24502 24503 24504 24505 24506 24507 24508 24509 24510 24511 24512 24513 24514 24515 24516 24517 24518 24519 24520 24521 24522 24523 24524 24525 24526 24527 24528 24529 24530 24531 24532 24533 24534 24535 24536 24537 24538 24539 24540 24541 24542 24543 24544 24545 24546 24547 24548 24549 24550 24551 24552 24553 24554 24555 24556 24557 24558 24559 24560 24561 24562 24563 24564 24565 24566 24567 24568 24569 24570 24571 24572 24573 24574 24575 24576 24577 24578 24579 24580 24581 24582 24583 24584 24585 24586 24587 24588 24589 24590 24591 24592 24593 24594 24595 24596 24597 24598 24599 24600 24601 24602 24603 24604 24605 24606 24607 24608 24609 24610 24611 24612 24613 24614 24615 24616 24617 24618 24619 24620 24621 24622 24623 24624 24625 24626 24627 24628 24629 24630 24631 24632 24633 24634 24635 24636 24637 24638 24639 24640 24641 24642 24643 24644 24645 24646 24647 24648 24649 24650 24651 24652 24653 24654 24655 24656 24657 24658 24659 24660 24661 24662 24663 24664 24665 24666 24667 24668 24669 24670 24671 24672 24673 24674 24675 24676 24677 24678 24679 24680 24681 24682 24683 24684 24685 24686 24687 24688 24689 24690 24691 24692 24693 24694 24695 24696 24697 24698 24699 24700 24701 24702 24703 24704 24705 24706 24707 24708 24709 24710 24711 24712 24713 24714 24715 24716 24717 24718 24719 24720 24721 24722 24723 24724 24725 24726 24727 24728 24729 24730 24731 24732 24733 24734 24735 24736 24737 24738 24739 24740 24741 24742 24743 24744 24745 24746 24747 24748 24749 24750 24751 24752 24753 24754 24755 24756 24757 24758 24759 24760 24761 24762 24763 24764 24765 24766 24767 24768 24769 24770 24771 24772 24773 24774 24775 24776 24777 24778 24779 24780 24781 24782 24783 24784 24785 24786 24787 24788 24789 24790 24791 24792 24793 24794 24795 24796 24797 24798 24799 24800 24801 24802 24803 24804 24805 24806 24807 24808 24809 24810 24811 24812 24813 24814 24815 24816 24817 24818 24819 24820 24821 24822 24823 24824 24825 24826 24827 24828 24829 24830 24831 24832 24833 24834 24835 24836 24837 24838 24839 24840 24841 24842 24843 24844 24845 24846 24847 24848 24849 24850 24851 24852 24853 24854 24855 24856 24857 24858 24859 24860 24861 24862 24863 24864 24865 24866 24867 24868 24869 24870 24871 24872 24873 24874 24875 24876 24877 24878 24879 24880 24881 24882 24883 24884 24885 24886 24887 24888 24889 24890 24891 24892 24893 24894 24895 24896 24897 24898 24899 24900 24901 24902 24903 24904 24905 24906 24907 24908 24909 24910 24911 24912 24913 24914 24915 24916 24917 24918 24919 24920 24921 24922 24923 24924 24925 24926 24927 24928 24929 24930 24931 24932 24933 24934 24935 24936 24937 24938 24939 24940 24941 24942 24943 24944 24945 24946 24947 24948 24949 24950 24951 24952 24953 24954 24955 24956 24957 24958 24959 24960 24961 24962 24963 24964 24965 24966 24967 24968 24969 24970 24971 24972 24973 24974 24975 24976 24977 24978 24979 24980 24981 24982 24983 24984 24985 24986 24987 24988 24989 24990 24991 24992 24993 24994 24995 24996 24997 24998 24999 25000 25001 25002 25003 25004 25005 25006 25007 25008 25009 25010 25011 25012 25013 25014 25015 25016 25017 25018 25019 25020 25021 25022 25023 25024 25025 25026 25027 25028 25029 25030 25031 25032 25033 25034 25035 25036 25037 25038 25039 25040 25041 25042 25043 25044 25045 25046 25047 25048 25049 25050 25051 25052 25053 25054 25055 25056 25057 25058 25059 25060 25061 25062 25063 25064 25065 25066 25067 25068 25069 25070 25071 25072 25073 25074 25075 25076 25077 25078 25079 25080 25081 25082 25083 25084 25085 25086 25087 25088 25089 25090 25091 25092 25093 25094 25095 25096 25097 25098 25099 25100 25101 25102 25103 25104 25105 25106 25107 25108 25109 25110 25111 25112 25113 25114 25115 25116 25117 25118 25119 25120 25121 25122 25123 25124 25125 25126 25127 25128 25129 25130 25131 25132 25133 25134 25135 25136 25137 25138 25139 25140 25141 25142 25143 25144 25145 25146 25147 25148 25149 25150 25151 25152 25153 25154 25155 25156 25157 25158 25159 25160 25161 25162 25163 25164 25165 25166 25167 25168 25169 25170 25171 25172 25173 25174 25175 25176 25177 25178 25179 25180 25181 25182 25183 25184 25185 25186 25187 25188 25189 25190 25191 25192 25193 25194 25195 25196 25197 25198 25199 25200 25201 25202 25203 25204 25205 25206 25207 25208 25209 25210 25211 25212 25213 25214 25215 25216 25217 25218 25219 25220 25221 25222 25223 25224 25225 25226 25227 25228 25229 25230 25231 25232 25233 25234 25235 25236 25237 25238 25239 25240 25241 25242 25243 25244 25245 25246 25247 25248 25249 25250 25251 25252 25253 25254 25255 25256 25257 25258 25259 25260 25261 25262 25263 25264 25265 25266 25267 25268 25269 25270 25271 25272 25273 25274 25275 25276 25277 25278 25279 25280 25281 25282 25283 25284 25285 25286 25287 25288 25289 25290 25291 25292 25293 25294 25295 25296 25297 25298 25299 25300 25301 25302 25303 25304 25305 25306 25307 25308 25309 25310 25311 25312 25313 25314 25315 25316 25317 25318 25319 25320 25321 25322 25323 25324 25325 25326 25327 25328 25329 25330 25331 25332 25333 25334 25335 25336 25337 25338 25339 25340 25341 25342 25343 25344 25345 25346 25347 25348 25349 25350 25351 25352 25353 25354 25355 25356 25357 25358 25359 25360 25361 25362 25363 25364 25365 25366 25367 25368 25369 25370 25371 25372 25373 25374 25375 25376 25377 25378 25379 25380 25381 25382 25383 25384 25385 25386 25387 25388 25389 25390 25391 25392 25393 25394 25395 25396 25397 25398 25399 25400 25401 25402 25403 25404 25405 25406 25407 25408 25409 25410 25411 25412 25413 25414 25415 25416 25417 25418 25419 25420 25421 25422 25423 25424 25425 25426 25427 25428 25429 25430 25431 25432 25433 25434 25435 25436 25437 25438 25439 25440 25441 25442 25443 25444 25445 25446 25447 25448 25449 25450 25451 25452 25453 25454 25455 25456 25457 25458 25459 25460 25461 25462 25463 25464 25465 25466 25467 25468 25469 25470 25471 25472 25473 25474 25475 25476 25477 25478 25479 25480 25481 25482 25483 25484 25485 25486 25487 25488 25489 25490 25491 25492 25493 25494 25495 25496 25497 25498 25499 25500 25501 25502 25503 25504 25505 25506 25507 25508 25509 25510 25511 25512 25513 25514 25515 25516 25517 25518 25519 25520 25521 25522 25523 25524 25525 25526 25527 25528 25529 25530 25531 25532 25533 25534 25535 25536 25537 25538 25539 25540 25541 25542 25543 25544 25545 25546 25547 25548 25549 25550 25551 25552 25553 25554 25555 25556 25557 25558 25559 25560 25561 25562 25563 25564 25565 25566 25567 25568 25569 25570 25571 25572 25573 25574 25575 25576 25577 25578 25579 25580 25581 25582 25583 25584 25585 25586 25587 25588 25589 25590 25591 25592 25593 25594 25595 25596 25597 25598 25599 25600 25601 25602 25603 25604 25605 25606 25607 25608 25609 25610 25611 25612 25613 25614 25615 25616 25617 25618 25619 25620 25621 25622 25623 25624 25625 25626 25627 25628 25629 25630 25631 25632 25633 25634 25635 25636 25637 25638 25639 25640 25641 25642 25643 25644 25645 25646 25647 25648 25649 25650 25651 25652 25653 25654 25655 25656 25657 25658 25659 25660 25661 25662 25663 25664 25665 25666 25667 25668 25669 25670 25671 25672 25673 25674 25675 25676 25677 25678 25679 25680 25681 25682 25683 25684 25685 25686 25687 25688 25689 25690 25691 25692 25693 25694 25695 25696 25697 25698 25699 25700 25701 25702 25703 25704 25705 25706 25707 25708 25709 25710 25711 25712 25713 25714 25715 25716 25717 25718 25719 25720 25721 25722 25723 25724 25725 25726 25727 25728 25729 25730 25731 25732 25733 25734 25735 25736 25737 25738 25739 25740 25741 25742 25743 25744 25745 25746 25747 25748 25749 25750 25751 25752 25753 25754 25755 25756 25757 25758 25759 25760 25761 25762 25763 25764 25765 25766 25767 25768 25769 25770 25771 25772 25773 25774 25775 25776 25777 25778 25779 25780 25781 25782 25783 25784 25785 25786 25787 25788 25789 25790 25791 25792 25793 25794 25795 25796 25797 25798 25799 25800 25801 25802 25803 25804 25805 25806 25807 25808 25809 25810 25811 25812 25813 25814 25815 25816 25817 25818 25819 25820 25821 25822 25823 25824 25825 25826 25827 25828 25829 25830 25831 25832 25833 25834 25835 25836 25837 25838 25839 25840 25841 25842 25843 25844 25845 25846 25847 25848 25849 25850 25851 25852 25853 25854 25855 25856 25857 25858 25859 25860 25861 25862 25863 25864 25865 25866 25867 25868 25869 25870 25871 25872 25873 25874 25875 25876 25877 25878 25879 25880 25881 25882 25883 25884 25885 25886 25887 25888 25889 25890 25891 25892 25893 25894 25895 25896 25897 25898 25899 25900 25901 25902 25903 25904 25905 25906 25907 25908 25909 25910 25911 25912 25913 25914 25915 25916 25917 25918 25919 25920 25921 25922 25923 25924 25925 25926 25927 25928 25929 25930 25931 25932 25933 25934 25935 25936 25937 25938 25939 25940 25941 25942 25943 25944 25945 25946 25947 25948 25949 25950 25951 25952 25953 25954 25955 25956 25957 25958 25959 25960 25961 25962 25963 25964 25965 25966 25967 25968 25969 25970 25971 25972 25973 25974 25975 25976 25977 25978 25979 25980 25981 25982 25983 25984 25985 25986 25987 25988 25989 25990 25991 25992 25993 25994 25995 25996 25997 25998 25999 26000 26001 26002 26003 26004 26005 26006 26007 26008 26009 26010 26011 26012 26013 26014 26015 26016 26017 26018 26019 26020 26021 26022 26023 26024 26025 26026 26027 26028 26029 26030 26031 26032 26033 26034 26035 26036 26037 26038 26039 26040 26041 26042 26043 26044 26045 26046 26047 26048 26049 26050 26051 26052 26053 26054 26055 26056 26057 26058 26059 26060 26061 26062 26063 26064 26065 26066 26067 26068 26069 26070 26071 26072 26073 26074 26075 26076 26077 26078 26079 26080 26081 26082 26083 26084 26085 26086 26087 26088 26089 26090 26091 26092 26093 26094 26095 26096 26097 26098 26099 26100 26101 26102 26103 26104 26105 26106 26107 26108 26109 26110 26111 26112 26113 26114 26115 26116 26117 26118 26119 26120 26121 26122 26123 26124 26125 26126 26127 26128 26129 26130 26131 26132 26133 26134 26135 26136 26137 26138 26139 26140 26141 26142 26143 26144 26145 26146 26147 26148 26149 26150 26151 26152 26153 26154 26155 26156 26157 26158 26159 26160 26161 26162 26163 26164 26165 26166 26167 26168 26169 26170 26171 26172 26173 26174 26175 26176 26177 26178 26179 26180 26181 26182 26183 26184 26185 26186 26187 26188 26189 26190 26191 26192 26193 26194 26195 26196 26197 26198 26199 26200 26201 26202 26203 26204 26205 26206 26207 26208 26209 26210 26211 26212 26213 26214 26215 26216 26217 26218 26219 26220 26221 26222 26223 26224 26225 26226 26227 26228 26229 26230 26231 26232 26233 26234 26235 26236 26237 26238 26239 26240 26241 26242 26243 26244 26245 26246 26247 26248 26249 26250 26251 26252 26253 26254 26255 26256 26257 26258 26259 26260 26261 26262 26263 26264 26265 26266 26267 26268 26269 26270 26271 26272 26273 26274 26275 26276 26277 26278 26279 26280 26281 26282 26283 26284 26285 26286 26287 26288 26289 26290 26291 26292 26293 26294 26295 26296 26297 26298 26299 26300 26301 26302 26303 26304 26305 26306 26307 26308 26309 26310 26311 26312 26313 26314 26315 26316 26317 26318 26319 26320 26321 26322 26323 26324 26325 26326 26327 26328 26329 26330 26331 26332 26333 26334 26335 26336 26337 26338 26339 26340 26341 26342 26343 26344 26345 26346 26347 26348 26349 26350 26351 26352 26353 26354 26355 26356 26357 26358 26359 26360 26361 26362 26363 26364 26365 26366 26367 26368 26369 26370 26371 26372 26373 26374 26375 26376 26377 26378 26379 26380 26381 26382 26383 26384 26385 26386 26387 26388 26389 26390 26391 26392 26393 26394 26395 26396 26397 26398 26399 26400 26401 26402 26403 26404 26405 26406 26407 26408 26409 26410 26411 26412 26413 26414 26415 26416 26417 26418 26419 26420 26421 26422 26423 26424 26425 26426 26427 26428 26429 26430 26431 26432 26433 26434 26435 26436 26437 26438 26439 26440 26441 26442 26443 26444 26445 26446 26447 26448 26449 26450 26451 26452 26453 26454 26455 26456 26457 26458 26459 26460 26461 26462 26463 26464 26465 26466 26467 26468 26469 26470 26471 26472 26473 26474 26475 26476 26477 26478 26479 26480 26481 26482 26483 26484 26485 26486 26487 26488 26489 26490 26491 26492 26493 26494 26495 26496 26497 26498 26499 26500 26501 26502 26503 26504 26505 26506 26507 26508 26509 26510 26511 26512 26513 26514 26515 26516 26517 26518 26519 26520 26521 26522 26523 26524 26525 26526 26527 26528 26529 26530 26531 26532 26533 26534 26535 26536 26537 26538 26539 26540 26541 26542 26543 26544 26545 26546 26547 26548 26549 26550 26551 26552 26553 26554 26555 26556 26557 26558 26559 26560 26561 26562 26563 26564 26565 26566 26567 26568 26569 26570 26571 26572 26573 26574 26575 26576 26577 26578 26579 26580 26581 26582 26583 26584 26585 26586 26587 26588 26589 26590 26591 26592 26593 26594 26595 26596 26597 26598 26599 26600 26601 26602 26603 26604 26605 26606 26607 26608 26609 26610 26611 26612 26613 26614 26615 26616 26617 26618 26619 26620 26621 26622 26623 26624 26625 26626 26627 26628 26629 26630 26631 26632 26633 26634 26635 26636 26637 26638 26639 26640 26641 26642 26643 26644 26645 26646 26647 26648 26649 26650 26651 26652 26653 26654 26655 26656 26657 26658 26659 26660 26661 26662 26663 26664 26665 26666 26667 26668 26669 26670 26671 26672 26673 26674 26675 26676 26677 26678 26679 26680 26681 26682 26683 26684 26685 26686 26687 26688 26689 26690 26691 26692 26693 26694 26695 26696 26697 26698 26699 26700 26701 26702 26703 26704 26705 26706 26707 26708 26709 26710 26711 26712 26713 26714 26715 26716 26717 26718 26719 26720 26721 26722 26723 26724 26725 26726 26727 26728 26729 26730 26731 26732 26733 26734 26735 26736 26737 26738 26739 26740 26741 26742 26743 26744 26745 26746 26747 26748 26749 26750 26751 26752 26753 26754 26755 26756 26757 26758 26759 26760 26761 26762 26763 26764 26765 26766 26767 26768 26769 26770 26771 26772 26773 26774 26775 26776 26777 26778 26779 26780 26781 26782 26783 26784 26785 26786 26787 26788 26789 26790 26791 26792 26793 26794 26795 26796 26797 26798 26799 26800 26801 26802 26803 26804 26805 26806 26807 26808 26809 26810 26811 26812 26813 26814 26815 26816 26817 26818 26819 26820 26821 26822 26823 26824 26825 26826 26827 26828 26829 26830 26831 26832 26833 26834 26835 26836 26837 26838 26839 26840 26841 26842 26843 26844 26845 26846 26847 26848 26849 26850 26851 26852 26853 26854 26855 26856 26857 26858 26859 26860 26861 26862 26863 26864 26865 26866 26867 26868 26869 26870 26871 26872 26873 26874 26875 26876 26877 26878 26879 26880 26881 26882 26883 26884 26885 26886 26887 26888 26889 26890 26891 26892 26893 26894 26895 26896 26897 26898 26899 26900 26901 26902 26903 26904 26905 26906 26907 26908 26909 26910 26911 26912 26913 26914 26915 26916 26917 26918 26919 26920 26921 26922 26923 26924 26925 26926 26927 26928 26929 26930 26931 26932 26933 26934 26935 26936 26937 26938 26939 26940 26941 26942 26943 26944 26945 26946 26947 26948 26949 26950 26951 26952 26953 26954 26955 26956 26957 26958 26959 26960 26961 26962 26963 26964 26965 26966 26967 26968 26969 26970 26971 26972 26973 26974 26975 26976 26977 26978 26979 26980 26981 26982 26983 26984 26985 26986 26987 26988 26989 26990 26991 26992 26993 26994 26995 26996 26997 26998 26999 27000 27001 27002 27003 27004 27005 27006 27007 27008 27009 27010 27011 27012 27013 27014 27015 27016 27017 27018 27019 27020 27021 27022 27023 27024 27025 27026 27027 27028 27029 27030 27031 27032 27033 27034 27035 27036 27037 27038 27039 27040 27041 27042 27043 27044 27045 27046 27047 27048 27049 27050 27051 27052 27053 27054 27055 27056 27057 27058 27059 27060 27061 27062 27063 27064 27065 27066 27067 27068 27069 27070 27071 27072 27073 27074 27075 27076 27077 27078 27079 27080 27081 27082 27083 27084 27085 27086 27087 27088 27089 27090 27091 27092 27093 27094 27095 27096 27097 27098 27099 27100 27101 27102 27103 27104 27105 27106 27107 27108 27109 27110 27111 27112 27113 27114 27115 27116 27117 27118 27119 27120 27121 27122 27123 27124 27125 27126 27127 27128 27129 27130 27131 27132 27133 27134 27135 27136 27137 27138 27139 27140 27141 27142 27143 27144 27145 27146 27147 27148 27149 27150 27151 27152 27153 27154 27155 27156 27157 27158 27159 27160 27161 27162 27163 27164 27165 27166 27167 27168 27169 27170 27171 27172 27173 27174 27175 27176 27177 27178 27179 27180 27181 27182 27183 27184 27185 27186 27187 27188 27189 27190 27191 27192 27193 27194 27195 27196 27197 27198 27199 27200 27201 27202 27203 27204 27205 27206 27207 27208 27209 27210 27211 27212 27213 27214 27215 27216 27217 27218 27219 27220 27221 27222 27223 27224 27225 27226 27227 27228 27229 27230 27231 27232 27233 27234 27235 27236 27237 27238 27239 27240 27241 27242 27243 27244 27245 27246 27247 27248 27249 27250 27251 27252 27253 27254 27255 27256 27257 27258 27259 27260 27261 27262 27263 27264 27265 27266 27267 27268 27269 27270 27271 27272 27273 27274 27275 27276 27277 27278 27279 27280 27281 27282 27283 27284 27285 27286 27287 27288 27289 27290 27291 27292 27293 27294 27295 27296 27297 27298 27299 27300 27301 27302 27303 27304 27305 27306 27307 27308 27309 27310 27311 27312 27313 27314 27315 27316 27317 27318 27319 27320 27321 27322 27323 27324 27325 27326 27327 27328 27329 27330 27331 27332 27333 27334 27335 27336 27337 27338 27339 27340 27341 27342 27343 27344 27345 27346 27347 27348 27349 27350 27351 27352 27353 27354 27355 27356 27357 27358 27359 27360 27361 27362 27363 27364 27365 27366 27367 27368 27369 27370 27371 27372 27373 27374 27375 27376 27377 27378 27379 27380 27381 27382 27383 27384 27385 27386 27387 27388 27389 27390 27391 27392 27393 27394 27395 27396 27397 27398 27399 27400 27401 27402 27403 27404 27405 27406 27407 27408 27409 27410 27411 27412 27413 27414 27415 27416 27417 27418 27419 27420 27421 27422 27423 27424 27425 27426 27427 27428 27429 27430 27431 27432 27433 27434 27435 27436 27437 27438 27439 27440 27441 27442 27443 27444 27445 27446 27447 27448 27449 27450 27451 27452 27453 27454 27455 27456 27457 27458 27459 27460 27461 27462 27463 27464 27465 27466 27467 27468 27469 27470 27471 27472 27473 27474 27475 27476 27477 27478 27479 27480 27481 27482 27483 27484 27485 27486 27487 27488 27489 27490 27491 27492 27493 27494 27495 27496 27497 27498 27499 27500 27501 27502 27503 27504 27505 27506 27507 27508 27509 27510 27511 27512 27513 27514 27515 27516 27517 27518 27519 27520 27521 27522 27523 27524 27525 27526 27527 27528 27529 27530 27531 27532 27533 27534 27535 27536 27537 27538 27539 27540 27541 27542 27543 27544 27545 27546 27547 27548 27549 27550 27551 27552 27553 27554 27555 27556 27557 27558 27559 27560 27561 27562 27563 27564 27565 27566 27567 27568 27569 27570 27571 27572 27573 27574 27575 27576 27577 27578 27579 27580 27581 27582 27583 27584 27585 27586 27587 27588 27589 27590 27591 27592 27593 27594 27595 27596 27597 27598 27599 27600 27601 27602 27603 27604 27605 27606 27607 27608 27609 27610 27611 27612 27613 27614 27615 27616 27617 27618 27619 27620 27621 27622 27623 27624 27625 27626 27627 27628 27629 27630 27631 27632 27633 27634 27635 27636 27637 27638 27639 27640 27641 27642 27643 27644 27645 27646 27647 27648 27649 27650 27651 27652 27653 27654 27655 27656 27657 27658 27659 27660 27661 27662 27663 27664 27665 27666 27667 27668 27669 27670 27671 27672 27673 27674 27675 27676 27677 27678 27679 27680 27681 27682 27683 27684 27685 27686 27687 27688 27689 27690 27691 27692 27693 27694 27695 27696 27697 27698 27699 27700 27701 27702 27703 27704 27705 27706 27707 27708 27709 27710 27711 27712 27713 27714 27715 27716 27717 27718 27719 27720 27721 27722 27723 27724 27725 27726 27727 27728 27729 27730 27731 27732 27733 27734 27735 27736 27737 27738 27739 27740 27741 27742 27743 27744 27745 27746 27747 27748 27749 27750 27751 27752 27753 27754 27755 27756 27757 27758 27759 27760 27761 27762 27763 27764 27765 27766 27767 27768 27769 27770 27771 27772 27773 27774 27775 27776 27777 27778 27779 27780 27781 27782 27783 27784 27785 27786 27787 27788 27789 27790 27791 27792 27793 27794 27795 27796 27797 27798 27799 27800 27801 27802 27803 27804 27805 27806 27807 27808 27809 27810 27811 27812 27813 27814 27815 27816 27817 27818 27819 27820 27821 27822 27823 27824 27825 27826 27827 27828 27829 27830 27831 27832 27833 27834 27835 27836 27837 27838 27839 27840 27841 27842 27843 27844 27845 27846 27847 27848 27849 27850 27851 27852 27853 27854 27855 27856 27857 27858 27859 27860 27861 27862 27863 27864 27865 27866 27867 27868 27869 27870 27871 27872 27873 27874 27875 27876 27877 27878 27879 27880 27881 27882 27883 27884 27885 27886 27887 27888 27889 27890 27891 27892 27893 27894 27895 27896 27897 27898 27899 27900 27901 27902 27903 27904 27905 27906 27907 27908 27909 27910 27911 27912 27913 27914 27915 27916 27917 27918 27919 27920 27921 27922 27923 27924 27925 27926 27927 27928 27929 27930 27931 27932 27933 27934 27935 27936 27937 27938 27939 27940 27941 27942 27943 27944 27945 27946 27947 27948 27949 27950 27951 27952 27953 27954 27955 27956 27957 27958 27959 27960 27961 27962 27963 27964 27965 27966 27967 27968 27969 27970 27971 27972 27973 27974 27975 27976 27977 27978 27979 27980 27981 27982 27983 27984 27985 27986 27987 27988 27989 27990 27991 27992 27993 27994 27995 27996 27997 27998 27999 28000 28001 28002 28003 28004 28005 28006 28007 28008 28009 28010 28011 28012 28013 28014 28015 28016 28017 28018 28019 28020 28021 28022 28023 28024 28025 28026 28027 28028 28029 28030 28031 28032 28033 28034 28035 28036 28037 28038 28039 28040 28041 28042 28043 28044 28045 28046 28047 28048 28049 28050 28051 28052 28053 28054 28055 28056 28057 28058 28059 28060 28061 28062 28063 28064 28065 28066 28067 28068 28069 28070 28071 28072 28073 28074 28075 28076 28077 28078 28079 28080 28081 28082 28083 28084 28085 28086 28087 28088 28089 28090 28091 28092 28093 28094 28095 28096 28097 28098 28099 28100 28101 28102 28103 28104 28105 28106 28107 28108 28109 28110 28111 28112 28113 28114 28115 28116 28117 28118 28119 28120 28121 28122 28123 28124 28125 28126 28127 28128 28129 28130 28131 28132 28133 28134 28135 28136 28137 28138 28139 28140 28141 28142 28143 28144 28145 28146 28147 28148 28149 28150 28151 28152 28153 28154 28155 28156 28157 28158 28159 28160 28161 28162 28163 28164 28165 28166 28167 28168 28169 28170 28171 28172 28173 28174 28175 28176 28177 28178 28179 28180 28181 28182 28183 28184 28185 28186 28187 28188 28189 28190 28191 28192 28193 28194 28195 28196 28197 28198 28199 28200 28201 28202 28203 28204 28205 28206 28207 28208 28209 28210 28211 28212 28213 28214 28215 28216 28217 28218 28219 28220 28221 28222 28223 28224 28225 28226 28227 28228 28229 28230 28231 28232 28233 28234 28235 28236 28237 28238 28239 28240 28241 28242 28243 28244 28245 28246 28247 28248 28249 28250 28251 28252 28253 28254 28255 28256 28257 28258 28259 28260 28261 28262 28263 28264 28265 28266 28267 28268 28269 28270 28271 28272 28273 28274 28275 28276 28277 28278 28279 28280 28281 28282 28283 28284 28285 28286 28287 28288 28289 28290 28291 28292 28293 28294 28295 28296 28297 28298 28299 28300 28301 28302 28303 28304 28305 28306 28307 28308 28309 28310 28311 28312 28313 28314 28315 28316 28317 28318 28319 28320 28321 28322 28323 28324 28325 28326 28327 28328 28329 28330 28331 28332 28333 28334 28335 28336 28337 28338 28339 28340 28341 28342 28343 28344 28345 28346 28347 28348 28349 28350 28351 28352 28353 28354 28355 28356 28357 28358 28359 28360 28361 28362 28363 28364 28365 28366 28367 28368 28369 28370 28371 28372 28373 28374 28375 28376 28377 28378 28379 28380 28381 28382 28383 28384 28385 28386 28387 28388 28389 28390 28391 28392 28393 28394 28395 28396 28397 28398 28399 28400 28401 28402 28403 28404 28405 28406 28407 28408 28409 28410 28411 28412 28413 28414 28415 28416 28417 28418 28419 28420 28421 28422 28423 28424 28425 28426 28427 28428 28429 28430 28431 28432 28433 28434 28435 28436 28437 28438 28439 28440 28441 28442 28443 28444 28445 28446 28447 28448 28449 28450 28451 28452 28453 28454 28455 28456 28457 28458 28459 28460 28461 28462 28463 28464 28465 28466 28467 28468 28469 28470 28471 28472 28473 28474 28475 28476 28477 28478 28479 28480 28481 28482 28483 28484 28485 28486 28487 28488 28489 28490 28491 28492 28493 28494 28495 28496 28497 28498 28499 28500 28501 28502 28503 28504 28505 28506 28507 28508 28509 28510 28511 28512 28513 28514 28515 28516 28517 28518 28519 28520 28521 28522 28523 28524 28525 28526 28527 28528 28529 28530 28531 28532 28533 28534 28535 28536 28537 28538 28539 28540 28541 28542 28543 28544 28545 28546 28547 28548 28549 28550 28551 28552 28553 28554 28555 28556 28557 28558 28559 28560 28561 28562 28563 28564 28565 28566 28567 28568 28569 28570 28571 28572 28573 28574 28575 28576 28577 28578 28579 28580 28581 28582 28583 28584 28585 28586 28587 28588 28589 28590 28591 28592 28593 28594 28595 28596 28597 28598 28599 28600 28601 28602 28603 28604 28605 28606 28607 28608 28609 28610 28611 28612 28613 28614 28615 28616 28617 28618 28619 28620 28621 28622 28623 28624 28625 28626 28627 28628 28629 28630 28631 28632 28633 28634 28635 28636 28637 28638 28639 28640 28641 28642 28643 28644 28645 28646 28647 28648 28649 28650 28651 28652 28653 28654 28655 28656 28657 28658 28659 28660 28661 28662 28663 28664 28665 28666 28667 28668 28669 28670 28671 28672 28673 28674 28675 28676 28677 28678 28679 28680 28681 28682 28683 28684 28685 28686 28687 28688 28689 28690 28691 28692 28693 28694 28695 28696 28697 28698 28699 28700 28701 28702 28703 28704 28705 28706 28707 28708 28709 28710 28711 28712 28713 28714 28715 28716 28717 28718 28719 28720 28721 28722 28723 28724 28725 28726 28727 28728 28729 28730 28731 28732 28733 28734 28735 28736 28737 28738 28739 28740 28741 28742 28743 28744 28745 28746 28747 28748 28749 28750 28751 28752 28753 28754 28755 28756 28757 28758 28759 28760 28761 28762 28763 28764 28765 28766 28767 28768 28769 28770 28771 28772 28773 28774 28775 28776 28777 28778 28779 28780 28781 28782 28783 28784 28785 28786 28787 28788 28789 28790 28791 28792 28793 28794 28795 28796 28797 28798 28799 28800 28801 28802 28803 28804 28805 28806 28807 28808 28809 28810 28811 28812 28813 28814 28815 28816 28817 28818 28819 28820 28821 28822 28823 28824 28825 28826 28827 28828 28829 28830 28831 28832 28833 28834 28835 28836 28837 28838 28839 28840 28841 28842 28843 28844 28845 28846 28847 28848 28849 28850 28851 28852 28853 28854 28855 28856 28857 28858 28859 28860 28861 28862 28863 28864 28865 28866 28867 28868 28869 28870 28871 28872 28873 28874 28875 28876 28877 28878 28879 28880 28881 28882 28883 28884 28885 28886 28887 28888 28889 28890 28891 28892 28893 28894 28895 28896 28897 28898 28899 28900 28901 28902 28903 28904 28905 28906 28907 28908 28909 28910 28911 28912 28913 28914 28915 28916 28917 28918 28919 28920 28921 28922 28923 28924 28925 28926 28927 28928 28929 28930 28931 28932 28933 28934 28935 28936 28937 28938 28939 28940 28941 28942 28943 28944 28945 28946 28947 28948 28949 28950 28951 28952 28953 28954 28955 28956 28957 28958 28959 28960 28961 28962 28963 28964 28965 28966 28967 28968 28969 28970 28971 28972 28973 28974 28975 28976 28977 28978 28979 28980 28981 28982 28983 28984 28985 28986 28987 28988 28989 28990 28991 28992 28993 28994 28995 28996 28997 28998 28999 29000 29001 29002 29003 29004 29005 29006 29007 29008 29009 29010 29011 29012 29013 29014 29015 29016 29017 29018 29019 29020 29021 29022 29023 29024 29025 29026 29027 29028 29029 29030 29031 29032 29033 29034 29035 29036 29037 29038 29039 29040 29041 29042 29043 29044 29045 29046 29047 29048 29049 29050 29051 29052 29053 29054 29055 29056 29057 29058 29059 29060 29061 29062 29063 29064 29065 29066 29067 29068 29069 29070 29071 29072 29073 29074 29075 29076 29077 29078 29079 29080 29081 29082 29083 29084 29085 29086 29087 29088 29089 29090 29091 29092 29093 29094 29095 29096 29097 29098 29099 29100 29101 29102 29103 29104 29105 29106 29107 29108 29109 29110 29111 29112 29113 29114 29115 29116 29117 29118 29119 29120 29121 29122 29123 29124 29125 29126 29127 29128 29129 29130 29131 29132 29133 29134 29135 29136 29137 29138 29139 29140 29141 29142 29143 29144 29145 29146 29147 29148 29149 29150 29151 29152 29153 29154 29155 29156 29157 29158 29159 29160 29161 29162 29163 29164 29165 29166 29167 29168 29169 29170 29171 29172 29173 29174 29175 29176 29177 29178 29179 29180 29181 29182 29183 29184 29185 29186 29187 29188 29189 29190 29191 29192 29193 29194 29195 29196 29197 29198 29199 29200 29201 29202 29203 29204 29205 29206 29207 29208 29209 29210 29211 29212 29213 29214 29215 29216 29217 29218 29219 29220 29221 29222 29223 29224 29225 29226 29227 29228 29229 29230 29231 29232 29233 29234 29235 29236 29237 29238 29239 29240 29241 29242 29243 29244 29245 29246 29247 29248 29249 29250 29251 29252 29253 29254 29255 29256 29257 29258 29259 29260 29261 29262 29263 29264 29265 29266 29267 29268 29269 29270 29271 29272 29273 29274 29275 29276 29277 29278 29279 29280 29281 29282 29283 29284 29285 29286 29287 29288 29289 29290 29291 29292 29293 29294 29295 29296 29297 29298 29299 29300 29301 29302 29303 29304 29305 29306 29307 29308 29309 29310 29311 29312 29313 29314 29315 29316 29317 29318 29319 29320 29321 29322 29323 29324 29325 29326 29327 29328 29329 29330 29331 29332 29333 29334 29335 29336 29337 29338 29339 29340 29341 29342 29343 29344 29345 29346 29347 29348 29349 29350 29351 29352 29353 29354 29355 29356 29357 29358 29359 29360 29361 29362 29363 29364 29365 29366 29367 29368 29369 29370 29371 29372 29373 29374 29375 29376 29377 29378 29379 29380 29381 29382 29383 29384 29385 29386 29387 29388 29389 29390 29391 29392 29393 29394 29395 29396 29397 29398 29399 29400 29401 29402 29403 29404 29405 29406 29407 29408 29409 29410 29411 29412 29413 29414 29415 29416 29417 29418 29419 29420 29421 29422 29423 29424 29425 29426 29427 29428 29429 29430 29431 29432 29433 29434 29435 29436 29437 29438 29439 29440 29441 29442 29443 29444 29445 29446 29447 29448 29449 29450 29451 29452 29453 29454 29455 29456 29457 29458 29459 29460 29461 29462 29463 29464 29465 29466 29467 29468 29469 29470 29471 29472 29473 29474 29475 29476 29477 29478 29479 29480 29481 29482 29483 29484 29485 29486 29487 29488 29489 29490 29491 29492 29493 29494 29495 29496 29497 29498 29499 29500 29501 29502 29503 29504 29505 29506 29507 29508 29509 29510 29511 29512 29513 29514 29515 29516 29517 29518 29519 29520 29521 29522 29523 29524 29525 29526 29527 29528 29529 29530 29531 29532 29533 29534 29535 29536 29537 29538 29539 29540 29541 29542 29543 29544 29545 29546 29547 29548 29549 29550 29551 29552 29553 29554 29555 29556 29557 29558 29559 29560 29561 29562 29563 29564 29565 29566 29567 29568 29569 29570 29571 29572 29573 29574 29575 29576 29577 29578 29579 29580 29581 29582 29583 29584 29585 29586 29587 29588 29589 29590 29591 29592 29593 29594 29595 29596 29597 29598 29599 29600 29601 29602 29603 29604 29605 29606 29607 29608 29609 29610 29611 29612 29613 29614 29615 29616 29617 29618 29619 29620 29621 29622 29623 29624 29625 29626 29627 29628 29629 29630 29631 29632 29633 29634 29635 29636 29637 29638 29639 29640 29641 29642 29643 29644 29645 29646 29647 29648 29649 29650 29651 29652 29653 29654 29655 29656 29657 29658 29659 29660 29661 29662 29663 29664 29665 29666 29667 29668 29669 29670 29671 29672 29673 29674 29675 29676 29677 29678 29679 29680 29681 29682 29683 29684 29685 29686 29687 29688 29689 29690 29691 29692 29693 29694 29695 29696 29697 29698 29699 29700 29701 29702 29703 29704 29705 29706 29707 29708 29709 29710 29711 29712 29713 29714 29715 29716 29717 29718 29719 29720 29721 29722 29723 29724 29725 29726 29727 29728 29729 29730 29731 29732 29733 29734 29735 29736 29737 29738 29739 29740 29741 29742 29743 29744 29745 29746 29747 29748 29749 29750 29751 29752 29753 29754 29755 29756 29757 29758 29759 29760 29761 29762 29763 29764 29765 29766 29767 29768 29769 29770 29771 29772 29773 29774 29775 29776 29777 29778 29779 29780 29781 29782 29783 29784 29785 29786 29787 29788 29789 29790 29791 29792 29793 29794 29795 29796 29797 29798 29799 29800 29801 29802 29803 29804 29805 29806 29807 29808 29809 29810 29811 29812 29813 29814 29815 29816 29817 29818 29819 29820 29821 29822 29823 29824 29825 29826 29827 29828 29829 29830 29831 29832 29833 29834 29835 29836 29837 29838 29839 29840 29841 29842 29843 29844 29845 29846 29847 29848 29849 29850 29851 29852 29853 29854 29855 29856 29857 29858 29859 29860 29861 29862 29863 29864 29865 29866 29867 29868 29869 29870 29871 29872 29873 29874 29875 29876 29877 29878 29879 29880 29881 29882 29883 29884 29885 29886 29887 29888 29889 29890 29891 29892 29893 29894 29895 29896 29897 29898 29899 29900 29901 29902 29903 29904 29905 29906 29907 29908 29909 29910 29911 29912 29913 29914 29915 29916 29917 29918 29919 29920 29921 29922 29923 29924 29925 29926 29927 29928 29929 29930 29931 29932 29933 29934 29935 29936 29937 29938 29939 29940 29941 29942 29943 29944 29945 29946 29947 29948 29949 29950 29951 29952 29953 29954 29955 29956 29957 29958 29959 29960 29961 29962 29963 29964 29965 29966 29967 29968 29969 29970 29971 29972 29973 29974 29975 29976 29977 29978 29979 29980 29981 29982 29983 29984 29985 29986 29987 29988 29989 29990 29991 29992 29993 29994 29995 29996 29997 29998 29999 30000 30001 30002 30003 30004 30005 30006 30007 30008 30009 30010 30011 30012 30013 30014 30015 30016 30017 30018 30019 30020 30021 30022 30023 30024 30025 30026 30027 30028 30029 30030 30031 30032 30033 30034 30035 30036 30037 30038 30039 30040 30041 30042 30043 30044 30045 30046 30047 30048 30049 30050 30051 30052 30053 30054 30055 30056 30057 30058 30059 30060 30061 30062 30063 30064 30065 30066 30067 30068 30069 30070 30071 30072 30073 30074 30075 30076 30077 30078 30079 30080 30081 30082 30083 30084 30085 30086 30087 30088 30089 30090 30091 30092 30093 30094 30095 30096 30097 30098 30099 30100 30101 30102 30103 30104 30105 30106 30107 30108 30109 30110 30111 30112 30113 30114 30115 30116 30117 30118 30119 30120 30121 30122 30123 30124 30125 30126 30127 30128 30129 30130 30131 30132 30133 30134 30135 30136 30137 30138 30139 30140 30141 30142 30143 30144 30145 30146 30147 30148 30149 30150 30151 30152 30153 30154 30155 30156 30157 30158 30159 30160 30161 30162 30163 30164 30165 30166 30167 30168 30169 30170 30171 30172 30173 30174 30175 30176 30177 30178 30179 30180 30181 30182 30183 30184 30185 30186 30187 30188 30189 30190 30191 30192 30193 30194 30195 30196 30197 30198 30199 30200 30201 30202 30203 30204 30205 30206 30207 30208 30209 30210 30211 30212 30213 30214 30215 30216 30217 30218 30219 30220 30221 30222 30223 30224 30225 30226 30227 30228 30229 30230 30231 30232 30233 30234 30235 30236 30237 30238 30239 30240 30241 30242 30243 30244 30245 30246 30247 30248 30249 30250 30251 30252 30253 30254 30255 30256 30257 30258 30259 30260 30261 30262 30263 30264 30265 30266 30267 30268 30269 30270 30271 30272 30273 30274 30275 30276 30277 30278 30279 30280 30281 30282 30283 30284 30285 30286 30287 30288 30289 30290 30291 30292 30293 30294 30295 30296 30297 30298 30299 30300 30301 30302 30303 30304 30305 30306 30307 30308 30309 30310 30311 30312 30313 30314 30315 30316 30317 30318 30319 30320 30321 30322 30323 30324 30325 30326 30327 30328 30329 30330 30331 30332 30333 30334 30335 30336 30337 30338 30339 30340 30341 30342 30343 30344 30345 30346 30347 30348 30349 30350 30351 30352 30353 30354 30355 30356 30357 30358 30359 30360 30361 30362 30363 30364 30365 30366 30367 30368 30369 30370 30371 30372 30373 30374 30375 30376 30377 30378 30379 30380 30381 30382 30383 30384 30385 30386 30387 30388 30389 30390 30391 30392 30393 30394 30395 30396 30397 30398 30399 30400 30401 30402 30403 30404 30405 30406 30407 30408 30409 30410 30411 30412 30413 30414 30415 30416 30417 30418 30419 30420 30421 30422 30423 30424 30425 30426 30427 30428 30429 30430 30431 30432 30433 30434 30435 30436 30437 30438 30439 30440 30441 30442 30443 30444 30445 30446 30447 30448 30449 30450 30451 30452 30453 30454 30455 30456 30457 30458 30459 30460 30461 30462 30463 30464 30465 30466 30467 30468 30469 30470 30471 30472 30473 30474 30475 30476 30477 30478 30479 30480 30481 30482 30483 30484 30485 30486 30487 30488 30489 30490 30491 30492 30493 30494 30495 30496 30497 30498 30499 30500 30501 30502 30503 30504 30505 30506 30507 30508 30509 30510 30511 30512 30513 30514 30515 30516 30517 30518 30519 30520 30521 30522 30523 30524 30525 30526 30527 30528 30529 30530 30531 30532 30533 30534 30535 30536 30537 30538 30539 30540 30541 30542 30543 30544 30545 30546 30547 30548 30549 30550 30551 30552 30553 30554 30555 30556 30557 30558 30559 30560 30561 30562 30563 30564 30565 30566 30567 30568 30569 30570 30571 30572 30573 30574 30575 30576 30577 30578 30579 30580 30581 30582 30583 30584 30585 30586 30587 30588 30589 30590 30591 30592 30593 30594 30595 30596 30597 30598 30599 30600 30601 30602 30603 30604 30605 30606 30607 30608 30609 30610 30611 30612 30613 30614 30615 30616 30617 30618 30619 30620 30621 30622 30623 30624 30625 30626 30627 30628 30629 30630 30631 30632 30633 30634 30635 30636 30637 30638 30639 30640 30641 30642 30643 30644 30645 30646 30647 30648 30649 30650 30651 30652 30653 30654 30655 30656 30657 30658 30659 30660 30661 30662 30663 30664 30665 30666 30667 30668 30669 30670 30671 30672 30673 30674 30675 30676 30677 30678 30679 30680 30681 30682 30683 30684 30685 30686 30687 30688 30689 30690 30691 30692 30693 30694 30695 30696 30697 30698 30699 30700 30701 30702 30703 30704 30705 30706 30707 30708 30709 30710 30711 30712 30713 30714 30715 30716 30717 30718 30719 30720 30721 30722 30723 30724 30725 30726 30727 30728 30729 30730 30731 30732 30733 30734 30735 30736 30737 30738 30739 30740 30741 30742 30743 30744 30745 30746 30747 30748 30749 30750 30751 30752 30753 30754 30755 30756 30757 30758 30759 30760 30761 30762 30763 30764 30765 30766 30767 30768 30769 30770 30771 30772 30773 30774 30775 30776 30777 30778 30779 30780 30781 30782 30783 30784 30785 30786 30787 30788 30789 30790 30791 30792 30793 30794 30795 30796 30797 30798 30799 30800 30801 30802 30803 30804 30805 30806 30807 30808 30809 30810 30811 30812 30813 30814 30815 30816 30817 30818 30819 30820 30821 30822 30823 30824 30825 30826 30827 30828 30829 30830 30831 30832 30833 30834 30835 30836 30837 30838 30839 30840 30841 30842 30843 30844 30845 30846 30847 30848 30849 30850 30851 30852 30853 30854 30855 30856 30857 30858 30859 30860 30861 30862 30863 30864 30865 30866 30867 30868 30869 30870 30871 30872 30873 30874 30875 30876 30877 30878 30879 30880 30881 30882 30883 30884 30885 30886 30887 30888 30889 30890 30891 30892 30893 30894 30895 30896 30897 30898 30899 30900 30901 30902 30903 30904 30905 30906 30907 30908 30909 30910 30911 30912 30913 30914 30915 30916 30917 30918 30919 30920 30921 30922 30923 30924 30925 30926 30927 30928 30929 30930 30931 30932 30933 30934 30935 30936 30937 30938 30939 30940 30941 30942 30943 30944 30945 30946 30947 30948 30949 30950 30951 30952 30953 30954 30955 30956 30957 30958 30959 30960 30961 30962 30963 30964 30965 30966 30967 30968 30969 30970 30971 30972 30973 30974 30975 30976 30977 30978 30979 30980 30981 30982 30983 30984 30985 30986 30987 30988 30989 30990 30991 30992 30993 30994 30995 30996 30997 30998 30999 31000 31001 31002 31003 31004 31005 31006 31007 31008 31009 31010 31011 31012 31013 31014 31015 31016 31017 31018 31019 31020 31021 31022 31023 31024 31025 31026 31027 31028 31029 31030 31031 31032 31033 31034 31035 31036 31037 31038 31039 31040 31041 31042 31043 31044 31045 31046 31047 31048 31049 31050 31051 31052 31053 31054 31055 31056 31057 31058 31059 31060 31061 31062 31063 31064 31065 31066 31067 31068 31069 31070 31071 31072 31073 31074 31075 31076 31077 31078 31079 31080 31081 31082 31083 31084 31085 31086 31087 31088 31089 31090 31091 31092 31093 31094 31095 31096 31097 31098 31099 31100 31101 31102 31103 31104 31105 31106 31107 31108 31109 31110 31111 31112 31113 31114 31115 31116 31117 31118 31119 31120 31121 31122 31123 31124 31125 31126 31127 31128 31129 31130 31131 31132 31133 31134 31135 31136 31137 31138 31139 31140 31141 31142 31143 31144 31145 31146 31147 31148 31149 31150 31151 31152 31153 31154 31155 31156 31157 31158 31159 31160 31161 31162 31163 31164 31165 31166 31167 31168 31169 31170 31171 31172 31173 31174 31175 31176 31177 31178 31179 31180 31181 31182 31183 31184 31185 31186 31187 31188 31189 31190 31191 31192 31193 31194 31195 31196 31197 31198 31199 31200 31201 31202 31203 31204 31205 31206 31207 31208 31209 31210 31211 31212 31213 31214 31215 31216 31217 31218 31219 31220 31221 31222 31223 31224 31225 31226 31227 31228 31229 31230 31231 31232 31233 31234 31235 31236 31237 31238 31239 31240 31241 31242 31243 31244 31245 31246 31247 31248 31249 31250 31251 31252 31253 31254 31255 31256 31257 31258 31259 31260 31261 31262 31263 31264 31265 31266 31267 31268 31269 31270 31271 31272 31273 31274 31275 31276 31277 31278 31279 31280 31281 31282 31283 31284 31285 31286 31287 31288 31289 31290 31291 31292 31293 31294 31295 31296 31297 31298 31299 31300 31301 31302 31303 31304 31305 31306 31307 31308 31309 31310 31311 31312 31313 31314 31315 31316 31317 31318 31319 31320 31321 31322 31323 31324 31325 31326 31327 31328 31329 31330 31331 31332 31333 31334 31335 31336 31337 31338 31339 31340 31341 31342 31343 31344 31345 31346 31347 31348 31349 31350 31351 31352 31353 31354 31355 31356 31357 31358 31359 31360 31361 31362 31363 
</DataArray>
<DataArray type="UInt32" Name="offsets" format="ascii">
3 6 9 12 15 18 21 23 26 28 31 34 37 40 43 46 49 52 55 57 60 63 66 69 72 75 78 81 84 87 90 92 95 98 100 103 106 108 111 114 117 120 123 126 129 132 135 138 141 143 146 149 152 155 158 161 164 167 170 173 176 179 182 184 187 190 193 196 199 202 205 208 211 214 217 220 223 226 229 231 234 237 240 242 245 248 251 254 257 259 262 265 268 271 274 277 280 283 286 289 292 295 298 301 304 307 310 313 316 319 322 324 327 329 332 335 338 341 344 347 350 353 356 359 362 365 368 370 373 375 378 380 383 386 389 391 394 397 400 403 406 409 412 414 417 420 423 426 429 432 435 438 441 444 447 450 453 456 459 462 465 468 471 474 477 480 483 486 489 492 495 498 501 504 507 510 513 515 518 520 523 525 528 531 533 536 539 542 545 548 551 554 556 559 562 565 568 571 574 577 579 582 585 588 591 594 597 600 603 606 609 612 614 617 620 622 625 628 631 634 637 640 643 646 649 652 655 658 661 664 667 670 673 676 679 682 685 688 691 694 697 700 703 706 709 712 715 718 721 724 727 729 732 735 738 741 744 746 749 752 755 758 761 764 767 770 773 776 779 782 785 788 791 794 796 799 802 805 808 811 814 817 820 822 825 828 831 834 837 839 842 845 848 851 854 857 860 863 866 869 872 875 877 880 883 886 889 891 894 897 900 902 905 908 911 914 917 920 923 926 929 932 935 938 941 944 947 950 953 956 959 962 965 968 971 974 977 980 983 986 989 992 995 998 1001 1004 1007 1009 1012 1014 1017 1020 1023 1026 1029 1032 1035 1038 1041 1044 1047 1050 1053 1056 1059 1062 1065 1068 1070 1073 1076 1079 1082 1085 1088 1091 1094 1097 1100 1103 1106 1109 1112 1115 1118 1121 1124 1127 1129 1131 1134 1137 1139 1142 1145 1148 1151 1154 1157 1159 1162 1165 1168 1171 1174 1177 1179 1182 1185 1187 1190 1192 1195 1198 1201 1204 1207 1210 1212 1215 1218 1220 1223 1226 1229 1232 1235 1238 1241 1244 1247 1250 1253 1256 1259 1262 1265 1268 1271 1274 1277 1280 1283 1286 1288 1291 1294 1297 1300 1303 1305 1308 1311 1314 1317 1320 1323 1326 1329 1332 1335 1338 1341 1344 1347 1350 1353 1356 1359 1362 1365 1368 1371 1373 1376 1379 1382 1384 1387 1390 1393 1396 1399 1402 1405 1408 1411 1413 1416 1418 1421 1424 1426 1429 1432 1435 1437 1440 1442 1445 1448 1451 1454 1457 1459 1462 1465 1468 1471 1473 1476 1478 1480 1483 1486 1489 1492 1495 1498 1501 1504 1507 1509 1512 1515 1517 1520 1523 1526 1529 1532 1534 1537 1540 1543 1546 1548 1551 1554 1557 1559 1562 1564 1567 1569 1572 1575 1578 1581 1584 1587 1590 1593 1596 1599 1602 1605 1607 1610 1613 1616 1618 1621 1624 1627 1630 1633 1636 1639 1642 1645 1648 1651 1654 1656 1659 1662 1665 1668 1671 1673 1676 1679 1681 1684 1687 1689 1692 1695 1698 1701 1704 1707 1710 1713 1716 1719 1722 1725 1728 1731 1734 1737 1740 1742 1745 1747 1750 1752 1755 1757 1760 1763 1766 1769 1771 1774 1777 1780 1783 1785 1788 1791 1794 1797 1799 1802 1805 1808 1811 1814 1816 1819 1822 1824 1827 1829 1831 1833 1836 1839 1842 1845 1848 1851 1854 1857 1860 1863 1866 1869 1872 1875 1878 1881 1884 1887 1889 1892 1895 1898 1901 1904 1907 1910 1913 1916 1918 1921 1924 1927 1930 1933 1935 1938 1941 1944 1947 1950 1953 1956 1958 1961 1964 1966 1968 1971 1974 1977 1980 1983 1985 1988 1990 1993 1996 1999 2002 2005 2008 2011 2013 2016 2019 2021 2024 2027 2030 2033 2036 2039 2041 2044 2046 2049 2052 2054 2057 2060 2063 2066 2069 2072 2075 2078 2081 2084 2087 2090 2093 2096 2099 2102 2105 2108 2111 2114 2117 2120 2122 2125 2128 2131 2134 2137 2140 2143 2145 2148 2151 2154 2156 2159 2161 2164 2167 2170 2172 2175 2178 2181 2183 2186 2189 2192 2195 2198 2201 2204 2207 2210 2212 2215 2218 2221 2224 2227 2230 2233 2236 2238 2241 2243 2245 2247 2250 2253 2255 2258 2260 2263 2266 2269 2272 2275 2278 2281 2284 2287 2290 2293 2296 2299 2302 2305 2308 2311 2314 2317 2320 2323 2326 2329 2332 2335 2337 2339 2341 2344 2347 2350 2353 2356 2359 2362 2365 2368 2371 2374 2377 2380 2383 2386 2389 2392 2395 2398 2401 2404 2407 2410 2413 2416 2419 2422 2425 2428 2430 2433 2436 2439 2442 2445 2447 2450 2453 2456 2458 2461 2464 2466 2468 2471 2473 2476 2479 2482 2485 2488 2491 2493 2496 2499 2502 2505 2508 2510 2513 2515 2518 2521 2524 2526 2529 2531 2534 2536 2539 2542 2545 2548 2551 2553 2556 2559 2562 2564 2567 2570 2573 2576 2579 2582 2585 2588 2590 2593 2596 2599 2602 2605 2608 2610 2613 2616 2619 2622 2625 2628 2631 2634 2636 2639 2642 2644 2647 2650 2653 2656 2659 2662 2664 2667 2669 2672 2674 2677 2680 2683 2686 2689 2692 2695 2698 2701 2704 2707 2709 2711 2713 2716 2719 2721 2724 2727 2730 2733 2736 2738 2740 2743 2746 2748 2750 2752 2755 2758 2761 2764 2767 2770 2773 2776 2779 2782 2785 2788 2791 2794 2797 2800 2803 2806 2809 2812 2815 2818 2821 2824 2827 2830 2833 2836 2839 2842 2845 2848 2851 2853 2856 2859 2862 2865 2868 2871 2874 2876 2879 2882 2885 2888 2891 2894 2896 2899 2902 2905 2908 2911 2914 2917 2920 2923 2926 2929 2932 2935 2938 2941 2944 2947 2950 2953 2956 2959 2962 2965 2968 2971 2974 2977 2980 2983 2986 2989 2992 2995 2998 3001 3004 3007 3010 3013 3016 3019 3022 3025 3028 3031 3034 3037 3040 3043 3046 3049 3052 3055 3058 3060 3063 3066 3069 3071 3074 3077 3079 3082 3085 3088 3091 3094 3097 3099 3102 3105 3108 3111 3114 3117 3120 3123 3126 3129 3131 3134 3137 3140 3143 3145 3148 3151 3154 3157 3160 3163 3166 3169 3172 3175 3178 3181 3184 3187 3190 3193 3196 3199 3202 3205 3208 3211 3214 3217 3219 3222 3225 3228 3231 3233 3236 3239 3242 3245 3248 3251 3254 3257 3260 3263 3266 3269 3272 3275 3278 3281 3284 3287 3290 3293 3296 3299 3302 3305 3308 3311 3314 3317 3320 3323 3326 3329 3332 3335 3338 3341 3344 3347 3349 3352 3355 3358 3361 3364 3366 3369 3372 3375 3377 3379 3382 3385 3388 3391 3394 3397 3400 3403 3406 3408 3411 3414 3417 3419 3422 3425 3428 3431 3434 3437 3439 3442 3445 3448 3451 3454 3457 3460 3463 3466 3469 3471 3473 3476 3479 3482 3485 3488 3491 3494 3497 3500 3502 3505 3508 3510 3513 3516 3519 3521 3523 3526 3529 3531 3534 3537 3539 3541 3544 3547 3550 3552 3555 3558 3561 3564 3567 3569 3572 3575 3578 3581 3584 3587 3590 3593 3596 3598 3601 3604 3607 3610 3613 3616 3619 3622 3625 3628 3631 3634 3637 3640 3643 3645 3648 3651 3654 3657 3660 3663 3665 3668 3671 3674 3677 3680 3683 3686 3689 3692 3695 3698 3701 3704 3707 3710 3713 3715 3717 3720 3723 3726 3729 3732 3735 3738 3741 3744 3747 3750 3753 3756 3759 3762 3765 3768 3771 3774 3777 3780 3783 3786 3789 3792 3795 3798 3801 3804 3807 3810 3813 3816 3819 3822 3825 3828 3831 3834 3837 3840 3843 3846 3849 3851 3854 3856 3859 3862 3865 3867 3870 3873 3876 3879 3882 3885 3888 3891 3894 3896 3899 3902 3904 3907 3910 3913 3916 3919 3921 3924 3927 3930 3933 3936 3939 3942 3944 3947 3950 3952 3955 3958 3961 3964 3967 3970 3972 3975 3978 3981 3984 3987 3990 3993 3996 3999 4002 4005 4008 4010 4013 4016 4019 4022 4025 4028 4031 4034 4037 4040 4043 4046 4049 4052 4055 4058 4061 4064 4067 4070 4073 4076 4079 4082 4085 4088 4091 4094 4097 4100 4103 4106 4109 4112 4115 4118 4121 4124 4127 4130 4133 4136 4139 4142 4145 4148 4151 4154 4157 4160 4163 4166 4169 4172 4175 4178 4181 4184 4187 4190 4193 4196 4199 4202 4205 4208 4211 4214 4217 4220 4223 4226 4229 4232 4235 4238 4241 4244 4247 4250 4253 4256 4259 4262 4265 4268 4271 4274 4277 4279 4282 4285 4288 4291 4294 4297 4300 4303 4306 4309 4312 4314 4317 4320 4323 4325 4328 4331 4334 4337 4340 4343 4346 4349 4352 4355 4358 4361 4364 4367 4370 4373 4376 4379 4382 4385 4388 4391 4394 4397 4400 4403 4406 4409 4412 4415 4418 4421 4424 4427 4430 4433 4436 4439 4442 4445 4448 4451 4454 4457 4460 4463 4466 4469 4472 4475 4478 4481 4484 4487 4490 4493 4496 4499 4502 4505 4508 4511 4514 4517 4520 4523 4526 4529 4532 4535 4538 4541 4544 4547 4550 4553 4556 4559 4562 4565 4568 4571 4574 4577 4580 4583 4586 4589 4592 4595 4598 4601 4604 4607 4610 4613 4616 4619 4622 4625 4628 4631 4634 4637 4640 4643 4646 4649 4652 4655 4658 4661 4663 4666 4669 4672 4675 4678 4681 4684 4687 4690 4693 4695 4698 4701 4704 4707 4709 4712 4715 4718 4720 4722 4725 4728 4731 4734 4737 4740 4743 4746 4749 4752 4755 4758 4761 4764 4767 4770 4773 4776 4779 4781 4783 4786 4789 4791 4794 4797 4800 4803 4806 4809 4811 4814 4817 4820 4823 4826 4828 4831 4834 4837 4840 4843 4846 4848 4851 4854 4857 4860 4863 4866 4868 4871 4873 4876 4879 4882 4885 4888 4891 4894 4897 4900 4903 4906 4909 4912 4915 4918 4921 4924 4926 4929 4932 4935 4938 4941 4944 4947 4949 4952 4955 4958 4961 4964 4966 4969 4972 4975 4978 4981 4984 4987 4989 4992 4995 4998 5000 5003 5006 5008 5011 5014 5017 5020 5023 5026 5029 5032 5035 5038 5041 5044 5047 5050 5052 5055 5058 5061 5064 5067 5070 5073 5076 5078 5081 5084 5087 5090 5093 5096 5098 5101 5104 5107 5110 5113 5115 5118 5121 5124 5127 5130 5133 5136 5139 5142 5145 5148 5151 5154 5157 5160 5163 5166 5169 5172 5174 5177 5180 5183 5185 5188 5190 5193 5196 5199 5202 5205 5208 5211 5214 5217 5220 5223 5226 5229 5232 5235 5238 5241 5244 5247 5250 5253 5256 5259 5262 5265 5267 5270 5273 5275 5278 5281 5284 5287 5290 5293 5296 5299 5301 5304 5307 5310 5313 5316 5319 5322 5325 5328 5331 5334 5336 5339 5342 5345 5348 5351 5354 5357 5360 5363 5366 5369 5372 5375 5378 5381 5384 5387 5389 5392 5395 5398 5401 5404 5407 5410 5413 5416 5419 5421 5424 5427 5430 5433 5436 5439 5442 5445 5447 5450 5453 5456 5459 5462 5465 5467 5470 5473 5476 5479 5482 5485 5488 5491 5494 5497 5500 5503 5506 5509 5512 5515 5518 5521 5524 5527 5530 5533 5536 5539 5542 5545 5548 5551 5554 5556 5559 5561 5564 5567 5570 5573 5576 5579 5582 5584 5587 5589 5592 5595 5598 5601 5604 5607 5610 5613 5616 5619 5622 5625 5628 5631 5633 5636 5638 5641 5644 5647 5650 5653 5656 5658 5661 5664 5667 5670 5673 5676 5679 5682 5685 5687 5690 5692 5695 5698 5701 5704 5707 5710 5713 5716 5718 5721 5724 5726 5729 5732 5735 5738 5741 5743 5746 5749 5752 5755 5757 5759 5762 5764 5766 5769 5772 5775 5778 5780 5783 5786 5789 5792 5795 5798 5801 5804 5807 5810 5813 5816 5819 5822 5825 5828 5831 5834 5837 5840 5843 5845 5847 5850 5853 5856 5859 5862 5864 5867 5870 5873 5875 5878 5881 5884 5887 5890 5893 5896 5898 5901 5904 5907 5910 5913 5915 5918 5921 5924 5926 5929 5932 5935 5938 5941 5944 5947 5950 5953 5955 5958 5961 5964 5967 5970 5973 5975 5977 5980 5983 5986 5989 5992 5995 5997 6000 6003 6006 6009 6012 6015 6018 6021 6024 6027 6030 6033 6036 6038 6041 6044 6047 6050 6053 6055 6058 6061 6063 6066 6069 6072 6075 6078 6081 6084 6086 6089 6092 6095 6098 6100 6103 6106 6109 6112 6115 6118 6121 6124 6127 6130 6133 6136 6139 6142 6145 6148 6151 6154 6157 6160 6163 6166 6169 6172 6175 6178 6181 6184 6187 6190 6193 6195 6198 6201 6204 6206 6209 6212 6214 6217 6220 6223 6226 6229 6232 6234 6236 6239 6242 6245 6248 6250 6253 6256 6259 6262 6265 6268 6271 6273 6276 6279 6282 6285 6288 6291 6294 6296 6299 6302 6305 6308 6311 6314 6317 6320 6323 6326 6329 6332 6335 6338 6341 6343 6346 6349 6351 6354 6357 6360 6363 6366 6369 6372 6375 6378 6380 6383 6385 6388 6391 6393 6396 6399 6402 6405 6408 6411 6414 6417 6420 6423 6426 6429 6432 6435 6438 6441 6443 6446 6449 6452 6455 6458 6460 6463 6466 6469 6472 6475 6478 6481 6484 6487 6490 6493 6495 6498 6501 6504 6507 6510 6513 6516 6518 6521 6524 6527 6530 6532 6535 6538 6541 6544 6547 6549 6552 6555 6557 6560 6563 6566 6569 6572 6575 6577 6580 6582 6584 6587 6589 6592 6595 6597 6599 6602 6604 6607 6609 6612 6615 6618 6621 6624 6627 6630 6632 6635 6638 6641 6644 6647 6650 6653 6656 6659 6662 6665 6668 6671 6674 6677 6680 6683 6686 6689 6692 6695 6698 6701 6703 6706 6709 6712 6715 6718 6721 6724 6727 6730 6733 6736 6739 6742 6745 6747 6750 6752 6755 6758 6761 6764 6767 6770 6773 6776 6779 6782 6785 6788 6791 6794 6797 6800 6803 6806 6809 6812 6815 6818 6821 6824 6827 6830 6833 6836 6839 6842 6845 6848 6851 6854 6857 6860 6863 6866 6869 6871 6874 6877 6880 6883 6886 6889 6892 6895 6898 6901 6904 6906 6909 6912 6915 6918 6921 6924 6927 6930 6933 6936 6939 6942 6945 6948 6951 6954 6957 6960 6963 6966 6969 6972 6975 6978 6981 6984 6987 6989 6992 6995 6998 7001 7004 7007 7010 7013 7016 7018 7021 7024 7027 7030 7032 7035 7038 7041 7044 7047 7050 7053 7056 7059 7062 7065 7068 7071 7074 7076 7079 7082 7085 7088 7090 7093 7096 7099 7102 7105 7108 7111 7114 7117 7120 7123 7126 7128 7131 7134 7137 7140 7143 7146 7148 7151 7154 7157 7160 7163 7166 7169 7172 7175 7178 7180 7183 7186 7189 7192 7195 7198 7201 7204 7207 7210 7213 7216 7219 7222 7225 7228 7231 7234 7237 7240 7243 7246 7249 7252 7255 7258 7261 7264 7267 7270 7273 7276 7279 7282 7284 7287 7290 7293 7296 7298 7300 7303 7306 7308 7311 7314 7317 7320 7322 7325 7328 7331 7334 7337 7340 7343 7346 7349 7352 7355 7358 7361 7364 7367 7370 7372 7375 7378 7381 7383 7386 7389 7392 7395 7398 7400 7403 7406 7408 7411 7414 7417 7420 7423 7426 7429 7432 7435 7438 7441 7444 7447 7450 7453 7456 7459 7461 7464 7467 7470 7473 7476 7479 7482 7485 7488 7491 7494 7496 7499 7502 7505 7507 7510 7513 7516 7519 7521 7523 7526 7529 7532 7535 7538 7541 7544 7547 7550 7553 7556 7559 7562 7565 7568 7570 7573 7576 7579 7582 7585 7588 7591 7594 7597 7600 7603 7605 7608 7611 7614 7617 7620 7622 7625 7628 7631 7634 7637 7640 7643 7646 7649 7651 7654 7657 7660 7663 7666 7669 7672 7675 7678 7681 7684 7687 7690 7693 7696 7699 7702 7705 7708 7711 7714 7717 7720 7723 7726 7728 7731 7734 7737 7740 7743 7746 7748 7751 7754 7757 7760 7763 7766 7769 7772 7775 7778 7781 7784 7787 7790 7793 7796 7799 7802 7805 7808 7811 7814 7817 7820 7823 7826 7829 7832 7835 7838 7841 7844 7847 7850 7853 7856 7859 7862 7865 7868 7871 7874 7877 7880 7883 7886 7889 7892 7895 7898 7901 7904 7907 7910 7913 7916 7919 7922 7925 7927 7930 7933 7936 7939 7942 7945 7948 7950 7953 7956 7959 7961 7964 7966 7969 7972 7975 7978 7981 7983 7985 7988 7991 7994 7997 8000 8003 8006 8009 8011 8014 8017 8020 8023 8026 8029 8032 8034 8037 8039 8042 8045 8047 8049 8052 8055 8058 8060 8063 8066 8069 8072 8075 8078 8081 8084 8086 8089 8092 8095 8098 8100 8103 8106 8109 8112 8115 8118 8121 8124 8127 8130 8133 8136 8139 8142 8145 8147 8150 8153 8156 8159 8161 8163 8166 8169 8172 8175 8177 8180 8183 8186 8189 8192 8194 8197 8200 8203 8206 8209 8212 8215 8218 8221 8224 8227 8230 8232 8235 8238 8241 8244 8247 8250 8253 8256 8258 8261 8263 8266 8269 8272 8275 8278 8281 8284 8287 8290 8293 8296 8299 8302 8305 8308 8311 8313 8316 8319 8322 8325 8328 8331 8334 8336 8339 8341 8344 8347 8350 8352 8355 8358 8361 8364 8367 8370 8373 8376 8379 8382 8385 8388 8391 8394 8397 8400 8403 8406 8409 8412 8415 8418 8421 8424 8427 8430 8433 8436 8439 8442 8445 8447 8450 8453 8456 8459 8462 8465 8468 8470 8473 8476 8479 8481 8484 8487 8490 8493 8496 8498 8501 8504 8507 8510 8513 8515 8518 8521 8524 8527 8529 8532 8535 8538 8540 8543 8546 8548 8551 8554 8557 8560 8562 8565 8568 8570 8573 8576 8579 8581 8584 8587 8590 8593 8596 8598 8601 8604 8607 8610 8613 8616 8619 8621 8624 8627 8630 8633 8636 8639 8642 8645 8648 8651 8654 8657 8659 8662 8665 8668 8670 8673 8676 8678 8681 8684 8686 8689 8692 8695 8697 8700 8703 8705 8707 8710 8713 8716 8719 8721 8724 8727 8730 8733 8736 8739 8742 8745 8747 8750 8753 8756 8759 8762 8764 8766 8769 8772 8775 8778 8780 8783 8786 8789 8792 8795 8798 8801 8803 8806 8809 8812 8815 8818 8821 8824 8827 8830 8832 8835 8838 8840 8843 8846 8849 8852 8854 8856 8859 8861 8864 8867 8870 8873 8876 8878 8881 8884 8886 8889 8892 8894 8897 8899 8902 8905 8908 8911 8914 8917 8919 8922 8925 8928 8931 8934 8937 8940 8943 8946 8949 8952 8955 8958 8961 8963 8966 8969 8972 8975 8978 8981 8984 8987 8989 8992 8995 8998 9001 9004 9007 9010 9013 9016 9019 9022 9025 9028 9030 9033 9036 9039 9042 9045 9048 9051 9054 9057 9060 9062 9065 9068 9071 9073 9076 9078 9081 9084 9087 9090 9092 9095 9098 9101 9104 9107 9109 9112 9115 9118 9121 9124 9127 9130 9133 9136 9139 9142 9145 9148 9151 9154 9157 9160 9163 9166 9169 9172 9174 9177 9180 9183 9186 9189 9192 9195 9198 9201 9204 9207 9210 9213 9216 9218 9221 9223 9226 9229 9231 9234 9237 9239 9242 9244 9247 9250 9253 9256 9259 9261 9264 9266 9269 9272 9274 9277 9279 9282 9285 9288 9291 9293 9295 9298 9301 9304 9307 9310 9313 9316 9319 9321 9324 9327 9330 9333 9335 9338 9340 9343 9346 9349 9352 9355 9358 9361 9364 9367 9370 9372 9375 9378 9380 9382 9385 9388 9391 9394 9396 9399 9402 9405 9408 9411 9414 9417 9420 9423 9426 9429 9432 9435 9437 9440 9442 9445 9448 9451 9453 9456 9459 9462 9464 9467 9470 9473 9476 9479 9482 9484 9487 9490 9493 9496 9499 9502 9505 9507 9510 9513 9516 9518 9521 9524 9527 9530 9533 9536 9539 9542 9545 9548 9551 9554 9557 9560 9563 9566 9569 9572 9575 9577 9580 9583 9585 9588 9591 9594 9597 9600 9603 9606 9609 9612 9615 9618 9621 9624 9627 9630 9633 9636 9639 9642 9645 9648 9651 9654 9657 9659 9662 9664 9666 9669 9672 9675 9677 9680 9682 9685 9688 9690 9693 9696 9699 9702 9705 9707 9710 9713 9716 9719 9722 9724 9727 9729 9732 9735 9738 9741 9744 9746 9749 9752 9755 9758 9761 9764 9767 9770 9773 9775 9778 9781 9783 9786 9789 9791 9794 9797 9799 9802 9804 9807 9810 9813 9816 9819 9822 9824 9826 9829 9832 9835 9837 9839 9841 9843 9846 9849 9852 9854 9857 9860 9863 9866 9869 9872 9875 9877 9880 9883 9886 9889 9892 9895 9898 9901 9904 9906 9909 9912 9915 9917 9920 9923 9926 9929 9932 9935 9938 9941 9944 9946 9949 9952 9954 9957 9960 9962 9965 9968 9971 9974 9977 9980 9983 9986 9989 9992 9995 9998 10001 10004 10007 10010 10013 10016 10019 10022 10025 10028 10031 10034 10037 10040 10043 10046 10049 10052 10055 10058 10061 10064 10067 10070 10073 10076 10079 10082 10085 10087 10090 10092 10095 10098 10101 10104 10107 10110 10113 10115 10117 10120 10123 10126 10129 10132 10135 10137 10140 10143 10146 10149 10152 10155 10158 10161 10164 10167 10170 10173 10176 10179 10182 10185 10188 10191 10193 10196 10198 10200 10203 10206 10209 10212 10215 10217 10220 10223 10226 10229 10231 10234 10237 10240 10243 10246 10249 10252 10255 10258 10261 10263 10266 10269 10271 10274 10276 10279 10282 10284 10286 10289 10292 10294 10297 10300 10303 10306 10309 10312 10315 10318 10320 10323 10326 10328 10331 10333 10336 10338 10341 10344 10347 10349 10352 10355 10357 10360 10362 10365 10368 10371 10374 10377 10380 10383 10386 10389 10392 10395 10398 10400 10402 10405 10407 10410 10413 10416 10419 10422 10425 10428 10431 10434 10437 10440 10443 10446 10449 10452 10455 10458 10461 10464 10467 10470 10472 10475 10478 10481 10484 10487 10490 10493 10496 10499 10501 10504 10507 10510 10513 10515 10518 10521 10524 10527 10530 10533 10536 10539 10542 10545 10548 10551 10554 10557 10560 10563 10566 10569 10572 10575 10578 10581 10584 10587 10590 10593 10596 10599 10602 10605 10608 10610 10613 10616 10619 10621 10624 10626 10629 10632 10635 10638 10640 10643 10645 10648 10651 10653 10655 10657 10659 10662 10665 10668 10670 10672 10675 10678 10681 10684 10687 10690 10693 10695 10698 10701 10704 10707 10710 10713 10716 10719 10722 10725 10727 10730 10733 10736 10739 10742 10745 10748 10751 10754 10757 10760 10763 10766 10769 10772 10775 10778 10781 10784 10787 10790 10793 10796 10798 10801 10803 10806 10809 10812 10815 10818 10821 10823 10826 10829 10832 10835 10838 10841 10844 10846 10849 10851 10853 10856 10859 10862 10864 10867 10869 10871 10874 10876 10879 10882 10885 10888 10891 10894 10897 10900 10903 10906 10909 10912 10915 10918 10921 10924 10927 10930 10933 10936 10939 10942 10945 10948 10951 10954 10957 10960 10963 10966 10969 10972 10975 10978 10981 10984 10987 10989 10992 10994 10997 10999 11002 11005 11008 11011 11013 11016 11019 11022 11024 11027 11029 11031 11033 11036 11039 11041 11044 11047 11050 11053 11055 11058 11061 11063 11066 11068 11070 11073 11076 11079 11082 11085 11088 11091 11094 11097 11100 11103 11106 11109 11112 11115 11117 11120 11123 11126 11129 11131 11134 11137 11140 11142 11145 11148 11150 11153 11155 11158 11160 11162 11165 11167 11170 11172 11175 11178 11181 11184 11186 11188 11191 11193 11195 11198 11201 11204 11207 11210 11212 11215 11218 11221 11224 11226 11229 11232 11234 11237 11239 11242 11245 11247 11250 11253 11256 11258 11261 11263 11265 11267 11270 11272 11275 11278 11280 11283 11286 11289 11292 11295 11298 11301 11304 11307 11309 11312 11315 11318 11321 11324 11327 11330 11333 11336 11339 11342 11344 11347 11350 11353 11355 11358 11361 11364 11366 11368 11371 11373 11376 11378 11381 11383 11386 11389 11391 11394 11396 11399 11402 11404 11407 11410 11413 11415 11418 11420 11423 11426 11429 11432 11435 11438 11441 11444 11447 11450 11452 11454 11456 11458 11461 11464 11466 11469 11472 11475 11478 11481 11484 11487 11490 11493 11496 11499 11502 11505 11507 11510 11513 11516 11519 11522 11524 11527 11530 11533 11536 11539 11542 11545 11548 11551 11553 11555 11558 11561 11564 11567 11570 11572 11575 11578 11581 11584 11586 11589 11591 11594 11597 11600 11602 11604 11607 11610 11613 11616 11619 11622 11625 11628 11631 11634 11637 11640 11643 11646 11649 11652 11655 11658 11661 11664 11667 11670 11673 11676 11679 11682 11685 11688 11691 11693 11695 11698 11701 11704 11707 11710 11713 11716 11719 11722 11725 11727 11730 11733 11735 11738 11741 11743 11746 11749 11751 11754 11757 11760 11763 11765 11767 11770 11773 11776 11779 11782 11784 11787 11790 11793 11796 11799 11802 11805 11808 11811 11814 11816 11819 11822 11825 11827 11830 11833 11836 11839 11842 11845 11847 11849 11852 11855 11858 11861 11864 11867 11870 11873 11876 11879 11882 11885 11888 11891 11894 11897 11900 11903 11906 11909 11912 11915 11918 11921 11924 11927 11930 11933 11936 11939 11942 11945 11948 11951 11954 11956 11959 11962 11965 11968 11971 11974 11977 11980 11983 11986 11989 11992 11995 11998 12001 12004 12007 12010 12013 12016 12019 12022 12025 12027 12030 12033 12036 12039 12042 12045 12048 12051 12053 12056 12059 12062 12065 12068 12071 12074 12076 12078 12081 12083 12086 12089 12092 12094 12097 12100 12103 12105 12108 12111 12114 12117 12120 12123 12126 12128 12131 12134 12137 12140 12143 12146 12149 12152 12155 12158 12161 12164 12167 12170 12173 12176 12179 12182 12185 12188 12191 12194 12197 12200 12203 12206 12209 12212 12215 12218 12220 12223 12226 12229 12232 12234 12237 12240 12243 12245 12248 12251 12254 12257 12260 12263 12266 12268 12271 12273 12276 12279 12282 12285 12288 12291 12294 12297 12300 12302 12305 12308 12311 12314 12317 12320 12323 12326 12329 12332 12335 12338 12341 12344 12347 12350 12353 12355 12358 12361 12364 12367 12370 12372 12375 12378 12380 12383 12385 12388 12391 12394 12396 12399 12402 12405 12407 12410 12413 12416 12419 12421 12424 12427 12430 12432 12435 12438 12441 12444 12446 12449 12452 12455 12458 12461 12464 12467 12470 12472 12475 12477 12480 12483 12486 12489 12492 12495 12498 12501 12504 12507 12510 12513 12516 12519 12522 12525 12528 12531 12534 12537 12540 12543 12546 12549 12552 12555 12558 12561 12564 12567 12570 12573 12576 12579 12582 12585 12588 12591 12593 12596 12599 12601 12604 12607 12610 12612 12614 12617 12620 12623 12626 12629 12632 12635 12637 12640 12643 12646 12649 12651 12654 12657 12660 12663 12666 12669 12672 12675 12678 12681 12684 12687 12690 12693 12696 12699 12702 12705 12708 12711 12714 12717 12720 12723 12726 12729 12732 12735 12738 12741 12744 12747 12750 12753 12756 12759 12761 12764 12767 12769 12772 12775 12778 12781 12784 12787 12790 12793 12796 12799 12802 12805 12808 12810 12813 12816 12819 12822 12825 12828 12831 12833 12836 12838 12841 12844 12847 12850 12853 12856 12859 12862 12865 12868 12871 12874 12877 12880 12883 12886 12889 12892 12895 12898 12901 12904 12907 12910 12913 12916 12919 12922 12925 12928 12931 12934 12937 12940 12943 12946 12949 12952 12955 12958 12961 12964 12967 12970 12973 12976 12979 12982 12985 12988 12991 12994 12997 13000 13003 13006 13009 13012 13015 13018 13021 13024 13027 13030 13033 13036 13039 13042 13045 13048 13051 13054 13057 13060 13063 13066 13069 13072 13075 13077 13079 13082 13085 13088 13091 13094 13097 13100 13103 13106 13109 13112 13115 13118 13121 13124 13126 13129 13131 13134 13137 13139 13142 13145 13148 13151 13154 13156 13159 13162 13165 13168 13171 13174 13177 13180 13183 13186 13189 13192 13195 13198 13201 13204 13207 13210 13213 13216 13219 13222 13225 13228 13231 13234 13237 13240 13243 13246 13249 13252 13255 13258 13261 13264 13267 13270 13273 13276 13279 13282 13285 13288 13291 13294 13297 13300 13302 13305 13308 13311 13314 13316 13318 13321 13324 13327 13330 13333 13336 13339 13342 13344 13347 13350 13353 13356 13359 13362 13364 13367 13370 13373 13376 13379 13382 13385 13388 13391 13394 13397 13400 13403 13406 13409 13412 13415 13418 13421 13424 13427 13430 13433 13435 13438 13441 13444 13447 13450 13453 13456 13459 13462 13465 13468 13471 13474 13476 13478 13481 13484 13487 13490 13493 13496 13498 13501 13503 13506 13509 13512 13515 13518 13521 13524 13527 13530 13533 13536 13539 13542 13545 13548 13551 13554 13557 13560 13563 13566 13569 13572 13575 13578 13581 13584 13587 13589 13592 13594 13597 13600 13603 13606 13609 13612 13615 13618 13621 13624 13627 13630 13632 13635 13638 13641 13644 13647 13650 13653 13656 13659 13662 13665 13668 13671 13674 13677 13680 13683 13686 13689 13692 13695 13698 13701 13704 13707 13710 13713 13716 13719 13722 13725 13728 13731 13734 13737 13740 13743 13746 13749 13752 13755 13758 13761 13764 13767 13770 13773 13776 13779 13782 13785 13788 13791 13794 13797 13800 13803 13805 13808 13810 13813 13816 13819 13822 13825 13828 13831 13834 13837 13840 13842 13845 13848 13851 13854 13857 13860 13863 13866 13869 13872 13875 13878 13881 13884 13887 13890 13893 13896 13899 13902 13905 13908 13911 13914 13917 13920 13923 13926 13929 13932 13935 13938 13941 13944 13947 13950 13953 13956 13959 13962 13965 13967 13970 13973 13976 13978 13981 13984 13987 13990 13993 13996 13999 14002 14005 14008 14011 14014 14017 14020 14023 14026 14029 14032 14035 14038 14041 14044 14047 14050 14053 14056 14059 14062 14065 14068 14071 14074 14077 14080 14083 14086 14089 14092 14095 14097 14100 14103 14106 14109 14112 14114 14116 14119 14122 14125 14128 14131 14134 14137 14140 14143 14146 14149 14152 14154 14157 14160 14163 14165 14168 14171 14174 14177 14180 14183 14186 14189 14192 14195 14198 14201 14204 14207 14210 14213 14216 14219 14222 14225 14228 14231 14234 14237 14240 14243 14246 14249 14252 14255 14258 14261 14264 14267 14270 14273 14276 14279 14282 14285 14288 14291 14294 14297 14300 14303 14306 14309 14312 14315 14318 14321 14324 14327 14330 14333 14336 14339 14342 14345 14348 14351 14354 14357 14360 14363 14366 14369 14372 14375 14378 14381 14384 14387 14390 14392 14395 14398 14401 14404 14407 14409 14412 14415 14418 14421 14424 14427 14430 14433 14436 14439 14442 14445 14448 14451 14453 14456 14459 14461 14464 14467 14469 14471 14474 14477 14479 14481 14484 14487 14490 14493 14496 14499 14502 14505 14507 14510 14513 14516 14519 14522 14525 14528 14531 14534 14537 14540 14543 14546 14549 14552 14555 14558 14561 14564 14567 14570 14573 14576 14579 14582 14585 14588 14591 14594 14597 14600 14603 14606 14609 14612 14615 14618 14621 14624 14627 14630 14633 14636 14639 14642 14645 14648 14651 14654 14656 14659 14662 14665 14667 14670 14673 14676 14679 14682 14685 14688 14690 14693 14696 14698 14701 14704 14707 14709 14712 14715 14718 14721 14724 14727 14730 14732 14735 14737 14740 14742 14745 14748 14751 14754 14757 14760 14763 14766 14769 14772 14775 14777 14780 14783 14786 14788 14791 14793 14796 14799 14802 14804 14807 14810 14813 14816 14819 14822 14825 14828 14831 14833 14836 14839 14842 14845 14848 14851 14853 14856 14859 14862 14865 14867 14870 14873 14876 14879 14882 14885 14888 14891 14893 14896 14899 14902 14905 14908 14911 14914 14917 14920 14923 14926 14929 14931 14934 14937 14940 14943 14946 14949 14952 14955 14958 14961 14964 14967 14970 14973 14976 14979 14982 14985 14988 14991 14994 14997 15000 15002 15005 15008 15011 15014 15017 15020 15023 15026 15029 15032 15035 15038 15041 15044 15047 15050 15053 15056 15059 15062 15065 15068 15071 15074 15077 15080 15083 15086 15089 15092 15095 15098 15101 15104 15107 15110 15113 15116 15119 15122 15125 15128 15131 15134 15137 15140 15143 15146 15149 15152 15155 15158 15161 15164 15167 15169 15172 15175 15178 15181 15184 15187 15190 15192 15195 15198 15201 15204 15207 15210 15213 15216 15218 15220 15223 15226 15228 15231 15234 15236 15239 15242 15245 15247 15250 15252 15255 15257 15260 15263 15265 15268 15271 15274 15277 15280 15283 15286 15289 15292 15295 15298 15301 15304 15307 15310 15313 15315 15318 15321 15324 15327 15330 15333 15336 15338 15341 15344 15347 15350 15353 15356 15359 15362 15364 15367 15369 15372 15375 15377 15379 15382 15384 15387 15390 15393 15396 15399 15402 15405 15408 15411 15413 15415 15418 15421 15424 15427 15430 15433 15436 15439 15442 15445 15448 15451 15454 15456 15459 15461 15464 15467 15470 15472 15475 15478 15481 15484 15486 15489 15491 15494 15496 15499 15502 15505 15508 15510 15513 15516 15519 15522 15525 15528 15530 15533 15536 15539 15542 15545 15547 15550 15553 15556 15558 15561 15564 15567 15570 15573 15576 15579 15582 15585 15588 15591 15593 15596 15599 15602 15605 15608 15611 15613 15616 15619 15622 15625 15628 15631 15634 15637 15640 15642 15644 15647 15650 15653 15655 15657 15660 15663 15666 15669 15672 15675 15678 15681 15684 15687 15690 15693 15696 15699 15702 15705 15708 15711 15714 15717 15720 15723 15726 15729 15732 15735 15738 15741 15744 15747 15750 15753 15756 15759 15762 15765 15768 15771 15774 15777 15780 15783 15785 15788 15791 15794 15797 15799 15802 15805 15808 15811 15814 15817 15820 15823 15826 15828 15831 15834 15836 15839 15841 15844 15847 15850 15853 15856 15859 15862 15865 15868 15871 15874 15877 15880 15883 15886 15889 15892 15894 15897 15900 15903 15906 15909 15912 15915 15918 15921 15924 15927 15929 15932 15934 15936 15939 15942 15944 15947 15950 15952 15955 15958 15960 15963 15966 15969 15972 15975 15978 15981 15984 15987 15990 15993 15996 15999 16002 16004 16007 16010 16013 16016 16019 16022 16025 16028 16031 16033 16036 16039 16041 16044 16047 16050 16053 16056 16059 16062 16065 16068 16070 16072 16075 16078 16081 16084 16087 16089 16092 16095 16098 16101 16104 16106 16108 16111 16114 16117 16120 16123 16126 16129 16132 16135 16138 16141 16144 16147 16150 16153 16156 16159 16162 16165 16168 16171 16174 16177 16180 16183 16186 16189 16192 16195 16197 16200 16203 16205 16208 16211 16213 16216 16218 16221 16224 16226 16229 16231 16234 16237 16240 16243 16246 16249 16252 16255 16258 16261 16264 16267 16270 16273 16276 16279 16282 16285 16288 16291 16294 16297 16300 16303 16306 16309 16312 16315 16318 16321 16323 16326 16329 16332 16335 16338 16341 16344 16347 16350 16353 16356 16359 16362 16365 16367 16370 16373 16375 16378 16381 16384 16387 16390 16393 16396 16399 16402 16405 16408 16411 16414 16417 16420 16423 16426 16429 16432 16435 16438 16441 16444 16447 16450 16452 16455 16457 16460 16463 16466 16469 16472 16475 16478 16480 16483 16486 16488 16491 16494 16497 16499 16502 16505 16508 16511 16514 16517 16520 16523 16526 16529 16532 16535 16538 16541 16544 16546 16549 16552 16555 16558 16561 16564 16567 16570 16572 16575 16578 16580 16583 16586 16589 16592 16594 16597 16600 16602 16605 16608 16611 16614 16616 16619 16622 16625 16627 16630 16633 16635 16638 16640 16643 16646 16649 16652 16655 16658 16661 16664 16667 16670 16673 16676 16679 16682 16685 16688 16691 16694 16696 16699 16702 16705 16708 16711 16714 16717 16720 16723 16725 16728 16731 16733 16736 16739 16742 16745 16748 16750 16753 16756 16758 16761 16764 16767 16770 16773 16776 16779 16782 16784 16787 16790 16792 16795 16797 16800 16803 16805 16808 16811 16814 16817 16820 16823 16826 16828 16831 16834 16836 16839 16842 16844 16846 16848 16851 16854 16857 16859 16862 16865 16867 16870 16873 16876 16878 16881 16883 16886 16889 16891 16893 16895 16898 16900 16903 16905 16908 16911 16914 16917 16920 16923 16926 16929 16931 16933 16936 16939 16942 16945 16948 16951 16954 16956 16959 16962 16964 16967 16970 16972 16975 16978 16981 16984 16986 16989 16992 16995 16998 17001 17004 17007 17010 17013 17016 17019 17022 17025 17028 17031 17033 17036 17039 17041 17044 17047 17049 17052 17055 17058 17060 17063 17066 17068 17071 17073 17076 17079 17082 17085 17088 17091 17094 17097 17100 17103 17106 17108 17111 17114 17117 17120 17123 17125 17128 17131 17134 17136 17139 17142 17145 17147 17150 17153 17155 17158 17160 17163 17166 17169 17172 17175 17178 17181 17184 17187 17190 17192 17195 17198 17201 17203 17206 17208 17211 17214 17216 17218 17221 17223 17226 17229 17232 17234 17237 17240 17243 17245 17248 17251 17253 17256 17259 17262 17264 17267 17269 17272 17275 17278 17281 17284 17287 17290 17293 17296 17298 17301 17304 17306 17309 17312 17314 17317 17320 17323 17326 17329 17331 17334 17337 17340 17343 17346 17349 17351 17354 17357 17360 17363 17366 17369 17372 17375 17377 17380 17383 17385 17388 17391 17394 17397 17400 17403 17406 17409 17411 17414 17416 17418 17421 17424 17427 17429 17432 17435 17438 17441 17444 17447 17450 17453 17456 17459 17462 17465 17468 17470 17473 17476 17478 17481 17484 17486 17489 17492 17495 17497 17499 17502 17505 17508 17511 17513 17515 17518 17521 17524 17527 17530 17533 17535 17538 17540 17543 17546 17549 17552 17555 17558 17561 17564 17566 17569 17572 17575 17578 17581 17584 17587 17590 17593 17596 17599 17602 17605 17608 17611 17614 17617 17620 17623 17626 17629 17632 17635 17638 17641 17644 17647 17650 17653 17656 17659 17662 17665 17668 17671 17674 17677 17680 17683 17686 17688 17690 17693 17696 17699 17702 17704 17707 17710 17713 17716 17719 17722 17725 17728 17731 17734 17736 17739 17742 17745 17748 17751 17754 17757 17760 17762 17765 17768 17771 17774 17777 17780 17783 17786 17789 17792 17795 17798 17801 17804 17807 17809 17812 17815 17818 17821 17824 17827 17830 17833 17836 17839 17841 17844 17847 17850 17853 17855 17858 17861 17864 17866 17869 17872 17874 17877 17880 17882 17885 17887 17889 17892 17894 17897 17900 17903 17906 17908 17910 17913 17916 17919 17922 17925 17928 17931 17934 17937 17940 17943 17946 17949 17952 17955 17958 17961 17964 17967 17970 17973 17976 17979 17982 17985 17988 17991 17994 17997 18000 18003 18006 18008 18011 18014 18017 18020 18023 18026 18029 18032 18035 18038 18041 18044 18047 18050 18053 18056 18059 18062 18065 18068 18071 18074 18076 18078 18081 18084 18087 18090 18093 18096 18099 18102 18104 18107 18110 18113 18116 18119 18122 18125 18127 18130 18133 18136 18139 18142 18144 18147 18150 18153 18156 18159 18162 18165 18168 18171 18174 18177 18180 18183 18186 18189 18192 18195 18198 18201 18204 18207 18210 18213 18216 18219 18222 18225 18228 18231 18234 18237 18239 18242 18245 18248 18251 18254 18257 18259 18262 18265 18267 18270 18273 18276 18279 18282 18285 18288 18291 18294 18297 18299 18302 18305 18308 18311 18314 18317 18319 18322 18325 18328 18330 18333 18336 18339 18342 18345 18348 18351 18353 18356 18359 18362 18364 18366 18369 18372 18375 18378 18381 18384 18386 18389 18392 18395 18398 18401 18403 18406 18409 18412 18414 18417 18420 18423 18426 18428 18431 18434 18437 18439 18442 18445 18448 18451 18454 18457 18460 18463 18466 18469 18472 18475 18478 18481 18484 18486 18489 18491 18494 18497 18500 18503 18506 18509 18512 18515 18517 18520 18523 18526 18528 18530 18533 18536 18539 18542 18545 18548 18550 18552 18555 18558 18561 18564 18567 18570 18573 18576 18578 18581 18584 18587 18590 18593 18596 18599 18602 18605 18608 18610 18613 18616 18618 18621 18624 18626 18628 18631 18634 18637 18640 18643 18646 18649 18651 18654 18657 18660 18662 18664 18666 18669 18672 18675 18678 18681 18684 18687 18690 18693 18695 18698 18701 18704 18707 18710 18712 18715 18718 18721 18724 18727 18730 18733 18735 18738 18741 18744 18746 18749 18752 18755 18758 18761 18764 18767 18770 18773 18776 18779 18782 18785 18788 18790 18793 18796 18799 18802 18805 18808 18811 18814 18816 18819 18822 18824 18827 18830 18832 18835 18838 18841 18844 18847 18850 18852 18855 18858 18860 18863 18866 18869 18872 18875 18878 18881 18884 18887 18890 18893 18896 18898 18901 18904 18906 18909 18912 18915 18918 18921 18923 18925 18928 18931 18934 18936 18939 18942 18945 18948 18950 18953 18956 18958 18961 18964 18967 18970 18973 18976 18979 18982 18985 18988 18991 18994 18996 18999 19002 19005 19008 19011 19014 19016 19019 19022 19024 19027 19029 19031 19034 19037 19040 19043 19046 19049 19052 19055 19058 19061 19064 19067 19070 19073 19076 19078 19081 19083 19086 19089 19092 19095 19098 19100 19103 19106 19109 19112 19114 19117 19119 19122 19125 19128 19131 19134 19137 19140 19143 19146 19149 19152 19155 19158 19161 19164 19167 19169 19172 19175 19177 19180 19183 19186 19189 19192 19195 19198 19201 19204 19207 19210 19213 19215 19218 19221 19224 19227 19230 19233 19235 19238 19241 19244 19247 19249 19252 19255 19258 19261 19264 19266 19269 19272 19274 19277 19280 19283 19286 19289 19292 19295 19298 19300 19303 19306 19308 19311 19314 19317 19320 19323 19326 19329 19332 19335 19338 19341 19344 19347 19350 19353 19356 19358 19361 19364 19367 19370 19373 19376 19379 19382 19385 19387 19390 19392 19395 19398 19401 19404 19407 19410 19413 19415 19418 19420 19423 19426 19429 19431 19433 19436 19439 19442 19445 19448 19451 19453 19456 19459 19462 19464 19466 19469 19472 19475 19478 19481 19484 19487 19490 19493 19496 19499 19502 19505 19508 19511 19513 19516 19519 19522 19525 19527 19530 19533 19535 19538 19541 19544 19547 19550 19553 19556 19559 19561 19564 19567 19570 19573 19576 19578 19581 19584 19586 19589 19592 19595 19598 19601 19603 19606 19609 19612 19615 19618 19621 19624 19627 19630 19633 19636 19639 19642 19644 19647 19650 19653 19656 19658 19661 19664 19666 19668 19671 19674 19677 19680 19683 19685 19688 19691 19693 19696 19699 19701 19704 19707 19709 19712 19715 19718 19721 19724 19727 19730 19733 19736 19739 19742 19745 19748 19751 19754 19756 19759 19762 19765 19768 19771 19774 19776 19779 19782 19785 19788 19791 19793 19796 19799 19802 19805 19808 19811 19814 19816 19819 19821 19824 19827 19830 19832 19835 19838 19841 19844 19846 19849 19852 19855 19858 19861 19864 19867 19870 19872 19875 19878 19881 19884 19886 19889 19892 19895 19898 19901 19904 19907 19909 19912 19915 19918 19921 19924 19927 19930 19933 19936 19939 19942 19945 19948 19951 19953 19956 19959 19962 19965 19968 19971 19973 19976 19979 19982 19985 19988 19991 19994 19996 19999 20002 20005 20008 20011 20014 20016 20019 20022 20025 20027 20030 20033 20035 20038 20041 20044 20047 20049 20052 20055 20058 20061 20063 20066 20069 20072 20075 20078 20081 20084 20086 20088 20091 20094 20097 20100 20103 20105 20108 20111 20114 20117 20120 20123 20126 20129 20131 20134 20137 20140 20143 20146 20149 20152 20155 20157 20160 20163 20166 20169 20172 20175 20178 20181 20184 20187 20190 20193 20196 20199 20202 20205 20208 20211 20214 20217 20220 20223 20226 20228 20231 20233 20236 20239 20242 20245 20247 20249 20252 20255 20258 20261 20264 20267 20270 20273 20276 20279 20281 20284 20287 20289 20292 20294 20297 20299 20302 20305 20307 20310 20313 20315 20318 20320 20323 20325 20327 20330 20332 20334 20337 20339 20342 20345 20348 20351 20353 20356 20359 20361 20364 20367 20369 20372 20374 20377 20380 20383 20385 20388 20391 20394 20396 20399 20402 20405 20408 20411 20414 20417 20420 20423 20426 20429 20432 20435 20438 20441 20444 20447 20450 20453 20456 20459 20462 20465 20468 20471 20474 20477 20480 20483 20486 20489 20492 20495 20498 20501 20504 20507 20510 20513 20516 20519 20522 20524 20527 20530 20533 20536 20538 20541 20544 20547 20550 20553 20556 20559 20562 20565 20567 20570 20573 20576 20579 20582 20585 20588 20591 20594 20597 20600 20603 20606 20609 20612 20615 20618 20621 20624 20627 20630 20633 20636 20639 20642 20645 20648 20651 20654 20657 20660 20663 20666 20669 20672 20675 20678 20681 20684 20687 20690 20693 20696 20699 20702 20705 20708 20711 20714 20717 20720 20723 20725 20728 20731 20734 20737 20740 20743 20746 20749 20752 20755 20758 20760 20763 20766 20769 20772 20775 20777 20779 20782 20785 20788 20790 20793 20795 20798 20801 20803 20806 20809 20812 20815 20818 20821 20824 20827 20830 20833 20836 20838 20841 20843 20846 20849 20852 20855 20858 20861 20863 20866 20869 20872 20875 20878 20881 20884 20887 20890 20893 20896 20899 20901 20904 20907 20910 20913 20915 20918 20921 20924 20927 20930 20933 20936 20939 20942 20944 20947 20950 20952 20955 20958 20961 20963 20966 20969 20972 20975 20978 20980 20983 20986 20989 20992 20995 20998 21001 21004 21007 21010 21013 21016 21018 21021 21024 21027 21030 21033 21036 21039 21042 21045 21048 21051 21054 21056 21059 21062 21065 21068 21071 21074 21077 21080 21083 21086 21089 21092 21095 21098 21101 21104 21107 21110 21112 21115 21118 21121 21123 21126 21129 21132 21135 21138 21141 21144 21147 21150 21153 21156 21158 21161 21164 21166 21169 21172 21175 21178 21181 21184 21187 21190 21193 21196 21199 21202 21205 21208 21211 21214 21217 21220 21223 21226 21229 21232 21235 21238 21241 21244 21247 21250 21253 21256 21259 21262 21265 21268 21271 21273 21276 21279 21282 21285 21288 21290 21293 21295 21298 21301 21304 21307 21310 21313 21316 21318 21320 21323 21326 21329 21332 21335 21338 21340 21343 21345 21348 21351 21354 21357 21360 21363 21366 21369 21372 21375 21378 21381 21384 21387 21390 21392 21395 21398 21400 21403 21406 21409 21411 21414 21417 21420 21423 21425 21427 21430 21433 21436 21439 21442 21445 21447 21450 21453 21456 21459 21461 21464 21467 21470 21473 21476 21479 21482 21485 21488 21491 21494 21497 21500 21503 21506 21509 21512 21515 21518 21521 21524 21527 21530 21533 21536 21539 21542 21544 21547 21550 21553 21556 21558 21561 21563 21566 21569 21572 21575 21578 21581 21584 21587 21590 21593 21596 21599 21602 21604 21607 21610 21612 21615 21618 21621 21624 21627 21630 21633 21636 21639 21642 21645 21648 21651 21653 21656 21659 21662 21664 21667 21669 21672 21675 21678 21681 21684 21687 21689 21692 21694 21697 21700 21703 21706 21709 21712 21715 21717 21720 21723 21726 21729 21732 21734 21737 21740 21743 21746 21749 21752 21755 21758 21761 21763 21766 21769 21772 21774 21777 21779 21782 21785 21788 21791 21793 21796 21799 21802 21805 21807 21809 21812 21815 21818 21821 21823 21826 21829 21831 21834 21837 21840 21843 21846 21849 21852 21854 21857 21860 21863 21865 21868 21871 21874 21877 21880 21883 21886 21889 21892 21894 21897 21900 21902 21905 21908 21910 21913 21916 21919 21921 21924 21926 21928 21931 21934 21936 21938 21941 21944 21947 21949 21952 21955 21958 21960 21963 21965 21967 21969 21972 21975 21978 21981 21984 21987 21990 21992 21995 21998 22001 22003 22006 22009 22012 22015 22017 22020 22023 22026 22029 22031 22034 22037 22040 22042 22044 22047 22050 22053 22056 22058 22061 22064 22067 22070 22073 22076 22079 22082 22085 22088 22091 22094 22097 22099 22102 22105 22108 22111 22113 22116 22119 22121 22124 22127 22130 22133 22136 22139 22142 22144 22147 22149 22152 22155 22158 22161 22164 22167 22170 22172 22175 22178 22180 22183 22186 22189 22192 22194 22196 22198 22201 22204 22207 22210 22213 22216 22219 22222 22225 22228 22231 22233 22236 22239 22242 22245 22247 22250 22253 22256 22259 22262 22265 22268 22271 22274 22277 22280 22283 22286 22289 22292 22295 22298 22301 22304 22307 22310 22313 22316 22319 22322 22325 22328 22331 22334 22337 22340 22343 22346 22349 22352 22355 22358 22360 22362 22365 22367 22370 22373 22376 22379 22382 22385 22388 22391 22393 22395 22398 22401 22404 22407 22410 22413 22416 22419 22422 22425 22428 22430 22432 22434 22437 22439 22442 22445 22448 22450 22452 22455 22458 22460 22462 22465 22468 22471 22474 22476 22479 22482 22485 22488 22490 22493 22496 22499 22502 22505 22507 22510 22513 22516 22518 22521 22523 22526 22529 22532 22535 22537 22540 22543 22546 22549 22552 22554 22557 22559 22562 22565 22568 22571 22574 22576 22579 22581 22584 22587 22590 22593 22596 22599 22602 22604 22607 22609 22612 22615 22618 22621 22624 22627 22630 22633 22636 22639 22642 22645 22648 22651 22654 22657 22660 22663 22666 22669 22672 22675 22678 22681 22683 22686 22689 22692 22695 22698 22700 22702 22705 22708 22711 22714 22717 22719 22722 22725 22728 22731 22734 22737 22739 22742 22745 22748 22751 22754 22757 22760 22763 22766 22769 22772 22775 22778 22781 22784 22787 22790 22793 22796 22799 22802 22805 22808 22810 22813 22816 22819 22821 22824 22826 22829 22832 22835 22838 22840 22842 22845 22847 22850 22852 22855 22858 22861 22864 22867 22870 22873 22876 22879 22882 22885 22888 22891 22894 22897 22900 22903 22906 22909 22912 22915 22918 22920 22923 22926 22929 22932 22934 22937 22940 22943 22946 22949 22952 22955 22958 22961 22963 22966 22969 22972 22975 22978 22981 22984 22987 22990 22993 22996 22999 23002 23005 23008 23011 23014 23017 23020 23023 23026 23029 23031 23034 23037 23040 23043 23046 23048 23051 23054 23057 23060 23062 23065 23068 23071 23073 23076 23079 23081 23084 23087 23090 23093 23096 23098 23101 23103 23105 23108 23111 23114 23117 23120 23123 23125 23128 23131 23133 23136 23138 23141 23144 23146 23149 23152 23155 23157 23160 23163 23166 23169 23172 23174 23177 23180 23182 23185 23188 23190 23193 23196 23199 23202 23205 23207 23210 23213 23216 23219 23222 23225 23228 23231 23234 23237 23240 23242 23244 23247 23249 23252 23255 23257 23260 23263 23266 23268 23271 23273 23276 23279 23281 23284 23287 23290 23292 23295 23298 23301 23304 23306 23308 23311 23314 23317 23320 23323 23326 23329 23331 23334 23337 23340 23343 23346 23349 23351 23354 23357 23360 23363 23366 23369 23372 23375 23378 23381 23384 23387 23390 23393 23396 23399 23402 23405 23408 23411 23414 23417 23420 23423 23426 23429 23432 23435 23438 23441 23444 23446 23448 23451 23454 23457 23460 23463 23466 23469 23472 23475 23478 23481 23484 23487 23490 23493 23496 23499 23502 23505 23508 23511 23514 23517 23520 23523 23526 23529 23532 23535 23538 23541 23544 23547 23550 23553 23556 23559 23562 23565 23568 23571 23574 23577 23580 23583 23585 23588 23591 23594 23597 23600 23603 23606 23609 23612 23615 23618 23621 23624 23627 23630 23632 23635 23638 23641 23644 23647 23650 23652 23654 23657 23660 23663 23666 23669 23672 23674 23676 23678 23681 23684 23687 23689 23692 23694 23697 23700 23703 23706 23709 23712 23715 23718 23721 23724 23727 23730 23733 23736 23738 23741 23744 23747 23750 23753 23755 23758 23760 23763 23765 23768 23771 23774 23777 23780 23783 23786 23789 23792 23795 23798 23801 23804 23807 23809 23812 23815 23817 23820 23823 23826 23829 23832 23835 23838 23841 23844 23847 23850 23852 23855 23858 23860 23863 23866 23868 23871 23874 23877 23880 23883 23886 23889 23892 23895 23898 23901 23904 23907 23910 23913 23916 23919 23922 23925 23928 23931 23934 23936 23939 23942 23944 23946 23949 23951 23954 23956 23959 23962 23965 23967 23969 23972 23975 23977 23980 23982 23985 23988 23990 23992 23995 23998 24001 24004 24007 24010 24012 24015 24018 24021 24024 24027 24030 24032 24035 24038 24040 24043 24045 24048 24051 24054 24057 24060 24063 24066 24069 24071 24074 24077 24080 24082 24085 24088 24091 24094 24096 24099 24102 24105 24108 24111 24114 24117 24120 24123 24126 24128 24131 24134 24137 24140 24142 24145 24148 24150 24153 24156 24158 24161 24164 24166 24169 24172 24175 24178 24181 24184 24187 24190 24192 24195 24198 24200 24203 24206 24209 24212 24215 24218 24221 24224 24227 24230 24232 24235 24237 24240 24243 24246 24249 24251 24254 24257 24260 24263 24266 24269 24272 24275 24278 24281 24284 24287 24290 24293 24296 24299 24302 24305 24308 24311 24313 24316 24318 24321 24324 24327 24330 24333 24336 24339 24342 24345 24348 24351 24353 24356 24358 24360 24363 24366 24369 24372 24375 24378 24381 24384 24387 24390 24393 24395 24398 24401 24404 24407 24410 24413 24415 24418 24420 24423 24425 24428 24431 24434 24436 24438 24441 24443 24446 24448 24451 24454 24456 24459 24462 24465 24467 24470 24473 24476 24479 24481 24484 24487 24490 24493 24495 24497 24500 24503 24506 24509 24512 24514 24517 24520 24523 24526 24529 24532 24535 24538 24541 24544 24547 24550 24552 24555 24558 24561 24564 24567 24570 24573 24576 24579 24582 24585 24587 24590 24593 24596 24599 24602 24604 24607 24610 24613 24616 24619 24621 24624 24627 24630 24633 24636 24638 24641 24644 24646 24649 24652 24655 24657 24660 24662 24665 24667 24670 24673 24676 24678 24681 24684 24686 24688 24691 24694 24697 24700 24703 24706 24708 24711 24714 24717 24720 24722 24725 24728 24731 24734 24737 24740 24743 24746 24749 24752 24755 24758 24761 24764 24767 24770 24772 24775 24778 24780 24783 24786 24789 24792 24795 24797 24800 24803 24806 24809 24811 24814 24816 24819 24822 24825 24828 24831 24834 24837 24840 24843 24846 24848 24850 24852 24855 24857 24860 24863 24866 24869 24872 24875 24878 24881 24884 24887 24890 24893 24896 24898 24901 24904 24907 24910 24913 24916 24919 24922 24925 24928 24931 24934 24936 24938 24941 24944 24947 24949 24952 24954 24957 24960 24963 24966 24969 24972 24975 24978 24981 24984 24987 24990 24993 24995 24998 25000 25003 25006 25009 25012 25015 25018 25021 25023 25026 25029 25032 25035 25038 25041 25044 25046 25049 25052 25055 25058 25061 25064 25067 25070 25073 25076 25079 25082 25085 25088 25091 25094 25097 25100 25103 25106 25109 25112 25115 25118 25121 25123 25125 25128 25131 25134 25137 25140 25143 25146 25149 25152 25155 25158 25161 25164 25167 25169 25172 25175 25177 25180 25183 25186 25189 25192 25195 25198 25201 25204 25207 25210 25213 25216 25219 25222 25225 25228 25231 25234 25237 25240 25243 25246 25248 25251 25253 25256 25259 25262 25265 25268 25270 25273 25276 25279 25282 25285 25288 25291 25294 25297 25300 25303 25306 25309 25312 25315 25318 25321 25324 25327 25330 25333 25336 25339 25341 25344 25347 25350 25353 25356 25359 25361 25364 25367 25370 25373 25376 25379 25382 25384 25387 25390 25393 25395 25398 25401 25404 25407 25410 25413 25415 25418 25421 25424 25427 25430 25432 25435 25438 25441 25444 25447 25450 25453 25456 25459 25461 25464 25467 25470 25472 25475 25478 25481 25484 25487 25490 25492 25495 25498 25501 25503 25506 25509 25512 25515 25518 25521 25524 25527 25530 25533 25536 25538 25541 25543 25546 25549 25552 25554 25557 25560 25562 25564 25567 25570 25573 25576 25579 25582 25585 25587 25590 25593 25596 25598 25601 25604 25606 25608 25611 25613 25616 25619 25622 25624 25627 25630 25633 25636 25639 25642 25645 25648 25650 25652 25655 25658 25661 25664 25666 25669 25672 25675 25678 25681 25684 25687 25690 25693 25696 25699 25702 25705 25708 25711 25714 25717 25720 25723 25726 25729 25732 25735 25738 25741 25744 25747 25750 25753 25756 25759 25762 25764 25767 25770 25773 25776 25779 25782 25784 25787 25790 25793 25796 25799 25802 25805 25808 25811 25813 25816 25819 25822 25825 25828 25831 25834 25837 25840 25843 25846 25849 25852 25855 25858 25861 25864 25867 25870 25873 25876 25879 25882 25885 25888 25890 25893 25896 25899 25902 25905 25908 25911 25914 25917 25920 25923 25926 25928 25931 25934 25937 25939 25942 25945 25948 25951 25954 25957 25960 25963 25966 25969 25972 25975 25978 25981 25984 25987 25990 25993 25996 25999 26002 26005 26007 26010 26013 26015 26018 26020 26023 26026 26029 26032 26035 26038 26040 26043 26046 26049 26052 26055 26058 26061 26064 26067 26070 26073 26076 26079 26082 26085 26088 26091 26094 26097 26100 26102 26105 26108 26111 26113 26116 26119 26122 26125 26128 26130 26133 26136 26139 26142 26144 26147 26150 26152 26155 26158 26161 26164 26167 26170 26173 26176 26179 26182 26185 26188 26191 26194 26197 26200 26203 26205 26207 26210 26213 26216 26219 26222 26225 26228 26231 26234 26237 26240 26243 26246 26248 26251 26253 26256 26259 26262 26265 26268 26271 26274 26277 26280 26283 26286 26289 26292 26295 26298 26301 26304 26307 26310 26313 26316 26319 26322 26325 26328 26331 26334 26336 26339 26342 26345 26348 26351 26354 26356 26359 26362 26365 26368 26371 26374 26377 26380 26383 26385 26388 26391 26394 26397 26399 26402 26405 26408 26411 26414 26417 26420 26423 26426 26429 26432 26435 26438 26441 26444 26447 26450 26453 26456 26459 26462 26465 26468 26471 26473 26476 26479 26481 26483 26486 26489 26492 26495 26498 26501 26504 26507 26510 26512 26515 26518 26521 26524 26526 26529 26532 26535 26538 26541 26543 26546 26549 26552 26554 26557 26560 26562 26564 26566 26569 26572 26575 26578 26580 26583 26586 26588 26590 26593 26595 26598 26601 26604 26606 26609 26612 26614 26616 26619 26622 26625 26628 26631 26634 26637 26640 26643 26646 26649 26652 26655 26657 26660 26663 26666 26669 26672 26675 26678 26680 26683 26686 26689 26692 26695 26698 26701 26704 26706 26709 26712 26715 26718 26721 26724 26727 26730 26733 26736 26739 26742 26745 26748 26751 26754 26757 26760 26763 26766 26769 26772 26775 26778 26781 26784 26786 26789 26792 26795 26798 26801 26804 26807 26810 26813 26816 26819 26822 26824 26827 26830 26833 26836 26839 26842 26845 26848 26851 26854 26857 26860 26862 26865 26868 26871 26874 26877 26880 26883 26886 26889 26892 26895 26898 26901 26904 26907 26910 26913 26916 26919 26922 26925 26928 26931 26934 26937 26940 26943 26946 26949 26952 26955 26958 26961 26964 26967 26970 26972 26975 26978 26981 26984 26987 26989 26992 26994 26997 26999 27001 27004 27007 27010 27013 27016 27019 27022 27024 27027 27030 27033 27036 27039 27042 27045 27048 27051 27054 27057 27060 27063 27066 27069 27072 27075 27078 27081 27084 27086 27089 27092 27095 27098 27100 27103 27105 27108 27111 27114 27117 27120 27123 27126 27129 27132 27134 27137 27140 27143 27146 27149 27152 27154 27157 27160 27162 27165 27168 27171 27174 27177 27180 27182 27185 27188 27191 27194 27197 27200 27203 27206 27209 27212 27215 27218 27221 27224 27227 27230 27233 27236 27239 27242 27245 27248 27251 27254 27257 27260 27263 27266 27269 27272 27275 27278 27281 27284 27287 27290 27292 27295 27298 27301 27304 27306 27309 27312 27315 27318 27321 27323 27326 27328 27331 27334 27337 27340 27343 27346 27349 27352 27355 27358 27361 27364 27367 27370 27373 27376 27379 27382 27385 27388 27391 27394 27397 27400 27403 27406 27409 27412 27414 27416 27419 27422 27425 27428 27431 27434 27437 27440 27443 27446 27449 27452 27454 27457 27460 27463 27466 27469 27472 27475 27478 27481 27484 27487 27490 27493 27496 27498 27501 27504 27506 27509 27512 27515 27518 27521 27524 27526 27529 27532 27535 27538 27541 27543 27546 27549 27552 27555 27557 27560 27562 27565 27568 27571 27574 27577 27580 27583 27586 27589 27592 27594 27597 27599 27601 27604 27607 27610 27613 27615 27618 27621 27623 27626 27629 27632 27634 27637 27640 27643 27646 27649 27652 27655 27658 27661 27663 27666 27668 27671 27674 27677 27680 27683 27686 27688 27691 27693 27696 27699 27702 27704 27707 27710 27713 27716 27719 27722 27725 27728 27730 27733 27736 27739 27742 27745 27747 27749 27752 27755 27758 27761 27763 27765 27767 27770 27773 27775 27778 27781 27784 27787 27790 27793 27796 27799 27802 27804 27807 27810 27813 27816 27818 27820 27822 27825 27828 27831 27834 27837 27840 27842 27845 27848 27850 27853 27856 27859 27862 27865 27868 27871 27874 27877 27879 27882 27884 27887 27889 27892 27895 27898 27901 27904 27907 27909 27912 27915 27918 27920 27922 27925 27928 27931 27934 27937 27940 27943 27946 27949 27952 27955 27958 27961 27964 27967 27970 27973 27976 27979 27982 27984 27987 27990 27993 27996 27999 28002 28005 28008 28010 28013 28015 28018 28020 28023 28026 28029 28031 28034 28037 28040 28043 28046 28049 28051 28054 28057 28060 28062 28065 28068 28071 28074 28077 28079 28082 28085 28088 28091 28093 28096 28099 28102 28104 28107 28110 28112 28115 28118 28120 28123 28126 28129 28132 28135 28137 28140 28142 28145 28148 28151 28154 28157 28160 28163 28166 28169 28172 28175 28178 28181 28184 28186 28189 28192 28194 28196 28199 28202 28205 28208 28211 28214 28217 28220 28223 28226 28229 28232 28235 28238 28241 28243 28246 28249 28252 28255 28258 28261 28264 28267 28270 28273 28276 28279 28282 28285 28288 28291 28294 28297 28300 28303 28306 28309 28312 28315 28318 28321 28324 28327 28330 28332 28335 28338 28341 28344 28347 28350 28353 28355 28358 28361 28364 28367 28370 28372 28375 28378 28381 28384 28387 28389 28392 28395 28398 28401 28404 28407 28410 28413 28416 28419 28421 28424 28426 28429 28432 28435 28438 28441 28444 28447 28450 28453 28456 28459 28462 28465 28467 28470 28473 28476 28479 28482 28485 28487 28490 28493 28496 28499 28502 28505 28508 28511 28514 28517 28520 28523 28526 28529 28532 28535 28538 28541 28544 28547 28550 28553 28556 28559 28561 28563 28566 28569 28571 28574 28577 28579 28582 28585 28588 28591 28594 28597 28599 28602 28605 28608 28611 28614 28617 28620 28622 28624 28627 28630 28633 28636 28639 28642 28645 28648 28651 28654 28657 28660 28663 28666 28669 28672 28675 28678 28681 28684 28687 28690 28693 28696 28699 28702 28705 28708 28711 28714 28717 28720 28723 28726 28729 28732 28735 28738 28741 28744 28747 28750 28753 28756 28758 28761 28764 28767 28770 28773 28776 28779 28782 28785 28788 28791 28793 28796 28799 28802 28805 28808 28811 28814 28817 28820 28823 28826 28829 28832 28835 28838 28841 28844 28847 28850 28853 28856 28859 28862 28865 28868 28871 28874 28877 28880 28883 28886 28889 28892 28895 28898 28900 28903 28905 28908 28911 28914 28917 28920 28923 28926 28928 28931 28933 28936 28939 28942 28945 28947 28950 28953 28956 28959 28962 28965 28968 28971 28974 28977 28980 28983 28986 28989 28992 28995 28998 29001 29004 29007 29010 29013 29016 29019 29021 29024 29027 29030 29033 29036 29039 29042 29045 29048 29051 29054 29057 29060 29063 29066 29069 29072 29075 29078 29081 29084 29087 29090 29093 29096 29099 29102 29105 29108 29111 29114 29117 29120 29123 29126 29129 29132 29135 29138 29141 29144 29147 29150 29153 29156 29159 29162 29165 29168 29171 29174 29177 29180 29182 29185 29188 29191 29194 29197 29200 29203 29206 29209 29212 29215 29217 29219 29222 29225 29228 29231 29234 29237 29240 29243 29246 29249 29252 29255 29258 29261 29264 29267 29270 29273 29276 29279 29281 29284 29287 29290 29292 29295 29297 29299 29302 29305 29308 29311 29314 29317 29320 29323 29326 29329 29331 29334 29337 29340 29343 29346 29349 29352 29355 29358 29361 29364 29367 29370 29373 29376 29379 29382 29385 29388 29391 29394 29397 29400 29403 29406 29409 29412 29415 29418 29421 29424 29427 29430 29433 29436 29439 29442 29445 29448 29451 29454 29457 29460 29462 29465 29468 29471 29474 29477 29479 29482 29485 29487 29490 29493 29496 29499 29502 29505 29508 29511 29514 29517 29520 29523 29526 29528 29531 29534 29537 29540 29543 29546 29549 29552 29555 29558 29561 29564 29566 29569 29572 29575 29578 29581 29584 29587 29590 29593 29595 29598 29600 29603 29606 29609 29611 29614 29617 29619 29622 29625 29628 29631 29634 29637 29640 29643 29646 29649 29652 29655 29658 29661 29664 29667 29670 29673 29676 29679 29682 29685 29688 29691 29694 29697 29700 29703 29706 29709 29712 29715 29718 29721 29724 29727 29729 29732 29734 29737 29740 29743 29746 29748 29751 29753 29756 29759 29762 29765 29767 29770 29773 29776 29779 29781 29784 29787 29790 29792 29795 29798 29801 29804 29806 29809 29812 29815 29818 29821 29824 29826 29829 29832 29834 29837 29839 29841 29844 29847 29849 29852 29855 29857 29860 29863 29865 29868 29870 29873 29876 29879 29882 29885 29887 29889 29891 29894 29897 29900 29902 29905 29908 29911 29914 29916 29918 29921 29924 29927 29930 29933 29936 29939 29942 29945 29948 29951 29954 29957 29960 29963 29965 29968 29970 29973 29975 29978 29980 29982 29985 29987 29990 29993 29996 29999 30001 30004 30007 30010 30013 30015 30017 30020 30023 30026 30029 30032 30035 30038 30041 30044 30047 30050 30053 30056 30059 30062 30065 30068 30071 30074 30077 30080 30083 30085 30087 30090 30093 30096 30099 30102 30104 30107 30110 30113 30116 30119 30121 30124 30127 30130 30133 30136 30139 30142 30145 30148 30151 30154 30157 30160 30163 30165 30168 30171 30174 30176 30179 30181 30183 30185 30188 30191 30194 30197 30199 30201 30204 30207 30210 30213 30215 30217 30219 30222 30225 30228 30231 30233 30236 30239 30242 30245 30248 30251 30254 30257 30260 30263 30266 30269 30272 30274 30277 30280 30282 30285 30287 30290 30293 30295 30298 30301 30304 30307 30310 30313 30315 30318 30321 30324 30327 30330 30333 30336 30339 30342 30345 30348 30351 30353 30356 30359 30362 30365 30368 30371 30374 30377 30380 30382 30385 30388 30391 30393 30396 30399 30402 30404 30407 30410 30413 30415 30417 30420 30423 30425 30428 30430 30433 30436 30438 30441 30444 30447 30450 30453 30456 30459 30462 30464 30467 30470 30473 30476 30479 30482 30484 30487 30490 30493 30496 30499 30501 30504 30507 30510 30513 30516 30519 30522 30525 30528 30531 30534 30537 30540 30543 30546 30548 30551 30554 30556 30559 30562 30565 30567 30570 30573 30576 30578 30581 30584 30587 30590 30593 30596 30599 30601 30604 30606 30609 30612 30615 30618 30621 30624 30627 30630 30633 30636 30639 30642 30645 30648 30651 30654 30657 30660 30663 30666 30668 30671 30674 30677 30680 30683 30686 30689 30692 30695 30698 30700 30703 30705 30708 30711 30714 30717 30720 30722 30725 30727 30730 30733 30736 30739 30742 30745 30747 30750 30753 30756 30759 30762 30765 30767 30770 30773 30776 30779 30782 30785 30788 30791 30794 30796 30798 30801 30804 30807 30810 30813 30816 30819 30821 30824 30827 30829 30832 30835 30838 30841 30844 30847 30850 30852 30855 30858 30861 30864 30867 30870 30873 30876 30878 30881 30883 30886 30889 30892 30895 30898 30901 30904 30907 30910 30913 30916 30919 30922 30925 30928 30931 30934 30937 30940 30943 30946 30949 30952 30955 30958 30961 30964 30967 30970 30973 30976 30979 30982 30985 30988 30991 30994 30997 31000 31003 31006 31009 31012 31015 31018 31021 31024 31027 31030 31033 31036 31039 31042 31045 31048 31051 31053 31056 31059 31062 31065 31068 31071 31074 31077 31079 31082 31085 31088 31091 31094 31097 31100 31103 31105 31108 31111 31114 31117 31120 31122 31125 31127 31130 31133 31136 31139 31142 31144 31147 31150 31153 31156 31158 31161 31164 31167 31170 31173 31176 31179 31182 31184 31187 31190 31193 31195 31197 31200 31203 31205 31208 31211 31214 31217 31220 31223 31225 31228 31230 31233 31236 31239 31242 31245 31248 31251 31254 31257 31260 31263 31266 31269 31272 31275 31278 31281 31284 31287 31290 31293 31296 31299 31302 31305 31308 31311 31314 31317 31320 31323 31326 31329 31332 31335 31338 31341 31344 31347 31349 31352 31355 31358 31361 31364 
</DataArray>
<DataArray type="UInt32" Name="types" format="ascii">
5 5 5 5 5 5 5 3 5 3 5 5 5 5 5 5 5 5 5 3 5 5 5 5 5 5 5 5 5 5 5 3 5 5 3 5 5 3 5 5 5 5 5 5 5 5 5 5 5 3 5 5 5 5 5 5 5 5 5 5 5 5 5 3 5 5 5 5 5 5 5 5 5 5 5 5 5 5 5 3 5 5 5 3 5 5 5 5 5 3 5 5 5 5 5 5 5 5 5 5 5 5 5 5 5 5 5 5 5 5 5 3 5 3 5 5 5 5 5 5 5 5 5 5 5 5 5 3 5 3 5 3 5 5 5 3 5 5 5 5 5 5 5 3 5 5 5 5 5 5 5 5 5 5 5 5 5 5 5 5 5 5 5 5 5 5 5 5 5 5 5 5 5 5 5 5 5 3 5 3 5 3 5 5 3 5 5 5 5 5 5 5 3 5 5 5 5 5 5 5 3 5 5 5 5 5 5 5 5 5 5 5 3 5 5 3 5 5 5 5 5 5 5 5 5 5 5 5 5 5 5 5 5 5 5 5 5 5 5 5 5 5 5 5 5 5 5 5 5 5 5 3 5 5 5 5 5 3 5 5 5 5 5 5 5 5 5 5 5 5 5 5 5 5 3 5 5 5 5 5 5 5 5 3 5 5 5 5 5 3 5 5 5 5 5 5 5 5 5 5 5 5 3 5 5 5 5 3 5 5 5 3 5 5 5 5 5 5 5 5 5 5 5 5 5 5 5 5 5 5 5 5 5 5 5 5 5 5 5 5 5 5 5 5 5 5 5 3 5 3 5 5 5 5 5 5 5 5 5 5 5 5 5 5 5 5 5 5 3 5 5 5 5 5 5 5 5 5 5 5 5 5 5 5 5 5 5 5 3 3 5 5 3 5 5 5 5 5 5 3 5 5 5 5 5 5 3 5 5 3 5 3 5 5 5 5 5 5 3 5 5 3 5 5 5 5 5 5 5 5 5 5 5 5 5 5 5 5 5 5 5 5 5 5 3 5 5 5 5 5 3 5 5 5 5 5 5 5 5 5 5 5 5 5 5 5 5 5 5 5 5 5 5 3 5 5 5 3 5 5 5 5 5 5 5 5 5 3 5 3 5 5 3 5 5 5 3 5 3 5 5 5 5 5 3 5 5 5 5 3 5 3 3 5 5 5 5 5 5 5 5 5 3 5 5 3 5 5 5 5 5 3 5 5 5 5 3 5 5 5 3 5 3 5 3 5 5 5 5 5 5 5 5 5 5 5 5 3 5 5 5 3 5 5 5 5 5 5 5 5 5 5 5 5 3 5 5 5 5 5 3 5 5 3 5 5 3 5 5 5 5 5 5 5 5 5 5 5 5 5 5 5 5 5 3 5 3 5 3 5 3 5 5 5 5 3 5 5 5 5 3 5 5 5 5 3 5 5 5 5 5 3 5 5 3 5 3 3 3 5 5 5 5 5 5 5 5 5 5 5 5 5 5 5 5 5 5 3 5 5 5 5 5 5 5 5 5 3 5 5 5 5 5 3 5 5 5 5 5 5 5 3 5 5 3 3 5 5 5 5 5 3 5 3 5 5 5 5 5 5 5 3 5 5 3 5 5 5 5 5 5 3 5 3 5 5 3 5 5 5 5 5 5 5 5 5 5 5 5 5 5 5 5 5 5 5 5 5 5 3 5 5 5 5 5 5 5 3 5 5 5 3 5 3 5 5 5 3 5 5 5 3 5 5 5 5 5 5 5 5 5 3 5 5 5 5 5 5 5 5 3 5 3 3 3 5 5 3 5 3 5 5 5 5 5 5 5 5 5 5 5 5 5 5 5 5 5 5 5 5 5 5 5 5 5 3 3 3 5 5 5 5 5 5 5 5 5 5 5 5 5 5 5 5 5 5 5 5 5 5 5 5 5 5 5 5 5 3 5 5 5 5 5 3 5 5 5 3 5 5 3 3 5 3 5 5 5 5 5 5 3 5 5 5 5 5 3 5 3 5 5 5 3 5 3 5 3 5 5 5 5 5 3 5 5 5 3 5 5 5 5 5 5 5 5 3 5 5 5 5 5 5 3 5 5 5 5 5 5 5 5 3 5 5 3 5 5 5 5 5 5 3 5 3 5 3 5 5 5 5 5 5 5 5 5 5 5 3 3 3 5 5 3 5 5 5 5 5 3 3 5 5 3 3 3 5 5 5 5 5 5 5 5 5 5 5 5 5 5 5 5 5 5 5 5 5 5 5 5 5 5 5 5 5 5 5 5 5 3 5 5 5 5 5 5 5 3 5 5 5 5 5 5 3 5 5 5 5 5 5 5 5 5 5 5 5 5 5 5 5 5 5 5 5 5 5 5 5 5 5 5 5 5 5 5 5 5 5 5 5 5 5 5 5 5 5 5 5 5 5 5 5 5 5 5 5 5 5 3 5 5 5 3 5 5 3 5 5 5 5 5 5 3 5 5 5 5 5 5 5 5 5 5 3 5 5 5 5 3 5 5 5 5 5 5 5 5 5 5 5 5 5 5 5 5 5 5 5 5 5 5 5 5 3 5 5 5 5 3 5 5 5 5 5 5 5 5 5 5 5 5 5 5 5 5 5 5 5 5 5 5 5 5 5 5 5 5 5 5 5 5 5 5 5 5 5 5 3 5 5 5 5 5 3 5 5 5 3 3 5 5 5 5 5 5 5 5 5 3 5 5 5 3 5 5 5 5 5 5 3 5 5 5 5 5 5 5 5 5 5 3 3 5 5 5 5 5 5 5 5 5 3 5 5 3 5 5 5 3 3 5 5 3 5 5 3 3 5 5 5 3 5 5 5 5 5 3 5 5 5 5 5 5 5 5 5 3 5 5 5 5 5 5 5 5 5 5 5 5 5 5 5 3 5 5 5 5 5 5 3 5 5 5 5 5 5 5 5 5 5 5 5 5 5 5 5 3 3 5 5 5 5 5 5 5 5 5 5 5 5 5 5 5 5 5 5 5 5 5 5 5 5 5 5 5 5 5 5 5 5 5 5 5 5 5 5 5 5 5 5 5 5 3 5 3 5 5 5 3 5 5 5 5 5 5 5 5 5 3 5 5 3 5 5 5 5 5 3 5 5 5 5 5 5 5 3 5 5 3 5 5 5 5 5 5 3 5 5 5 5 5 5 5 5 5 5 5 5 3 5 5 5 5 5 5 5 5 5 5 5 5 5 5 5 5 5 5 5 5 5 5 5 5 5 5 5 5 5 5 5 5 5 5 5 5 5 5 5 5 5 5 5 5 5 5 5 5 5 5 5 5 5 5 5 5 5 5 5 5 5 5 5 5 5 5 5 5 5 5 5 5 5 5 5 5 5 5 5 5 5 5 5 5 5 5 5 5 5 3 5 5 5 5 5 5 5 5 5 5 5 3 5 5 5 3 5 5 5 5 5 5 5 5 5 5 5 5 5 5 5 5 5 5 5 5 5 5 5 5 5 5 5 5 5 5 5 5 5 5 5 5 5 5 5 5 5 5 5 5 5 5 5 5 5 5 5 5 5 5 5 5 5 5 5 5 5 5 5 5 5 5 5 5 5 5 5 5 5 5 5 5 5 5 5 5 5 5 5 5 5 5 5 5 5 5 5 5 5 5 5 5 5 5 5 5 5 5 5 5 5 5 5 5 5 5 5 5 3 5 5 5 5 5 5 5 5 5 5 3 5 5 5 5 3 5 5 5 3 3 5 5 5 5 5 5 5 5 5 5 5 5 5 5 5 5 5 5 5 3 3 5 5 3 5 5 5 5 5 5 3 5 5 5 5 5 3 5 5 5 5 5 5 3 5 5 5 5 5 5 3 5 3 5 5 5 5 5 5 5 5 5 5 5 5 5 5 5 5 5 3 5 5 5 5 5 5 5 3 5 5 5 5 5 3 5 5 5 5 5 5 5 3 5 5 5 3 5 5 3 5 5 5 5 5 5 5 5 5 5 5 5 5 5 3 5 5 5 5 5 5 5 5 3 5 5 5 5 5 5 3 5 5 5 5 5 3 5 5 5 5 5 5 5 5 5 5 5 5 5 5 5 5 5 5 5 3 5 5 5 3 5 3 5 5 5 5 5 5 5 5 5 5 5 5 5 5 5 5 5 5 5 5 5 5 5 5 5 3 5 5 3 5 5 5 5 5 5 5 5 3 5 5 5 5 5 5 5 5 5 5 5 3 5 5 5 5 5 5 5 5 5 5 5 5 5 5 5 5 5 3 5 5 5 5 5 5 5 5 5 5 3 5 5 5 5 5 5 5 5 3 5 5 5 5 5 5 3 5 5 5 5 5 5 5 5 5 5 5 5 5 5 5 5 5 5 5 5 5 5 5 5 5 5 5 5 5 3 5 3 5 5 5 5 5 5 5 3 5 3 5 5 5 5 5 5 5 5 5 5 5 5 5 5 3 5 3 5 5 5 5 5 5 3 5 5 5 5 5 5 5 5 5 3 5 3 5 5 5 5 5 5 5 5 3 5 5 3 5 5 5 5 5 3 5 5 5 5 3 3 5 3 3 5 5 5 5 3 5 5 5 5 5 5 5 5 5 5 5 5 5 5 5 5 5 5 5 5 5 3 3 5 5 5 5 5 3 5 5 5 3 5 5 5 5 5 5 5 3 5 5 5 5 5 3 5 5 5 3 5 5 5 5 5 5 5 5 5 3 5 5 5 5 5 5 3 3 5 5 5 5 5 5 3 5 5 5 5 5 5 5 5 5 5 5 5 5 3 5 5 5 5 5 3 5 5 3 5 5 5 5 5 5 5 3 5 5 5 5 3 5 5 5 5 5 5 5 5 5 5 5 5 5 5 5 5 5 5 5 5 5 5 5 5 5 5 5 5 5 5 5 3 5 5 5 3 5 5 3 5 5 5 5 5 5 3 3 5 5 5 5 3 5 5 5 5 5 5 5 3 5 5 5 5 5 5 5 3 5 5 5 5 5 5 5 5 5 5 5 5 5 5 5 3 5 5 3 5 5 5 5 5 5 5 5 5 3 5 3 5 5 3 5 5 5 5 5 5 5 5 5 5 5 5 5 5 5 5 3 5 5 5 5 5 3 5 5 5 5 5 5 5 5 5 5 5 3 5 5 5 5 5 5 5 3 5 5 5 5 3 5 5 5 5 5 3 5 5 3 5 5 5 5 5 5 3 5 3 3 5 3 5 5 3 3 5 3 5 3 5 5 5 5 5 5 5 3 5 5 5 5 5 5 5 5 5 5 5 5 5 5 5 5 5 5 5 5 5 5 5 3 5 5 5 5 5 5 5 5 5 5 5 5 5 5 3 5 3 5 5 5 5 5 5 5 5 5 5 5 5 5 5 5 5 5 5 5 5 5 5 5 5 5 5 5 5 5 5 5 5 5 5 5 5 5 5 5 3 5 5 5 5 5 5 5 5 5 5 5 3 5 5 5 5 5 5 5 5 5 5 5 5 5 5 5 5 5 5 5 5 5 5 5 5 5 5 5 3 5 5 5 5 5 5 5 5 5 3 5 5 5 5 3 5 5 5 5 5 5 5 5 5 5 5 5 5 5 3 5 5 5 5 3 5 5 5 5 5 5 5 5 5 5 5 5 3 5 5 5 5 5 5 3 5 5 5 5 5 5 5 5 5 5 3 5 5 5 5 5 5 5 5 5 5 5 5 5 5 5 5 5 5 5 5 5 5 5 5 5 5 5 5 5 5 5 5 5 5 3 5 5 5 5 3 3 5 5 3 5 5 5 5 3 5 5 5 5 5 5 5 5 5 5 5 5 5 5 5 5 3 5 5 5 3 5 5 5 5 5 3 5 5 3 5 5 5 5 5 5 5 5 5 5 5 5 5 5 5 5 5 3 5 5 5 5 5 5 5 5 5 5 5 3 5 5 5 3 5 5 5 5 3 3 5 5 5 5 5 5 5 5 5 5 5 5 5 5 5 3 5 5 5 5 5 5 5 5 5 5 5 3 5 5 5 5 5 3 5 5 5 5 5 5 5 5 5 3 5 5 5 5 5 5 5 5 5 5 5 5 5 5 5 5 5 5 5 5 5 5 5 5 5 3 5 5 5 5 5 5 3 5 5 5 5 5 5 5 5 5 5 5 5 5 5 5 5 5 5 5 5 5 5 5 5 5 5 5 5 5 5 5 5 5 5 5 5 5 5 5 5 5 5 5 5 5 5 5 5 5 5 5 5 5 5 5 5 5 5 5 3 5 5 5 5 5 5 5 3 5 5 5 3 5 3 5 5 5 5 5 3 3 5 5 5 5 5 5 5 5 3 5 5 5 5 5 5 5 3 5 3 5 5 3 3 5 5 5 3 5 5 5 5 5 5 5 5 3 5 5 5 5 3 5 5 5 5 5 5 5 5 5 5 5 5 5 5 5 3 5 5 5 5 3 3 5 5 5 5 3 5 5 5 5 5 3 5 5 5 5 5 5 5 5 5 5 5 5 3 5 5 5 5 5 5 5 5 3 5 3 5 5 5 5 5 5 5 5 5 5 5 5 5 5 5 5 3 5 5 5 5 5 5 5 3 5 3 5 5 5 3 5 5 5 5 5 5 5 5 5 5 5 5 5 5 5 5 5 5 5 5 5 5 5 5 5 5 5 5 5 5 5 3 5 5 5 5 5 5 5 3 5 5 5 3 5 5 5 5 5 3 5 5 5 5 5 3 5 5 5 5 3 5 5 5 3 5 5 3 5 5 5 5 3 5 5 3 5 5 5 3 5 5 5 5 5 3 5 5 5 5 5 5 5 3 5 5 5 5 5 5 5 5 5 5 5 5 3 5 5 5 3 5 5 3 5 5 3 5 5 5 3 5 5 3 3 5 5 5 5 3 5 5 5 5 5 5 5 5 3 5 5 5 5 5 3 3 5 5 5 5 3 5 5 5 5 5 5 5 3 5 5 5 5 5 5 5 5 5 3 5 5 3 5 5 5 5 3 3 5 3 5 5 5 5 5 3 5 5 3 5 5 3 5 3 5 5 5 5 5 5 3 5 5 5 5 5 5 5 5 5 5 5 5 5 5 3 5 5 5 5 5 5 5 5 3 5 5 5 5 5 5 5 5 5 5 5 5 5 3 5 5 5 5 5 5 5 5 5 5 3 5 5 5 3 5 3 5 5 5 5 3 5 5 5 5 5 3 5 5 5 5 5 5 5 5 5 5 5 5 5 5 5 5 5 5 5 5 5 3 5 5 5 5 5 5 5 5 5 5 5 5 5 5 3 5 3 5 5 3 5 5 3 5 3 5 5 5 5 5 3 5 3 5 5 3 5 3 5 5 5 5 3 3 5 5 5 5 5 5 5 5 3 5 5 5 5 3 5 3 5 5 5 5 5 5 5 5 5 5 3 5 5 3 3 5 5 5 5 3 5 5 5 5 5 5 5 5 5 5 5 5 5 3 5 3 5 5 5 3 5 5 5 3 5 5 5 5 5 5 3 5 5 5 5 5 5 5 3 5 5 5 3 5 5 5 5 5 5 5 5 5 5 5 5 5 5 5 5 5 5 5 3 5 5 3 5 5 5 5 5 5 5 5 5 5 5 5 5 5 5 5 5 5 5 5 5 5 5 5 3 5 3 3 5 5 5 3 5 3 5 5 3 5 5 5 5 5 3 5 5 5 5 5 3 5 3 5 5 5 5 5 3 5 5 5 5 5 5 5 5 5 3 5 5 3 5 5 3 5 5 3 5 3 5 5 5 5 5 5 3 3 5 5 5 3 3 3 3 5 5 5 3 5 5 5 5 5 5 5 3 5 5 5 5 5 5 5 5 5 3 5 5 5 3 5 5 5 5 5 5 5 5 5 3 5 5 3 5 5 3 5 5 5 5 5 5 5 5 5 5 5 5 5 5 5 5 5 5 5 5 5 5 5 5 5 5 5 5 5 5 5 5 5 5 5 5 5 5 5 5 5 3 5 3 5 5 5 5 5 5 5 3 3 5 5 5 5 5 5 3 5 5 5 5 5 5 5 5 5 5 5 5 5 5 5 5 5 5 3 5 3 3 5 5 5 5 5 3 5 5 5 5 3 5 5 5 5 5 5 5 5 5 5 3 5 5 3 5 3 5 5 3 3 5 5 3 5 5 5 5 5 5 5 5 3 5 5 3 5 3 5 3 5 5 5 3 5 5 3 5 3 5 5 5 5 5 5 5 5 5 5 5 5 3 3 5 3 5 5 5 5 5 5 5 5 5 5 5 5 5 5 5 5 5 5 5 5 5 3 5 5 5 5 5 5 5 5 5 3 5 5 5 5 3 5 5 5 5 5 5 5 5 5 5 5 5 5 5 5 5 5 5 5 5 5 5 5 5 5 5 5 5 5 5 5 3 5 5 5 3 5 3 5 5 5 5 3 5 3 5 5 3 3 3 3 5 5 5 3 3 5 5 5 5 5 5 5 3 5 5 5 5 5 5 5 5 5 5 3 5 5 5 5 5 5 5 5 5 5 5 5 5 5 5 5 5 5 5 5 5 5 5 3 5 3 5 5 5 5 5 5 3 5 5 5 5 5 5 5 3 5 3 3 5 5 5 3 5 3 3 5 3 5 5 5 5 5 5 5 5 5 5 5 5 5 5 5 5 5 5 5 5 5 5 5 5 5 5 5 5 5 5 5 5 5 5 5 5 5 3 5 3 5 3 5 5 5 5 3 5 5 5 3 5 3 3 3 5 5 3 5 5 5 5 3 5 5 3 5 3 3 5 5 5 5 5 5 5 5 5 5 5 5 5 5 5 3 5 5 5 5 3 5 5 5 3 5 5 3 5 3 5 3 3 5 3 5 3 5 5 5 5 3 3 5 3 3 5 5 5 5 5 3 5 5 5 5 3 5 5 3 5 3 5 5 3 5 5 5 3 5 3 3 3 5 3 5 5 3 5 5 5 5 5 5 5 5 5 3 5 5 5 5 5 5 5 5 5 5 5 3 5 5 5 3 5 5 5 3 3 5 3 5 3 5 3 5 5 3 5 3 5 5 3 5 5 5 3 5 3 5 5 5 5 5 5 5 5 5 5 3 3 3 3 5 5 3 5 5 5 5 5 5 5 5 5 5 5 5 5 3 5 5 5 5 5 3 5 5 5 5 5 5 5 5 5 3 3 5 5 5 5 5 3 5 5 5 5 3 5 3 5 5 5 3 3 5 5 5 5 5 5 5 5 5 5 5 5 5 5 5 5 5 5 5 5 5 5 5 5 5 5 5 5 5 3 3 5 5 5 5 5 5 5 5 5 5 3 5 5 3 5 5 3 5 5 3 5 5 5 5 3 3 5 5 5 5 5 3 5 5 5 5 5 5 5 5 5 5 3 5 5 5 3 5 5 5 5 5 5 3 3 5 5 5 5 5 5 5 5 5 5 5 5 5 5 5 5 5 5 5 5 5 5 5 5 5 5 5 5 5 5 5 5 5 5 5 3 5 5 5 5 5 5 5 5 5 5 5 5 5 5 5 5 5 5 5 5 5 5 5 3 5 5 5 5 5 5 5 5 3 5 5 5 5 5 5 5 3 3 5 3 5 5 5 3 5 5 5 3 5 5 5 5 5 5 5 3 5 5 5 5 5 5 5 5 5 5 5 5 5 5 5 5 5 5 5 5 5 5 5 5 5 5 5 5 5 5 3 5 5 5 5 3 5 5 5 3 5 5 5 5 5 5 5 3 5 3 5 5 5 5 5 5 5 5 5 3 5 5 5 5 5 5 5 5 5 5 5 5 5 5 5 5 5 3 5 5 5 5 5 3 5 5 3 5 3 5 5 5 3 5 5 5 3 5 5 5 5 3 5 5 5 3 5 5 5 5 3 5 5 5 5 5 5 5 5 3 5 3 5 5 5 5 5 5 5 5 5 5 5 5 5 5 5 5 5 5 5 5 5 5 5 5 5 5 5 5 5 5 5 5 5 5 5 5 5 5 3 5 5 3 5 5 5 3 3 5 5 5 5 5 5 5 3 5 5 5 5 3 5 5 5 5 5 5 5 5 5 5 5 5 5 5 5 5 5 5 5 5 5 5 5 5 5 5 5 5 5 5 5 5 5 5 5 5 3 5 5 3 5 5 5 5 5 5 5 5 5 5 5 5 5 3 5 5 5 5 5 5 5 3 5 3 5 5 5 5 5 5 5 5 5 5 5 5 5 5 5 5 5 5 5 5 5 5 5 5 5 5 5 5 5 5 5 5 5 5 5 5 5 5 5 5 5 5 5 5 5 5 5 5 5 5 5 5 5 5 5 5 5 5 5 5 5 5 5 5 5 5 5 5 5 5 5 5 5 5 5 5 5 5 5 3 3 5 5 5 5 5 5 5 5 5 5 5 5 5 5 5 3 5 3 5 5 3 5 5 5 5 5 3 5 5 5 5 5 5 5 5 5 5 5 5 5 5 5 5 5 5 5 5 5 5 5 5 5 5 5 5 5 5 5 5 5 5 5 5 5 5 5 5 5 5 5 5 5 5 5 5 3 5 5 5 5 3 3 5 5 5 5 5 5 5 5 3 5 5 5 5 5 5 3 5 5 5 5 5 5 5 5 5 5 5 5 5 5 5 5 5 5 5 5 5 5 5 3 5 5 5 5 5 5 5 5 5 5 5 5 5 3 3 5 5 5 5 5 5 3 5 3 5 5 5 5 5 5 5 5 5 5 5 5 5 5 5 5 5 5 5 5 5 5 5 5 5 5 5 5 3 5 3 5 5 5 5 5 5 5 5 5 5 5 5 3 5 5 5 5 5 5 5 5 5 5 5 5 5 5 5 5 5 5 5 5 5 5 5 5 5 5 5 5 5 5 5 5 5 5 5 5 5 5 5 5 5 5 5 5 5 5 5 5 5 5 5 5 5 5 5 5 5 3 5 3 5 5 5 5 5 5 5 5 5 5 3 5 5 5 5 5 5 5 5 5 5 5 5 5 5 5 5 5 5 5 5 5 5 5 5 5 5 5 5 5 5 5 5 5 5 5 5 5 5 5 5 5 3 5 5 5 3 5 5 5 5 5 5 5 5 5 5 5 5 5 5 5 5 5 5 5 5 5 5 5 5 5 5 5 5 5 5 5 5 5 5 5 5 5 5 5 3 5 5 5 5 5 3 3 5 5 5 5 5 5 5 5 5 5 5 5 3 5 5 5 3 5 5 5 5 5 5 5 5 5 5 5 5 5 5 5 5 5 5 5 5 5 5 5 5 5 5 5 5 5 5 5 5 5 5 5 5 5 5 5 5 5 5 5 5 5 5 5 5 5 5 5 5 5 5 5 5 5 5 5 5 5 5 5 5 5 5 5 5 5 5 5 5 5 5 5 3 5 5 5 5 5 3 5 5 5 5 5 5 5 5 5 5 5 5 5 5 3 5 5 3 5 5 3 3 5 5 3 3 5 5 5 5 5 5 5 5 3 5 5 5 5 5 5 5 5 5 5 5 5 5 5 5 5 5 5 5 5 5 5 5 5 5 5 5 5 5 5 5 5 5 5 5 5 5 5 5 5 5 5 5 5 5 5 5 5 5 3 5 5 5 3 5 5 5 5 5 5 5 3 5 5 3 5 5 5 3 5 5 5 5 5 5 5 3 5 3 5 3 5 5 5 5 5 5 5 5 5 5 5 3 5 5 5 3 5 3 5 5 5 3 5 5 5 5 5 5 5 5 5 3 5 5 5 5 5 5 3 5 5 5 5 3 5 5 5 5 5 5 5 5 3 5 5 5 5 5 5 5 5 5 5 5 5 3 5 5 5 5 5 5 5 5 5 5 5 5 5 5 5 5 5 5 5 5 5 5 5 3 5 5 5 5 5 5 5 5 5 5 5 5 5 5 5 5 5 5 5 5 5 5 5 5 5 5 5 5 5 5 5 5 5 5 5 5 5 5 5 5 5 5 5 5 5 5 5 5 5 5 5 5 5 5 5 3 5 5 5 5 5 5 5 3 5 5 5 5 5 5 5 5 3 3 5 5 3 5 5 3 5 5 5 3 5 3 5 3 5 5 3 5 5 5 5 5 5 5 5 5 5 5 5 5 5 5 5 3 5 5 5 5 5 5 5 3 5 5 5 5 5 5 5 5 3 5 3 5 5 3 3 5 3 5 5 5 5 5 5 5 5 5 3 3 5 5 5 5 5 5 5 5 5 5 5 5 5 3 5 3 5 5 5 3 5 5 5 5 3 5 3 5 3 5 5 5 5 3 5 5 5 5 5 5 3 5 5 5 5 5 3 5 5 5 3 5 5 5 5 5 5 5 5 5 5 5 3 5 5 5 5 5 5 3 5 5 5 5 5 5 5 5 5 3 3 5 5 5 3 3 5 5 5 5 5 5 5 5 5 5 5 5 5 5 5 5 5 5 5 5 5 5 5 5 5 5 5 5 5 5 5 5 5 5 5 5 5 5 5 5 5 5 3 5 5 5 5 3 5 5 5 5 5 5 5 5 5 3 5 5 3 5 3 5 5 5 5 5 5 5 5 5 5 5 5 5 5 5 5 5 3 5 5 5 5 5 5 5 5 5 5 5 3 5 3 3 5 5 3 5 5 3 5 5 3 5 5 5 5 5 5 5 5 5 5 5 5 5 5 3 5 5 5 5 5 5 5 5 5 3 5 5 3 5 5 5 5 5 5 5 5 5 3 3 5 5 5 5 5 3 5 5 5 5 5 3 3 5 5 5 5 5 5 5 5 5 5 5 5 5 5 5 5 5 5 5 5 5 5 5 5 5 5 5 5 5 3 5 5 3 5 5 3 5 3 5 5 3 5 3 5 5 5 5 5 5 5 5 5 5 5 5 5 5 5 5 5 5 5 5 5 5 5 5 5 5 5 5 5 5 3 5 5 5 5 5 5 5 5 5 5 5 5 5 5 3 5 5 3 5 5 5 5 5 5 5 5 5 5 5 5 5 5 5 5 5 5 5 5 5 5 5 5 5 3 5 3 5 5 5 5 5 5 5 3 5 5 3 5 5 5 3 5 5 5 5 5 5 5 5 5 5 5 5 5 5 5 3 5 5 5 5 5 5 5 5 3 5 5 3 5 5 5 5 3 5 5 3 5 5 5 5 3 5 5 5 3 5 5 3 5 3 5 5 5 5 5 5 5 5 5 5 5 5 5 5 5 5 5 5 3 5 5 5 5 5 5 5 5 5 3 5 5 3 5 5 5 5 5 3 5 5 3 5 5 5 5 5 5 5 5 3 5 5 3 5 3 5 5 3 5 5 5 5 5 5 5 3 5 5 3 5 5 3 3 3 5 5 5 3 5 5 3 5 5 5 3 5 3 5 5 3 3 3 5 3 5 3 5 5 5 5 5 5 5 5 3 3 5 5 5 5 5 5 5 3 5 5 3 5 5 3 5 5 5 5 3 5 5 5 5 5 5 5 5 5 5 5 5 5 5 5 3 5 5 3 5 5 3 5 5 5 3 5 5 3 5 3 5 5 5 5 5 5 5 5 5 5 5 3 5 5 5 5 5 3 5 5 5 3 5 5 5 3 5 5 3 5 3 5 5 5 5 5 5 5 5 5 5 3 5 5 5 3 5 3 5 5 3 3 5 3 5 5 5 3 5 5 5 3 5 5 3 5 5 5 3 5 3 5 5 5 5 5 5 5 5 5 3 5 5 3 5 5 3 5 5 5 5 5 3 5 5 5 5 5 5 3 5 5 5 5 5 5 5 5 3 5 5 3 5 5 5 5 5 5 5 5 3 5 3 3 5 5 5 3 5 5 5 5 5 5 5 5 5 5 5 5 5 3 5 5 3 5 5 3 5 5 5 3 3 5 5 5 5 3 3 5 5 5 5 5 5 3 5 3 5 5 5 5 5 5 5 5 3 5 5 5 5 5 5 5 5 5 5 5 5 5 5 5 5 5 5 5 5 5 5 5 5 5 5 5 5 5 5 5 5 5 5 5 5 5 5 5 5 3 3 5 5 5 5 3 5 5 5 5 5 5 5 5 5 5 3 5 5 5 5 5 5 5 5 3 5 5 5 5 5 5 5 5 5 5 5 5 5 5 5 3 5 5 5 5 5 5 5 5 5 5 3 5 5 5 5 3 5 5 5 3 5 5 3 5 5 3 5 3 3 5 3 5 5 5 5 3 3 5 5 5 5 5 5 5 5 5 5 5 5 5 5 5 5 5 5 5 5 5 5 5 5 5 5 5 5 5 5 5 5 3 5 5 5 5 5 5 5 5 5 5 5 5 5 5 5 5 5 5 5 5 5 5 3 3 5 5 5 5 5 5 5 5 3 5 5 5 5 5 5 5 3 5 5 5 5 5 3 5 5 5 5 5 5 5 5 5 5 5 5 5 5 5 5 5 5 5 5 5 5 5 5 5 5 5 5 5 5 5 3 5 5 5 5 5 5 3 5 5 3 5 5 5 5 5 5 5 5 5 5 3 5 5 5 5 5 5 3 5 5 5 3 5 5 5 5 5 5 5 3 5 5 5 3 3 5 5 5 5 5 5 3 5 5 5 5 5 3 5 5 5 3 5 5 5 5 3 5 5 5 3 5 5 5 5 5 5 5 5 5 5 5 5 5 5 5 3 5 3 5 5 5 5 5 5 5 5 3 5 5 5 3 3 5 5 5 5 5 5 3 3 5 5 5 5 5 5 5 5 3 5 5 5 5 5 5 5 5 5 5 3 5 5 3 5 5 3 3 5 5 5 5 5 5 5 3 5 5 5 3 3 3 5 5 5 5 5 5 5 5 5 3 5 5 5 5 5 3 5 5 5 5 5 5 5 3 5 5 5 3 5 5 5 5 5 5 5 5 5 5 5 5 5 5 3 5 5 5 5 5 5 5 5 3 5 5 3 5 5 3 5 5 5 5 5 5 3 5 5 3 5 5 5 5 5 5 5 5 5 5 5 5 3 5 5 3 5 5 5 5 5 3 3 5 5 5 3 5 5 5 5 3 5 5 3 5 5 5 5 5 5 5 5 5 5 5 5 3 5 5 5 5 5 5 3 5 5 3 5 3 3 5 5 5 5 5 5 5 5 5 5 5 5 5 5 5 3 5 3 5 5 5 5 5 3 5 5 5 5 3 5 3 5 5 5 5 5 5 5 5 5 5 5 5 5 5 5 5 3 5 5 3 5 5 5 5 5 5 5 5 5 5 5 5 3 5 5 5 5 5 5 3 5 5 5 5 3 5 5 5 5 5 3 5 5 3 5 5 5 5 5 5 5 5 3 5 5 3 5 5 5 5 5 5 5 5 5 5 5 5 5 5 5 5 3 5 5 5 5 5 5 5 5 5 3 5 3 5 5 5 5 5 5 5 3 5 3 5 5 5 3 3 5 5 5 5 5 5 3 5 5 5 3 3 5 5 5 5 5 5 5 5 5 5 5 5 5 5 5 3 5 5 5 5 3 5 5 3 5 5 5 5 5 5 5 5 3 5 5 5 5 5 3 5 5 3 5 5 5 5 5 3 5 5 5 5 5 5 5 5 5 5 5 5 5 3 5 5 5 5 3 5 5 3 3 5 5 5 5 5 3 5 5 3 5 5 3 5 5 3 5 5 5 5 5 5 5 5 5 5 5 5 5 5 5 3 5 5 5 5 5 5 3 5 5 5 5 5 3 5 5 5 5 5 5 5 3 5 3 5 5 5 3 5 5 5 5 3 5 5 5 5 5 5 5 5 3 5 5 5 5 3 5 5 5 5 5 5 5 3 5 5 5 5 5 5 5 5 5 5 5 5 5 5 3 5 5 5 5 5 5 3 5 5 5 5 5 5 5 3 5 5 5 5 5 5 3 5 5 5 3 5 5 3 5 5 5 5 3 5 5 5 5 3 5 5 5 5 5 5 5 3 3 5 5 5 5 5 3 5 5 5 5 5 5 5 5 3 5 5 5 5 5 5 5 5 3 5 5 5 5 5 5 5 5 5 5 5 5 5 5 5 5 5 5 5 5 5 5 5 3 5 3 5 5 5 5 3 3 5 5 5 5 5 5 5 5 5 5 3 5 5 3 5 3 5 3 5 5 3 5 5 3 5 3 5 3 3 5 3 3 5 3 5 5 5 5 3 5 5 3 5 5 3 5 3 5 5 5 3 5 5 5 3 5 5 5 5 5 5 5 5 5 5 5 5 5 5 5 5 5 5 5 5 5 5 5 5 5 5 5 5 5 5 5 5 5 5 5 5 5 5 5 5 5 5 3 5 5 5 5 3 5 5 5 5 5 5 5 5 5 3 5 5 5 5 5 5 5 5 5 5 5 5 5 5 5 5 5 5 5 5 5 5 5 5 5 5 5 5 5 5 5 5 5 5 5 5 5 5 5 5 5 5 5 5 5 5 5 5 5 5 5 5 3 5 5 5 5 5 5 5 5 5 5 5 3 5 5 5 5 5 3 3 5 5 5 3 5 3 5 5 3 5 5 5 5 5 5 5 5 5 5 5 3 5 3 5 5 5 5 5 5 3 5 5 5 5 5 5 5 5 5 5 5 5 3 5 5 5 5 3 5 5 5 5 5 5 5 5 5 3 5 5 3 5 5 5 3 5 5 5 5 5 3 5 5 5 5 5 5 5 5 5 5 5 5 3 5 5 5 5 5 5 5 5 5 5 5 5 3 5 5 5 5 5 5 5 5 5 5 5 5 5 5 5 5 5 5 3 5 5 5 3 5 5 5 5 5 5 5 5 5 5 5 3 5 5 3 5 5 5 5 5 5 5 5 5 5 5 5 5 5 5 5 5 5 5 5 5 5 5 5 5 5 5 5 5 5 5 5 5 5 5 3 5 5 5 5 5 3 5 3 5 5 5 5 5 5 5 3 3 5 5 5 5 5 5 3 5 3 5 5 5 5 5 5 5 5 5 5 5 5 5 5 5 3 5 5 3 5 5 5 3 5 5 5 5 3 3 5 5 5 5 5 5 3 5 5 5 5 3 5 5 5 5 5 5 5 5 5 5 5 5 5 5 5 5 5 5 5 5 5 5 5 5 5 5 5 3 5 5 5 5 3 5 3 5 5 5 5 5 5 5 5 5 5 5 5 5 3 5 5 3 5 5 5 5 5 5 5 5 5 5 5 5 5 3 5 5 5 3 5 3 5 5 5 5 5 5 3 5 3 5 5 5 5 5 5 5 3 5 5 5 5 5 3 5 5 5 5 5 5 5 5 5 3 5 5 5 3 5 3 5 5 5 5 3 5 5 5 5 3 3 5 5 5 5 3 5 5 3 5 5 5 5 5 5 5 3 5 5 5 3 5 5 5 5 5 5 5 5 5 3 5 5 3 5 5 3 5 5 5 3 5 3 3 5 5 3 3 5 5 5 3 5 5 5 3 5 3 3 3 5 5 5 5 5 5 5 3 5 5 5 3 5 5 5 5 3 5 5 5 5 3 5 5 5 3 3 5 5 5 5 3 5 5 5 5 5 5 5 5 5 5 5 5 5 3 5 5 5 5 3 5 5 3 5 5 5 5 5 5 5 3 5 3 5 5 5 5 5 5 5 3 5 5 3 5 5 5 5 3 3 3 5 5 5 5 5 5 5 5 5 5 5 3 5 5 5 5 3 5 5 5 5 5 5 5 5 5 5 5 5 5 5 5 5 5 5 5 5 5 5 5 5 5 5 5 5 5 5 5 5 5 5 5 5 5 3 3 5 3 5 5 5 5 5 5 5 5 3 3 5 5 5 5 5 5 5 5 5 5 5 3 3 3 5 3 5 5 5 3 3 5 5 3 3 5 5 5 5 3 5 5 5 5 3 5 5 5 5 5 3 5 5 5 3 5 3 5 5 5 5 3 5 5 5 5 5 3 5 3 5 5 5 5 5 3 5 3 5 5 5 5 5 5 5 3 5 3 5 5 5 5 5 5 5 5 5 5 5 5 5 5 5 5 5 5 5 5 5 5 5 5 3 5 5 5 5 5 3 3 5 5 5 5 5 3 5 5 5 5 5 5 3 5 5 5 5 5 5 5 5 5 5 5 5 5 5 5 5 5 5 5 5 5 5 5 3 5 5 5 3 5 3 5 5 5 5 3 3 5 3 5 3 5 5 5 5 5 5 5 5 5 5 5 5 5 5 5 5 5 5 5 5 5 5 3 5 5 5 5 3 5 5 5 5 5 5 5 5 5 3 5 5 5 5 5 5 5 5 5 5 5 5 5 5 5 5 5 5 5 5 5 5 3 5 5 5 5 5 3 5 5 5 5 3 5 5 5 3 5 5 3 5 5 5 5 5 3 5 3 3 5 5 5 5 5 5 3 5 5 3 5 3 5 5 3 5 5 5 3 5 5 5 5 5 3 5 5 3 5 5 3 5 5 5 5 5 3 5 5 5 5 5 5 5 5 5 5 5 3 3 5 3 5 5 3 5 5 5 3 5 3 5 5 3 5 5 5 3 5 5 5 5 3 3 5 5 5 5 5 5 5 3 5 5 5 5 5 5 3 5 5 5 5 5 5 5 5 5 5 5 5 5 5 5 5 5 5 5 5 5 5 5 5 5 5 5 5 5 5 5 3 3 5 5 5 5 5 5 5 5 5 5 5 5 5 5 5 5 5 5 5 5 5 5 5 5 5 5 5 5 5 5 5 5 5 5 5 5 5 5 5 5 5 5 5 5 5 3 5 5 5 5 5 5 5 5 5 5 5 5 5 5 5 3 5 5 5 5 5 5 3 3 5 5 5 5 5 5 3 3 3 5 5 5 3 5 3 5 5 5 5 5 5 5 5 5 5 5 5 5 5 3 5 5 5 5 5 3 5 3 5 3 5 5 5 5 5 5 5 5 5 5 5 5 5 5 3 5 5 3 5 5 5 5 5 5 5 5 5 5 5 3 5 5 3 5 5 3 5 5 5 5 5 5 5 5 5 5 5 5 5 5 5 5 5 5 5 5 5 5 3 5 5 3 3 5 3 5 3 5 5 5 3 3 5 5 3 5 3 5 5 3 3 5 5 5 5 5 5 3 5 5 5 5 5 5 3 5 5 3 5 3 5 5 5 5 5 5 5 5 3 5 5 5 3 5 5 5 5 3 5 5 5 5 5 5 5 5 5 5 3 5 5 5 5 3 5 5 3 5 5 3 5 5 3 5 5 5 5 5 5 5 5 3 5 5 3 5 5 5 5 5 5 5 5 5 5 3 5 3 5 5 5 5 3 5 5 5 5 5 5 5 5 5 5 5 5 5 5 5 5 5 5 5 5 3 5 3 5 5 5 5 5 5 5 5 5 5 5 3 5 3 3 5 5 5 5 5 5 5 5 5 5 5 3 5 5 5 5 5 5 3 5 3 5 3 5 5 5 3 3 5 3 5 3 5 5 3 5 5 5 3 5 5 5 5 3 5 5 5 5 3 3 5 5 5 5 5 3 5 5 5 5 5 5 5 5 5 5 5 5 3 5 5 5 5 5 5 5 5 5 5 5 3 5 5 5 5 5 3 5 5 5 5 5 3 5 5 5 5 5 3 5 5 3 5 5 5 3 5 3 5 3 5 5 5 3 5 5 3 3 5 5 5 5 5 5 3 5 5 5 5 3 5 5 5 5 5 5 5 5 5 5 5 5 5 5 5 5 3 5 5 3 5 5 5 5 5 3 5 5 5 5 3 5 3 5 5 5 5 5 5 5 5 5 5 3 3 3 5 3 5 5 5 5 5 5 5 5 5 5 5 5 5 3 5 5 5 5 5 5 5 5 5 5 5 5 3 3 5 5 5 3 5 3 5 5 5 5 5 5 5 5 5 5 5 5 5 3 5 3 5 5 5 5 5 5 5 3 5 5 5 5 5 5 5 3 5 5 5 5 5 5 5 5 5 5 5 5 5 5 5 5 5 5 5 5 5 5 5 5 5 3 3 5 5 5 5 5 5 5 5 5 5 5 5 5 5 3 5 5 3 5 5 5 5 5 5 5 5 5 5 5 5 5 5 5 5 5 5 5 5 5 5 5 3 5 3 5 5 5 5 5 3 5 5 5 5 5 5 5 5 5 5 5 5 5 5 5 5 5 5 5 5 5 5 5 3 5 5 5 5 5 5 3 5 5 5 5 5 5 5 3 5 5 5 3 5 5 5 5 5 5 3 5 5 5 5 5 3 5 5 5 5 5 5 5 5 5 3 5 5 5 3 5 5 5 5 5 5 3 5 5 5 3 5 5 5 5 5 5 5 5 5 5 5 3 5 3 5 5 5 3 5 5 3 3 5 5 5 5 5 5 5 3 5 5 5 3 5 5 3 3 5 3 5 5 5 3 5 5 5 5 5 5 5 5 3 3 5 5 5 5 3 5 5 5 5 5 5 5 5 5 5 5 5 5 5 5 5 5 5 5 5 5 5 5 5 5 5 5 5 5 5 5 5 3 5 5 5 5 5 5 3 5 5 5 5 5 5 5 5 5 3 5 5 5 5 5 5 5 5 5 5 5 5 5 5 5 5 5 5 5 5 5 5 5 5 5 3 5 5 5 5 5 5 5 5 5 5 5 5 3 5 5 5 3 5 5 5 5 5 5 5 5 5 5 5 5 5 5 5 5 5 5 5 5 5 5 3 5 5 3 5 3 5 5 5 5 5 5 3 5 5 5 5 5 5 5 5 5 5 5 5 5 5 5 5 5 5 5 5 3 5 5 5 3 5 5 5 5 5 3 5 5 5 5 3 5 5 3 5 5 5 5 5 5 5 5 5 5 5 5 5 5 5 5 5 3 3 5 5 5 5 5 5 5 5 5 5 5 5 5 3 5 3 5 5 5 5 5 5 5 5 5 5 5 5 5 5 5 5 5 5 5 5 5 5 5 5 5 5 5 3 5 5 5 5 5 5 3 5 5 5 5 5 5 5 5 5 3 5 5 5 5 3 5 5 5 5 5 5 5 5 5 5 5 5 5 5 5 5 5 5 5 5 5 5 5 5 3 5 5 3 3 5 5 5 5 5 5 5 5 5 3 5 5 5 5 3 5 5 5 5 5 3 5 5 5 3 5 5 3 3 3 5 5 5 5 3 5 5 3 3 5 3 5 5 5 3 5 5 3 3 5 5 5 5 5 5 5 5 5 5 5 5 5 3 5 5 5 5 5 5 5 3 5 5 5 5 5 5 5 5 3 5 5 5 5 5 5 5 5 5 5 5 5 5 5 5 5 5 5 5 5 5 5 5 5 5 5 3 5 5 5 5 5 5 5 5 5 5 5 5 3 5 5 5 5 5 5 5 5 5 5 5 5 3 5 5 5 5 5 5 5 5 5 5 5 5 5 5 5 5 5 5 5 5 5 5 5 5 5 5 5 5 5 5 5 5 5 5 5 5 3 5 5 5 5 5 3 5 3 5 3 3 5 5 5 5 5 5 5 3 5 5 5 5 5 5 5 5 5 5 5 5 5 5 5 5 5 5 5 5 3 5 5 5 5 3 5 3 5 5 5 5 5 5 5 5 5 3 5 5 5 5 5 5 3 5 5 3 5 5 5 5 5 5 3 5 5 5 5 5 5 5 5 5 5 5 5 5 5 5 5 5 5 5 5 5 5 5 5 5 5 5 5 5 5 5 5 5 5 5 5 3 5 5 5 5 3 5 5 5 5 5 3 5 3 5 5 5 5 5 5 5 5 5 5 5 5 5 5 5 5 5 5 5 5 5 5 5 5 5 5 5 5 3 3 5 5 5 5 5 5 5 5 5 5 5 5 3 5 5 5 5 5 5 5 5 5 5 5 5 5 5 3 5 5 3 5 5 5 5 5 5 3 5 5 5 5 5 3 5 5 5 5 3 5 3 5 5 5 5 5 5 5 5 5 5 3 5 3 3 5 5 5 5 3 5 5 3 5 5 5 3 5 5 5 5 5 5 5 5 5 3 5 3 5 5 5 5 5 5 3 5 3 5 5 5 3 5 5 5 5 5 5 5 5 3 5 5 5 5 5 3 3 5 5 5 5 3 3 3 5 5 3 5 5 5 5 5 5 5 5 5 3 5 5 5 5 3 3 3 5 5 5 5 5 5 3 5 5 3 5 5 5 5 5 5 5 5 5 3 5 3 5 3 5 5 5 5 5 5 3 5 5 5 3 3 5 5 5 5 5 5 5 5 5 5 5 5 5 5 5 5 5 5 5 5 3 5 5 5 5 5 5 5 5 3 5 3 5 3 5 5 5 3 5 5 5 5 5 5 3 5 5 5 3 5 5 5 5 5 3 5 5 5 5 3 5 5 5 3 5 5 3 5 5 3 5 5 5 5 5 3 5 3 5 5 5 5 5 5 5 5 5 5 5 5 5 5 3 5 5 3 3 5 5 5 5 5 5 5 5 5 5 5 5 5 5 5 3 5 5 5 5 5 5 5 5 5 5 5 5 5 5 5 5 5 5 5 5 5 5 5 5 5 5 5 5 5 3 5 5 5 5 5 5 5 3 5 5 5 5 5 3 5 5 5 5 5 3 5 5 5 5 5 5 5 5 5 5 3 5 3 5 5 5 5 5 5 5 5 5 5 5 5 5 3 5 5 5 5 5 5 3 5 5 5 5 5 5 5 5 5 5 5 5 5 5 5 5 5 5 5 5 5 5 5 5 3 3 5 5 3 5 5 3 5 5 5 5 5 5 3 5 5 5 5 5 5 5 3 3 5 5 5 5 5 5 5 5 5 5 5 5 5 5 5 5 5 5 5 5 5 5 5 5 5 5 5 5 5 5 5 5 5 5 5 5 5 5 5 5 5 5 5 5 3 5 5 5 5 5 5 5 5 5 5 5 3 5 5 5 5 5 5 5 5 5 5 5 5 5 5 5 5 5 5 5 5 5 5 5 5 5 5 5 5 5 5 5 5 5 5 5 3 5 3 5 5 5 5 5 5 5 3 5 3 5 5 5 5 3 5 5 5 5 5 5 5 5 5 5 5 5 5 5 5 5 5 5 5 5 5 5 5 5 3 5 5 5 5 5 5 5 5 5 5 5 5 5 5 5 5 5 5 5 5 5 5 5 5 5 5 5 5 5 5 5 5 5 5 5 5 5 5 5 5 5 5 5 5 5 5 5 5 5 5 5 5 5 3 5 5 5 5 5 5 5 5 5 5 5 3 3 5 5 5 5 5 5 5 5 5 5 5 5 5 5 5 5 5 5 5 5 3 5 5 5 3 5 3 3 5 5 5 5 5 5 5 5 5 5 3 5 5 5 5 5 5 5 5 5 5 5 5 5 5 5 5 5 5 5 5 5 5 5 5 5 5 5 5 5 5 5 5 5 5 5 5 5 5 5 5 5 5 5 3 5 5 5 5 5 3 5 5 3 5 5 5 5 5 5 5 5 5 5 5 5 5 3 5 5 5 5 5 5 5 5 5 5 5 5 3 5 5 5 5 5 5 5 5 5 3 5 3 5 5 5 3 5 5 3 5 5 5 5 5 5 5 5 5 5 5 5 5 5 5 5 5 5 5 5 5 5 5 5 5 5 5 5 5 5 5 5 5 5 5 5 3 5 3 5 5 5 5 3 5 3 5 5 5 5 3 5 5 5 5 3 5 5 5 3 5 5 5 5 3 5 5 5 5 5 5 3 5 5 3 5 3 3 5 5 3 5 5 3 5 5 3 5 3 5 5 5 5 5 3 3 3 5 5 5 3 5 5 5 5 3 3 5 5 5 5 5 5 5 5 5 5 5 5 5 5 5 3 5 3 5 3 5 3 3 5 3 5 5 5 5 3 5 5 5 5 3 3 5 5 5 5 5 5 5 5 5 5 5 5 5 5 5 5 5 5 5 5 5 5 3 3 5 5 5 5 5 3 5 5 5 5 5 3 5 5 5 5 5 5 5 5 5 5 5 5 5 5 3 5 5 5 3 5 3 3 3 5 5 5 5 3 3 5 5 5 5 3 3 3 5 5 5 5 3 5 5 5 5 5 5 5 5 5 5 5 5 5 3 5 5 3 5 3 5 5 3 5 5 5 5 5 5 3 5 5 5 5 5 5 5 5 5 5 5 5 3 5 5 5 5 5 5 5 5 5 3 5 5 5 3 5 5 5 3 5 5 5 3 3 5 5 3 5 3 5 5 3 5 5 5 5 5 5 5 5 3 5 5 5 5 5 5 3 5 5 5 5 5 3 5 5 5 5 5 5 5 5 5 5 5 5 5 5 5 3 5 5 3 5 5 5 3 5 5 5 3 5 5 5 5 5 5 5 3 5 3 5 5 5 5 5 5 5 5 5 5 5 5 5 5 5 5 5 5 5 5 3 5 5 5 5 5 5 5 5 5 5 3 5 3 5 5 5 5 5 3 5 3 5 5 5 5 5 5 3 5 5 5 5 5 5 3 5 5 5 5 5 5 5 5 5 3 3 5 5 5 5 5 5 5 3 5 5 3 5 5 5 5 5 5 5 3 5 5 5 5 5 5 5 5 3 5 3 5 5 5 5 5 5 5 5 5 5 5 5 5 5 5 5 5 5 5 5 5 5 5 5 5 5 5 5 5 5 5 5 5 5 5 5 5 5 5 5 5 5 5 5 5 5 5 5 5 5 5 5 5 5 5 5 3 5 5 5 5 5 5 5 5 3 5 5 5 5 5 5 5 5 3 5 5 5 5 5 3 5 3 5 5 5 5 5 3 5 5 5 5 3 5 5 5 5 5 5 5 5 3 5 5 5 3 3 5 5 3 5 5 5 5 5 5 3 5 3 5 5 5 5 5 5 5 5 5 5 5 5 5 5 5 5 5 5 5 5 5 5 5 5 5 5 5 5 5 5 5 5 5 5 5 5 5 5 5 3 5 5 5 5 5 
</DataArray>
</Cells>
<PointData Scalars="" Vectors="displacement," Tensors="">
<DataArray type="Float64" Name="displacement" NumberOfComponents="3" format="ascii">
-7.0776470809999617e-07 -0.034997332203153014 0 -0.00011475025860685756 -0.03191073450640821 0 -2.9365247542281711e-07 -0.028131581707903031 0 -7.0776470809999617e-07 -0.034997332203153014 0 -0.00012508666184541636 -0.033693825090670704 0 -0.00011475025860685756 -0.03191073450640821 0 -7.0776470809999617e-07 -0.034997332203153014 0 -0.00013764026494953675 -0.034454191866780559 0 -1.3096613706401907e-07 -0.034998388796229567 0 -7.0776470809999617e-07 -0.034997332203153014 0 -0.00013764026494953675 -0.034454191866780559 0 -0.00012508666184541636 -0.033693825090670704 0 -0.00013764026494953675 -0.034454191866780559 0 -0.00012508666184541636 -0.033693825090670704 0 5.3747727613134978e-05 -0.034458044220651372 0 -0.00017295082192173478 -0.032756528005293307 0 -9.3977854012143567e-05 -0.032369577491408931 0 3.8222547188235214e-05 -0.03284372665287192 0 0.0001734456815994453 -0.034096148825558753 0 0.00025810866357408918 -0.034313315803656423 0 5.3747727613134978e-05 -0.034458044220651372 0 0.00017394689394864549 -0.033661882447130857 0 -0.00055280679725861468 -0.031982217020400681 0 0.0001734456815994453 -0.034096148825558753 0 -0.00012508666184541636 -0.033693825090670704 0 5.3747727613134978e-05 -0.034458044220651372 0 0.00017394689394864549 -0.033661882447130857 0 -0.00021937452705014584 -0.033513951318302905 0 -0.00017295082192173478 -0.032756528005293307 0 -0.00012508666184541636 -0.033693825090670704 0 -9.3977854012143567e-05 -0.032369577491408931 0 -0.00012508666184541636 -0.033693825090670704 0 -9.3977854012143567e-05 -0.032369577491408931 0 -0.00011475025860685756 -0.03191073450640821 0 -0.00011475025860685756 -0.03191073450640821 0 0.00038343297141776704 -0.030659238792017214 0 -2.9365247542281711e-07 -0.028131581707903031 0 -9.3977854012143567e-05 -0.032369577491408931 0 -0.00011475025860685756 -0.03191073450640821 0 0.00038343297141776704 -0.030659238792017214 0 -0.0002885771192584191 -0.02713231633504181 0 -2.9365247542281711e-07 -0.028131581707903031 0 -0.00024102492999713968 -0.025860877195606414 0 0.00038343297141776704 -0.030659238792017214 0 -2.9365247542281711e-07 -0.028131581707903031 0 -4.5272345426805577e-05 -0.028224172713212307 0 -0.0002885771192584191 -0.02713231633504181 0 -2.9365247542281711e-07 -0.028131581707903031 0 -4.5272345426805577e-05 -0.028224172713212307 0 -0.0002885771192584191 -0.02713231633504181 0 -4.5272345426805577e-05 -0.028224172713212307 0 -0.0005771197942797873 -0.027346244114944847 0 -0.00097727142862289763 -0.027268619984043462 0 -4.5272345426805577e-05 -0.028224172713212307 0 -0.0005771197942797873 -0.027346244114944847 0 -0.00038729700393386169 -0.029101819996334485 0 -0.00013022873173392896 -0.028437059748022436 0 -0.00097727142862289763 -0.027268619984043462 0 -0.0005771197942797873 -0.027346244114944847 0 -0.00097535994786495924 -0.027639347767888626 0 -0.0002885771192584191 -0.02713231633504181 0 -0.00055531378606533456 -0.027243775666252652 0 -0.00042422667439781633 -0.026894627647968992 0 -0.0002885771192584191 -0.02713231633504181 0 -0.0005771197942797873 -0.027346244114944847 0 -0.00055531378606533456 -0.027243775666252652 0 -0.00055531378606533456 -0.027243775666252652 0 -0.00059469048499244317 -0.027579585601580092 0 -0.00097535994786495924 -0.027639347767888626 0 -0.00055531378606533456 -0.027243775666252652 0 -0.00059469048499244317 -0.027579585601580092 0 -0.00042422667439781633 -0.026894627647968992 0 -0.0005771197942797873 -0.027346244114944847 0 -0.00055531378606533456 -0.027243775666252652 0 -0.00097535994786495924 -0.027639347767888626 0 -0.00059469048499244317 -0.027579585601580092 0 -0.00097535994786495924 -0.027639347767888626 0 -0.00091631729208442169 -0.028372148283965427 0 -0.00097535994786495924 -0.027639347767888626 0 -0.00091631729208442169 -0.028372148283965427 0 -0.0016571441214114299 -0.028522098547594705 0 -0.00059469048499244317 -0.027579585601580092 0 -0.00091631729208442169 -0.028372148283965427 0 -0.00036448749680648271 -0.02837879101089252 0 -9.3977854012143567e-05 -0.032369577491408931 0 0.00038343297141776704 -0.030659238792017214 0 0.00029904791515222726 -0.032294630281549871 0 -0.00097727142862289763 -0.027268619984043462 0 -0.00097535994786495924 -0.027639347767888626 0 -0.0020015727606626696 -0.027876232640034474 0 -0.00038729700393386169 -0.029101819996334485 0 -0.00088958985471305921 -0.029933337703542871 0 -0.00097535994786495924 -0.027639347767888626 0 -0.0020015727606626696 -0.027876232640034474 0 -0.0016571441214114299 -0.028522098547594705 0 -9.3977854012143567e-05 -0.032369577491408931 0 0.00029904791515222726 -0.032294630281549871 0 3.8222547188235214e-05 -0.03284372665287192 0 -0.00088958985471305921 -0.029933337703542871 0 -0.00055280679725861468 -0.031982217020400681 0 -0.0020015727606626696 -0.027876232640034474 0 -0.0016571441214114299 -0.028522098547594705 0 -0.0026530823065394507 -0.028683985066696324 0 0.00017657153887329599 -0.033427018135586309 0 0.00011937740494369929 -0.03346952201236944 0 0.00019370650244654455 -0.033466870928503582 0 -0.00055280679725861468 -0.031982217020400681 0 -0.0010696352655268752 -0.031288796240229864 0 -0.0016571441214114299 -0.028522098547594705 0 -0.0019758839863391773 -0.029509484023533979 0 -0.0012386075590817621 -0.02915796595778096 0 -0.0016571441214114299 -0.028522098547594705 0 -0.0026530823065394507 -0.028683985066696324 0 -0.0019758839863391773 -0.029509484023533979 0 0.00011937740494369929 -0.03346952201236944 0 -0.00017175783689355638 -0.032092792185771844 0 0.00013767671004590588 -0.032834085130151187 0 0.00011937740494369929 -0.03346952201236944 0 0.00021492653734552308 -0.033332025984237519 0 0.00013767671004590588 -0.032834085130151187 0 0.00021492653734552308 -0.033332025984237519 0 0.000179487939121469 -0.033571690933080239 0 0.00016790555285147531 -0.033248344210285677 0 0.00021492653734552308 -0.033332025984237519 0 0.000179487939121469 -0.033571690933080239 0 0.00019370650244654455 -0.033466870928503582 0 0.000179487939121469 -0.033571690933080239 0 0.00019370650244654455 -0.033466870928503582 0 5.0867245590735471e-05 -0.03352944468636776 0 0.00011937740494369929 -0.03346952201236944 0 0.00021492653734552308 -0.033332025984237519 0 0.00019370650244654455 -0.033466870928503582 0 -0.00091631729208442169 -0.028372148283965427 0 -0.00058572501759852425 -0.029462545633523962 0 -0.00036448749680648271 -0.02837879101089252 0 -0.00091631729208442169 -0.028372148283965427 0 -0.00058572501759852425 -0.029462545633523962 0 -0.0012386075590817621 -0.02915796595778096 0 -0.00091631729208442169 -0.028372148283965427 0 -0.0016571441214114299 -0.028522098547594705 0 -0.0012386075590817621 -0.02915796595778096 0 -0.0010696352655268752 -0.031288796240229864 0 -0.00065553600804324952 -0.03154713222668503 0 -0.0019758839863391773 -0.029509484023533979 0 -0.0012386075590817621 -0.02915796595778096 0 -0.001002410294252632 -0.029953829212432951 0 -0.00058572501759852425 -0.029462545633523962 0 -0.0012386075590817621 -0.02915796595778096 0 -0.001002410294252632 -0.029953829212432951 0 0.00011937740494369929 -0.03346952201236944 0 -0.0008032751453688657 -0.031379629271034964 0 -0.00017175783689355638 -0.032092792185771844 0 -0.0019758839863391773 -0.029509484023533979 0 -0.001002410294252632 -0.029953829212432951 0 -0.0008032751453688657 -0.031379629271034964 0 -0.00058572501759852425 -0.029462545633523962 0 -0.001002410294252632 -0.029953829212432951 0 -0.00056702486265612021 -0.030449342847353726 0 -0.001002410294252632 -0.029953829212432951 0 -0.00056702486265612021 -0.030449342847353726 0 -0.0008032751453688657 -0.031379629271034964 0 -0.00058572501759852425 -0.029462545633523962 0 -0.00056702486265612021 -0.030449342847353726 0 -0.00018863557418573256 -0.030337401098310835 0 -0.0005272569437563884 -0.030914836916006445 0 -0.00081866302261595443 -0.031229072477772662 0 4.7399093772831457e-05 -0.03124851112656923 0 -0.00056702486265612021 -0.030449342847353726 0 -0.0005272569437563884 -0.030914836916006445 0 -0.00018863557418573256 -0.030337401098310835 0 -0.00056702486265612021 -0.030449342847353726 0 -0.0005272569437563884 -0.030914836916006445 0 -0.0008032751453688657 -0.031379629271034964 0 -0.0005272569437563884 -0.030914836916006445 0 -0.0008032751453688657 -0.031379629271034964 0 -0.00081866302261595443 -0.031229072477772662 0 -0.00017175783689355638 -0.032092792185771844 0 -0.00081866302261595443 -0.031229072477772662 0 6.9821886617705544e-05 -0.031799376170174469 0 -0.0008032751453688657 -0.031379629271034964 0 -0.00017175783689355638 -0.032092792185771844 0 -0.00081866302261595443 -0.031229072477772662 0 -0.00075558853860422314 -0.03286976940797888 0 -0.00026033386511939313 -0.033134067463433177 0 -0.00044100589349302865 -0.034392521569871631 0 -0.00052809616123798437 -0.034315615518554075 0 -0.00069610476299932758 -0.034487094027908373 0 -0.00044100589349302865 -0.034392521569871631 0 -0.00069610476299932758 -0.034487094027908373 0 -0.00036981961683283613 -0.03451443202683422 0 -0.00044100589349302865 -0.034392521569871631 0 -0.00052809616123798437 -0.034315615518554075 0 -0.00040720126344393815 -0.034252520129394087 0 -0.00068043078444858822 -0.034306641569244428 0 -0.0010758675492577169 -0.034440783005367313 0 -0.00077012451196144228 -0.034160122000818985 0 -0.00069610476299932758 -0.034487094027908373 0 -0.00068043078444858822 -0.034306641569244428 0 -0.0010758675492577169 -0.034440783005367313 0 -0.00052809616123798437 -0.034315615518554075 0 -0.00069610476299932758 -0.034487094027908373 0 -0.00068043078444858822 -0.034306641569244428 0 0.00013275934719886171 -0.033504269396973992 0 9.9299440507694841e-05 -0.033703050559179347 0 0.00016790555285147531 -0.033248344210285677 0 0.00013275934719886171 -0.033504269396973992 0 0.00016790555285147531 -0.033248344210285677 0 0.0001509988776468351 -0.033239544458132278 0 0.00013275934719886171 -0.033504269396973992 0 9.9299440507694841e-05 -0.033703050559179347 0 8.9803585978781523e-05 -0.03382633446461826 0 0.000179487939121469 -0.033571690933080239 0 9.9299440507694841e-05 -0.033703050559179347 0 0.00016790555285147531 -0.033248344210285677 0 0.00016790555285147531 -0.033248344210285677 0 0.00013767671004590588 -0.032834085130151187 0 0.00014272907819166882 -0.032981139594000418 0 0.00021492653734552308 -0.033332025984237519 0 0.00016790555285147531 -0.033248344210285677 0 0.00013767671004590588 -0.032834085130151187 0 -0.00017175783689355638 -0.032092792185771844 0 0.00013767671004590588 -0.032834085130151187 0 0.00010689944223102633 -0.032735612452419648 0 0.00013767671004590588 -0.032834085130151187 0 0.00010689944223102633 -0.032735612452419648 0 0.00014272907819166882 -0.032981139594000418 0 0.0002198298167671013 -0.033073558228273424 0 0.00025781938573612469 -0.03308450799654801 0 0.00017794024604251944 -0.033491712199507598 0 2.5315780391328938e-05 -0.032430016828777851 0 -0.00026033386511939313 -0.033134067463433177 0 -0.00017175783689355638 -0.032092792185771844 0 0.00010689944223102633 -0.032735612452419648 0 0.00024260895151552268 -0.03300865858299705 0 0.00010689944223102633 -0.032735612452419648 0 0.0002198298167671013 -0.033073558228273424 0 0.00014272907819166882 -0.032981139594000418 0 0.00010689944223102633 -0.032735612452419648 0 0.0002198298167671013 -0.033073558228273424 0 0.00024260895151552268 -0.03300865858299705 0 -0.00021804547957550351 -0.033136424234584475 0 -0.00026033386511939313 -0.033134067463433177 0 0.0002198298167671013 -0.033073558228273424 0 0.00014272907819166882 -0.032981139594000418 0 0.0001509988776468351 -0.033239544458132278 0 0.0002198298167671013 -0.033073558228273424 0 0.0001509988776468351 -0.033239544458132278 0 0.00017794024604251944 -0.033491712199507598 0 0.00016790555285147531 -0.033248344210285677 0 0.00014272907819166882 -0.032981139594000418 0 0.0001509988776468351 -0.033239544458132278 0 0.00013275934719886171 -0.033504269396973992 0 0.0001509988776468351 -0.033239544458132278 0 0.00017794024604251944 -0.033491712199507598 0 0.00025781938573612469 -0.03308450799654801 0 0.00017794024604251944 -0.033491712199507598 0 0.00025419220603813516 -0.034173269137823113 0 -0.00026033386511939313 -0.033134067463433177 0 2.4503963727704931e-05 -0.034301824536049401 0 -0.00036981961683283613 -0.03451443202683422 0 -0.00033200855380258702 -0.03432140044177092 0 -0.00016196987149124265 -0.034249929242916109 0 -0.00044100589349302865 -0.034392521569871631 0 -0.00036981961683283613 -0.03451443202683422 0 -0.00033200855380258702 -0.03432140044177092 0 -0.00044100589349302865 -0.034392521569871631 0 -0.00033200855380258702 -0.03432140044177092 0 -0.00040720126344393815 -0.034252520129394087 0 0.00017794024604251944 -0.033491712199507598 0 8.9803585978781523e-05 -0.03382633446461826 0 0.00025419220603813516 -0.034173269137823113 0 0.00013275934719886171 -0.033504269396973992 0 0.00017794024604251944 -0.033491712199507598 0 8.9803585978781523e-05 -0.03382633446461826 0 8.9803585978781523e-05 -0.03382633446461826 0 2.9769480566943003e-05 -0.034172244540491052 0 0.00025419220603813516 -0.034173269137823113 0 8.9803585978781523e-05 -0.03382633446461826 0 2.9769480566943003e-05 -0.034172244540491052 0 -2.0864373147048713e-05 -0.034151085975274213 0 -5.4299207970253767e-05 -0.034657728845286603 0 -1.3096613706401907e-07 -0.034998388796229567 0 -4.4650152807453157e-08 -0.034999662552291137 0 2.9769480566943003e-05 -0.034172244540491052 0 -2.0864373147048713e-05 -0.034151085975274213 0 -4.3379416065542797e-05 -0.034418532900725642 0 9.9299440507694841e-05 -0.033703050559179347 0 -2.0864373147048713e-05 -0.034151085975274213 0 6.3842883304917616e-05 -0.033893807560448748 0 9.9299440507694841e-05 -0.033703050559179347 0 8.9803585978781523e-05 -0.03382633446461826 0 -2.0864373147048713e-05 -0.034151085975274213 0 -2.0864373147048713e-05 -0.034151085975274213 0 6.3842883304917616e-05 -0.033893807560448748 0 -4.1245260312895509e-05 -0.034272745704855882 0 0.000179487939121469 -0.033571690933080239 0 9.9299440507694841e-05 -0.033703050559179347 0 6.3842883304917616e-05 -0.033893807560448748 0 -2.0864373147048713e-05 -0.034151085975274213 0 -4.1245260312895509e-05 -0.034272745704855882 0 -5.4299207970253767e-05 -0.034657728845286603 0 -2.0864373147048713e-05 -0.034151085975274213 0 -4.3379416065542797e-05 -0.034418532900725642 0 -5.4299207970253767e-05 -0.034657728845286603 0 -5.4299207970253767e-05 -0.034657728845286603 0 -8.6122437418603454e-06 -0.034595772846231262 0 -1.3096613706401907e-07 -0.034998388796229567 0 -4.1245260312895509e-05 -0.034272745704855882 0 -5.4299207970253767e-05 -0.034657728845286603 0 -8.6122437418603454e-06 -0.034595772846231262 0 -0.00013764026494953675 -0.034454191866780559 0 -8.6122437418603454e-06 -0.034595772846231262 0 -1.3096613706401907e-07 -0.034998388796229567 0 -0.00013764026494953675 -0.034454191866780559 0 -8.6122437418603454e-06 -0.034595772846231262 0 5.3747727613134978e-05 -0.034458044220651372 0 0.00025810866357408918 -0.034313315803656423 0 5.3747727613134978e-05 -0.034458044220651372 0 6.1497446263016921e-05 -0.034406936212235444 0 0.00017657153887329599 -0.033427018135586309 0 0.00019370650244654455 -0.033466870928503582 0 5.0867245590735471e-05 -0.03352944468636776 0 -0.00055280679725861468 -0.031982217020400681 0 3.5604307664483657e-06 -0.03419406871882176 0 6.3842883304917616e-05 -0.033893807560448748 0 -4.1245260312895509e-05 -0.034272745704855882 0 5.0867245590735471e-05 -0.03352944468636776 0 1.6293100870613486e-05 -0.034130308329535258 0 3.5604307664483657e-06 -0.03419406871882176 0 0.000179487939121469 -0.033571690933080239 0 6.3842883304917616e-05 -0.033893807560448748 0 5.0867245590735471e-05 -0.03352944468636776 0 -4.1245260312895509e-05 -0.034272745704855882 0 5.3747727613134978e-05 -0.034458044220651372 0 6.1497446263016921e-05 -0.034406936212235444 0 -4.1245260312895509e-05 -0.034272745704855882 0 -8.6122437418603454e-06 -0.034595772846231262 0 5.3747727613134978e-05 -0.034458044220651372 0 -0.00013674069987604508 -0.017543399673032156 0 -0.00016720603389578501 -0.017198526137126545 0 -0.00036135815428099243 -0.017344201023865219 0 -0.00013674069987604508 -0.017543399673032156 0 7.3613148532221341e-05 -0.017912878825805782 0 0.00014847424487295704 -0.017321454548529312 0 7.3613148532221341e-05 -0.017912878825805782 0 -0.00021313185120991863 -0.017936168200511946 0 3.7478664974327409e-05 -0.018859285214418185 0 -0.00013674069987604508 -0.017543399673032156 0 7.3613148532221341e-05 -0.017912878825805782 0 -0.00021313185120991863 -0.017936168200511946 0 -0.00013674069987604508 -0.017543399673032156 0 -0.00021313185120991863 -0.017936168200511946 0 -0.00036135815428099243 -0.017344201023865219 0 -0.00021313185120991863 -0.017936168200511946 0 -2.4713760315932671e-06 -0.01916857979172145 0 -0.00040464837879853255 -0.016941518172150803 0 -0.00021313185120991863 -0.017936168200511946 0 -2.4713760315932671e-06 -0.01916857979172145 0 3.7478664974327409e-05 -0.018859285214418185 0 -2.4713760315932671e-06 -0.01916857979172145 0 7.8242424432085263e-05 -0.020413192064409533 0 3.6138040665994831e-06 -0.021564058833856578 0 -2.4713760315932671e-06 -0.01916857979172145 0 3.7478664974327409e-05 -0.018859285214418185 0 7.8242424432085263e-05 -0.020413192064409533 0 4.0859502333583167e-06 -0.021570342462401262 0 0.0021016651659670131 -0.025349344111216962 0 0.00055837981102777306 -0.024057100946006198 0 0.0004094806745060698 -0.022037306403314846 0 0.0011272420237807017 -0.020933650516283261 0 7.8242424432085263e-05 -0.020413192064409533 0 3.6138040665994831e-06 -0.021564058833856578 0 0.0012629954122114855 -0.018348945511501343 0 0.0004057208790467702 -0.019442785668254848 0 0.0011272420237807017 -0.020933650516283261 0 3.7478664974327409e-05 -0.018859285214418185 0 7.8242424432085263e-05 -0.020413192064409533 0 0.00099190420863385482 -0.018727923729601251 0 0.0011272420237807017 -0.020933650516283261 0 0.00093757079180653124 -0.020392690491559822 0 0.0010087058835960582 -0.020435883663439128 0 0.00095018078335590425 -0.023733565697680679 0 6.4931363654574165e-05 -0.023124795791514517 0 0.00099190420863385482 -0.018727923729601251 0 0.00050685828749846395 -0.018111791341714763 0 0.00095259313624193771 -0.017639414359183835 0 3.7478664974327409e-05 -0.018859285214418185 0 0.00099190420863385482 -0.018727923729601251 0 0.00050685828749846395 -0.018111791341714763 0 0.0011272420237807017 -0.020933650516283261 0 0.00093223582402722732 -0.02558261548405651 0 7.3613148532221341e-05 -0.017912878825805782 0 3.7478664974327409e-05 -0.018859285214418185 0 0.00050685828749846395 -0.018111791341714763 0 7.3613148532221341e-05 -0.017912878825805782 0 0.00050685828749846395 -0.018111791341714763 0 0.0004852459444664028 -0.017647812513425242 0 7.3613148532221341e-05 -0.017912878825805782 0 0.0004852459444664028 -0.017647812513425242 0 0.00014847424487295704 -0.017321454548529312 0 0.0004852459444664028 -0.017647812513425242 0 0.00095259313624193771 -0.017639414359183835 0 0.00073466438334940495 -0.017393522481559755 0 0.00050685828749846395 -0.018111791341714763 0 0.0004852459444664028 -0.017647812513425242 0 0.00095259313624193771 -0.017639414359183835 0 -2.9365247542281711e-07 -0.028131581707903031 0 -8.9692324327236903e-07 -0.022992303264068422 0 -0.00024102492999713968 -0.025860877195606414 0 0.00095018078335590425 -0.023733565697680679 0 6.4931363654574165e-05 -0.023124795791514517 0 -0.00090181939165297274 -0.02587696435992555 0 0.00093223582402722732 -0.02558261548405651 0 0.00041600542113581676 -0.027300831854954834 0 0.001871630204590936 -0.027266291441745808 0 0.0012524887859673617 -0.027906769990521517 0 0.00090946891275248826 -0.026730291280320787 0 0.001871630204590936 -0.027266291441745808 0 0.0012524887859673617 -0.027906769990521517 0 0.0017323702739361528 -0.028792561389639312 0 0.00067578211493005635 -0.027742050965259085 0 0.0012524887859673617 -0.027906769990521517 0 0.00090946891275248826 -0.026730291280320787 0 0.00067578211493005635 -0.027742050965259085 0 0.00090946891275248826 -0.026730291280320787 0 6.1520391672872975e-05 -0.02676704235593835 0 0.00090946891275248826 -0.026730291280320787 0 0.00028235277068054855 -0.025285352398930174 0 6.1520391672872975e-05 -0.02676704235593835 0 0.00090946891275248826 -0.026730291280320787 0 0.00092219503061309767 -0.025542884885389961 0 0.00028235277068054855 -0.025285352398930174 0 0.0021016651659670131 -0.025349344111216962 0 0.001871630204590936 -0.027266291441745808 0 0.0014225895387730543 -0.02624094919724803 0 0.00090946891275248826 -0.026730291280320787 0 0.0014225895387730543 -0.02624094919724803 0 0.00092219503061309767 -0.025542884885389961 0 0.001871630204590936 -0.027266291441745808 0 0.00090946891275248826 -0.026730291280320787 0 0.0014225895387730543 -0.02624094919724803 0 0.0021016651659670131 -0.025349344111216962 0 0.0014225895387730543 -0.02624094919724803 0 0.00092219503061309767 -0.025542884885389961 0 -8.9692324327236903e-07 -0.022992303264068422 0 0.00028235277068054855 -0.025285352398930174 0 -0.00024102492999713968 -0.025860877195606414 0 0.0021016651659670131 -0.025349344111216962 0 0.00092219503061309767 -0.025542884885389961 0 0.00055837981102777306 -0.024057100946006198 0 0.00092219503061309767 -0.025542884885389961 0 0.00055837981102777306 -0.024057100946006198 0 0.00028235277068054855 -0.025285352398930174 0 4.0859502333583167e-06 -0.021570342462401262 0 0.00055837981102777306 -0.024057100946006198 0 -8.9692324327236903e-07 -0.022992303264068422 0 0.00055837981102777306 -0.024057100946006198 0 -8.9692324327236903e-07 -0.022992303264068422 0 0.00028235277068054855 -0.025285352398930174 0 0.00028235277068054855 -0.025285352398930174 0 -0.00024102492999713968 -0.025860877195606414 0 6.1520391672872975e-05 -0.02676704235593835 0 -0.00024102492999713968 -0.025860877195606414 0 -0.00042422667439781633 -0.026894627647968992 0 6.1520391672872975e-05 -0.02676704235593835 0 -0.0002885771192584191 -0.02713231633504181 0 -0.00024102492999713968 -0.025860877195606414 0 -0.00042422667439781633 -0.026894627647968992 0 -0.00059469048499244317 -0.027579585601580092 0 -0.00042422667439781633 -0.026894627647968992 0 -0.0002331827987598889 -0.027513872942100795 0 -0.00042422667439781633 -0.026894627647968992 0 6.1520391672872975e-05 -0.02676704235593835 0 -0.0002331827987598889 -0.027513872942100795 0 0.00067578211493005635 -0.027742050965259085 0 6.1520391672872975e-05 -0.02676704235593835 0 0.00018156989481697445 -0.028183196230570983 0 6.1520391672872975e-05 -0.02676704235593835 0 0.00018156989481697445 -0.028183196230570983 0 -0.0002331827987598889 -0.027513872942100795 0 -0.00059469048499244317 -0.027579585601580092 0 -0.00036448749680648271 -0.02837879101089252 0 -0.0002331827987598889 -0.027513872942100795 0 0.00018156989481697445 -0.028183196230570983 0 -0.00036448749680648271 -0.02837879101089252 0 -0.0002331827987598889 -0.027513872942100795 0 0.00018156989481697445 -0.028183196230570983 0 -0.00036448749680648271 -0.02837879101089252 0 4.1465412186192076e-05 -0.029290845241861888 0 -0.00058572501759852425 -0.029462545633523962 0 -0.00036448749680648271 -0.02837879101089252 0 4.1465412186192076e-05 -0.029290845241861888 0 0.00067578211493005635 -0.027742050965259085 0 0.00018156989481697445 -0.028183196230570983 0 0.00083211774790465244 -0.028930100173117885 0 0.00018156989481697445 -0.028183196230570983 0 4.1465412186192076e-05 -0.029290845241861888 0 0.00083211774790465244 -0.028930100173117885 0 4.1465412186192076e-05 -0.029290845241861888 0 0.00051662947358831581 -0.030278571189200309 0 0.00083211774790465244 -0.028930100173117885 0 -0.00058572501759852425 -0.029462545633523962 0 4.1465412186192076e-05 -0.029290845241861888 0 -0.00018863557418573256 -0.030337401098310835 0 4.1465412186192076e-05 -0.029290845241861888 0 -0.00018863557418573256 -0.030337401098310835 0 0.00051662947358831581 -0.030278571189200309 0 -0.0005272569437563884 -0.030914836916006445 0 -0.00018863557418573256 -0.030337401098310835 0 4.7399093772831457e-05 -0.03124851112656923 0 -0.00018863557418573256 -0.030337401098310835 0 4.7399093772831457e-05 -0.03124851112656923 0 0.00051662947358831581 -0.030278571189200309 0 -0.00075558853860422314 -0.03286976940797888 0 -0.00039692100507381935 -0.032935915715565166 0 -0.0010758675492577169 -0.034440783005367313 0 -0.0014973160007700861 -0.03437069299444017 0 -0.0011605597808320898 -0.034193559006927297 0 -0.00039692100507381935 -0.032935915715565166 0 -0.00072441851052214463 -0.031964054310077018 0 4.7399093772831457e-05 -0.03124851112656923 0 0.00051662947358831581 -0.030278571189200309 0 0.001117758505377122 -0.031350325885690748 0 -0.00014751905813673109 -0.029282949735662502 0 -0.00072441851052214463 -0.031964054310077018 0 -0.0017997716790888957 -0.028635961950108823 0 -0.0026001603155867922 -0.031202336092281215 0 -0.00080975004391719066 -0.030090442019815616 0 0.00051662947358831581 -0.030278571189200309 0 0.00147604388499597 -0.030185791457164837 0 0.001117758505377122 -0.031350325885690748 0 -0.00072441851052214463 -0.031964054310077018 0 -0.00081097234611574834 -0.031373577793796979 0 -0.0026001603155867922 -0.031202336092281215 0 -0.00021769938295596508 -0.031471478373380525 0 -0.00080975004391719066 -0.030090442019815616 0 -0.00021769938295596508 -0.031471478373380525 0 0.00066737580499161547 -0.030486514198177897 0 0.00011512131322091907 -0.032674601124912148 0 -0.0012247162137320764 -0.031558684137424096 0 -0.00021769938295596508 -0.031471478373380525 0 -0.00060681701960539896 -0.032366435660728984 0 -0.00021769938295596508 -0.031471478373380525 0 -0.00080975004391719066 -0.030090442019815616 0 0.00066737580499161547 -0.030486514198177897 0 -0.00080975004391719066 -0.030090442019815616 0 -0.00038641678971169566 -0.028459147665576504 0 0.00066737580499161547 -0.030486514198177897 0 -0.00038641678971169566 -0.028459147665576504 0 0.00088514942985673149 -0.027108453274452243 0 0.00066737580499161547 -0.030486514198177897 0 -0.0017997716790888957 -0.028635961950108823 0 -0.00080975004391719066 -0.030090442019815616 0 -0.00038641678971169566 -0.028459147665576504 0 -0.00014751905813673109 -0.029282949735662502 0 0.00041600542113581676 -0.027300831854954834 0 -0.0017997716790888957 -0.028635961950108823 0 -0.00038641678971169566 -0.028459147665576504 0 -0.00090181939165297274 -0.02587696435992555 0 -0.00038641678971169566 -0.028459147665576504 0 -0.00090181939165297274 -0.02587696435992555 0 0.00088514942985673149 -0.027108453274452243 0 0.00051662947358831581 -0.030278571189200309 0 0.00147604388499597 -0.030185791457164837 0 0.00083211774790465244 -0.028930100173117885 0 0.00147604388499597 -0.030185791457164837 0 0.00083211774790465244 -0.028930100173117885 0 0.0017323702739361528 -0.028792561389639312 0 0.00067578211493005635 -0.027742050965259085 0 0.0012524887859673617 -0.027906769990521517 0 0.00083211774790465244 -0.028930100173117885 0 0.0012524887859673617 -0.027906769990521517 0 0.00083211774790465244 -0.028930100173117885 0 0.0017323702739361528 -0.028792561389639312 0 0.00095018078335590425 -0.023733565697680679 0 -0.00090181939165297274 -0.02587696435992555 0 0.00088514942985673149 -0.027108453274452243 0 0.00093757079180653124 -0.020392690491559822 0 0.000903283829459695 -0.022159949081037841 0 0.00095259313624193771 -0.017639414359183835 0 0.00073466438334940495 -0.017393522481559755 0 0.00091917922742108772 -0.01707727597348211 0 0.00073466438334940495 -0.017393522481559755 0 0.00054290028941746788 -0.017257963295593138 0 0.00091917922742108772 -0.01707727597348211 0 0.00054290028941746788 -0.017257963295593138 0 0.00037688175676507441 -0.017059472050533268 0 0.00014847424487295704 -0.017321454548529312 0 0.0004852459444664028 -0.017647812513425242 0 0.00073466438334940495 -0.017393522481559755 0 0.00054290028941746788 -0.017257963295593138 0 0.0004852459444664028 -0.017647812513425242 0 0.00054290028941746788 -0.017257963295593138 0 0.00014847424487295704 -0.017321454548529312 0 0.00054290028941746788 -0.017257963295593138 0 0.00061130315371404941 -0.017006592889968267 0 0.00037688175676507441 -0.017059472050533268 0 0.00061130315371404941 -0.017006592889968267 0 0.00037688175676507441 -0.017059472050533268 0 0.0004917194010310654 -0.016812023903795659 0 0.00061130315371404941 -0.017006592889968267 0 0.00074436514105476464 -0.01681190363738207 0 0.0004917194010310654 -0.016812023903795659 0 0.00061130315371404941 -0.017006592889968267 0 0.00091917922742108772 -0.01707727597348211 0 0.00074436514105476464 -0.01681190363738207 0 0.00054290028941746788 -0.017257963295593138 0 0.00061130315371404941 -0.017006592889968267 0 0.00091917922742108772 -0.01707727597348211 0 0.00091917922742108772 -0.01707727597348211 0 0.00074436514105476464 -0.01681190363738207 0 0.00099210476398779116 -0.016583894221950099 0 0.000903283829459695 -0.022159949081037841 0 0.0008162507187588939 -0.023487218449036618 0 0.00074436514105476464 -0.01681190363738207 0 0.00099210476398779116 -0.016583894221950099 0 0.00068560928515596048 -0.016550189868843771 0 0.00099210476398779116 -0.016583894221950099 0 0.00080599277422637426 -0.016267387980921057 0 0.0010722469949548522 -0.016001726853310236 0 0.0008162507187588939 -0.023487218449036618 0 0.00058941623916881675 -0.024296291707049212 0 0.00099210476398779116 -0.016583894221950099 0 0.00080599277422637426 -0.016267387980921057 0 0.00068560928515596048 -0.016550189868843771 0 0.00080599277422637426 -0.016267387980921057 0 0.00051563889942723886 -0.016226471360043737 0 0.00068560928515596048 -0.016550189868843771 0 0.00051563889942723886 -0.016226471360043737 0 0.00068560928515596048 -0.016550189868843771 0 0.00039657835335315302 -0.016543200810581804 0 0.00068560928515596048 -0.016550189868843771 0 0.0004917194010310654 -0.016812023903795659 0 0.00039657835335315302 -0.016543200810581804 0 0.00074436514105476464 -0.01681190363738207 0 0.00068560928515596048 -0.016550189868843771 0 0.0004917194010310654 -0.016812023903795659 0 0.00039657835335315302 -0.016543200810581804 0 0.0001037048474620378 -0.016482837609397928 0 0.00011509759980948545 -0.016920473550281746 0 0.0004917194010310654 -0.016812023903795659 0 0.00039657835335315302 -0.016543200810581804 0 0.00011509759980948545 -0.016920473550281746 0 0.00051563889942723886 -0.016226471360043737 0 0.00039657835335315302 -0.016543200810581804 0 0.0001037048474620378 -0.016482837609397928 0 0.00051563889942723886 -0.016226471360043737 0 0.0001037048474620378 -0.016482837609397928 0 0.0001763888104855212 -0.016004204075612219 0 0.0001037048474620378 -0.016482837609397928 0 0.0001763888104855212 -0.016004204075612219 0 -0.00035788116857387979 -0.016256868260597006 0 0.0001037048474620378 -0.016482837609397928 0 0.00011509759980948545 -0.016920473550281746 0 -0.00017079978313944881 -0.0168256648534418 0 0.00011509759980948545 -0.016920473550281746 0 -0.00016720603389578501 -0.017198526137126545 0 -0.00017079978313944881 -0.0168256648534418 0 0.00037688175676507441 -0.017059472050533268 0 0.00011509759980948545 -0.016920473550281746 0 0.00014847424487295704 -0.017321454548529312 0 0.00037688175676507441 -0.017059472050533268 0 0.0004917194010310654 -0.016812023903795659 0 0.00011509759980948545 -0.016920473550281746 0 0.00011509759980948545 -0.016920473550281746 0 0.00014847424487295704 -0.017321454548529312 0 -0.00016720603389578501 -0.017198526137126545 0 -0.00013674069987604508 -0.017543399673032156 0 0.00014847424487295704 -0.017321454548529312 0 -0.00016720603389578501 -0.017198526137126545 0 0.00028309499954314363 -0.015190152359782952 0 -4.0560369287307085e-05 -0.015009153850794118 0 0.00028078529730395449 -0.01469691333663535 0 -4.0560369287307085e-05 -0.015009153850794118 0 0.00028078529730395449 -0.01469691333663535 0 -7.2285382465388505e-05 -0.014451569802816186 0 0.00028309499954314363 -0.015190152359782952 0 0.00055173159152994966 -0.014964054214696428 0 0.00028078529730395449 -0.01469691333663535 0 0.00028309499954314363 -0.015190152359782952 0 0.00028956391593392853 -0.015607880725809542 0 0.00054473667757020999 -0.015403519766856926 0 0.00028309499954314363 -0.015190152359782952 0 0.00054473667757020999 -0.015403519766856926 0 0.00055173159152994966 -0.014964054214696428 0 0.00028309499954314363 -0.015190152359782952 0 -4.0560369287307085e-05 -0.015009153850794118 0 -1.8890516986554871e-05 -0.015572618716109526 0 -1.8890516986554871e-05 -0.015572618716109526 0 0.0001763888104855212 -0.016004204075612219 0 0.00028956391593392853 -0.015607880725809542 0 0.00028309499954314363 -0.015190152359782952 0 -1.8890516986554871e-05 -0.015572618716109526 0 0.00028956391593392853 -0.015607880725809542 0 -1.8890516986554871e-05 -0.015572618716109526 0 0.0001763888104855212 -0.016004204075612219 0 -0.00035788116857387979 -0.016256868260597006 0 0.00051563889942723886 -0.016226471360043737 0 0.0001763888104855212 -0.016004204075612219 0 0.00049849910189832909 -0.015847349205707659 0 0.0001763888104855212 -0.016004204075612219 0 0.00028956391593392853 -0.015607880725809542 0 0.00049849910189832909 -0.015847349205707659 0 0.00028956391593392853 -0.015607880725809542 0 0.00049849910189832909 -0.015847349205707659 0 0.00054473667757020999 -0.015403519766856926 0 0.00078276860480480019 -0.015645513361229536 0 0.00049849910189832909 -0.015847349205707659 0 0.00054473667757020999 -0.015403519766856926 0 0.00078276860480480019 -0.015645513361229536 0 0.00049849910189832909 -0.015847349205707659 0 0.00076018780759998684 -0.015971981287553134 0 0.00051563889942723886 -0.016226471360043737 0 0.00049849910189832909 -0.015847349205707659 0 0.00076018780759998684 -0.015971981287553134 0 0.00080599277422637426 -0.016267387980921057 0 0.00051563889942723886 -0.016226471360043737 0 0.00076018780759998684 -0.015971981287553134 0 0.00080599277422637426 -0.016267387980921057 0 0.00076018780759998684 -0.015971981287553134 0 0.0010722469949548522 -0.016001726853310236 0 0.00078276860480480019 -0.015645513361229536 0 0.0010722469949548522 -0.016001726853310236 0 0.0010733428937517195 -0.015372784133852411 0 0.00011512131322091907 -0.032674601124912148 0 -0.00024862097147173402 -0.033030036595196051 0 -0.00049611243737160686 -0.033305553049557943 0 0.00058941623916881675 -0.024296291707049212 0 0.00028786596785643437 -0.024310789570005341 0 0.00078276860480480019 -0.015645513361229536 0 0.00076018780759998684 -0.015971981287553134 0 0.0010722469949548522 -0.016001726853310236 0 0.00078276860480480019 -0.015645513361229536 0 0.0010733428937517195 -0.015372784133852411 0 0.00076643950007950162 -0.015254294023000723 0 0.00076643950007950162 -0.015254294023000723 0 0.00054473667757020999 -0.015403519766856926 0 0.00055173159152994966 -0.014964054214696428 0 0.00078276860480480019 -0.015645513361229536 0 0.00076643950007950162 -0.015254294023000723 0 0.00054473667757020999 -0.015403519766856926 0 0.00076643950007950162 -0.015254294023000723 0 0.00055173159152994966 -0.014964054214696428 0 0.00099113411085279446 -0.014791908188604489 0 0.00028786596785643437 -0.024310789570005341 0 -1.8395984864569573e-05 -0.024051245700164869 0 0.0010733428937517195 -0.015372784133852411 0 0.00076643950007950162 -0.015254294023000723 0 0.00099113411085279446 -0.014791908188604489 0 -0.00049611243737160686 -0.033305553049557943 0 -0.00082259901783436856 -0.033388094125261079 0 -0.0010404226954420308 -0.033343407070712892 0 -0.00082259901783436856 -0.033388094125261079 0 -0.00086547185188154538 -0.033445992518621633 0 -0.0010404226954420308 -0.033343407070712892 0 -0.00082259901783436856 -0.033388094125261079 0 -0.00085662465544587905 -0.033420568371078908 0 -0.00068506721868457244 -0.033349650989268856 0 -0.00086547185188154538 -0.033445992518621633 0 -0.00092222907690715447 -0.033383921089480337 0 -0.00068401932185871189 -0.033545471239104521 0 -0.00086547185188154538 -0.033445992518621633 0 -0.00085662465544587905 -0.033420568371078908 0 -0.00092222907690715447 -0.033383921089480337 0 -0.00082259901783436856 -0.033388094125261079 0 -0.00086547185188154538 -0.033445992518621633 0 -0.00085662465544587905 -0.033420568371078908 0 -0.00085662465544587905 -0.033420568371078908 0 -0.00092222907690715447 -0.033383921089480337 0 -0.00068506721868457244 -0.033349650989268856 0 -0.00086646715246203019 -0.033758220797907114 0 -0.00094665809531414239 -0.033643000363582157 0 -0.00073780172988284953 -0.033807094872541583 0 -0.00094665809531414239 -0.033643000363582157 0 -0.00081453302621966434 -0.03337951807363021 0 -0.0010495390455480288 -0.033225589897010327 0 -0.00094665809531414239 -0.033643000363582157 0 -0.0010495390455480288 -0.033225589897010327 0 -0.0012146928467928128 -0.033562639710437575 0 -0.00086646715246203019 -0.033758220797907114 0 -0.00094665809531414239 -0.033643000363582157 0 -0.00081453302621966434 -0.03337951807363021 0 -0.00086646715246203019 -0.033758220797907114 0 -0.00059381160372702537 -0.033213566473025327 0 -0.00081453302621966434 -0.03337951807363021 0 -0.00024862097147173402 -0.033030036595196051 0 -0.00049611243737160686 -0.033305553049557943 0 -0.00068506721868457244 -0.033349650989268856 0 -0.00024862097147173402 -0.033030036595196051 0 -0.00086646715246203019 -0.033758220797907114 0 -0.00059381160372702537 -0.033213566473025327 0 -0.00024862097147173402 -0.033030036595196051 0 -0.00092222907690715447 -0.033383921089480337 0 -0.00068506721868457244 -0.033349650989268856 0 -0.0003039699057697079 -0.033078156647542191 0 -0.00086412693305024557 -0.033561398744433639 0 -0.00049611243737160686 -0.033305553049557943 0 -0.00082259901783436856 -0.033388094125261079 0 -0.00068506721868457244 -0.033349650989268856 0 -0.00024862097147173402 -0.033030036595196051 0 -0.00059381160372702537 -0.033213566473025327 0 -0.00037253508032458402 -0.03289032170339929 0 -0.00059381160372702537 -0.033213566473025327 0 -0.00037253508032458402 -0.03289032170339929 0 -0.0007570363936872371 -0.032952683457536665 0 -0.00037253508032458402 -0.03289032170339929 0 -0.00060681701960539896 -0.032366435660728984 0 -0.0007570363936872371 -0.032952683457536665 0 0.00011512131322091907 -0.032674601124912148 0 -0.00024862097147173402 -0.033030036595196051 0 -0.00037253508032458402 -0.03289032170339929 0 -0.00021769938295596508 -0.031471478373380525 0 0.00011512131322091907 -0.032674601124912148 0 -0.00060681701960539896 -0.032366435660728984 0 0.00011512131322091907 -0.032674601124912148 0 -0.00037253508032458402 -0.03289032170339929 0 -0.00060681701960539896 -0.032366435660728984 0 -0.00060681701960539896 -0.032366435660728984 0 -0.0007570363936872371 -0.032952683457536665 0 -0.0013892688212034767 -0.032620655129353554 0 -0.00072441851052214463 -0.031964054310077018 0 -0.00145418694070307 -0.033524522713751184 0 -0.0012247162137320764 -0.031558684137424096 0 -0.00060681701960539896 -0.032366435660728984 0 -0.0013892688212034767 -0.032620655129353554 0 -0.0007570363936872371 -0.032952683457536665 0 -0.0010495390455480288 -0.033225589897010327 0 -0.0013892688212034767 -0.032620655129353554 0 -0.0007570363936872371 -0.032952683457536665 0 -0.00081453302621966434 -0.03337951807363021 0 -0.0010495390455480288 -0.033225589897010327 0 -0.00059381160372702537 -0.033213566473025327 0 -0.0007570363936872371 -0.032952683457536665 0 -0.00081453302621966434 -0.03337951807363021 0 -0.0013986736003985954 -0.034026051380377752 0 -0.0010644219891379806 -0.033976362311813529 0 -0.0011556316093335286 -0.033772143919327584 0 -0.00145418694070307 -0.033524522713751184 0 -0.0012332035044619152 -0.033418248765994342 0 -0.0010495390455480288 -0.033225589897010327 0 -0.0013892688212034767 -0.032620655129353554 0 -0.0012146928467928128 -0.033562639710437575 0 -0.0013986736003985954 -0.034026051380377752 0 -0.0011556316093335286 -0.033772143919327584 0 -0.0012146928467928128 -0.033562639710437575 0 -0.0011556316093335286 -0.033772143919327584 0 -0.0012235570920989206 -0.033584382058731987 0 -0.0012146928467928128 -0.033562639710437575 0 -0.0014973160007700861 -0.03437069299444017 0 -0.0013986736003985954 -0.034026051380377752 0 -0.0011605597808320898 -0.034193559006927297 0 -0.0013986736003985954 -0.034026051380377752 0 -0.0011605597808320898 -0.034193559006927297 0 -0.0010644219891379806 -0.033976362311813529 0 -0.0011605597808320898 -0.034193559006927297 0 -0.0010644219891379806 -0.033976362311813529 0 -0.00077012451196144228 -0.034160122000818985 0 -0.0010758675492577169 -0.034440783005367313 0 -0.0011605597808320898 -0.034193559006927297 0 -0.00077012451196144228 -0.034160122000818985 0 -0.0010644219891379806 -0.033976362311813529 0 -0.00096133059881156038 -0.033853374257749348 0 -0.00077012451196144228 -0.034160122000818985 0 -0.0010644219891379806 -0.033976362311813529 0 -0.0011556316093335286 -0.033772143919327584 0 -0.00096133059881156038 -0.033853374257749348 0 -0.0011556316093335286 -0.033772143919327584 0 -0.00096133059881156038 -0.033853374257749348 0 -0.0012235570920989206 -0.033584382058731987 0 -0.00096133059881156038 -0.033853374257749348 0 -0.0012235570920989206 -0.033584382058731987 0 -0.00054428857582990132 -0.033741143560855627 0 -0.00054484568709808727 -0.034045029816721979 0 -0.00056024454421698148 -0.033870699528494738 0 -0.00029920646233104275 -0.03390829690487572 0 -0.00092512837759273626 -0.033678436758101199 0 -0.00085944417121893736 -0.033804430184697032 0 -0.00094665809531414239 -0.033643000363582157 0 -0.00054484568709808727 -0.034045029816721979 0 -0.00073780172988284953 -0.033807094872541583 0 -0.00094665809531414239 -0.033643000363582157 0 -0.0012235570920989206 -0.033584382058731987 0 -0.0012146928467928128 -0.033562639710437575 0 -0.00054484568709808727 -0.034045029816721979 0 -0.00073780172988284953 -0.033807094872541583 0 -0.00056024454421698148 -0.033870699528494738 0 -0.00073780172988284953 -0.033807094872541583 0 -0.00064070031209379201 -0.033749718557091232 0 -0.00056024454421698148 -0.033870699528494738 0 -0.00086412693305024557 -0.033561398744433639 0 -0.00064987066217533028 -0.033647496166755761 0 -0.00086646715246203019 -0.033758220797907114 0 -0.00073780172988284953 -0.033807094872541583 0 -0.00064070031209379201 -0.033749718557091232 0 -0.00064070031209379201 -0.033749718557091232 0 -0.00056024454421698148 -0.033870699528494738 0 -0.00029920646233104275 -0.03390829690487572 0 -0.00068401932185871189 -0.033545471239104521 0 -0.00066359643378441618 -0.033396157678002455 0 -0.00025510981711757532 -0.03364686617845758 0 -0.00064987066217533028 -0.033647496166755761 0 -0.00028518155569013786 -0.033618287987315844 0 -0.00064070031209379201 -0.033749718557091232 0 -0.00029920646233104275 -0.03390829690487572 0 -0.00025510981711757532 -0.03364686617845758 0 -0.00086547185188154538 -0.033445992518621633 0 -0.00068401932185871189 -0.033545471239104521 0 -0.00066359643378441618 -0.033396157678002455 0 -0.00066359643378441618 -0.033396157678002455 0 -0.00047272051006183856 -0.033225866170437733 0 -0.00080216166661257592 -0.033090373758325575 0 -0.00066359643378441618 -0.033396157678002455 0 -0.00080216166661257592 -0.033090373758325575 0 -0.0010022375597685169 -0.03324478122937527 0 -0.00047272051006183856 -0.033225866170437733 0 -0.00025510981711757532 -0.03364686617845758 0 -0.00019407500351247198 -0.033215754884387529 0 -0.00066359643378441618 -0.033396157678002455 0 -0.00047272051006183856 -0.033225866170437733 0 -0.00025510981711757532 -0.03364686617845758 0 -0.00047272051006183856 -0.033225866170437733 0 -0.00039302904580816979 -0.032901055399614819 0 -0.00019407500351247198 -0.033215754884387529 0 -0.00047272051006183856 -0.033225866170437733 0 -0.00039302904580816979 -0.032901055399614819 0 -0.00062635639813131264 -0.032919631176620563 0 -0.00039302904580816979 -0.032901055399614819 0 -0.00055251274954420308 -0.032584797196390354 0 -0.00062635639813131264 -0.032919631176620563 0 -0.00039302904580816979 -0.032901055399614819 0 -0.00019407500351247198 -0.033215754884387529 0 -0.00013333995006703736 -0.032758453210175294 0 -0.00039302904580816979 -0.032901055399614819 0 -0.00036095477039268809 -0.032536029763800649 0 -0.00013333995006703736 -0.032758453210175294 0 -0.00039302904580816979 -0.032901055399614819 0 -0.00036095477039268809 -0.032536029763800649 0 -0.00055251274954420308 -0.032584797196390354 0 -0.00036095477039268809 -0.032536029763800649 0 -0.00048422684682365572 -0.032264580611705763 0 -0.00027284338599248807 -0.032187970162949602 0 -0.00036095477039268809 -0.032536029763800649 0 -0.00048422684682365572 -0.032264580611705763 0 -0.00055251274954420308 -0.032584797196390354 0 -0.00036095477039268809 -0.032536029763800649 0 -0.00013333995006703736 -0.032758453210175294 0 -0.00027284338599248807 -0.032187970162949602 0 -0.00055251274954420308 -0.032584797196390354 0 -0.00091762263500864776 -0.032657092442792551 0 -0.00076590836951624392 -0.032170139152957862 0 -0.00048422684682365572 -0.032264580611705763 0 -0.00055251274954420308 -0.032584797196390354 0 -0.00076590836951624392 -0.032170139152957862 0 -0.00055251274954420308 -0.032584797196390354 0 -0.00062635639813131264 -0.032919631176620563 0 -0.00091762263500864776 -0.032657092442792551 0 -0.00047272051006183856 -0.033225866170437733 0 -0.00080216166661257592 -0.033090373758325575 0 -0.00062635639813131264 -0.032919631176620563 0 -0.00080216166661257592 -0.033090373758325575 0 -0.00062635639813131264 -0.032919631176620563 0 -0.00091762263500864776 -0.032657092442792551 0 -0.001119115033421661 -0.032933537635338135 0 -0.00091762263500864776 -0.032657092442792551 0 -0.0013347195166254651 -0.032487088478165366 0 -0.00080216166661257592 -0.033090373758325575 0 -0.001119115033421661 -0.032933537635338135 0 -0.00091762263500864776 -0.032657092442792551 0 -0.00091762263500864776 -0.032657092442792551 0 -0.0013347195166254651 -0.032487088478165366 0 -0.0011532928957163314 -0.03205828101862386 0 -0.0013347195166254651 -0.032487088478165366 0 -0.0011532928957163314 -0.03205828101862386 0 -0.0015590401894203315 -0.031765827870721949 0 -0.00091762263500864776 -0.032657092442792551 0 -0.00076590836951624392 -0.032170139152957862 0 -0.0011532928957163314 -0.03205828101862386 0 -0.0013347195166254651 -0.032487088478165366 0 -0.0018559397614121998 -0.032154584848685649 0 -0.0015590401894203315 -0.031765827870721949 0 -0.0013347195166254651 -0.032487088478165366 0 -0.001473388356825651 -0.03294496434409476 0 -0.0018559397614121998 -0.032154584848685649 0 -0.001119115033421661 -0.032933537635338135 0 -0.0013347195166254651 -0.032487088478165366 0 -0.001473388356825651 -0.03294496434409476 0 -0.0010022375597685169 -0.03324478122937527 0 -0.0010404226954420308 -0.033343407070712892 0 -0.001473388356825651 -0.03294496434409476 0 -0.001119115033421661 -0.032933537635338135 0 -0.0010022375597685169 -0.03324478122937527 0 -0.001473388356825651 -0.03294496434409476 0 -0.00080216166661257592 -0.033090373758325575 0 -0.001119115033421661 -0.032933537635338135 0 -0.0010022375597685169 -0.03324478122937527 0 -0.00086547185188154538 -0.033445992518621633 0 -0.00066359643378441618 -0.033396157678002455 0 -0.0010022375597685169 -0.03324478122937527 0 -0.00086547185188154538 -0.033445992518621633 0 -0.0010022375597685169 -0.03324478122937527 0 -0.0010404226954420308 -0.033343407070712892 0 0.00055173159152994966 -0.014964054214696428 0 0.00099113411085279446 -0.014791908188604489 0 0.00059354396205847019 -0.014540860479838566 0 0.00059354396205847019 -0.014540860479838566 0 0.00087288277835900025 -0.014327716432882283 0 0.00044426869462896432 -0.014174240666439153 0 -1.8395984864569573e-05 -0.024051245700164869 0 -0.0003231864159569535 -0.023606096230808466 0 0.00099113411085279446 -0.014791908188604489 0 0.00059354396205847019 -0.014540860479838566 0 0.00087288277835900025 -0.014327716432882283 0 -0.0003231864159569535 -0.023606096230808466 0 -0.00034925816915016379 -0.023120901031453683 0 0.00087288277835900025 -0.014327716432882283 0 0.00075924995928251218 -0.013980198027298441 0 0.00061260699371781162 -0.014056335395936285 0 0.00075924995928251218 -0.013980198027298441 0 0.00061260699371781162 -0.014056335395936285 0 0.00056117393651825562 -0.013818155116958317 0 0.00061260699371781162 -0.014056335395936285 0 0.00037387112459827296 -0.01386512796044782 0 0.00056117393651825562 -0.013818155116958317 0 0.00061260699371781162 -0.014056335395936285 0 0.00044426869462896432 -0.014174240666439153 0 0.00037387112459827296 -0.01386512796044782 0 0.00087288277835900025 -0.014327716432882283 0 0.00061260699371781162 -0.014056335395936285 0 0.00044426869462896432 -0.014174240666439153 0 0.00044426869462896432 -0.014174240666439153 0 0.00014759906468697818 -0.013950635604392825 0 0.00020883178594994643 -0.014267626510551572 0 0.00044426869462896432 -0.014174240666439153 0 0.00037387112459827296 -0.01386512796044782 0 0.00014759906468697818 -0.013950635604392825 0 0.00037387112459827296 -0.01386512796044782 0 0.0001424208229205263 -0.01378430616265477 0 0.00014759906468697818 -0.013950635604392825 0 0.0001424208229205263 -0.01378430616265477 0 0.00014759906468697818 -0.013950635604392825 0 -0.00015944480400836719 -0.0137170968078263 0 0.0001424208229205263 -0.01378430616265477 0 8.6071937585412855e-05 -0.01367493037525103 0 -0.00015944480400836719 -0.0137170968078263 0 0.00014759906468697818 -0.013950635604392825 0 0.00020883178594994643 -0.014267626510551572 0 -0.00012169032521941575 -0.013984995196152579 0 0.00020883178594994643 -0.014267626510551572 0 -7.2285382465388505e-05 -0.014451569802816186 0 -0.00012169032521941575 -0.013984995196152579 0 0.00059354396205847019 -0.014540860479838566 0 0.00044426869462896432 -0.014174240666439153 0 0.00020883178594994643 -0.014267626510551572 0 0.00055173159152994966 -0.014964054214696428 0 0.00059354396205847019 -0.014540860479838566 0 0.00028078529730395449 -0.01469691333663535 0 0.00059354396205847019 -0.014540860479838566 0 0.00020883178594994643 -0.014267626510551572 0 0.00028078529730395449 -0.01469691333663535 0 0.00020883178594994643 -0.014267626510551572 0 0.00028078529730395449 -0.01469691333663535 0 -7.2285382465388505e-05 -0.014451569802816186 0 -5.3330570772950584e-05 -0.03475062874923017 0 -2.2945652106802894e-05 -0.034821981096776373 0 -0.00011581283397535239 -0.034838481936693713 0 -3.1520081902706849e-05 -0.034244884207226406 0 1.6781793874048064e-05 -0.034335148837596134 0 -6.5780360718707315e-05 -0.034582332033007784 0 -0.00011240304432788144 -0.034533032046671686 0 -6.562683203688729e-05 -0.034541270554656188 0 -5.3330570772950584e-05 -0.03475062874923017 0 -0.00017922396062546858 -0.034763340485440546 0 -6.5780360718707315e-05 -0.034582332033007784 0 -5.3330570772950584e-05 -0.03475062874923017 0 -0.00017922396062546858 -0.034763340485440546 0 -0.00011581283397535239 -0.034838481936693713 0 -3.1520081902706849e-05 -0.034244884207226406 0 2.2958284565840268e-05 -0.034207126787548905 0 2.4195321463398667e-05 -0.034160162453664385 0 2.2958284565840268e-05 -0.034207126787548905 0 1.6781793874048064e-05 -0.034335148837596134 0 3.1944012196458834e-05 -0.03418695396587268 0 -3.1520081902706849e-05 -0.034244884207226406 0 2.2958284565840268e-05 -0.034207126787548905 0 1.6781793874048064e-05 -0.034335148837596134 0 1.6781793874048064e-05 -0.034335148837596134 0 5.4211700167941197e-05 -0.03422130915468502 0 4.1558699312886974e-06 -0.034452352145507889 0 1.6781793874048064e-05 -0.034335148837596134 0 -6.5780360718707315e-05 -0.034582332033007784 0 4.1558699312886974e-06 -0.034452352145507889 0 -6.5780360718707315e-05 -0.034582332033007784 0 4.1558699312886974e-06 -0.034452352145507889 0 -2.5559848648386049e-05 -0.034694070997697099 0 -1.0462161976391737e-05 -0.034789419347459896 0 -4.4650152807453157e-08 -0.034999662552291137 0 -2.5453811728194443e-08 -0.034999595036185834 0 -6.5780360718707315e-05 -0.034582332033007784 0 -1.0462161976391737e-05 -0.034789419347459896 0 -2.5559848648386049e-05 -0.034694070997697099 0 -1.0462161976391737e-05 -0.034789419347459896 0 -4.4650152807453157e-08 -0.034999662552291137 0 -2.2945652106802894e-05 -0.034821981096776373 0 -5.3330570772950584e-05 -0.03475062874923017 0 -1.0462161976391737e-05 -0.034789419347459896 0 -2.2945652106802894e-05 -0.034821981096776373 0 -5.3330570772950584e-05 -0.03475062874923017 0 -6.5780360718707315e-05 -0.034582332033007784 0 -1.0462161976391737e-05 -0.034789419347459896 0 -2.2945652106802894e-05 -0.034821981096776373 0 -5.0239496087016814e-05 -0.03469001679440295 0 -3.3292753175570291e-05 -0.034687355289595448 0 -4.4650152807453157e-08 -0.034999662552291137 0 -2.2945652106802894e-05 -0.034821981096776373 0 -5.0239496087016814e-05 -0.03469001679440295 0 -5.4299207970253767e-05 -0.034657728845286603 0 -4.4650152807453157e-08 -0.034999662552291137 0 -5.0239496087016814e-05 -0.03469001679440295 0 -4.3379416065542797e-05 -0.034418532900725642 0 -5.0239496087016814e-05 -0.03469001679440295 0 -1.9426017055213788e-05 -0.034555161343076957 0 -4.3379416065542797e-05 -0.034418532900725642 0 -5.4299207970253767e-05 -0.034657728845286603 0 -5.0239496087016814e-05 -0.03469001679440295 0 -5.0239496087016814e-05 -0.03469001679440295 0 -3.3292753175570291e-05 -0.034687355289595448 0 -1.9426017055213788e-05 -0.034555161343076957 0 -3.1461561133801577e-05 -0.034802035205999372 0 -0.0001020002253700407 -0.03478545894841769 0 -0.0001020002253700407 -0.03478545894841769 0 -1.4478233426373678e-05 -0.034377282621653044 0 -3.3292753175570291e-05 -0.034687355289595448 0 8.2623546612984718e-05 -0.034616538093198111 0 -1.9426017055213788e-05 -0.034555161343076957 0 -0.00017922396062546858 -0.034763340485440546 0 -0.00011581283397535239 -0.034838481936693713 0 -0.00025498487034831326 -0.034863301773559077 0 -0.00011240304432788144 -0.034533032046671686 0 -1.4478233426373678e-05 -0.034377282621653044 0 8.2623546612984718e-05 -0.034616538093198111 0 -1.9426017055213788e-05 -0.034555161343076957 0 4.5775712939315773e-05 -0.034383029788848524 0 2.9769480566943003e-05 -0.034172244540491052 0 -4.3379416065542797e-05 -0.034418532900725642 0 4.5775712939315773e-05 -0.034383029788848524 0 -4.3379416065542797e-05 -0.034418532900725642 0 -1.9426017055213788e-05 -0.034555161343076957 0 4.5775712939315773e-05 -0.034383029788848524 0 2.9769480566943003e-05 -0.034172244540491052 0 4.5775712939315773e-05 -0.034383029788848524 0 0.00025419220603813516 -0.034173269137823113 0 3.9501753399873846e-05 -0.033996721904466863 0 -0.00016196987149124265 -0.034249929242916109 0 -0.00021924152096642236 -0.034048658180941348 0 8.2623546612984718e-05 -0.034616538093198111 0 4.5775712939315773e-05 -0.034383029788848524 0 0.00025419220603813516 -0.034173269137823113 0 -1.4478233426373678e-05 -0.034377282621653044 0 2.4503963727704931e-05 -0.034301824536049401 0 -0.00033200855380258702 -0.03432140044177092 0 -0.00016196987149124265 -0.034249929242916109 0 -0.00030992293650190854 -0.034184419240226194 0 -0.00030992293650190854 -0.034184419240226194 0 -0.00021924152096642236 -0.034048658180941348 0 -0.00049019282922782451 -0.034100086910336384 0 -0.00033200855380258702 -0.03432140044177092 0 -0.00040720126344393815 -0.034252520129394087 0 -0.00030992293650190854 -0.034184419240226194 0 -0.00040720126344393815 -0.034252520129394087 0 -0.00030992293650190854 -0.034184419240226194 0 -0.00049019282922782451 -0.034100086910336384 0 -0.00016196987149124265 -0.034249929242916109 0 -0.00030992293650190854 -0.034184419240226194 0 -0.00021924152096642236 -0.034048658180941348 0 -1.5298997461026006e-06 -0.03418293015802272 0 -0.00029375232516296978 -0.034190982544145404 0 -2.9201052990886449e-05 -0.034058548571712005 0 -9.7301889687154483e-05 -0.034092421277095525 0 -0.00040071634883034207 -0.034142869599845686 0 -1.5298997461026006e-06 -0.03418293015802272 0 2.3973766538680257e-05 -0.034150794105328487 0 -2.9201052990886449e-05 -0.034058548571712005 0 2.4195321463398667e-05 -0.034160162453664385 0 -1.5298997461026006e-06 -0.03418293015802272 0 2.3973766538680257e-05 -0.034150794105328487 0 -1.4478233426373678e-05 -0.034377282621653044 0 -9.7301889687154483e-05 -0.034092421277095525 0 2.2958284565840268e-05 -0.034207126787548905 0 2.4195321463398667e-05 -0.034160162453664385 0 2.3973766538680257e-05 -0.034150794105328487 0 -0.00072335721748169692 -0.034168038247975388 0 -0.00040071634883034207 -0.034142869599845686 0 -0.00068043078444858822 -0.034306641569244428 0 -0.00077012451196144228 -0.034160122000818985 0 -0.00049019282922782451 -0.034100086910336384 0 -0.00052809616123798437 -0.034315615518554075 0 -0.00068043078444858822 -0.034306641569244428 0 -0.00049019282922782451 -0.034100086910336384 0 -0.00052809616123798437 -0.034315615518554075 0 -0.00040720126344393815 -0.034252520129394087 0 -0.00049019282922782451 -0.034100086910336384 0 -0.00029375232516296978 -0.034190982544145404 0 -0.00054428857582990132 -0.033741143560855627 0 -2.9201052990886449e-05 -0.034058548571712005 0 -0.00096133059881156038 -0.033853374257749348 0 -0.00077012451196144228 -0.034160122000818985 0 -0.00054428857582990132 -0.033741143560855627 0 -0.00077012451196144228 -0.034160122000818985 0 -0.00029375232516296978 -0.034190982544145404 0 -0.00054428857582990132 -0.033741143560855627 0 -0.00085944417121893736 -0.033804430184697032 0 -0.00037541557607737209 -0.03393782826978195 0 -0.00017074125154587034 -0.034126147939886858 0 -4.9599867919564313e-05 -0.034074631215741703 0 -0.00029920646233104275 -0.03390829690487572 0 -0.00054484568709808727 -0.034045029816721979 0 -0.00017074125154587034 -0.034126147939886858 0 -0.00029920646233104275 -0.03390829690487572 0 -0.00037541557607737209 -0.03393782826978195 0 -6.4443882692453018e-05 -0.034035298644431444 0 -0.00017074125154587034 -0.034126147939886858 0 -4.9599867919564313e-05 -0.034074631215741703 0 -2.9201052990886449e-05 -0.034058548571712005 0 -4.9599867919564313e-05 -0.034074631215741703 0 -3.6057668677345059e-05 -0.033999112996657088 0 -0.00029920646233104275 -0.03390829690487572 0 -3.6057668677345059e-05 -0.033999112996657088 0 -0.00029920646233104275 -0.03390829690487572 0 -4.2072889804696274e-05 -0.033829922176804104 0 2.3973766538680257e-05 -0.034150794105328487 0 3.1944012196458834e-05 -0.03418695396587268 0 -2.9201052990886449e-05 -0.034058548571712005 0 2.2958284565840268e-05 -0.034207126787548905 0 2.3973766538680257e-05 -0.034150794105328487 0 3.1944012196458834e-05 -0.03418695396587268 0 -4.9599867919564313e-05 -0.034074631215741703 0 -2.9201052990886449e-05 -0.034058548571712005 0 1.4806003160541538e-05 -0.03411511889590893 0 3.1944012196458834e-05 -0.03418695396587268 0 -2.9201052990886449e-05 -0.034058548571712005 0 1.4806003160541538e-05 -0.03411511889590893 0 -4.9599867919564313e-05 -0.034074631215741703 0 -3.6057668677345059e-05 -0.033999112996657088 0 1.4806003160541538e-05 -0.03411511889590893 0 -3.6057668677345059e-05 -0.033999112996657088 0 1.4806003160541538e-05 -0.03411511889590893 0 3.037445847667325e-05 -0.034072875280325252 0 1.4806003160541538e-05 -0.03411511889590893 0 5.4211700167941197e-05 -0.03422130915468502 0 3.037445847667325e-05 -0.034072875280325252 0 1.6781793874048064e-05 -0.034335148837596134 0 3.1944012196458834e-05 -0.03418695396587268 0 5.4211700167941197e-05 -0.03422130915468502 0 3.1944012196458834e-05 -0.03418695396587268 0 1.4806003160541538e-05 -0.03411511889590893 0 5.4211700167941197e-05 -0.03422130915468502 0 5.4211700167941197e-05 -0.03422130915468502 0 6.7145360843226971e-05 -0.034011051799655405 0 7.1988832963533424e-05 -0.034299889396778631 0 3.037445847667325e-05 -0.034072875280325252 0 6.7145360843226971e-05 -0.034011051799655405 0 -4.2072889804696274e-05 -0.033829922176804104 0 5.4211700167941197e-05 -0.03422130915468502 0 3.037445847667325e-05 -0.034072875280325252 0 6.7145360843226971e-05 -0.034011051799655405 0 6.7145360843226971e-05 -0.034011051799655405 0 0.0001524443771495585 -0.034200201407698652 0 7.1988832963533424e-05 -0.034299889396778631 0 -0.00029920646233104275 -0.03390829690487572 0 -0.00025510981711757532 -0.03364686617845758 0 -4.2072889804696274e-05 -0.033829922176804104 0 -3.6057668677345059e-05 -0.033999112996657088 0 3.037445847667325e-05 -0.034072875280325252 0 -4.2072889804696274e-05 -0.033829922176804104 0 6.7145360843226971e-05 -0.034011051799655405 0 -4.2072889804696274e-05 -0.033829922176804104 0 3.7018378183272645e-05 -0.033570229320287276 0 -0.00025510981711757532 -0.03364686617845758 0 -4.2072889804696274e-05 -0.033829922176804104 0 3.7018378183272645e-05 -0.033570229320287276 0 -0.00025510981711757532 -0.03364686617845758 0 -0.00019407500351247198 -0.033215754884387529 0 3.7018378183272645e-05 -0.033570229320287276 0 -0.00019407500351247198 -0.033215754884387529 0 3.7018378183272645e-05 -0.033570229320287276 0 5.469675051914952e-05 -0.032623979723556538 0 3.583534123368911e-05 -0.033457614521776105 0 7.7707260066305696e-05 -0.033299568354158718 0 3.7018378183272645e-05 -0.033570229320287276 0 4.9077954099651557e-05 -0.033876185353096375 0 3.8964991601135087e-05 -0.033749689483205121 0 3.7018378183272645e-05 -0.033570229320287276 0 4.7099645439182628e-05 -0.033720584227051272 0 3.8964991601135087e-05 -0.033749689483205121 0 3.7018378183272645e-05 -0.033570229320287276 0 4.7099645439182628e-05 -0.033720584227051272 0 6.777556843378246e-05 -0.033703318645693377 0 -0.00019407500351247198 -0.033215754884387529 0 5.469675051914952e-05 -0.032623979723556538 0 -0.00013333995006703736 -0.032758453210175294 0 0.0001524443771495585 -0.034200201407698652 0 0.00018966233788000525 -0.034617246812220677 0 1.3128069842478457e-05 -0.034494549945336017 0 0.00015846172252722708 -0.034213362477335835 0 0.00015069717425162909 -0.034134647098084427 0 0.0001524443771495585 -0.034200201407698652 0 4.9077954099651557e-05 -0.033876185353096375 0 0.00013877845997096761 -0.03376559316888178 0 6.7145360843226971e-05 -0.034011051799655405 0 3.7018378183272645e-05 -0.033570229320287276 0 4.9077954099651557e-05 -0.033876185353096375 0 6.7145360843226971e-05 -0.034011051799655405 0 0.0001524443771495585 -0.034200201407698652 0 4.9077954099651557e-05 -0.033876185353096375 0 4.9077954099651557e-05 -0.033876185353096375 0 3.8964991601135087e-05 -0.033749689483205121 0 0.00013877845997096761 -0.03376559316888178 0 -2.7801487016577945e-05 -0.034703275171114718 0 1.3128069842478457e-05 -0.034494549945336017 0 4.9029879978247762e-05 -0.034722017176796724 0 0.00018966233788000525 -0.034617246812220677 0 1.3128069842478457e-05 -0.034494549945336017 0 4.9029879978247762e-05 -0.034722017176796724 0 -2.7801487016577945e-05 -0.034703275171114718 0 1.3128069842478457e-05 -0.034494549945336017 0 -3.2986450481746042e-05 -0.034759203283189002 0 0.0001524443771495585 -0.034200201407698652 0 1.3128069842478457e-05 -0.034494549945336017 0 7.1988832963533424e-05 -0.034299889396778631 0 1.3128069842478457e-05 -0.034494549945336017 0 7.1988832963533424e-05 -0.034299889396778631 0 -5.8824075888498517e-06 -0.034550930678554505 0 1.3128069842478457e-05 -0.034494549945336017 0 -5.8824075888498517e-06 -0.034550930678554505 0 -3.2986450481746042e-05 -0.034759203283189002 0 -5.8824075888498517e-06 -0.034550930678554505 0 4.1558699312886974e-06 -0.034452352145507889 0 -2.5559848648386049e-05 -0.034694070997697099 0 5.4211700167941197e-05 -0.03422130915468502 0 7.1988832963533424e-05 -0.034299889396778631 0 4.1558699312886974e-06 -0.034452352145507889 0 7.1988832963533424e-05 -0.034299889396778631 0 -5.8824075888498517e-06 -0.034550930678554505 0 4.1558699312886974e-06 -0.034452352145507889 0 -1.0462161976391737e-05 -0.034789419347459896 0 -2.5559848648386049e-05 -0.034694070997697099 0 -2.5453811728194443e-08 -0.034999595036185834 0 -5.8824075888498517e-06 -0.034550930678554505 0 -2.5559848648386049e-05 -0.034694070997697099 0 -3.2986450481746042e-05 -0.034759203283189002 0 -2.5559848648386049e-05 -0.034694070997697099 0 -2.5453811728194443e-08 -0.034999595036185834 0 -3.2986450481746042e-05 -0.034759203283189002 0 -2.5453811728194443e-08 -0.034999595036185834 0 -3.2986450481746042e-05 -0.034759203283189002 0 -8.0198575587675587e-09 -0.034999400689208218 0 -2.7801487016577945e-05 -0.034703275171114718 0 -3.2986450481746042e-05 -0.034759203283189002 0 -3.9289325534057111e-05 -0.034829058554738203 0 -2.7801487016577945e-05 -0.034703275171114718 0 -3.9289325534057111e-05 -0.034829058554738203 0 -2.6327941558917185e-05 -0.034791813677423941 0 -3.2986450481746042e-05 -0.034759203283189002 0 -3.9289325534057111e-05 -0.034829058554738203 0 -8.0198575587675587e-09 -0.034999400689208218 0 1.8057375690739307e-09 -0.034999995167912891 0 -3.9110655427533466e-09 -0.035000010210490713 0 -1.226778204818367e-06 -0.035000023120852437 0 -3.9289325534057111e-05 -0.034829058554738203 0 -8.0198575587675587e-09 -0.034999400689208218 0 -2.1750710156200071e-05 -0.034803258415261058 0 9.6384598196625027e-09 -0.035000001999017864 0 -2.1260670025382226e-05 -0.034880914330840035 0 -3.9289325534057111e-05 -0.034829058554738203 0 -2.6327941558917185e-05 -0.034791813677423941 0 -2.1750710156200071e-05 -0.034803258415261058 0 -2.6327941558917185e-05 -0.034791813677423941 0 3.5545391135421086e-06 -0.034826322025390134 0 -2.9037129373329303e-05 -0.034827504526153498 0 -2.6327941558917185e-05 -0.034791813677423941 0 -2.1750710156200071e-05 -0.034803258415261058 0 -2.9037129373329303e-05 -0.034827504526153498 0 -2.1260670025382226e-05 -0.034880914330840035 0 1.9954447091171155e-05 -0.035023341317194021 0 -3.9110655427533466e-09 -0.035000010210490713 0 -1.226778204818367e-06 -0.035000023120852437 0 -9.5489342943201736e-06 -0.034999720018536164 0 -2.6327941558917185e-05 -0.034791813677423941 0 4.9029879978247762e-05 -0.034722017176796724 0 2.3543599681188951e-05 -0.034784786833894445 0 -2.7801487016577945e-05 -0.034703275171114718 0 -2.6327941558917185e-05 -0.034791813677423941 0 4.9029879978247762e-05 -0.034722017176796724 0 -2.6327941558917185e-05 -0.034791813677423941 0 2.3543599681188951e-05 -0.034784786833894445 0 3.5545391135421086e-06 -0.034826322025390134 0 4.9029879978247762e-05 -0.034722017176796724 0 2.3543599681188951e-05 -0.034784786833894445 0 8.318250038368405e-05 -0.034801708179983994 0 2.3543599681188951e-05 -0.034784786833894445 0 8.318250038368405e-05 -0.034801708179983994 0 3.5545391135421086e-06 -0.034826322025390134 0 8.318250038368405e-05 -0.034801708179983994 0 3.5545391135421086e-06 -0.034826322025390134 0 8.518148269182745e-05 -0.034852482655038666 0 3.5545391135421086e-06 -0.034826322025390134 0 2.0960440608459039e-05 -0.03486496167097837 0 8.518148269182745e-05 -0.034852482655038666 0 3.5545391135421086e-06 -0.034826322025390134 0 2.0960440608459039e-05 -0.03486496167097837 0 -1.9311400997586043e-05 -0.034873241232773515 0 -0.00027336869992363101 -0.033946507867535461 0 -0.0002138289820337014 -0.034422894209293529 0 -0.00057584089441783828 -0.033103277125881896 0 -0.00031233698699927677 -0.032976003755542001 0 -0.0003252307738714085 -0.033310585975020408 0 -0.00027336869992363101 -0.033946507867535461 0 -0.00020986656188909896 -0.034014474723844612 0 -3.9110655427533466e-09 -0.035000010210490713 0 -9.5489342943201736e-06 -0.034999720018536164 0 3.8126220381756097e-09 -0.03499997408858279 0 -9.5489342943201736e-06 -0.034999720018536164 0 -1.005640337197031e-05 -0.034963491753695071 0 -2.2524887694774749e-05 -0.034967478014035325 0 1.9954447091171155e-05 -0.035023341317194021 0 -0.0002138289820337014 -0.034422894209293529 0 3.5545391135421086e-06 -0.034826322025390134 0 -2.9037129373329303e-05 -0.034827504526153498 0 -1.9311400997586043e-05 -0.034873241232773515 0 -9.5489342943201736e-06 -0.034999720018536164 0 3.8126220381756097e-09 -0.03499997408858279 0 -1.005640337197031e-05 -0.034963491753695071 0 2.6175968154353537e-10 -0.035000000546641215 0 -3.9591806389865206e-10 -0.034999999045428588 0 -3.864033221961354e-07 -0.034999485137737638 0 9.7948221823069054e-08 -0.035000193214427745 0 -6.497285657080982e-05 -0.034869585903214984 0 -3.9591806389865206e-10 -0.034999999045428588 0 -3.864033221961354e-07 -0.034999485137737638 0 -1.3153643761983039e-10 -0.034999999391963264 0 -6.497285657080982e-05 -0.034869585903214984 0 -3.879262142769501e-08 -0.034999977435756731 0 -4.7263427185534462e-05 -0.035035114105210978 0 3.641689232854888e-08 -0.03500009456216914 0 -4.3294907031199385e-05 -0.03500771070764739 0 3.641689232854888e-08 -0.03500009456216914 0 -4.3294907031199385e-05 -0.03500771070764739 0 -2.2706961305484941e-07 -0.035000021993440461 0 -4.7263427185534462e-05 -0.035035114105210978 0 -4.3294907031199385e-05 -0.03500771070764739 0 -8.7542340050659583e-05 -0.035005852482112708 0 -4.3294907031199385e-05 -0.03500771070764739 0 -8.7542340050659583e-05 -0.035005852482112708 0 -9.711480599868139e-05 -0.035006184444648217 0 -4.3294907031199385e-05 -0.03500771070764739 0 -2.2706961305484941e-07 -0.035000021993440461 0 -9.711480599868139e-05 -0.035006184444648217 0 -0.00062536060241776741 -0.033796194125299994 0 -0.00071971017221093576 -0.03445420631344371 0 -0.00035400685548333583 -0.034449220693284578 0 -0.00038834218490873661 -0.03446084814036407 0 -0.00039229349153138237 -0.034380740317200426 0 -0.00035400685548333583 -0.034449220693284578 0 -0.00038834218490873661 -0.03446084814036407 0 -0.00035366246873402981 -0.034496831109153157 0 -0.00038834218490873661 -0.03446084814036407 0 -0.00035366246873402981 -0.034496831109153157 0 -0.0003603941420251714 -0.034546371087854195 0 -0.00076445536902000546 -0.033462488739407006 0 -0.00083306950676417498 -0.03322902516209976 0 -0.00061756413736655023 -0.033327812700656323 0 -6.497285657080982e-05 -0.034869585903214984 0 -0.000228920009817125 -0.034699277114599691 0 -0.0003126738270158368 -0.034526639285501662 0 -0.00035400685548333583 -0.034449220693284578 0 -0.00035366246873402981 -0.034496831109153157 0 -0.00062536060241776741 -0.033796194125299994 0 -0.0002138289820337014 -0.034422894209293529 0 -6.497285657080982e-05 -0.034869585903214984 0 -0.0002138289820337014 -0.034422894209293529 0 -0.0003126738270158368 -0.034526639285501662 0 -0.00035366246873402981 -0.034496831109153157 0 -0.0003603941420251714 -0.034546371087854195 0 -0.00057584089441783828 -0.033103277125881896 0 -0.00083306950676417498 -0.03322902516209976 0 -0.00061756413736655023 -0.033327812700656323 0 -0.00061756413736655023 -0.033327812700656323 0 -0.0003252307738714085 -0.033310585975020408 0 -0.00055515564650356541 -0.033496192570434492 0 -0.00057584089441783828 -0.033103277125881896 0 -0.00061756413736655023 -0.033327812700656323 0 -0.0003252307738714085 -0.033310585975020408 0 -0.0003252307738714085 -0.033310585975020408 0 -0.00055515564650356541 -0.033496192570434492 0 -0.0003151842178190565 -0.033594637805203831 0 -0.00055515564650356541 -0.033496192570434492 0 -0.00069422847664797713 -0.033706841345423268 0 -0.0003151842178190565 -0.033594637805203831 0 -0.00076445536902000546 -0.033462488739407006 0 -0.00055515564650356541 -0.033496192570434492 0 -0.00069422847664797713 -0.033706841345423268 0 -0.00076445536902000546 -0.033462488739407006 0 -0.00061756413736655023 -0.033327812700656323 0 -0.00055515564650356541 -0.033496192570434492 0 -0.00099069528102146151 -0.034957476861350756 0 -0.00099992791712061476 -0.034927564981003717 0 -0.0010958345041196555 -0.03489154319174579 0 -0.00071971017221093576 -0.03445420631344371 0 -0.00073348270094254233 -0.034684032989010884 0 -0.00099122395630418499 -0.034952920339042737 0 -0.00099992791712061476 -0.034927564981003717 0 -0.00096186297221177665 -0.034946412999938684 0 -0.0010958345041196555 -0.03489154319174579 0 -0.0012307353928191003 -0.03487177998839313 0 -0.0011995052672671284 -0.034991196376194592 0 -0.00071971017221093576 -0.03445420631344371 0 -0.00096730335064283777 -0.034649076017958615 0 -0.00099069528102146151 -0.034957476861350756 0 -0.0010958345041196555 -0.03489154319174579 0 -0.0011995052672671284 -0.034991196376194592 0 -0.0010958345041196555 -0.03489154319174579 0 -0.0012307353928191003 -0.03487177998839313 0 -0.0011517287972443999 -0.034792579628799503 0 -0.0010958345041196555 -0.03489154319174579 0 -0.001021416473217939 -0.034797491728647233 0 -0.0011517287972443999 -0.034792579628799503 0 -0.00099992791712061476 -0.034927564981003717 0 -0.00096186297221177665 -0.034946412999938684 0 -0.001021416473217939 -0.034797491728647233 0 -0.00099992791712061476 -0.034927564981003717 0 -0.0010958345041196555 -0.03489154319174579 0 -0.001021416473217939 -0.034797491728647233 0 -0.00048306132525778882 -0.034849378068780461 0 -0.00085934347467196551 -0.034859880542679016 0 -0.00035392069349699028 -0.03495942548201416 0 -0.00039436761038250166 -0.035135449317396109 0 -0.00064061952506710062 -0.034882913756838392 0 -0.00035392069349699028 -0.03495942548201416 0 -0.00016076855318857564 -0.034956462760653693 0 -0.00015318632558812469 -0.03502422469562138 0 -1.7717801140945397e-06 -0.035000590519603421 0 -1.7299231884597683e-09 -0.035000009346853225 0 -2.7387491632665918e-10 -0.034999997110927869 0 -0.00016076855318857564 -0.034956462760653693 0 -0.00015318632558812469 -0.03502422469562138 0 -2.2706961305484941e-07 -0.035000021993440461 0 -7.8020600356207187e-05 -0.034980757496005946 0 -1.9330212921213363e-08 -0.035000026868437159 0 -0.00015318632558812469 -0.03502422469562138 0 -2.2706961305484941e-07 -0.035000021993440461 0 -9.711480599868139e-05 -0.035006184444648217 0 -8.7542340050659583e-05 -0.035005852482112708 0 -9.711480599868139e-05 -0.035006184444648217 0 -0.00010103373441061101 -0.035012413101822168 0 -0.00038834218490873661 -0.03446084814036407 0 -0.00041479916387862447 -0.034386097233397604 0 -0.00039229349153138237 -0.034380740317200426 0 -0.000228920009817125 -0.034699277114599691 0 -0.00048306132525778882 -0.034849378068780461 0 -0.00015318632558812469 -0.03502422469562138 0 -9.711480599868139e-05 -0.035006184444648217 0 -0.00010103373441061101 -0.035012413101822168 0 -0.00071971017221093576 -0.03445420631344371 0 -0.00048306132525778882 -0.034849378068780461 0 -0.00035392069349699028 -0.03495942548201416 0 -0.00015318632558812469 -0.03502422469562138 0 -0.00039436761038250166 -0.035135449317396109 0 -0.00012896496664900367 -0.035000114846517043 0 -0.00048306132525778882 -0.034849378068780461 0 -0.0014156572540409318 -0.034910780245986886 0 -0.001476909947467747 -0.034698693163425012 0 -0.001388866314427734 -0.03487065802105211 0 0.00076831954176428041 -0.028683052219478623 0 0.00085748325171912897 -0.029172841213044476 0 0.00061703664834793052 -0.028931034034816991 0 0.00050893060358221166 -0.028458980861163236 0 0.00050717956685872561 -0.028698147837610349 0 0.00024368782363836777 -0.02855769353264365 0 0.00050893060358221166 -0.028458980861163236 0 0.00076831954176428041 -0.028683052219478623 0 0.00050717956685872561 -0.028698147837610349 0 0.00076831954176428041 -0.028683052219478623 0 0.00050717956685872561 -0.028698147837610349 0 0.00061703664834793052 -0.028931034034816991 0 0.00033855620515539192 -0.028870759369067349 0 0.00050717956685872561 -0.028698147837610349 0 0.00024368782363836777 -0.02855769353264365 0 0.00033855620515539192 -0.028870759369067349 0 0.00050717956685872561 -0.028698147837610349 0 0.00061703664834793052 -0.028931034034816991 0 0.00033855620515539192 -0.028870759369067349 0 -0.00011630099800918238 -0.028839950874219356 0 0.00024368782363836777 -0.02855769353264365 0 -0.00011630099800918238 -0.028839950874219356 0 0.00024368782363836777 -0.02855769353264365 0 -0.00026899140737403284 -0.028224349006111298 0 0.00024734185497757576 -0.028136548424287301 0 -0.00026899140737403284 -0.028224349006111298 0 -5.4776058672700895e-07 -0.027820819522992726 0 0.00024368782363836777 -0.02855769353264365 0 0.00024734185497757576 -0.028136548424287301 0 -0.00026899140737403284 -0.028224349006111298 0 0.00024734185497757576 -0.028136548424287301 0 0.00066997633172336934 -0.028175961624357048 0 0.00033484153494855968 -0.027572126625128868 0 -0.00034483098850990188 -0.03171767617146716 0 -0.00092837196742421712 -0.032278298542438966 0 0.00050893060358221166 -0.028458980861163236 0 0.00076831954176428041 -0.028683052219478623 0 0.00066997633172336934 -0.028175961624357048 0 0.00050893060358221166 -0.028458980861163236 0 0.00024368782363836777 -0.02855769353264365 0 0.00024734185497757576 -0.028136548424287301 0 0.00050893060358221166 -0.028458980861163236 0 0.00024734185497757576 -0.028136548424287301 0 0.00066997633172336934 -0.028175961624357048 0 -0.00092837196742421712 -0.032278298542438966 0 -0.00092109771845178467 -0.03511501475700337 0 -0.0013409087058372916 -0.034833853210082581 0 -0.0013947074322073667 -0.034841979673508022 0 -0.0014278203505922473 -0.034776759008044958 0 -0.0014496412492194573 -0.034824354036149953 0 -0.0013947074322073667 -0.034841979673508022 0 -0.0014278203505922473 -0.034776759008044958 0 -0.0013409087058372916 -0.034833853210082581 0 -0.0013326809451226641 -0.03487955018399691 0 -0.0013947074322073667 -0.034841979673508022 0 -0.0014496412492194573 -0.034824354036149953 0 -0.0013947074322073667 -0.034841979673508022 0 -0.001388866314427734 -0.03487065802105211 0 -0.0013326809451226641 -0.03487955018399691 0 -0.0013947074322073667 -0.034841979673508022 0 -0.001388866314427734 -0.03487065802105211 0 -0.0012307353928191003 -0.03487177998839313 0 -0.0011517287972443999 -0.034792579628799503 0 -0.0012934642117727339 -0.034792548687207846 0 -0.0013409087058372916 -0.034833853210082581 0 -0.0012307353928191003 -0.03487177998839313 0 -0.0012934642117727339 -0.034792548687207846 0 -0.0013409087058372916 -0.034833853210082581 0 -0.0013326809451226641 -0.03487955018399691 0 -0.0012307353928191003 -0.03487177998839313 0 -0.0012784593410450212 -0.034921589598975851 0 -0.001337100306828033 -0.034936093475609095 0 -0.0011995052672671284 -0.034991196376194592 0 -0.0012307353928191003 -0.03487177998839313 0 -0.0012784593410450212 -0.034921589598975851 0 -0.0011995052672671284 -0.034991196376194592 0 -0.0013326809451226641 -0.03487955018399691 0 -0.0012307353928191003 -0.03487177998839313 0 -0.0012784593410450212 -0.034921589598975851 0 -0.0014156572540409318 -0.034910780245986886 0 -0.001337100306828033 -0.034936093475609095 0 -0.0013786741286901686 -0.034991285333487845 0 -0.00034483098850990188 -0.03171767617146716 0 -2.9275246480793462e-06 -0.031769880553289449 0 -0.0014156572540409318 -0.034910780245986886 0 -0.001388866314427734 -0.03487065802105211 0 -0.001337100306828033 -0.034936093475609095 0 -0.0013326809451226641 -0.03487955018399691 0 -0.0012784593410450212 -0.034921589598975851 0 -0.001337100306828033 -0.034936093475609095 0 -0.0013326809451226641 -0.03487955018399691 0 -0.001388866314427734 -0.03487065802105211 0 -0.001337100306828033 -0.034936093475609095 0 -0.001337100306828033 -0.034936093475609095 0 -0.0013786741286901686 -0.034991285333487845 0 -0.0011995052672671284 -0.034991196376194592 0 -0.0003252307738714085 -0.033310585975020408 0 6.9399501852329961e-05 -0.033471433906159254 0 -0.0003151842178190565 -0.033594637805203831 0 -2.9275246480793462e-06 -0.031769880553289449 0 -0.00096730335064283777 -0.034649076017958615 0 -0.0003252307738714085 -0.033310585975020408 0 6.9399501852329961e-05 -0.033471433906159254 0 1.0454336178303945e-05 -0.033159576592380995 0 0.00093177520033322107 -0.029165157413947932 0 0.000695966341351949 -0.02958180937173609 0 0.0010907939326665085 -0.02994411400601683 0 -2.9275246480793462e-06 -0.031769880553289449 0 0.00059490623665460951 -0.03125268683118234 0 0.000695966341351949 -0.02958180937173609 0 0.00034203195672845098 -0.029295888688662036 0 0.00041599846001611791 -0.02991948332107729 0 0.000695966341351949 -0.02958180937173609 0 0.00041599846001611791 -0.02991948332107729 0 0.0010907939326665085 -0.02994411400601683 0 -2.9275246480793462e-06 -0.031769880553289449 0 0.00089191841507303704 -0.029055619370132495 0 0.00093177520033322107 -0.029165157413947932 0 0.000695966341351949 -0.02958180937173609 0 0.00034203195672845098 -0.029295888688662036 0 0.00085748325171912897 -0.029172841213044476 0 0.00034203195672845098 -0.029295888688662036 0 0.00061703664834793052 -0.028931034034816991 0 0.00033855620515539192 -0.028870759369067349 0 0.00034203195672845098 -0.029295888688662036 0 0.00061703664834793052 -0.028931034034816991 0 -0.00011630099800918238 -0.028839950874219356 0 0.00034203195672845098 -0.029295888688662036 0 -0.00039442917625422645 -0.029264912180615194 0 0.00033855620515539192 -0.028870759369067349 0 -0.00011630099800918238 -0.028839950874219356 0 0.00034203195672845098 -0.029295888688662036 0 0.00034203195672845098 -0.029295888688662036 0 9.5572744021987648e-06 -0.029792894373736927 0 -0.00039442917625422645 -0.029264912180615194 0 0.00034203195672845098 -0.029295888688662036 0 9.5572744021987648e-06 -0.029792894373736927 0 0.00041599846001611791 -0.02991948332107729 0 9.5572744021987648e-06 -0.029792894373736927 0 0.00010508431193734916 -0.030235315463660605 0 -0.0003704130271565744 -0.030245278638190418 0 0.00010508431193734916 -0.030235315463660605 0 4.9657859391447642e-05 -0.03068813536009932 0 -0.0003704130271565744 -0.030245278638190418 0 9.5572744021987648e-06 -0.029792894373736927 0 0.00010508431193734916 -0.030235315463660605 0 0.00041599846001611791 -0.02991948332107729 0 0.00041599846001611791 -0.02991948332107729 0 0.00056036480723032462 -0.030438475796259364 0 0.0010907939326665085 -0.02994411400601683 0 0.00010508431193734916 -0.030235315463660605 0 0.00041599846001611791 -0.02991948332107729 0 0.00056036480723032462 -0.030438475796259364 0 0.00056036480723032462 -0.030438475796259364 0 0.0012431392891544563 -0.030743421204649637 0 0.00052637381069565851 -0.031057112581558875 0 0.00056036480723032462 -0.030438475796259364 0 4.9657859391447642e-05 -0.03068813536009932 0 0.00052637381069565851 -0.031057112581558875 0 0.00010508431193734916 -0.030235315463660605 0 0.00056036480723032462 -0.030438475796259364 0 4.9657859391447642e-05 -0.03068813536009932 0 -0.00031233698699927677 -0.032976003755542001 0 1.0454336178303945e-05 -0.033159576592380995 0 -4.7508302311674981e-05 -0.032852049597817748 0 -0.00031233698699927677 -0.032976003755542001 0 -0.0003252307738714085 -0.033310585975020408 0 1.0454336178303945e-05 -0.033159576592380995 0 0.00059490623665460951 -0.03125268683118234 0 0.00035718419492120095 -0.032908347729950604 0 0.00056036480723032462 -0.030438475796259364 0 0.0010907939326665085 -0.02994411400601683 0 0.0012431392891544563 -0.030743421204649637 0 0.00035718419492120095 -0.032908347729950604 0 0.00038261512212484186 -0.032284149898389868 0 8.318250038368405e-05 -0.034801708179983994 0 8.518148269182745e-05 -0.034852482655038666 0 0.00016488474263234816 -0.034824024820999507 0 -0.00020986656188909896 -0.034014474723844612 0 0.00035718419492120095 -0.032908347729950604 0 8.318250038368405e-05 -0.034801708179983994 0 0.00016488474263234816 -0.034824024820999507 0 0.00016833644814273434 -0.034757112201008723 0 0.00035718419492120095 -0.032908347729950604 0 0.00015392404217752108 -0.034477978776872094 0 0.00010025217508680724 -0.033621128826623846 0 0.00010953611443811075 -0.033682406934087167 0 6.0134122341701837e-05 -0.033690625707259177 0 0.00010025217508680724 -0.033621128826623846 0 4.9685748440626406e-05 -0.033656284434779818 0 6.0134122341701837e-05 -0.033690625707259177 0 3.8964991601135087e-05 -0.033749689483205121 0 0.00010953611443811075 -0.033682406934087167 0 6.0134122341701837e-05 -0.033690625707259177 0 3.8964991601135087e-05 -0.033749689483205121 0 0.00013877845997096761 -0.03376559316888178 0 0.00010953611443811075 -0.033682406934087167 0 0.00015069717425162909 -0.034134647098084427 0 0.00015392404217752108 -0.034477978776872094 0 0.00018966233788000525 -0.034617246812220677 0 4.9029879978247762e-05 -0.034722017176796724 0 0.00016833644814273434 -0.034757112201008723 0 4.9029879978247762e-05 -0.034722017176796724 0 8.318250038368405e-05 -0.034801708179983994 0 0.00016833644814273434 -0.034757112201008723 0 0.00052637381069565851 -0.031057112581558875 0 -0.00020259352649649673 -0.031385424817069067 0 -0.00027836739446468586 -0.03120422771935176 0 4.9685748440626406e-05 -0.033656284434779818 0 4.6514364695799915e-05 -0.033693200447754298 0 2.6599245458337365e-05 -0.033675924465566456 0 0.00038261512212484186 -0.032284149898389868 0 -0.00016760030168925884 -0.032301994522570161 0 4.9657859391447642e-05 -0.03068813536009932 0 0.00052637381069565851 -0.031057112581558875 0 -0.00027836739446468586 -0.03120422771935176 0 4.9685748440626406e-05 -0.033656284434779818 0 6.0134122341701837e-05 -0.033690625707259177 0 4.6514364695799915e-05 -0.033693200447754298 0 4.7099645439182628e-05 -0.033720584227051272 0 3.8964991601135087e-05 -0.033749689483205121 0 6.0134122341701837e-05 -0.033690625707259177 0 4.7099645439182628e-05 -0.033720584227051272 0 6.0134122341701837e-05 -0.033690625707259177 0 4.6514364695799915e-05 -0.033693200447754298 0 7.7707260066305696e-05 -0.033299568354158718 0 -0.00016760030168925884 -0.032301994522570161 0 4.7099645439182628e-05 -0.033720584227051272 0 6.777556843378246e-05 -0.033703318645693377 0 4.6514364695799915e-05 -0.033693200447754298 0 5.469675051914952e-05 -0.032623979723556538 0 -0.00013333995006703736 -0.032758453210175294 0 -0.00018979134450537337 -0.032144330226216648 0 5.469675051914952e-05 -0.032623979723556538 0 -0.00018979134450537337 -0.032144330226216648 0 -0.00015467274321890399 -0.032128919904475174 0 6.777556843378246e-05 -0.033703318645693377 0 4.6514364695799915e-05 -0.033693200447754298 0 2.6599245458337365e-05 -0.033675924465566456 0 -0.00013333995006703736 -0.032758453210175294 0 -0.00027284338599248807 -0.032187970162949602 0 -1.9066114985902656e-06 -0.03162513718631197 0 -0.0001335569319141661 -0.032669957001517341 0 -4.8650016934125072e-05 -0.031962567179230662 0 -0.00048422684682365572 -0.032264580611705763 0 -0.00027284338599248807 -0.032187970162949602 0 -0.00047475222100689979 -0.031815180759431183 0 -0.00027284338599248807 -0.032187970162949602 0 -1.9066114985902656e-06 -0.03162513718631197 0 -0.00047475222100689979 -0.031815180759431183 0 -4.8650016934125072e-05 -0.031962567179230662 0 -0.00028666862866304736 -0.031752567837104187 0 0.00032143688545304067 -0.031478820813760029 0 -0.00018360957608843943 -0.031369176986159986 0 0.00028143294241496868 -0.031166550518063867 0 -4.8650016934125072e-05 -0.031962567179230662 0 -0.00016760030168925884 -0.032301994522570161 0 -0.00016760030168925884 -0.032301994522570161 0 -0.00017700938625331904 -0.031155564729807295 0 -4.8650016934125072e-05 -0.031962567179230662 0 -0.00017700938625331904 -0.031155564729807295 0 -0.00019818558491619905 -0.032185156008967077 0 1.8421281013342226e-05 -0.032088635092398093 0 -0.0002827791744720968 -0.03137843850683484 0 0.00032143688545304067 -0.031478820813760029 0 -0.00018360957608843943 -0.031369176986159986 0 -0.00047475222100689979 -0.031815180759431183 0 -0.00018360957608843943 -0.031369176986159986 0 -0.00019413834187428786 -0.030965062883235021 0 0.00028143294241496868 -0.031166550518063867 0 -0.00019413834187428786 -0.030965062883235021 0 0.00028143294241496868 -0.031166550518063867 0 -4.5840416066148346e-05 -0.030447334577728382 0 -0.00059552308565810987 -0.031233490808546288 0 -0.00047475222100689979 -0.031815180759431183 0 -0.0010703854385275596 -0.031505891658339447 0 -0.00089235998229309735 -0.030899535078203443 0 -0.00059552308565810987 -0.031233490808546288 0 -0.00052889376719348399 -0.030676260994714821 0 -0.00019413834187428786 -0.030965062883235021 0 -0.00059552308565810987 -0.031233490808546288 0 -0.00052889376719348399 -0.030676260994714821 0 -0.00018360957608843943 -0.031369176986159986 0 -0.00019413834187428786 -0.030965062883235021 0 -0.00059552308565810987 -0.031233490808546288 0 -0.00018360957608843943 -0.031369176986159986 0 -0.00059552308565810987 -0.031233490808546288 0 -0.00047475222100689979 -0.031815180759431183 0 -0.00089235998229309735 -0.030899535078203443 0 -0.00059552308565810987 -0.031233490808546288 0 -0.0010703854385275596 -0.031505891658339447 0 -0.00047475222100689979 -0.031815180759431183 0 -0.00076590836951624392 -0.032170139152957862 0 -0.0010703854385275596 -0.031505891658339447 0 -0.00048422684682365572 -0.032264580611705763 0 -0.00047475222100689979 -0.031815180759431183 0 -0.00076590836951624392 -0.032170139152957862 0 -0.0011532928957163314 -0.03205828101862386 0 -0.0015590401894203315 -0.031765827870721949 0 -0.0010703854385275596 -0.031505891658339447 0 -0.00076590836951624392 -0.032170139152957862 0 -0.0011532928957163314 -0.03205828101862386 0 -0.0010703854385275596 -0.031505891658339447 0 -0.0018559397614121998 -0.032154584848685649 0 -0.0015590401894203315 -0.031765827870721949 0 -0.0020413097911258929 -0.031155959547837675 0 -0.0015590401894203315 -0.031765827870721949 0 -0.0015994153087423595 -0.031180911913985285 0 -0.0020413097911258929 -0.031155959547837675 0 -0.0015994153087423595 -0.031180911913985285 0 -0.0013368557170774288 -0.030740608849718989 0 -0.0018698999565346123 -0.030615338101666195 0 -0.0015994153087423595 -0.031180911913985285 0 -0.0018698999565346123 -0.030615338101666195 0 -0.0024302999889645157 -0.031106504055239823 0 -0.0016362677550117795 -0.030197466754855028 0 -0.0021700386350628469 -0.022129356204122218 0 -0.0015994153087423595 -0.031180911913985285 0 -0.0010703854385275596 -0.031505891658339447 0 -0.0013368557170774288 -0.030740608849718989 0 -0.0015590401894203315 -0.031765827870721949 0 -0.0015994153087423595 -0.031180911913985285 0 -0.0010703854385275596 -0.031505891658339447 0 -0.00089235998229309735 -0.030899535078203443 0 -0.0010703854385275596 -0.031505891658339447 0 -0.0013368557170774288 -0.030740608849718989 0 -0.00089235998229309735 -0.030899535078203443 0 -0.0013368557170774288 -0.030740608849718989 0 -0.0009023029032167681 -0.030291683743784329 0 -0.0013368557170774288 -0.030740608849718989 0 -0.0015902780535863013 -0.030130242454162671 0 -0.0018698999565346123 -0.030615338101666195 0 -0.0013368557170774288 -0.030740608849718989 0 -0.0015902780535863013 -0.030130242454162671 0 -0.0009023029032167681 -0.030291683743784329 0 -0.0015902780535863013 -0.030130242454162671 0 -0.0012653442267340747 -0.029767446247411782 0 -0.0009023029032167681 -0.030291683743784329 0 -0.0015902780535863013 -0.030130242454162671 0 -0.0018698999565346123 -0.030615338101666195 0 -0.0024454853014454648 -0.029954220228672824 0 -0.0018698999565346123 -0.030615338101666195 0 -0.0024302999889645157 -0.031106504055239823 0 -0.0024454853014454648 -0.029954220228672824 0 -0.0041274252445584357 -0.021711157787942071 0 -0.0045495832210164008 -0.020077369814446782 0 -0.0015902780535863013 -0.030130242454162671 0 -0.0019282596024894009 -0.02942028509494574 0 -0.0024454853014454648 -0.029954220228672824 0 -0.0019282596024894009 -0.02942028509494574 0 -0.0024454853014454648 -0.029954220228672824 0 -0.0024730337354583369 -0.028784780584187031 0 -0.0012653442267340747 -0.029767446247411782 0 -0.00072874071156754433 -0.02986159099291302 0 -0.0009023029032167681 -0.030291683743784329 0 -0.0015902780535863013 -0.030130242454162671 0 -0.0019282596024894009 -0.02942028509494574 0 -0.0012653442267340747 -0.029767446247411782 0 -0.0019282596024894009 -0.02942028509494574 0 -0.0012653442267340747 -0.029767446247411782 0 -0.0012410340429126604 -0.029071972966771709 0 -0.00082224421755746236 -0.029730179830807262 0 -0.0010111330369642164 -0.029481929509289219 0 -0.0012653442267340747 -0.029767446247411782 0 -0.00072874071156754433 -0.02986159099291302 0 -0.0012410340429126604 -0.029071972966771709 0 -0.00072874071156754433 -0.02986159099291302 0 -0.00070258203117479245 -0.029540580874241038 0 -0.0010432312546101454 -0.029564884722583794 0 -0.00072874071156754433 -0.02986159099291302 0 -0.00043733494539865839 -0.029833230404131387 0 -0.00049601477331261688 -0.030242086425213251 0 -0.00072874071156754433 -0.02986159099291302 0 -0.00043733494539865839 -0.029833230404131387 0 -0.00070258203117479245 -0.029540580874241038 0 -0.00043733494539865839 -0.029833230404131387 0 -0.00022654640484820842 -0.029869343383994981 0 -0.00039442917625422645 -0.029264912180615194 0 -0.00043733494539865839 -0.029833230404131387 0 -0.00022654640484820842 -0.029869343383994981 0 -0.00030575089709160156 -0.030204158533990937 0 -0.00043733494539865839 -0.029833230404131387 0 -4.5840416066148346e-05 -0.030447334577728382 0 -0.00049601477331261688 -0.030242086425213251 0 -0.00017700938625331904 -0.031155564729807295 0 -0.00030743428258580327 -0.029991467751713796 0 -0.00014211435563318158 -0.030582203234922015 0 -0.00022654640484820842 -0.029869343383994981 0 -0.00030575089709160156 -0.030204158533990937 0 4.9657859391447642e-05 -0.03068813536009932 0 -0.00027836739446468586 -0.03120422771935176 0 -0.0003704130271565744 -0.030245278638190418 0 -0.00038519756008919111 -0.029912664232602665 0 -0.00020028368255989776 -0.030304872684735858 0 -0.00017700938625331904 -0.031155564729807295 0 -0.00020028368255989776 -0.030304872684735858 0 -0.00019413834187428786 -0.030965062883235021 0 -4.5840416066148346e-05 -0.030447334577728382 0 -0.00052889376719348399 -0.030676260994714821 0 -4.5840416066148346e-05 -0.030447334577728382 0 -0.00052889376719348399 -0.030676260994714821 0 -0.00049601477331261688 -0.030242086425213251 0 -0.00089235998229309735 -0.030899535078203443 0 -0.00052889376719348399 -0.030676260994714821 0 -0.0009023029032167681 -0.030291683743784329 0 -0.00072874071156754433 -0.02986159099291302 0 -0.0009023029032167681 -0.030291683743784329 0 -0.00049601477331261688 -0.030242086425213251 0 -0.00052889376719348399 -0.030676260994714821 0 -0.0009023029032167681 -0.030291683743784329 0 -0.00049601477331261688 -0.030242086425213251 0 0.0005181453384103088 -0.012666170215134177 0 -0.0014923370146053237 -0.012119980166831969 0 -0.0026174797869104771 -0.01170645332233013 0 -0.0036195439456427792 -0.011795871098732607 0 -0.003047775117853264 -0.012160419842637792 0 -0.0011385142005653666 -0.011550053786085528 0 -0.0014923370146053237 -0.012119980166831969 0 0.0003313558528701923 -0.011458763948891709 0 0.00040010762532430901 -0.011760417128009232 0 0.00065021016961399952 -0.011484950541689461 0 0.0001424208229205263 -0.01378430616265477 0 8.6071937585412855e-05 -0.01367493037525103 0 0.00026176774899568057 -0.013718059379130265 0 8.6071937585412855e-05 -0.01367493037525103 0 0.00026176774899568057 -0.013718059379130265 0 0.00027907071712711488 -0.013565758669696719 0 0.00026176774899568057 -0.013718059379130265 0 0.00027907071712711488 -0.013565758669696719 0 0.00040024528969056361 -0.013704096977672884 0 0.00037387112459827296 -0.01386512796044782 0 0.0001424208229205263 -0.01378430616265477 0 0.00026176774899568057 -0.013718059379130265 0 0.00037387112459827296 -0.01386512796044782 0 0.00026176774899568057 -0.013718059379130265 0 0.00040024528969056361 -0.013704096977672884 0 -0.0036195439456427792 -0.011795871098732607 0 -0.0035214449105667295 -0.012337204215653628 0 -0.003047775117853264 -0.012160419842637792 0 -0.0014923370146053237 -0.012119980166831969 0 -0.0037905347124329168 -0.012681841269227825 0 -0.0036195439456427792 -0.011795871098732607 0 -0.0040486228447986104 -0.012263289705858766 0 -0.0035214449105667295 -0.012337204215653628 0 0.00027907071712711488 -0.013565758669696719 0 0.00049610201777209619 -0.013622064573501251 0 0.00040024528969056361 -0.013704096977672884 0 -0.0014923370146053237 -0.012119980166831969 0 -0.002140746519807685 -0.01245575006872972 0 -0.0036430514797516108 -0.011903187709636725 0 -0.0045725721913192456 -0.011940564991346369 0 -0.0040486228447986104 -0.012263289705858766 0 -0.0045725721913192456 -0.011940564991346369 0 -0.0045130834108840605 -0.012407011718608588 0 -0.0040486228447986104 -0.012263289705858766 0 -0.0045725721913192456 -0.011940564991346369 0 -0.0049965498686145252 -0.012476198745998281 0 -0.0045130834108840605 -0.012407011718608588 0 0.00049610201777209619 -0.013622064573501251 0 0.00040024528969056361 -0.013704096977672884 0 0.00056117393651825562 -0.013818155116958317 0 0.00037387112459827296 -0.01386512796044782 0 0.00040024528969056361 -0.013704096977672884 0 0.00056117393651825562 -0.013818155116958317 0 0.00075924995928251218 -0.013980198027298441 0 0.00056117393651825562 -0.013818155116958317 0 0.00070095161195355999 -0.013702120759095259 0 -0.00034925816915016379 -0.023120901031453683 0 -0.0021700386350628469 -0.022129356204122218 0 0.00049610201777209619 -0.013622064573501251 0 0.00056117393651825562 -0.013818155116958317 0 0.00070095161195355999 -0.013702120759095259 0 -0.002140746519807685 -0.01245575006872972 0 -0.0021700386350628469 -0.022129356204122218 0 -0.0045725721913192456 -0.011940564991346369 0 -0.0055141567061436879 -0.012012342928903883 0 -0.0049965498686145252 -0.012476198745998281 0 -0.0055141567061436879 -0.012012342928903883 0 -0.0055891984412869446 -0.013101565908146422 0 -0.0049965498686145252 -0.012476198745998281 0 -0.0021700386350628469 -0.022129356204122218 0 -0.0041274252445584357 -0.021711157787942071 0 -0.0055891984412869446 -0.013101565908146422 0 -0.0049965498686145252 -0.012476198745998281 0 -0.0048076622183413648 -0.012976072373694747 0 -0.0055891984412869446 -0.013101565908146422 0 -0.0052482133852358214 -0.013475831960125384 0 -0.0048076622183413648 -0.012976072373694747 0 -0.0055891984412869446 -0.013101565908146422 0 -0.0052482133852358214 -0.013475831960125384 0 -0.0056603033814899084 -0.014295920116291905 0 -0.0052482133852358214 -0.013475831960125384 0 -0.0052619820841018706 -0.013958114380075048 0 -0.0056603033814899084 -0.014295920116291905 0 -0.0052482133852358214 -0.013475831960125384 0 -0.0048125574056492168 -0.013549473539556727 0 -0.0052619820841018706 -0.013958114380075048 0 -0.0048125574056492168 -0.013549473539556727 0 -0.0046192041280031767 -0.014122127026290628 0 -0.0052619820841018706 -0.013958114380075048 0 -0.0052482133852358214 -0.013475831960125384 0 -0.0048125574056492168 -0.013549473539556727 0 -0.0048076622183413648 -0.012976072373694747 0 -0.0042061856052673695 -0.013375179884722187 0 -0.0042705670436921717 -0.012757101637520857 0 -0.0048076622183413648 -0.012976072373694747 0 -0.0048125574056492168 -0.013549473539556727 0 -0.0042061856052673695 -0.013375179884722187 0 -0.0048076622183413648 -0.012976072373694747 0 -0.0048125574056492168 -0.013549473539556727 0 -0.0042061856052673695 -0.013375179884722187 0 -0.0046192041280031767 -0.014122127026290628 0 -0.0042705670436921717 -0.012757101637520857 0 -0.0040486228447986104 -0.012263289705858766 0 -0.0037919534300696082 -0.01282984872664408 0 -0.0042061856052673695 -0.013375179884722187 0 -0.0042705670436921717 -0.012757101637520857 0 -0.0037919534300696082 -0.01282984872664408 0 -0.0042705670436921717 -0.012757101637520857 0 -0.0048076622183413648 -0.012976072373694747 0 -0.0045130834108840605 -0.012407011718608588 0 -0.0049965498686145252 -0.012476198745998281 0 -0.0048076622183413648 -0.012976072373694747 0 -0.0045130834108840605 -0.012407011718608588 0 -0.0042705670436921717 -0.012757101637520857 0 -0.0045130834108840605 -0.012407011718608588 0 -0.0040486228447986104 -0.012263289705858766 0 -0.0040486228447986104 -0.012263289705858766 0 -0.0035214449105667295 -0.012337204215653628 0 -0.0037919534300696082 -0.01282984872664408 0 -0.0035214449105667295 -0.012337204215653628 0 -0.0037919534300696082 -0.01282984872664408 0 -0.0030758733632605798 -0.012682031284829937 0 -0.0042061856052673695 -0.013375179884722187 0 -0.0033835180653945824 -0.013343036744821745 0 -0.0039671243335561634 -0.014150510971866953 0 -0.0042061856052673695 -0.013375179884722187 0 -0.0037919534300696082 -0.01282984872664408 0 -0.0033835180653945824 -0.013343036744821745 0 -0.0037919534300696082 -0.01282984872664408 0 -0.0033835180653945824 -0.013343036744821745 0 -0.0030758733632605798 -0.012682031284829937 0 -0.0033835180653945824 -0.013343036744821745 0 -0.0030758733632605798 -0.012682031284829937 0 -0.0022113659676263634 -0.012977931640645842 0 -0.0033835180653945824 -0.013343036744821745 0 -0.0031406965238769853 -0.014034506646953004 0 -0.0022113659676263634 -0.012977931640645842 0 -0.0033752021296808207 -0.014067759362790498 0 -0.0022666289161731292 -0.013039457469173697 0 -0.0030758733632605798 -0.012682031284829937 0 -0.0024303447501318998 -0.012270960711128279 0 -0.0022113659676263634 -0.012977931640645842 0 -0.0035214449105667295 -0.012337204215653628 0 -0.0030758733632605798 -0.012682031284829937 0 -0.003047775117853264 -0.012160419842637792 0 -0.0026174797869104771 -0.01170645332233013 0 -0.003047775117853264 -0.012160419842637792 0 -0.0024303447501318998 -0.012270960711128279 0 -0.0030758733632605798 -0.012682031284829937 0 -0.003047775117853264 -0.012160419842637792 0 -0.0024303447501318998 -0.012270960711128279 0 -0.0034265646351051273 -0.015073092924697364 0 -0.004000976487804524 -0.01513612257172107 0 -0.003346554130053009 -0.014822315894072525 0 -0.0045787160873307312 -0.016226372458603568 0 -0.0042715205691482641 -0.015559516284861508 0 -0.0053101943798348258 -0.016058335065837516 0 -0.0034265646351051273 -0.015073092924697364 0 -0.004000976487804524 -0.01513612257172107 0 -0.0039980314973465693 -0.015425263710228296 0 -0.0038562553124260736 -0.015325792332435507 0 -0.004666904593267563 -0.015753829043679123 0 -0.0045787160873307312 -0.016226372458603568 0 -0.0042715205691482641 -0.015559516284861508 0 -0.0039109863823923938 -0.016031495559778331 0 -0.0035727604168436628 -0.014003075009014295 0 -0.0025927841465890949 -0.014185323715315962 0 -0.0022113659676263634 -0.012977931640645842 0 -0.0035727604168436628 -0.014003075009014295 0 -0.004000976487804524 -0.01513612257172107 0 -0.0025927841465890949 -0.014185323715315962 0 -0.003940080173334708 -0.015101825113142469 0 -0.0029969173723177769 -0.014503141408264931 0 -0.0033835180653945824 -0.013343036744821745 0 -0.0031406965238769853 -0.014034506646953004 0 -0.0039671243335561634 -0.014150510971866953 0 -0.0033752021296808207 -0.014067759362790498 0 -0.0045447051316818542 -0.014743864659034741 0 -0.0031406965238769853 -0.014034506646953004 0 -0.0039671243335561634 -0.014150510971866953 0 -0.0041696967583393372 -0.01504007828240825 0 -0.0035727604168436628 -0.014003075009014295 0 -0.004000976487804524 -0.01513612257172107 0 -0.004944899791326062 -0.015132184185003542 0 -0.004000976487804524 -0.01513612257172107 0 -0.0039980314973465693 -0.015425263710228296 0 -0.004944899791326062 -0.015132184185003542 0 -0.004666904593267563 -0.015753829043679123 0 -0.0054753250280290796 -0.016643367457660506 0 -0.0039980314973465693 -0.015425263710228296 0 -0.004944899791326062 -0.015132184185003542 0 -0.0050152210815572569 -0.016002951998137328 0 -0.004944899791326062 -0.015132184185003542 0 -0.0063010600762935234 -0.01622782829523502 0 -0.0050152210815572569 -0.016002951998137328 0 -0.0048165185157703298 -0.015189394335277129 0 -0.0041696967583393372 -0.01504007828240825 0 -0.0052883892987697894 -0.01602435761900517 0 -0.0045447051316818542 -0.014743864659034741 0 -0.0052393037298650537 -0.018511036216657274 0 -0.0048165185157703298 -0.015189394335277129 0 -0.0041696967583393372 -0.01504007828240825 0 -0.0044989800569579441 -0.014649261476832836 0 -0.0048165185157703298 -0.015189394335277129 0 -0.0044989800569579441 -0.014649261476832836 0 -0.0049694316074283445 -0.014869808463563124 0 -0.0039671243335561634 -0.014150510971866953 0 -0.0046192041280031767 -0.014122127026290628 0 -0.0044989800569579441 -0.014649261476832836 0 -0.0039671243335561634 -0.014150510971866953 0 -0.0041696967583393372 -0.01504007828240825 0 -0.0044989800569579441 -0.014649261476832836 0 -0.0042061856052673695 -0.013375179884722187 0 -0.0039671243335561634 -0.014150510971866953 0 -0.0046192041280031767 -0.014122127026290628 0 -0.0046192041280031767 -0.014122127026290628 0 -0.0044989800569579441 -0.014649261476832836 0 -0.0049694316074283445 -0.014869808463563124 0 -0.0046192041280031767 -0.014122127026290628 0 -0.0052548897933004293 -0.014552326309906971 0 -0.0049694316074283445 -0.014869808463563124 0 -0.0046192041280031767 -0.014122127026290628 0 -0.0052548897933004293 -0.014552326309906971 0 -0.0052619820841018706 -0.013958114380075048 0 -0.0052548897933004293 -0.014552326309906971 0 -0.0052619820841018706 -0.013958114380075048 0 -0.0057027153311472959 -0.014298600365832541 0 -0.0038683628649474936 -0.015709002142187387 0 -0.0045495832210164008 -0.020077369814446782 0 -0.0052548897933004293 -0.014552326309906971 0 -0.0049694316074283445 -0.014869808463563124 0 -0.0057379405724005501 -0.015527899231717461 0 -0.0052548897933004293 -0.014552326309906971 0 -0.0057027153311472959 -0.014298600365832541 0 -0.0057379405724005501 -0.015527899231717461 0 -0.0048165185157703298 -0.015189394335277129 0 -0.0049694316074283445 -0.014869808463563124 0 -0.0051650967917117093 -0.01539527550212859 0 -0.0048165185157703298 -0.015189394335277129 0 -0.0051650967917117093 -0.01539527550212859 0 -0.0052883892987697894 -0.01602435761900517 0 -0.0049694316074283445 -0.014869808463563124 0 -0.0051650967917117093 -0.01539527550212859 0 -0.0057379405724005501 -0.015527899231717461 0 -0.0051650967917117093 -0.01539527550212859 0 -0.0052883892987697894 -0.01602435761900517 0 -0.0057379405724005501 -0.015527899231717461 0 -0.0063010600762935234 -0.01622782829523502 0 -0.0060286774628420326 -0.016528926395988439 0 -0.0050152210815572569 -0.016002951998137328 0 -0.0042020069315330697 -0.021360927274491126 0 -0.0044761099481247799 -0.021057793699575753 0 -0.0044904263050926842 -0.021594979480754371 0 -0.0052393037298650537 -0.018511036216657274 0 -0.0038620508404337067 -0.021820731329240617 0 -0.0055686201899549587 -0.019621317597837702 0 -0.0053822138106073046 -0.019825851435647305 0 -0.0068520023812478296 -0.020263141151201442 0 -0.0052393037298650537 -0.018511036216657274 0 -0.0058523866744808403 -0.018785767141903043 0 -0.0058523866744808403 -0.018785767141903043 0 -0.0065206604402689525 -0.018249108884601538 0 -0.0052393037298650537 -0.018511036216657274 0 -0.0045737597329101052 -0.0237522863212596 0 -0.0050935784998997488 -0.02038652864354152 0 -0.0046507848854099552 -0.020873473872014919 0 -0.0059784709234442998 -0.021092826339166735 0 -0.0046507848854099552 -0.020873473872014919 0 -0.0059784709234442998 -0.021092826339166735 0 -0.0059848192469307091 -0.021545772667643646 0 -0.0058523866744808403 -0.018785767141903043 0 -0.0052208894792801644 -0.023111921440308211 0 -0.0053822138106073046 -0.019825851435647305 0 -0.0068587519215131884 -0.02070711251399926 0 -0.0068520023812478296 -0.020263141151201442 0 -0.0065206604402689525 -0.018249108884601538 0 -0.006317857445433353 -0.020449269702332382 0 -0.0070229783514929875 -0.017296774738553723 0 -0.0074053441258786334 -0.017881761566070416 0 -0.0077888650361769363 -0.017831828859336454 0 -0.0074053441258786334 -0.017881761566070416 0 -0.0077888650361769363 -0.017831828859336454 0 -0.0077853479444172508 -0.018029751131854028 0 -0.0074053441258786334 -0.017881761566070416 0 -0.007562752999267652 -0.018192329410358702 0 -0.0077853479444172508 -0.018029751131854028 0 -0.0074053441258786334 -0.017881761566070416 0 -0.007562752999267652 -0.018192329410358702 0 -0.0072117578896778696 -0.018185865894870236 0 -0.007562752999267652 -0.018192329410358702 0 -0.0072117578896778696 -0.018185865894870236 0 -0.007576660744022465 -0.018491483603638618 0 -0.007562752999267652 -0.018192329410358702 0 -0.0079157913814972853 -0.018463067383682023 0 -0.007576660744022465 -0.018491483603638618 0 -0.0072117578896778696 -0.018185865894870236 0 -0.0070374787625918965 -0.017761119220855527 0 -0.0067724173040179291 -0.017961246516867695 0 -0.0072117578896778696 -0.018185865894870236 0 -0.0067724173040179291 -0.017961246516867695 0 -0.0068218534463873924 -0.018419682254208536 0 -0.0074053441258786334 -0.017881761566070416 0 -0.0072117578896778696 -0.018185865894870236 0 -0.0070374787625918965 -0.017761119220855527 0 -0.0070229783514929875 -0.017296774738553723 0 -0.0074053441258786334 -0.017881761566070416 0 -0.0070374787625918965 -0.017761119220855527 0 -0.0070229783514929875 -0.017296774738553723 0 -0.0070374787625918965 -0.017761119220855527 0 -0.0067757273766571677 -0.01754189532216268 0 -0.0067757273766571677 -0.01754189532216268 0 -0.0063671335646364492 -0.017694134335654949 0 -0.006376745344824985 -0.017244992716883949 0 -0.0067757273766571677 -0.01754189532216268 0 -0.0067724173040179291 -0.017961246516867695 0 -0.0063671335646364492 -0.017694134335654949 0 -0.0070374787625918965 -0.017761119220855527 0 -0.0067757273766571677 -0.01754189532216268 0 -0.0067724173040179291 -0.017961246516867695 0 -0.0067724173040179291 -0.017961246516867695 0 -0.0063520236151982656 -0.018150042375173463 0 -0.0068218534463873924 -0.018419682254208536 0 -0.0067724173040179291 -0.017961246516867695 0 -0.0063520236151982656 -0.018150042375173463 0 -0.0063671335646364492 -0.017694134335654949 0 -0.0063520236151982656 -0.018150042375173463 0 -0.0059988322363248121 -0.017895189215716482 0 -0.005841670108474758 -0.018284361770637206 0 -0.0063520236151982656 -0.018150042375173463 0 -0.0063671335646364492 -0.017694134335654949 0 -0.0059988322363248121 -0.017895189215716482 0 -0.0063671335646364492 -0.017694134335654949 0 -0.0059536298573231823 -0.017446026566186261 0 -0.0059988322363248121 -0.017895189215716482 0 -0.0063671335646364492 -0.017694134335654949 0 -0.006376745344824985 -0.017244992716883949 0 -0.0059536298573231823 -0.017446026566186261 0 -0.006376745344824985 -0.017244992716883949 0 -0.0062435205339464736 -0.01653639788467131 0 -0.0059171417392882659 -0.016991572967568154 0 -0.006376745344824985 -0.017244992716883949 0 -0.0059171417392882659 -0.016991572967568154 0 -0.0059536298573231823 -0.017446026566186261 0 -0.0070926652256251546 -0.017181846268887316 0 -0.006376745344824985 -0.017244992716883949 0 -0.0062435205339464736 -0.01653639788467131 0 -0.0070926652256251546 -0.017181846268887316 0 -0.0067757273766571677 -0.01754189532216268 0 -0.006376745344824985 -0.017244992716883949 0 -0.0066456520478197422 -0.017982179553912729 0 -0.0064700355127337355 -0.018175193654195839 0 -0.0051520893952519044 -0.017233552673469529 0 -0.0065206604402689525 -0.018249108884601538 0 -0.0054753250280290796 -0.016643367457660506 0 -0.0065206604402689525 -0.018249108884601538 0 -0.0069216048570279959 -0.017646837470182006 0 -0.0058523866744808403 -0.018785767141903043 0 -0.0054753250280290796 -0.016643367457660506 0 -0.0062435205339464736 -0.01653639788467131 0 -0.0055989966043084958 -0.016691941383078016 0 -0.0059171417392882659 -0.016991572967568154 0 -0.0053101943798348258 -0.016058335065837516 0 -0.0062435205339464736 -0.01653639788467131 0 -0.0055989966043084958 -0.016691941383078016 0 -0.0053101943798348258 -0.016058335065837516 0 -0.0055989966043084958 -0.016691941383078016 0 -0.0050881383439352439 -0.016722594734709686 0 -0.0050881383439352439 -0.016722594734709686 0 -0.0055051401406573837 -0.017094470973438972 0 -0.0051311260846781904 -0.017442585163559031 0 -0.0055989966043084958 -0.016691941383078016 0 -0.0050881383439352439 -0.016722594734709686 0 -0.0055051401406573837 -0.017094470973438972 0 -0.0055989966043084958 -0.016691941383078016 0 -0.0055051401406573837 -0.017094470973438972 0 -0.0059171417392882659 -0.016991572967568154 0 -0.0055051401406573837 -0.017094470973438972 0 -0.0059171417392882659 -0.016991572967568154 0 -0.0059536298573231823 -0.017446026566186261 0 -0.0055051401406573837 -0.017094470973438972 0 -0.0059536298573231823 -0.017446026566186261 0 -0.0055816214982739292 -0.01779220290407172 0 -0.0059536298573231823 -0.017446026566186261 0 -0.0059988322363248121 -0.017895189215716482 0 -0.0055816214982739292 -0.01779220290407172 0 -0.0059988322363248121 -0.017895189215716482 0 -0.0055816214982739292 -0.01779220290407172 0 -0.005841670108474758 -0.018284361770637206 0 -0.0055816214982739292 -0.01779220290407172 0 -0.00520046904859299 -0.01814517685550417 0 -0.0051311260846781904 -0.017442585163559031 0 -0.0055816214982739292 -0.01779220290407172 0 -0.00520046904859299 -0.01814517685550417 0 -0.005841670108474758 -0.018284361770637206 0 -0.0055051401406573837 -0.017094470973438972 0 -0.0055816214982739292 -0.01779220290407172 0 -0.0051311260846781904 -0.017442585163559031 0 -0.0051311260846781904 -0.017442585163559031 0 -0.0045970718535402778 -0.01757591153780198 0 -0.0047463521014403922 -0.017049595529158211 0 -0.00520046904859299 -0.01814517685550417 0 -0.0051311260846781904 -0.017442585163559031 0 -0.0045970718535402778 -0.01757591153780198 0 -0.00520046904859299 -0.01814517685550417 0 -0.0045970718535402778 -0.01757591153780198 0 -0.00451842609391766 -0.01828818205274671 0 -0.0045970718535402778 -0.01757591153780198 0 -0.00451842609391766 -0.01828818205274671 0 -0.0039188558249521497 -0.017622769005725 0 -0.0045970718535402778 -0.01757591153780198 0 -0.0042592654053264416 -0.016870100004852173 0 -0.0039188558249521497 -0.017622769005725 0 -0.0042592654053264416 -0.016870100004852173 0 -0.0047463521014403922 -0.017049595529158211 0 -0.0046672707603797889 -0.016694647927090276 0 -0.0045970718535402778 -0.01757591153780198 0 -0.0042592654053264416 -0.016870100004852173 0 -0.0047463521014403922 -0.017049595529158211 0 -0.0050881383439352439 -0.016722594734709686 0 -0.0051311260846781904 -0.017442585163559031 0 -0.0047463521014403922 -0.017049595529158211 0 -0.0050881383439352439 -0.016722594734709686 0 -0.0047463521014403922 -0.017049595529158211 0 -0.0046672707603797889 -0.016694647927090276 0 -0.0045787160873307312 -0.016226372458603568 0 -0.0050881383439352439 -0.016722594734709686 0 -0.0046672707603797889 -0.016694647927090276 0 -0.0045787160873307312 -0.016226372458603568 0 -0.0053101943798348258 -0.016058335065837516 0 -0.0050881383439352439 -0.016722594734709686 0 -0.0045787160873307312 -0.016226372458603568 0 -0.0042592654053264416 -0.016870100004852173 0 -0.0046672707603797889 -0.016694647927090276 0 -0.0045787160873307312 -0.016226372458603568 0 -0.0042592654053264416 -0.016870100004852173 0 -0.0038449962575146843 -0.016531272543452255 0 -0.00087744493557096121 -0.029264314736677243 0 -0.00039442917625422645 -0.029264912180615194 0 -0.00082939401858708902 -0.028823858843802338 0 -0.00011630099800918238 -0.028839950874219356 0 -0.00039442917625422645 -0.029264912180615194 0 -0.00082939401858708902 -0.028823858843802338 0 9.5572744021987648e-06 -0.029792894373736927 0 -0.0003704130271565744 -0.030245278638190418 0 -0.00039442917625422645 -0.029264912180615194 0 -0.00030743428258580327 -0.029991467751713796 0 -0.00038394685919024182 -0.029340074193318327 0 -0.00043733494539865839 -0.029833230404131387 0 -0.00039442917625422645 -0.029264912180615194 0 -0.00070258203117479245 -0.029540580874241038 0 -0.00087744493557096121 -0.029264314736677243 0 -0.00039442917625422645 -0.029264912180615194 0 -0.00070258203117479245 -0.029540580874241038 0 -0.00087744493557096121 -0.029264314736677243 0 -0.00070258203117479245 -0.029540580874241038 0 -0.0010432312546101454 -0.029564884722583794 0 -0.00087744493557096121 -0.029264314736677243 0 -0.0010432312546101454 -0.029564884722583794 0 -0.001329768986677091 -0.029255168616218959 0 -0.0012410340429126604 -0.029071972966771709 0 -0.0018720620940884717 -0.028900596776339261 0 -0.0018543663632603537 -0.028320461919382617 0 -0.0010111330369642164 -0.029481929509289219 0 -0.0018890174695435904 -0.027533465501900164 0 -0.0019282596024894009 -0.02942028509494574 0 -0.0024730337354583369 -0.028784780584187031 0 -0.0018720620940884717 -0.028900596776339261 0 -0.0019282596024894009 -0.02942028509494574 0 -0.0012410340429126604 -0.029071972966771709 0 -0.0018720620940884717 -0.028900596776339261 0 -0.0024730337354583369 -0.028784780584187031 0 -0.0018720620940884717 -0.028900596776339261 0 -0.0018543663632603537 -0.028320461919382617 0 -0.0045495832210164008 -0.020077369814446782 0 -0.0018890174695435904 -0.027533465501900164 0 -0.0035820421368790581 -0.02303333579140146 0 -0.0035743386368787752 -0.023048358700069427 0 -0.0035847551361968236 -0.023032977889763242 0 -0.0014704712876773601 -0.0287930674742575 0 -0.0015211391962624068 -0.028497388485123731 0 -0.0013303854734636931 -0.028384694370952975 0 -0.0045495832210164008 -0.020077369814446782 0 -0.0038620508404337067 -0.021820731329240617 0 -0.0018890174695435904 -0.027533465501900164 0 -0.0038620508404337067 -0.021820731329240617 0 -0.0014704712876773601 -0.0287930674742575 0 -0.0015211391962624068 -0.028497388485123731 0 -0.0017081227071154776 -0.028524423480097483 0 -0.0018890174695435904 -0.027533465501900164 0 -0.00083802429678695009 -0.028902736139082386 0 -0.00087744493557096121 -0.029264314736677243 0 -0.001329768986677091 -0.029255168616218959 0 -0.00082939401858708902 -0.028823858843802338 0 -0.0014704712876773601 -0.0287930674742575 0 -0.0013303854734636931 -0.028384694370952975 0 -0.00094775636694108766 -0.028498912651693211 0 -0.0013303854734636931 -0.028384694370952975 0 -0.0011606797985297577 -0.028237726450433851 0 -0.00094775636694108766 -0.028498912651693211 0 -0.0013303854734636931 -0.028384694370952975 0 -0.0011606797985297577 -0.028237726450433851 0 -0.0014581130565529301 -0.028188142133121156 0 -0.0017081227071154776 -0.028524423480097483 0 -0.0015770050710899762 -0.028282431062314088 0 -0.0017063470243440211 -0.028222879318832859 0 -0.0015211391962624068 -0.028497388485123731 0 -0.0017081227071154776 -0.028524423480097483 0 -0.0015770050710899762 -0.028282431062314088 0 -0.0038620508404337067 -0.021820731329240617 0 -0.0045737597329101052 -0.0237522863212596 0 -0.0015211391962624068 -0.028497388485123731 0 -0.0013303854734636931 -0.028384694370952975 0 -0.0015770050710899762 -0.028282431062314088 0 -0.0013303854734636931 -0.028384694370952975 0 -0.0015770050710899762 -0.028282431062314088 0 -0.0014581130565529301 -0.028188142133121156 0 -0.0015770050710899762 -0.028282431062314088 0 -0.0015697126401669843 -0.028171493173066438 0 -0.0014581130565529301 -0.028188142133121156 0 -0.0015770050710899762 -0.028282431062314088 0 -0.0016330570053288875 -0.028175916515712735 0 -0.0017063470243440211 -0.028222879318832859 0 -0.0015770050710899762 -0.028282431062314088 0 -0.0016330570053288875 -0.028175916515712735 0 -0.0015697126401669843 -0.028171493173066438 0 -0.0045737597329101052 -0.0237522863212596 0 -0.0052208894792801644 -0.023111921440308211 0 -0.0016330570053288875 -0.028175916515712735 0 -0.0017063470243440211 -0.028222879318832859 0 -0.0016454005304354254 -0.028137998333246688 0 -0.0033000540022299252 -0.025478765056490566 0 -0.001246547279248846 -0.028031357025620127 0 -0.0016147650321278011 -0.028103063112875224 0 -0.0014581130565529301 -0.028188142133121156 0 -0.0012103649784732337 -0.02794689426936622 0 -0.0020525788163839737 -0.028051987230651967 0 -0.0018846372636339109 -0.027853514833909125 0 -0.0014887011725432243 -0.027861724064133123 0 -0.0045229819282152448 -0.02303547374034328 0 -0.0046683310586467424 -0.022964024042811917 0 -0.0048539473204093292 -0.023234976671415514 0 -0.006317857445433353 -0.020449269702332382 0 -0.0064496511050873128 -0.019659132573742931 0 -0.0017071021817753234 -0.028137261408308203 0 -0.0016454005304354254 -0.028137998333246688 0 -0.0016147650321278011 -0.028103063112875224 0 -0.0052208894792801644 -0.023111921440308211 0 -0.0033000540022299252 -0.025478765056490566 0 -0.0017063470243440211 -0.028222879318832859 0 -0.0017071021817753234 -0.028137261408308203 0 -0.0016454005304354254 -0.028137998333246688 0 -0.006317857445433353 -0.020449269702332382 0 -0.0052208894792801644 -0.023111921440308211 0 -0.0045229819282152448 -0.02303547374034328 0 -0.0045200357890082064 -0.022889839360963338 0 -0.0046683310586467424 -0.022964024042811917 0 -0.0016454005304354254 -0.028137998333246688 0 -0.0016147650321278011 -0.028103063112875224 0 -0.0016129335391924719 -0.028141438273356082 0 -0.0016330570053288875 -0.028175916515712735 0 -0.0016129335391924719 -0.028141438273356082 0 -0.0015697126401669843 -0.028171493173066438 0 -0.0016330570053288875 -0.028175916515712735 0 -0.0016454005304354254 -0.028137998333246688 0 -0.0016129335391924719 -0.028141438273356082 0 -0.0016147650321278011 -0.028103063112875224 0 -0.0016129335391924719 -0.028141438273356082 0 -0.0015697126401669843 -0.028171493173066438 0 -0.0033000540022299252 -0.025478765056490566 0 -0.0044153116027879601 -0.023693450776404033 0 -0.0016147650321278011 -0.028103063112875224 0 -0.0015697126401669843 -0.028171493173066438 0 -0.0014581130565529301 -0.028188142133121156 0 -0.0077809248060016342 -0.017865663408053876 0 -0.0082762447904334152 -0.018211118288262308 0 -0.0077853479444172508 -0.018029751131854028 0 -0.0082762447904334152 -0.018211118288262308 0 -0.0077853479444172508 -0.018029751131854028 0 -0.0079157913814972853 -0.018463067383682023 0 -0.006317857445433353 -0.020449269702332382 0 -0.0044153116027879601 -0.023693450776404033 0 -0.007562752999267652 -0.018192329410358702 0 -0.0077853479444172508 -0.018029751131854028 0 -0.0079157913814972853 -0.018463067383682023 0 -0.0011606797985297577 -0.028237726450433851 0 -0.0012103649784732337 -0.02794689426936622 0 -0.00084712646728156134 -0.028154491396932234 0 -0.0011606797985297577 -0.028237726450433851 0 -0.0014581130565529301 -0.028188142133121156 0 -0.0012103649784732337 -0.02794689426936622 0 -0.00084712646728156134 -0.028154491396932234 0 -0.00057675330378833102 -0.027991651762272324 0 -0.00076673677021045115 -0.027751753049810413 0 -0.0012103649784732337 -0.02794689426936622 0 -0.00084712646728156134 -0.028154491396932234 0 -0.00076673677021045115 -0.027751753049810413 0 -0.00084712646728156134 -0.028154491396932234 0 -0.00094775636694108766 -0.028498912651693211 0 -0.00026899140737403284 -0.028224349006111298 0 -0.0011606797985297577 -0.028237726450433851 0 -0.00084712646728156134 -0.028154491396932234 0 -0.00094775636694108766 -0.028498912651693211 0 -0.00011630099800918238 -0.028839950874219356 0 -0.00082939401858708902 -0.028823858843802338 0 -0.00026899140737403284 -0.028224349006111298 0 -0.00083802429678695009 -0.028902736139082386 0 -0.0002815842591794324 -0.028147709227869015 0 -0.00084712646728156134 -0.028154491396932234 0 -0.00026899140737403284 -0.028224349006111298 0 -0.00057675330378833102 -0.027991651762272324 0 -0.00026899140737403284 -0.028224349006111298 0 -0.00057675330378833102 -0.027991651762272324 0 -0.00039863856609252929 -0.027851922579636191 0 -0.00026899140737403284 -0.028224349006111298 0 -0.00039863856609252929 -0.027851922579636191 0 -5.4776058672700895e-07 -0.027820819522992726 0 -0.00039863856609252929 -0.027851922579636191 0 -0.0002679725050492734 -0.027476193643554209 0 -5.4776058672700895e-07 -0.027820819522992726 0 -0.00039863856609252929 -0.027851922579636191 0 -0.0002679725050492734 -0.027476193643554209 0 -0.00076673677021045115 -0.027751753049810413 0 -0.00064029176019172898 -0.027468268027702605 0 -0.0002679725050492734 -0.027476193643554209 0 -0.00090216186573883431 -0.027678749819586537 0 -0.00031126808831752887 -0.027488637697595148 0 -0.00082799194356540597 -0.027699833671062383 0 -0.00057675330378833102 -0.027991651762272324 0 -0.00039863856609252929 -0.027851922579636191 0 -0.00076673677021045115 -0.027751753049810413 0 -0.00064029176019172898 -0.027468268027702605 0 -0.0002679725050492734 -0.027476193643554209 0 -0.00039543498625527749 -0.027370928938704416 0 -0.0032480959805257169 -0.025011315592599424 0 -0.0032360494253370893 -0.024963462135021416 0 -0.0033658757681680465 -0.024935921224707131 0 -0.0002679725050492734 -0.027476193643554209 0 -0.00026143226699945063 -0.027309784468227488 0 -0.00039543498625527749 -0.027370928938704416 0 -0.00026143226699945063 -0.027309784468227488 0 -0.00028960952698156762 -0.027116874269338828 0 -0.0001329554935624178 -0.027225306019648707 0 -0.00026143226699945063 -0.027309784468227488 0 -0.00041260612834226502 -0.027230398090628317 0 -0.00028960952698156762 -0.027116874269338828 0 -0.00026143226699945063 -0.027309784468227488 0 -0.00041260612834226502 -0.027230398090628317 0 -0.00039543498625527749 -0.027370928938704416 0 -0.00064029176019172898 -0.027468268027702605 0 -0.00041260612834226502 -0.027230398090628317 0 -0.00039543498625527749 -0.027370928938704416 0 -0.0016087052403797398 -0.026213976037584331 0 -0.0021242977566983397 -0.02770841637850387 0 -0.00041260612834226502 -0.027230398090628317 0 -0.00028960952698156762 -0.027116874269338828 0 -0.0003568943077743201 -0.026946067082704698 0 -0.00028960952698156762 -0.027116874269338828 0 -0.0003568943077743201 -0.026946067082704698 0 -8.8224609682001239e-06 -0.026982951262551045 0 -0.0016087052403797398 -0.026213976037584331 0 -0.0021159617204392911 -0.026624908604534953 0 -0.0032480959805257169 -0.025011315592599424 0 -0.0033394855933890242 -0.025004085422770272 0 -0.0033658757681680465 -0.024935921224707131 0 -0.0032480959805257169 -0.025011315592599424 0 -0.0033394855933890242 -0.025004085422770272 0 -0.0033881964165981189 -0.025051373246375453 0 -0.0033394855933890242 -0.025004085422770272 0 -0.0034426775521593771 -0.025012341665950191 0 -0.0033658757681680465 -0.024935921224707131 0 -0.00064029176019172898 -0.027468268027702605 0 -0.00041260612834226502 -0.027230398090628317 0 -0.0011781997885286139 -0.027557074221782104 0 -0.0014887011725432243 -0.027861724064133123 0 -0.0011781997885286139 -0.027557074221782104 0 -0.00090216186573883431 -0.027678749819586537 0 -0.00064029176019172898 -0.027468268027702605 0 -0.0011781997885286139 -0.027557074221782104 0 -0.00090216186573883431 -0.027678749819586537 0 -0.001246547279248846 -0.028031357025620127 0 -0.00082799194356540597 -0.027699833671062383 0 -0.0033394855933890242 -0.025004085422770272 0 -0.0033881964165981189 -0.025051373246375453 0 -0.0034426775521593771 -0.025012341665950191 0 -0.0044153116027879601 -0.023693450776404033 0 -0.0063542746566482653 -0.02148927532344759 0 -0.0018846372636339109 -0.027853514833909125 0 -0.0014887011725432243 -0.027861724064133123 0 -0.0011781997885286139 -0.027557074221782104 0 -0.0044153116027879601 -0.023693450776404033 0 -0.0021159617204392911 -0.026624908604534953 0 -0.0035216762519342136 -0.025076448071715524 0 -0.0033881964165981189 -0.025051373246375453 0 -0.0034426775521593771 -0.025012341665950191 0 -0.0082762447904334152 -0.018211118288262308 0 -0.0088984875032429855 -0.01930402975657269 0 -0.0082112510340736251 -0.018906381478487441 0 -0.0079157913814972853 -0.018463067383682023 0 -0.0077772520034911667 -0.019030698548780624 0 -0.007576660744022465 -0.018491483603638618 0 -0.0079157913814972853 -0.018463067383682023 0 -0.0082112510340736251 -0.018906381478487441 0 -0.0077772520034911667 -0.019030698548780624 0 -0.0082762447904334152 -0.018211118288262308 0 -0.0079157913814972853 -0.018463067383682023 0 -0.0082112510340736251 -0.018906381478487441 0 -0.0088984875032429855 -0.01930402975657269 0 -0.0082112510340736251 -0.018906381478487441 0 -0.0081765810348833033 -0.019519109457681729 0 -0.0082112510340736251 -0.018906381478487441 0 -0.0077772520034911667 -0.019030698548780624 0 -0.0081765810348833033 -0.019519109457681729 0 -0.0088984875032429855 -0.01930402975657269 0 -0.0081765810348833033 -0.019519109457681729 0 -0.0081503678411681251 -0.020418931990533185 0 -0.0081765810348833033 -0.019519109457681729 0 -0.0081503678411681251 -0.020418931990533185 0 -0.0076261869276218986 -0.019877343432448947 0 -0.0077772520034911667 -0.019030698548780624 0 -0.0081765810348833033 -0.019519109457681729 0 -0.0076261869276218986 -0.019877343432448947 0 -0.0088984875032429855 -0.01930402975657269 0 -0.0081503678411681251 -0.020418931990533185 0 -0.0094911651320002729 -0.020318541795903262 0 -0.0063542746566482653 -0.02148927532344759 0 -0.0042170856404717058 -0.025770946645802241 0 -0.0044095853577837208 -0.024427735161701769 0 -0.0008643454644515048 -0.028752583681111544 0 -0.0044095853577837208 -0.024427735161701769 0 -0.0042170856404717058 -0.025770946645802241 0 7.308617361781866e-05 -0.030365037828243541 0 -0.00098739830204003102 -0.031546252148716522 0 -0.0014292920237604179 -0.030274038864487714 0 -0.001768445277792653 -0.024910364999387417 0 -0.0016926815447143137 -0.024944741154894284 0 -0.0019533608375614576 -0.024738448095174483 0 -0.0044095853577837208 -0.024427735161701769 0 -0.0073575477260190304 -0.020284491145315699 0 -0.001768445277792653 -0.024910364999387417 0 -0.0016926815447143137 -0.024944741154894284 0 -0.001735591912149259 -0.025114777452157105 0 -0.0016926815447143137 -0.024944741154894284 0 -0.001735591912149259 -0.025114777452157105 0 -0.001409863348929162 -0.025395579593256792 0 -0.00098739830204003102 -0.031546252148716522 0 -0.002184226880410233 -0.031911475395672018 0 -0.0022726293795755645 -0.031750030086868643 0 -0.00098739830204003102 -0.031546252148716522 0 -0.0022726293795755645 -0.031750030086868643 0 -0.0014292920237604179 -0.030274038864487714 0 -0.002184226880410233 -0.031911475395672018 0 -0.002274365259428303 -0.031786993174186033 0 -0.0022603682507307864 -0.032261945424010417 0 -0.0024909333441812203 -0.031914474708259206 0 -0.0025319590923599611 -0.03189150134387269 0 -0.0025319590923599611 -0.03189150134387269 0 -0.0025847373191902659 -0.031808640846705316 0 -0.0037136727306196927 -0.029350934993666953 0 -0.0034166381602373881 -0.028505228612910865 0 -0.0019088926648984652 -0.028634253484918128 0 -0.0031176484793480124 -0.030442959438354577 0 -0.0037136727306196927 -0.029350934993666953 0 -0.0019088926648984652 -0.028634253484918128 0 -0.0021242977566983397 -0.02770841637850387 0 -0.0042170856404717058 -0.025770946645802241 0 -0.0025847373191902659 -0.031808640846705316 0 -0.0021242977566983397 -0.02770841637850387 0 -0.0025319590923599611 -0.03189150134387269 0 -0.0042170856404717058 -0.025770946645802241 0 -0.0043511212734298728 -0.020130487855527589 0 -0.0053571912203310337 -0.019495857412320173 0 -0.0054721218443689107 -0.020971033296884021 0 -0.0043511212734298728 -0.020130487855527589 0 -0.0045512681003303376 -0.019162640419243874 0 -0.0053571912203310337 -0.019495857412320173 0 -0.0043511212734298728 -0.020130487855527589 0 -0.0045512681003303376 -0.019162640419243874 0 -0.0037946793186777127 -0.019461379443699345 0 -0.0045512681003303376 -0.019162640419243874 0 -0.00451842609391766 -0.01828818205274671 0 -0.0037913046993295228 -0.018506883694591653 0 -0.00520046904859299 -0.01814517685550417 0 -0.00451842609391766 -0.01828818205274671 0 -0.0050784188493298837 -0.018781885240403189 0 -0.0045512681003303376 -0.019162640419243874 0 -0.0050784188493298837 -0.018781885240403189 0 -0.0053571912203310337 -0.019495857412320173 0 -0.0045512681003303376 -0.019162640419243874 0 -0.00451842609391766 -0.01828818205274671 0 -0.0050784188493298837 -0.018781885240403189 0 -0.0050784188493298837 -0.018781885240403189 0 -0.0056899004831379918 -0.018844969447249872 0 -0.0053571912203310337 -0.019495857412320173 0 -0.00520046904859299 -0.01814517685550417 0 -0.0050784188493298837 -0.018781885240403189 0 -0.0056899004831379918 -0.018844969447249872 0 -0.005841670108474758 -0.018284361770637206 0 -0.0056899004831379918 -0.018844969447249872 0 -0.0063022910695899013 -0.018659116311649453 0 -0.00520046904859299 -0.01814517685550417 0 -0.005841670108474758 -0.018284361770637206 0 -0.0056899004831379918 -0.018844969447249872 0 -0.0056899004831379918 -0.018844969447249872 0 -0.0053571912203310337 -0.019495857412320173 0 -0.0061986653907882966 -0.019303759193141729 0 -0.0053571912203310337 -0.019495857412320173 0 -0.0061741122980225579 -0.020029120102185577 0 -0.0054721218443689107 -0.020971033296884021 0 -0.0053571912203310337 -0.019495857412320173 0 -0.0061741122980225579 -0.020029120102185577 0 -0.0061986653907882966 -0.019303759193141729 0 -0.0061741122980225579 -0.020029120102185577 0 -0.0068600292584413266 -0.019726490242974432 0 -0.0068656120931417982 -0.020619254656796808 0 -0.0068600292584413266 -0.019726490242974432 0 -0.0061986653907882966 -0.019303759193141729 0 -0.006840602123888909 -0.018944767844048693 0 -0.0061741122980225579 -0.020029120102185577 0 -0.0068600292584413266 -0.019726490242974432 0 -0.0061986653907882966 -0.019303759193141729 0 -0.0056899004831379918 -0.018844969447249872 0 -0.0061986653907882966 -0.019303759193141729 0 -0.0063022910695899013 -0.018659116311649453 0 -0.0061986653907882966 -0.019303759193141729 0 -0.0063022910695899013 -0.018659116311649453 0 -0.006840602123888909 -0.018944767844048693 0 -0.0063520236151982656 -0.018150042375173463 0 -0.005841670108474758 -0.018284361770637206 0 -0.0063022910695899013 -0.018659116311649453 0 -0.0063520236151982656 -0.018150042375173463 0 -0.0063022910695899013 -0.018659116311649453 0 -0.0068218534463873924 -0.018419682254208536 0 -0.0063022910695899013 -0.018659116311649453 0 -0.0068218534463873924 -0.018419682254208536 0 -0.006840602123888909 -0.018944767844048693 0 -0.006840602123888909 -0.018944767844048693 0 -0.0072704866469622993 -0.019235503301988633 0 -0.0072546186832396021 -0.018720249169777846 0 -0.0068218534463873924 -0.018419682254208536 0 -0.006840602123888909 -0.018944767844048693 0 -0.0072546186832396021 -0.018720249169777846 0 -0.0072117578896778696 -0.018185865894870236 0 -0.0068218534463873924 -0.018419682254208536 0 -0.0072546186832396021 -0.018720249169777846 0 -0.0077772520034911667 -0.019030698548780624 0 -0.0072546186832396021 -0.018720249169777846 0 -0.007576660744022465 -0.018491483603638618 0 -0.0072117578896778696 -0.018185865894870236 0 -0.0072546186832396021 -0.018720249169777846 0 -0.007576660744022465 -0.018491483603638618 0 -0.0077772520034911667 -0.019030698548780624 0 -0.0072704866469622993 -0.019235503301988633 0 -0.0072546186832396021 -0.018720249169777846 0 -0.0068600292584413266 -0.019726490242974432 0 -0.0076261869276218986 -0.019877343432448947 0 -0.0068656120931417982 -0.020619254656796808 0 -0.0077772520034911667 -0.019030698548780624 0 -0.0072704866469622993 -0.019235503301988633 0 -0.0076261869276218986 -0.019877343432448947 0 -0.0068600292584413266 -0.019726490242974432 0 -0.0072704866469622993 -0.019235503301988633 0 -0.0076261869276218986 -0.019877343432448947 0 -0.0068600292584413266 -0.019726490242974432 0 -0.006840602123888909 -0.018944767844048693 0 -0.0072704866469622993 -0.019235503301988633 0 -0.001768445277792653 -0.024910364999387417 0 -0.0019533608375614576 -0.024738448095174483 0 -0.0022951382579110714 -0.024603002459317631 0 -0.0044095853577837208 -0.024427735161701769 0 -0.004696728043318007 -0.022388074532312882 0 -0.0081824440599156788 -0.02046649123083126 0 -0.0076261869276218986 -0.019877343432448947 0 -0.0068656120931417982 -0.020619254656796808 0 -0.0019533608375614576 -0.024738448095174483 0 -0.0021432667147873057 -0.024465378848883505 0 -0.0022951382579110714 -0.024603002459317631 0 -0.0016926815447143137 -0.024944741154894284 0 -0.0019533608375614576 -0.024738448095174483 0 -0.0021432667147873057 -0.024465378848883505 0 -0.0021432667147873057 -0.024465378848883505 0 -0.0026233680993358703 -0.023930087410713997 0 -0.0022951382579110714 -0.024603002459317631 0 -0.0021432667147873057 -0.024465378848883505 0 -0.0026233680993358703 -0.023930087410713997 0 -0.0023880576094545132 -0.024230947078304078 0 -0.0061741122980225579 -0.020029120102185577 0 -0.0068656120931417982 -0.020619254656796808 0 -0.0054721218443689107 -0.020971033296884021 0 -0.0026233680993358703 -0.023930087410713997 0 -0.0022951382579110714 -0.024603002459317631 0 -0.0030757624254534135 -0.023525395765869844 0 -0.004696728043318007 -0.022388074532312882 0 -0.0041186936557796377 -0.022241931071771345 0 -0.0026233680993358703 -0.023930087410713997 0 -0.003015283433232885 -0.023270821776831277 0 -0.0027225424820509951 -0.023760203625179784 0 -0.0026233680993358703 -0.023930087410713997 0 -0.0030757624254534135 -0.023525395765869844 0 -0.003015283433232885 -0.023270821776831277 0 -0.0030757624254534135 -0.023525395765869844 0 -0.0033961453363702083 -0.021617576890036752 0 -0.0033549370232006152 -0.02232257710447438 0 -0.003015283433232885 -0.023270821776831277 0 -0.0031215364666618071 -0.022892833413270679 0 -0.0033549370232006152 -0.02232257710447438 0 -0.0030757624254534135 -0.023525395765869844 0 -0.003015283433232885 -0.023270821776831277 0 -0.0033549370232006152 -0.02232257710447438 0 -0.0043511212734298728 -0.020130487855527589 0 -0.0054721218443689107 -0.020971033296884021 0 -0.0033961453363702083 -0.021617576890036752 0 -0.0041186936557796377 -0.022241931071771345 0 -0.003358239926216644 -0.02175752183023074 0 -0.002961829609873348 -0.023258211092953077 0 -0.0028456111791152323 -0.023355034410870772 0 -0.0028509054798577685 -0.023075375095966105 0 -0.002961829609873348 -0.023258211092953077 0 -0.0029913757549649726 -0.022877441369262543 0 -0.0028509054798577685 -0.023075375095966105 0 -0.002961829609873348 -0.023258211092953077 0 -0.0031215364666618071 -0.022892833413270679 0 -0.0029482708814102623 -0.023342322587887925 0 -0.0029913757549649726 -0.022877441369262543 0 -0.0031215364666618071 -0.022892833413270679 0 -0.0030921817377818975 -0.022568261035906749 0 -0.002961829609873348 -0.023258211092953077 0 -0.0029913757549649726 -0.022877441369262543 0 -0.0031215364666618071 -0.022892833413270679 0 -0.0031215364666618071 -0.022892833413270679 0 -0.0030921817377818975 -0.022568261035906749 0 -0.0033549370232006152 -0.02232257710447438 0 -0.003015283433232885 -0.023270821776831277 0 -0.0031215364666618071 -0.022892833413270679 0 -0.0029482708814102623 -0.023342322587887925 0 -0.003015283433232885 -0.023270821776831277 0 -0.0029482708814102623 -0.023342322587887925 0 -0.0027225424820509951 -0.023760203625179784 0 -0.0029482708814102623 -0.023342322587887925 0 -0.0027522994611549542 -0.02374517598650492 0 -0.0027225424820509951 -0.023760203625179784 0 -0.002961829609873348 -0.023258211092953077 0 -0.0029482708814102623 -0.023342322587887925 0 -0.0027522994611549542 -0.02374517598650492 0 -0.002961829609873348 -0.023258211092953077 0 -0.0028457528642911157 -0.023558812794304732 0 -0.0028456111791152323 -0.023355034410870772 0 -0.002961829609873348 -0.023258211092953077 0 -0.0027522994611549542 -0.02374517598650492 0 -0.0028457528642911157 -0.023558812794304732 0 -0.0027522994611549542 -0.02374517598650492 0 -0.00268080464200845 -0.023815172995243456 0 -0.0028457528642911157 -0.023558812794304732 0 -0.0027522994611549542 -0.02374517598650492 0 -0.0024615553990454241 -0.024140695447725721 0 -0.00268080464200845 -0.023815172995243456 0 -0.0027522994611549542 -0.02374517598650492 0 -0.0023880576094545132 -0.024230947078304078 0 -0.0024615553990454241 -0.024140695447725721 0 -0.0026233680993358703 -0.023930087410713997 0 -0.0027225424820509951 -0.023760203625179784 0 -0.0023880576094545132 -0.024230947078304078 0 -0.0027522994611549542 -0.02374517598650492 0 -0.0027225424820509951 -0.023760203625179784 0 -0.0023880576094545132 -0.024230947078304078 0 -0.0021432667147873057 -0.024465378848883505 0 -0.0023880576094545132 -0.024230947078304078 0 -0.0019020621200245146 -0.024841600737349891 0 -0.0016926815447143137 -0.024944741154894284 0 -0.0021432667147873057 -0.024465378848883505 0 -0.0019020621200245146 -0.024841600737349891 0 -0.0023880576094545132 -0.024230947078304078 0 -0.0019020621200245146 -0.024841600737349891 0 -0.0024615553990454241 -0.024140695447725721 0 -0.0019020621200245146 -0.024841600737349891 0 -0.0024615553990454241 -0.024140695447725721 0 -0.0023521460152101936 -0.02418516498150693 0 -0.0024615553990454241 -0.024140695447725721 0 -0.0023521460152101936 -0.02418516498150693 0 -0.00268080464200845 -0.023815172995243456 0 -0.0019020621200245146 -0.024841600737349891 0 -0.0023521460152101936 -0.02418516498150693 0 -0.0019676326847038244 -0.024516500056178166 0 -0.0023521460152101936 -0.02418516498150693 0 -0.0023686884659067267 -0.023835400492627563 0 -0.0019676326847038244 -0.024516500056178166 0 -0.0023521460152101936 -0.02418516498150693 0 -0.0025301050315761774 -0.023880628764423175 0 -0.0023686884659067267 -0.023835400492627563 0 -0.0023521460152101936 -0.02418516498150693 0 -0.0025301050315761774 -0.023880628764423175 0 -0.00268080464200845 -0.023815172995243456 0 -0.0025301050315761774 -0.023880628764423175 0 -0.0023686884659067267 -0.023835400492627563 0 -0.0026534275832906539 -0.023750597267783613 0 -0.0023686884659067267 -0.023835400492627563 0 -0.002569874376378217 -0.023724358186915907 0 -0.0023197750984747666 -0.023767583461502297 0 -0.002569874376378217 -0.023724358186915907 0 -0.0024838487445332084 -0.023701391337511226 0 -0.0027169943587677693 -0.023776754770404772 0 -0.002569874376378217 -0.023724358186915907 0 -0.0026988145830293053 -0.023733566996697798 0 -0.0027121107921994746 -0.023760251751085405 0 -0.0026988145830293053 -0.023733566996697798 0 -0.0027121107921994746 -0.023760251751085405 0 -0.0027657585616713419 -0.0237779862704895 0 -0.002569874376378217 -0.023724358186915907 0 -0.0026988145830293053 -0.023733566996697798 0 -0.0026534275832906539 -0.023750597267783613 0 -0.0023686884659067267 -0.023835400492627563 0 -0.002569874376378217 -0.023724358186915907 0 -0.0026534275832906539 -0.023750597267783613 0 -0.0026534275832906539 -0.023750597267783613 0 -0.0027608673837928839 -0.023713167247174267 0 -0.0027942177428382023 -0.023655925753522378 0 -0.0026988145830293053 -0.023733566996697798 0 -0.0026534275832906539 -0.023750597267783613 0 -0.0027608673837928839 -0.023713167247174267 0 -0.0027608673837928839 -0.023713167247174267 0 -0.0027880038715518952 -0.023809818173509599 0 -0.0027657585616713419 -0.0237779862704895 0 -0.0026988145830293053 -0.023733566996697798 0 -0.0027608673837928839 -0.023713167247174267 0 -0.0027657585616713419 -0.0237779862704895 0 -0.0027608673837928839 -0.023713167247174267 0 -0.0027886230355455258 -0.023698646287695604 0 -0.0027880038715518952 -0.023809818173509599 0 -0.0027608673837928839 -0.023713167247174267 0 -0.0027942177428382023 -0.023655925753522378 0 -0.0027886230355455258 -0.023698646287695604 0 -0.0025301050315761774 -0.023880628764423175 0 -0.0026534275832906539 -0.023750597267783613 0 -0.00268080464200845 -0.023815172995243456 0 -0.0026534275832906539 -0.023750597267783613 0 -0.0027942177428382023 -0.023655925753522378 0 -0.00268080464200845 -0.023815172995243456 0 -0.0027942177428382023 -0.023655925753522378 0 -0.00268080464200845 -0.023815172995243456 0 -0.0028457528642911157 -0.023558812794304732 0 -0.0028457528642911157 -0.023558812794304732 0 -0.0028194206362155529 -0.023555603141057913 0 -0.0028456111791152323 -0.023355034410870772 0 -0.0027942177428382023 -0.023655925753522378 0 -0.0028457528642911157 -0.023558812794304732 0 -0.0028194206362155529 -0.023555603141057913 0 -0.0027942177428382023 -0.023655925753522378 0 -0.0028194206362155529 -0.023555603141057913 0 -0.0027886230355455258 -0.023698646287695604 0 -0.0028194206362155529 -0.023555603141057913 0 -0.0027886230355455258 -0.023698646287695604 0 -0.0027509840485967856 -0.023568181620027773 0 -0.0027886230355455258 -0.023698646287695604 0 -0.0027509840485967856 -0.023568181620027773 0 -0.0026884232047825873 -0.023767306250203749 0 -0.0027509840485967856 -0.023568181620027773 0 -0.0026130168544168881 -0.023576232773215595 0 -0.0026884232047825873 -0.023767306250203749 0 -0.0027509840485967856 -0.023568181620027773 0 -0.0026882577429402227 -0.023312840142095104 0 -0.0026130168544168881 -0.023576232773215595 0 -0.0027509840485967856 -0.023568181620027773 0 -0.0028456111791152323 -0.023355034410870772 0 -0.0026882577429402227 -0.023312840142095104 0 -0.0028194206362155529 -0.023555603141057913 0 -0.0027509840485967856 -0.023568181620027773 0 -0.0028456111791152323 -0.023355034410870772 0 -0.0028456111791152323 -0.023355034410870772 0 -0.0026882577429402227 -0.023312840142095104 0 -0.0028509054798577685 -0.023075375095966105 0 -0.0020407489922049538 -0.027939256759538896 0 -0.0026954764706609018 -0.02685880936528455 0 -0.0016700327651080328 -0.026277447850820236 0 -0.0025655406453652559 -0.028750456438679548 0 -0.0026954764706609018 -0.02685880936528455 0 -0.0031528302613761418 -0.029527789468717175 0 -0.002392767105522043 -0.029710590307114385 0 -0.0027404051107315112 -0.031310950691518909 0 -0.0020571475368355678 -0.032679872405225414 0 -0.0025945565528068767 -0.033214134229151634 0 -0.0025260252669043011 -0.032663429589382724 0 -0.0020407489922049538 -0.027939256759538896 0 -0.0025655406453652559 -0.028750456438679548 0 -0.0026954764706609018 -0.02685880936528455 0 -0.0020571475368355678 -0.032679872405225414 0 -0.0022603682507307864 -0.032261945424010417 0 -0.0025260252669043011 -0.032663429589382724 0 -0.0025319590923599611 -0.03189150134387269 0 -0.0025051912256010811 -0.032582874586785597 0 -0.002274365259428303 -0.031786993174186033 0 -0.0022603682507307864 -0.032261945424010417 0 -0.0025260252669043011 -0.032663429589382724 0 -0.002184226880410233 -0.031911475395672018 0 -0.0020571475368355678 -0.032679872405225414 0 -0.0022603682507307864 -0.032261945424010417 0 -0.0008643454644515048 -0.028752583681111544 0 -0.002392767105522043 -0.029710590307114385 0 -0.00098739830204003102 -0.031546252148716522 0 -0.002184226880410233 -0.031911475395672018 0 -0.0020571475368355678 -0.032679872405225414 0 -0.001735591912149259 -0.025114777452157105 0 -0.0026954764706609018 -0.02685880936528455 0 -0.0016700327651080328 -0.026277447850820236 0 -0.001735591912149259 -0.025114777452157105 0 -0.001409863348929162 -0.025395579593256792 0 -0.0016700327651080328 -0.026277447850820236 0 -0.001409863348929162 -0.025395579593256792 0 -0.0016700327651080328 -0.026277447850820236 0 -0.0010694302485750181 -0.025687284160929441 0 -0.0019020621200245146 -0.024841600737349891 0 -0.001409863348929162 -0.025395579593256792 0 -0.0010694302485750181 -0.025687284160929441 0 -0.0016926815447143137 -0.024944741154894284 0 -0.0019020621200245146 -0.024841600737349891 0 -0.001409863348929162 -0.025395579593256792 0 -0.0010329916537186394 -0.025765619234880754 0 -0.00095705952628427485 -0.026344385097479953 0 -0.0010694302485750181 -0.025687284160929441 0 -0.0019676326847038244 -0.024516500056178166 0 -0.0017583925195297609 -0.023901728767573273 0 -0.0019020621200245146 -0.024841600737349891 0 -0.0010694302485750181 -0.025687284160929441 0 -0.0019676326847038244 -0.024516500056178166 0 -0.0010694302485750181 -0.025687284160929441 0 -0.0013693481474063034 -0.027301829101495634 0 -5.7022050808076066e-05 -0.028603736235775699 0 -0.0020407489922049538 -0.027939256759538896 0 -0.0016700327651080328 -0.026277447850820236 0 -0.0013693481474063034 -0.027301829101495634 0 -0.0016700327651080328 -0.026277447850820236 0 -0.0010694302485750181 -0.025687284160929441 0 -0.0013693481474063034 -0.027301829101495634 0 -0.0012789893178152376 -0.028694207481605078 0 -5.7022050808076066e-05 -0.028603736235775699 0 -0.00036166810618618462 -0.029916801903727155 0 -0.0020407489922049538 -0.027939256759538896 0 -0.0013693481474063034 -0.027301829101495634 0 -0.0012789893178152376 -0.028694207481605078 0 -0.0013693481474063034 -0.027301829101495634 0 -0.0012789893178152376 -0.028694207481605078 0 -5.7022050808076066e-05 -0.028603736235775699 0 -0.0023686884659067267 -0.023835400492627563 0 -0.0019676326847038244 -0.024516500056178166 0 -0.0017583925195297609 -0.023901728767573273 0 -0.0023686884659067267 -0.023835400492627563 0 -0.0017583925195297609 -0.023901728767573273 0 -0.0023197750984747666 -0.023767583461502297 0 -0.00095705952628427485 -0.026344385097479953 0 -0.0011992019021831465 -0.026555514496374472 0 -0.0017583925195297609 -0.023901728767573273 0 -0.0023197750984747666 -0.023767583461502297 0 -0.0024838487445332084 -0.023701391337511226 0 -5.7022050808076066e-05 -0.028603736235775699 0 -0.00036166810618618462 -0.029916801903727155 0 3.9756322657940747e-05 -0.02990516400581774 0 -0.002569874376378217 -0.023724358186915907 0 -0.0023197750984747666 -0.023767583461502297 0 -0.0024838487445332084 -0.023701391337511226 0 -0.0012789893178152376 -0.028694207481605078 0 -0.00087057486019081164 -0.030542933532535295 0 -0.0012528990338567781 -0.030329265563789797 0 -0.0013662660975837402 -0.028602116749885498 0 -0.00042841693042955912 -0.030615904999808034 0 -0.0012789893178152376 -0.028694207481605078 0 -0.0012528990338567781 -0.030329265563789797 0 -0.0016344058935214884 -0.030245519759894892 0 -0.00087057486019081164 -0.030542933532535295 0 -0.0012528990338567781 -0.030329265563789797 0 -0.001155720398443502 -0.030688884106223557 0 -0.0012528990338567781 -0.030329265563789797 0 -0.0016344058935214884 -0.030245519759894892 0 -0.0013544345430612878 -0.030791850362709226 0 -0.0016344058935214884 -0.030245519759894892 0 -0.0019105052716704258 -0.030706847999666637 0 -0.0019794423790306711 -0.030030603239890437 0 -0.0019105052716704258 -0.030706847999666637 0 -0.0019794423790306711 -0.030030603239890437 0 -0.002256074512806776 -0.030388596905702055 0 -0.0016344058935214884 -0.030245519759894892 0 -0.0019794423790306711 -0.030030603239890437 0 -0.0018390270946434103 -0.029243980758628996 0 -0.0012789893178152376 -0.028694207481605078 0 -0.0016344058935214884 -0.030245519759894892 0 -0.0018390270946434103 -0.029243980758628996 0 -0.0019794423790306711 -0.030030603239890437 0 -0.0018390270946434103 -0.029243980758628996 0 -0.0022629832584346045 -0.029333945869872147 0 -0.0020407489922049538 -0.027939256759538896 0 -0.0018390270946434103 -0.029243980758628996 0 -0.0022629832584346045 -0.029333945869872147 0 -0.0020407489922049538 -0.027939256759538896 0 -0.0012789893178152376 -0.028694207481605078 0 -0.0018390270946434103 -0.029243980758628996 0 -0.0025655406453652559 -0.028750456438679548 0 -0.0026004312330140176 -0.029968580290997544 0 -0.0031528302613761418 -0.029527789468717175 0 -0.0025655406453652559 -0.028750456438679548 0 -0.0022629832584346045 -0.029333945869872147 0 -0.0026004312330140176 -0.029968580290997544 0 -0.0020407489922049538 -0.027939256759538896 0 -0.0025655406453652559 -0.028750456438679548 0 -0.0022629832584346045 -0.029333945869872147 0 -0.0022629832584346045 -0.029333945869872147 0 -0.0026004312330140176 -0.029968580290997544 0 -0.002256074512806776 -0.030388596905702055 0 -0.0026004312330140176 -0.029968580290997544 0 -0.002256074512806776 -0.030388596905702055 0 -0.0024542891556515274 -0.030890379801748542 0 -0.0019794423790306711 -0.030030603239890437 0 -0.0022629832584346045 -0.029333945869872147 0 -0.002256074512806776 -0.030388596905702055 0 -0.0019105052716704258 -0.030706847999666637 0 -0.002256074512806776 -0.030388596905702055 0 -0.0021837770681890798 -0.031044420529395995 0 -0.002256074512806776 -0.030388596905702055 0 -0.0024542891556515274 -0.030890379801748542 0 -0.0021837770681890798 -0.031044420529395995 0 -0.0024542891556515274 -0.030890379801748542 0 -0.0023612560879472015 -0.031574347187444042 0 -0.0021837770681890798 -0.031044420529395995 0 -0.0026267930758934674 -0.030952833599823374 0 -0.0024542891556515274 -0.030890379801748542 0 -0.0023612560879472015 -0.031574347187444042 0 -0.0026004312330140176 -0.029968580290997544 0 -0.0026267930758934674 -0.030952833599823374 0 -0.0024542891556515274 -0.030890379801748542 0 -0.0023138010967466301 -0.032283179102314319 0 -0.0023612560879472015 -0.031574347187444042 0 -0.0018987968157143152 -0.032245261548194536 0 -0.0026267930758934674 -0.030952833599823374 0 -0.0023138010967466301 -0.032283179102314319 0 -0.0023612560879472015 -0.031574347187444042 0 -0.0024267338755727384 -0.033190689038227868 0 -0.0017694971423038084 -0.033639397169814234 0 -0.0017987904961634577 -0.03313418210573111 0 -0.002334159934736612 -0.0320546313961406 0 -0.0027404051107315112 -0.031310950691518909 0 -0.0023138010967466301 -0.032283179102314319 0 -0.0024267338755727384 -0.033190689038227868 0 -0.0017987904961634577 -0.03313418210573111 0 -0.0023138010967466301 -0.032283179102314319 0 -0.0024267338755727384 -0.033190689038227868 0 -0.0025945565528068767 -0.033214134229151634 0 -0.0026004312330140176 -0.029968580290997544 0 -0.0026267930758934674 -0.030952833599823374 0 -0.0031528302613761418 -0.029527789468717175 0 -0.0026267930758934674 -0.030952833599823374 0 -0.0023138010967466301 -0.032283179102314319 0 -0.0031528302613761418 -0.029527789468717175 0 -0.0023962773562192876 -0.033037440019634975 0 -0.0024604661329146772 -0.033681128207720713 0 -0.0024267338755727384 -0.033190689038227868 0 -0.0025945565528068767 -0.033214134229151634 0 -0.0026766792225523962 -0.032647047383714697 0 -0.0025945565528068767 -0.033214134229151634 0 -0.0025260252669043011 -0.032663429589382724 0 -0.0026766792225523962 -0.032647047383714697 0 -0.0024267338755727384 -0.033190689038227868 0 -0.00204216684878841 -0.033826055857859909 0 -0.0017694971423038084 -0.033639397169814234 0 -0.0024267338755727384 -0.033190689038227868 0 -0.0021769610975349097 -0.033858536905201964 0 -0.0022685631556234411 -0.034178274922868457 0 -0.0024267338755727384 -0.033190689038227868 0 -0.00204216684878841 -0.033826055857859909 0 -0.0021769610975349097 -0.033858536905201964 0 -0.00204216684878841 -0.033826055857859909 0 -0.0021769610975349097 -0.033858536905201964 0 -0.0020319372279766798 -0.034129137267463347 0 -0.0021769610975349097 -0.033858536905201964 0 -0.0020319372279766798 -0.034129137267463347 0 -0.0022685631556234411 -0.034178274922868457 0 -0.00204216684878841 -0.033826055857859909 0 -0.0020319372279766798 -0.034129137267463347 0 -0.0017316954702092063 -0.034023763199937648 0 -0.0020319372279766798 -0.034129137267463347 0 -0.0017407008736298145 -0.034234166555269355 0 -0.0017316954702092063 -0.034023763199937648 0 -0.0020319372279766798 -0.034129137267463347 0 -0.0017407008736298145 -0.034234166555269355 0 -0.0018314738345751643 -0.034345587769076667 0 -0.0020319372279766798 -0.034129137267463347 0 -0.002145250493664957 -0.034254588571922678 0 -0.0018314738345751643 -0.034345587769076667 0 -0.0020319372279766798 -0.034129137267463347 0 -0.0022685631556234411 -0.034178274922868457 0 -0.002145250493664957 -0.034254588571922678 0 -0.0023180017477311952 -0.032383342492205335 0 -0.0025260252669043011 -0.032663429589382724 0 -0.0026766792225523962 -0.032647047383714697 0 -0.0012033525051943529 -0.03429579459841002 0 -0.0014792622523009001 -0.03426389091216285 0 -0.0013605019068696426 -0.034003445762601843 0 -0.0014792622523009001 -0.03426389091216285 0 -0.0017316954702092063 -0.034023763199937648 0 -0.0013605019068696426 -0.034003445762601843 0 -0.0014792622523009001 -0.03426389091216285 0 -0.0017407008736298145 -0.034234166555269355 0 -0.0017316954702092063 -0.034023763199937648 0 -0.0017694971423038084 -0.033639397169814234 0 -0.0013605019068696426 -0.034003445762601843 0 -0.0012818154812530792 -0.033620680841859457 0 -0.0017316954702092063 -0.034023763199937648 0 -0.0017694971423038084 -0.033639397169814234 0 -0.0013605019068696426 -0.034003445762601843 0 -0.00204216684878841 -0.033826055857859909 0 -0.0017316954702092063 -0.034023763199937648 0 -0.0017694971423038084 -0.033639397169814234 0 -0.0012033525051943529 -0.03429579459841002 0 -0.0013605019068696426 -0.034003445762601843 0 -0.00083620560608904659 -0.034386452228276236 0 -0.0013605019068696426 -0.034003445762601843 0 -0.0012818154812530792 -0.033620680841859457 0 -0.00083620560608904659 -0.034386452228276236 0 -0.0012818154812530792 -0.033620680841859457 0 -0.0017987904961634577 -0.03313418210573111 0 -0.0016084133925198983 -0.032842236371924211 0 -0.0017694971423038084 -0.033639397169814234 0 -0.0012818154812530792 -0.033620680841859457 0 -0.0017987904961634577 -0.03313418210573111 0 -0.0023138010967466301 -0.032283179102314319 0 -0.0016084133925198983 -0.032842236371924211 0 -0.0018987968157143152 -0.032245261548194536 0 -0.0023138010967466301 -0.032283179102314319 0 -0.0017987904961634577 -0.03313418210573111 0 -0.0016084133925198983 -0.032842236371924211 0 -0.0012818154812530792 -0.033620680841859457 0 -0.0016084133925198983 -0.032842236371924211 0 -0.0011698537675494227 -0.033214639507562586 0 -0.0012818154812530792 -0.033620680841859457 0 -0.00079590086075488088 -0.033858757005664993 0 -0.0011698537675494227 -0.033214639507562586 0 -0.00079590086075488088 -0.033858757005664993 0 -0.00036138842276254316 -0.034408769003359513 0 -0.00036262005837794676 -0.034274244204337397 0 -0.00079590086075488088 -0.033858757005664993 0 -0.00036138842276254316 -0.034408769003359513 0 -0.00083620560608904659 -0.034386452228276236 0 -0.00036138842276254316 -0.034408769003359513 0 -0.00042352411111608215 -0.034595885275117581 0 -0.00083620560608904659 -0.034386452228276236 0 -0.0012818154812530792 -0.033620680841859457 0 -0.00079590086075488088 -0.033858757005664993 0 -0.00083620560608904659 -0.034386452228276236 0 -1.3490982734248937e-07 -0.034999211127410446 0 -0.00036138842276254316 -0.034408769003359513 0 -0.00036262005837794676 -0.034274244204337397 0 -0.00036138842276254316 -0.034408769003359513 0 -0.0001406313006218483 -0.034750089799039249 0 -0.00042352411111608215 -0.034595885275117581 0 -1.3490982734248937e-07 -0.034999211127410446 0 -0.00036138842276254316 -0.034408769003359513 0 -0.0001406313006218483 -0.034750089799039249 0 -1.3490982734248937e-07 -0.034999211127410446 0 -0.0001406313006218483 -0.034750089799039249 0 -7.7982989569469691e-08 -0.034999681817134178 0 -0.0001406313006218483 -0.034750089799039249 0 -7.7982989569469691e-08 -0.034999681817134178 0 -8.2021048605265218e-05 -0.034911459135051802 0 -0.0001406313006218483 -0.034750089799039249 0 -8.2021048605265218e-05 -0.034911459135051802 0 -0.00042352411111608215 -0.034595885275117581 0 -8.2021048605265218e-05 -0.034911459135051802 0 -8.8437715547618736e-05 -0.034970349440761259 0 -5.0392860510039453e-05 -0.03498300230299263 0 -2.5237295328878488e-05 -0.035033891022525986 0 -0.00059068441770844418 -0.034614588266697756 0 -8.2021048605265218e-05 -0.034911459135051802 0 -0.00042352411111608215 -0.034595885275117581 0 -0.00060089701068352988 -0.035112825093051157 0 -7.7982989569469691e-08 -0.034999681817134178 0 -8.2021048605265218e-05 -0.034911459135051802 0 -1.3214542947314674e-08 -0.035000021475786174 0 -8.2021048605265218e-05 -0.034911459135051802 0 -1.3214542947314674e-08 -0.035000021475786174 0 -5.0392860510039453e-05 -0.03498300230299263 0 -0.00042352411111608215 -0.034595885275117581 0 -0.00083620560608904659 -0.034386452228276236 0 -0.00060089701068352988 -0.035112825093051157 0 -0.00083620560608904659 -0.034386452228276236 0 -0.001040022701274064 -0.034403796170534191 0 -0.00093469516772528628 -0.034409128052752279 0 -0.00087525066951906828 -0.03445257004015638 0 -0.00059068441770844418 -0.034614588266697756 0 -0.0012033525051943529 -0.03429579459841002 0 -0.00083620560608904659 -0.034386452228276236 0 -0.001040022701274064 -0.034403796170534191 0 -0.001040022701274064 -0.034403796170534191 0 -0.0011136057374472135 -0.034530155917942375 0 -0.0013109674834640597 -0.034488492417375477 0 -0.001040022701274064 -0.034403796170534191 0 -0.0011136057374472135 -0.034530155917942375 0 -0.00093469516772528628 -0.034409128052752279 0 -0.001098231747445025 -0.03433516604507305 0 -0.00059068441770844418 -0.034614588266697756 0 -0.00059068441770844418 -0.034614588266697756 0 -0.00026557503298886494 -0.034654613217063444 0 -0.0010559643827543362 -0.034241933151969266 0 -0.00070005042328326924 -0.033952289334867769 0 -0.00051936467772980318 -0.034358683211665797 0 -0.0010559643827543362 -0.034241933151969266 0 -0.00051936467772980318 -0.034358683211665797 0 -0.00099921529318489056 -0.034583504643108789 0 -0.0010559643827543362 -0.034241933151969266 0 -0.00099921529318489056 -0.034583504643108789 0 -0.0013667160955625765 -0.034602261923553458 0 -1.3214542947314674e-08 -0.035000021475786174 0 -5.0392860510039453e-05 -0.03498300230299263 0 -2.0447481554955159e-05 -0.034999246220290527 0 -8.8437715547618736e-05 -0.034970349440761259 0 -5.0392860510039453e-05 -0.03498300230299263 0 -4.7273079521570819e-05 -0.035000579050211283 0 -5.0392860510039453e-05 -0.03498300230299263 0 -4.7273079521570819e-05 -0.035000579050211283 0 -2.0447481554955159e-05 -0.034999246220290527 0 -4.7273079521570819e-05 -0.035000579050211283 0 -2.0447481554955159e-05 -0.034999246220290527 0 -1.4466114074833072e-05 -0.035005477161312346 0 -1.3214542947314674e-08 -0.035000021475786174 0 -2.0447481554955159e-05 -0.034999246220290527 0 -2.5638286726108813e-08 -0.035000003907351335 0 -2.0447481554955159e-05 -0.034999246220290527 0 -2.5638286726108813e-08 -0.035000003907351335 0 -1.4466114074833072e-05 -0.035005477161312346 0 -0.00026557503298886494 -0.034654613217063444 0 -0.00018071064446694346 -0.034859314463420527 0 -0.00051936467772980318 -0.034358683211665797 0 -0.00034740944208694021 -0.034705522162559538 0 -0.00062398920305838069 -0.034645332105604811 0 -0.00035392069349699028 -0.03495942548201416 0 -0.00016076855318857564 -0.034956462760653693 0 -0.00034740944208694021 -0.034705522162559538 0 -0.00035392069349699028 -0.03495942548201416 0 -0.00034740944208694021 -0.034705522162559538 0 -0.00064061952506710062 -0.034882913756838392 0 -7.8020600356207187e-05 -0.034980757496005946 0 -0.00018071064446694346 -0.034859314463420527 0 -1.7717801140945397e-06 -0.035000590519603421 0 -1.7299231884597683e-09 -0.035000009346853225 0 -1.4466114074833072e-05 -0.035005477161312346 0 -1.7299231884597683e-09 -0.035000009346853225 0 -2.5638286726108813e-08 -0.035000003907351335 0 -1.4466114074833072e-05 -0.035005477161312346 0 -0.00099921529318489056 -0.034583504643108789 0 -0.0011517287972443999 -0.034792579628799503 0 -0.0012399673419030985 -0.034711621084493292 0 -0.00051936467772980318 -0.034358683211665797 0 -0.00099921529318489056 -0.034583504643108789 0 -0.00062398920305838069 -0.034645332105604811 0 -0.00099921529318489056 -0.034583504643108789 0 -0.00062398920305838069 -0.034645332105604811 0 -0.00064061952506710062 -0.034882913756838392 0 -0.00034740944208694021 -0.034705522162559538 0 -0.00062398920305838069 -0.034645332105604811 0 -0.00064061952506710062 -0.034882913756838392 0 -0.00098891351467344612 -0.034569759816289791 0 -0.00085934347467196551 -0.034859880542679016 0 -0.00099921529318489056 -0.034583504643108789 0 -0.001021416473217939 -0.034797491728647233 0 -0.0011517287972443999 -0.034792579628799503 0 -0.0012934642117727339 -0.034792548687207846 0 -0.0012399673419030985 -0.034711621084493292 0 -0.0013882029504143434 -0.03471900979591204 0 -0.0011517287972443999 -0.034792579628799503 0 -0.0012934642117727339 -0.034792548687207846 0 -0.0012399673419030985 -0.034711621084493292 0 -0.00099921529318489056 -0.034583504643108789 0 -0.0012399673419030985 -0.034711621084493292 0 -0.0013667160955625765 -0.034602261923553458 0 -0.0012399673419030985 -0.034711621084493292 0 -0.0013882029504143434 -0.03471900979591204 0 -0.0013667160955625765 -0.034602261923553458 0 -0.0015282523472255991 -0.034686262094143147 0 -0.0013882029504143434 -0.03471900979591204 0 -0.0013667160955625765 -0.034602261923553458 0 -0.0015282523472255991 -0.034686262094143147 0 -0.0013882029504143434 -0.03471900979591204 0 -0.0014753231425013197 -0.034713091920672526 0 -0.0013882029504143434 -0.03471900979591204 0 -0.0014753231425013197 -0.034713091920672526 0 -0.0014278203505922473 -0.034776759008044958 0 -0.0012934642117727339 -0.034792548687207846 0 -0.0013882029504143434 -0.03471900979591204 0 -0.0014278203505922473 -0.034776759008044958 0 -0.0013409087058372916 -0.034833853210082581 0 -0.0012934642117727339 -0.034792548687207846 0 -0.0014278203505922473 -0.034776759008044958 0 -0.00092837196742421712 -0.032278298542438966 0 -0.00049880042101837065 -0.029142839576577654 0 -0.00092837196742421712 -0.032278298542438966 0 -0.001306541812615932 -0.033345357954191246 0 -0.0011030101683363719 -0.031939771989889891 0 -0.0012043059656078627 -0.03177196783537644 0 -0.0011452582850762206 -0.031781541070797753 0 -0.0014496412492194573 -0.034824354036149953 0 -0.0014278203505922473 -0.034776759008044958 0 -0.0015064394179697877 -0.034730192433861537 0 -0.0014753231425013197 -0.034713091920672526 0 -0.0014278203505922473 -0.034776759008044958 0 -0.0015064394179697877 -0.034730192433861537 0 0.00024734185497757576 -0.028136548424287301 0 0.00033484153494855968 -0.027572126625128868 0 -5.4776058672700895e-07 -0.027820819522992726 0 0.00033484153494855968 -0.027572126625128868 0 -5.4776058672700895e-07 -0.027820819522992726 0 1.2453466044731428e-05 -0.027475792981701292 0 -0.0002679725050492734 -0.027476193643554209 0 -5.4776058672700895e-07 -0.027820819522992726 0 1.2453466044731428e-05 -0.027475792981701292 0 0.00033484153494855968 -0.027572126625128868 0 1.2453466044731428e-05 -0.027475792981701292 0 -8.8224609682001239e-06 -0.026982951262551045 0 1.2453466044731428e-05 -0.027475792981701292 0 -0.0001329554935624178 -0.027225306019648707 0 -8.8224609682001239e-06 -0.026982951262551045 0 -0.0012043059656078627 -0.03177196783537644 0 -0.0012927698284701428 -0.031621122266784131 0 -0.0011827059804696751 -0.031639435760414253 0 -0.00049880042101837065 -0.029142839576577654 0 -0.0013547980338562068 -0.03078023880076463 0 -0.00026143226699945063 -0.027309784468227488 0 1.2453466044731428e-05 -0.027475792981701292 0 -0.0001329554935624178 -0.027225306019648707 0 -0.0002679725050492734 -0.027476193643554209 0 -0.00026143226699945063 -0.027309784468227488 0 1.2453466044731428e-05 -0.027475792981701292 0 -0.0013547980338562068 -0.03078023880076463 0 -0.0018360751099205481 -0.033750979730360606 0 -0.00028960952698156762 -0.027116874269338828 0 -0.0001329554935624178 -0.027225306019648707 0 -8.8224609682001239e-06 -0.026982951262551045 0 -0.0014753231425013197 -0.034713091920672526 0 -0.0015064394179697877 -0.034730192433861537 0 -0.0015398236993576901 -0.034670132255699357 0 -0.0012043059656078627 -0.03177196783537644 0 -0.0011452582850762206 -0.031781541070797753 0 -0.0011827059804696751 -0.031639435760414253 0 -0.001306541812615932 -0.033345357954191246 0 -0.0018360751099205481 -0.033750979730360606 0 -0.001483927295961778 -0.034562099805849289 0 -0.0018360751099205481 -0.033750979730360606 0 -0.0015282523472255991 -0.034686262094143147 0 -0.0014753231425013197 -0.034713091920672526 0 -0.0015398236993576901 -0.034670132255699357 0 -0.0015282523472255991 -0.034686262094143147 0 -0.0018141167429602824 -0.034722414125669024 0 -0.001674682761378783 -0.034549172812209504 0 -0.0018360751099205481 -0.033750979730360606 0 -0.0020381027504499808 -0.034466759740840618 0 -0.0018141167429602824 -0.034722414125669024 0 -0.0019367534122009431 -0.034524535958642168 0 -0.001674682761378783 -0.034549172812209504 0 -0.0021487113262039655 -0.034251506766673746 0 -0.0021590392702212466 -0.034191790929987823 0 -0.0021858469198943677 -0.034242715228903001 0 -0.0025847373191902659 -0.031808640846705316 0 -0.0013547980338562068 -0.03078023880076463 0 -0.0021242977566983397 -0.02770841637850387 0 -0.0013547980338562068 -0.03078023880076463 0 -0.0020933255055728931 -0.030507752617679101 0 -0.0018934616263929498 -0.029947760717620106 0 -0.0024182729912469053 -0.029902253883316882 0 -0.0021590392702212466 -0.034191790929987823 0 -0.0021971946381272897 -0.034186626784414899 0 -0.0021858469198943677 -0.034242715228903001 0 -0.0021487113262039655 -0.034251506766673746 0 -0.0022685631556234411 -0.034178274922868457 0 -0.0021721296404859096 -0.034248764109567766 0 -0.0025847373191902659 -0.031808640846705316 0 -0.0024604661329146772 -0.033681128207720713 0 -0.0023180017477311952 -0.032383342492205335 0 -0.0024864310672055483 -0.032077116330707985 0 -0.0026766792225523962 -0.032647047383714697 0 -0.0022685631556234411 -0.034178274922868457 0 -0.002145250493664957 -0.034254588571922678 0 -0.0021721296404859096 -0.034248764109567766 0 -0.0021487113262039655 -0.034251506766673746 0 -0.0021858469198943677 -0.034242715228903001 0 -0.0021721296404859096 -0.034248764109567766 0 -0.0021858469198943677 -0.034242715228903001 0 -0.002145250493664957 -0.034254588571922678 0 -0.0021721296404859096 -0.034248764109567766 0 -0.0019367534122009431 -0.034524535958642168 0 -0.001674682761378783 -0.034549172812209504 0 -0.0018314738345751643 -0.034345587769076667 0 -0.0020381027504499808 -0.034466759740840618 0 -0.0021286124981240544 -0.034223624198584511 0 -0.0019367534122009431 -0.034524535958642168 0 -0.002145250493664957 -0.034254588571922678 0 -0.0018314738345751643 -0.034345587769076667 0 -0.0014792622523009001 -0.03426389091216285 0 -0.0017407008736298145 -0.034234166555269355 0 -0.0015708125665173771 -0.034419459273431562 0 -0.0017407008736298145 -0.034234166555269355 0 -0.0018314738345751643 -0.034345587769076667 0 -0.0015708125665173771 -0.034419459273431562 0 -0.0014792622523009001 -0.03426389091216285 0 -0.0015708125665173771 -0.034419459273431562 0 -0.0013109674834640597 -0.034488492417375477 0 -0.001674682761378783 -0.034549172812209504 0 -0.0018314738345751643 -0.034345587769076667 0 -0.0015708125665173771 -0.034419459273431562 0 -0.0015708125665173771 -0.034419459273431562 0 -0.0013109674834640597 -0.034488492417375477 0 -0.0014852396291580457 -0.034556966594951118 0 -0.0012033525051943529 -0.03429579459841002 0 -0.0014792622523009001 -0.03426389091216285 0 -0.0013109674834640597 -0.034488492417375477 0 -0.0012033525051943529 -0.03429579459841002 0 -0.001040022701274064 -0.034403796170534191 0 -0.0013109674834640597 -0.034488492417375477 0 -0.0011136057374472135 -0.034530155917942375 0 -0.0013109674834640597 -0.034488492417375477 0 -0.0013667160955625765 -0.034602261923553458 0 -0.001098231747445025 -0.03433516604507305 0 -0.0013393283161593672 -0.034594673427636093 0 -0.0013109674834640597 -0.034488492417375477 0 -0.0013667160955625765 -0.034602261923553458 0 -0.0014852396291580457 -0.034556966594951118 0 -0.0015282523472255991 -0.034686262094143147 0 -0.0013667160955625765 -0.034602261923553458 0 -0.0014852396291580457 -0.034556966594951118 0 -0.0015282523472255991 -0.034686262094143147 0 -0.001674682761378783 -0.034549172812209504 0 -0.0014852396291580457 -0.034556966594951118 0 -0.001674682761378783 -0.034549172812209504 0 -0.0015708125665173771 -0.034419459273431562 0 -0.0014852396291580457 -0.034556966594951118 0 0.0050084237053954752 -0.017462959973994774 0 0.0042296176002033893 -0.018017070054369238 0 0.0034309415415777963 -0.017281744609135168 0 0.0050084237053954752 -0.017462959973994774 0 0.0034309415415777963 -0.017281744609135168 0 0.0048286949123696934 -0.016010873353191332 0 0.0050084237053954752 -0.017462959973994774 0 0.0048286949123696934 -0.016010873353191332 0 0.0058944627333201959 -0.017117235250865306 0 0.0050084237053954752 -0.017462959973994774 0 0.0058944627333201959 -0.017117235250865306 0 0.0057621887204915507 -0.018130591197225092 0 0.004854169460735705 -0.018619632946561337 0 0.0057621887204915507 -0.018130591197225092 0 0.0056046139052994557 -0.019324492024141684 0 0.0050084237053954752 -0.017462959973994774 0 0.004854169460735705 -0.018619632946561337 0 0.0042296176002033893 -0.018017070054369238 0 0.0050084237053954752 -0.017462959973994774 0 0.004854169460735705 -0.018619632946561337 0 0.0057621887204915507 -0.018130591197225092 0 0.0042296176002033893 -0.018017070054369238 0 0.0038230085639311632 -0.018818280641752352 0 0.0034309415415777963 -0.017281744609135168 0 0.004854169460735705 -0.018619632946561337 0 0.0042296176002033893 -0.018017070054369238 0 0.0038230085639311632 -0.018818280641752352 0 0.0038230085639311632 -0.018818280641752352 0 0.0020445299839737898 -0.018531362489465776 0 0.0035431201860223857 -0.020011890107023717 0 0.0038230085639311632 -0.018818280641752352 0 0.0020445299839737898 -0.018531362489465776 0 0.0034309415415777963 -0.017281744609135168 0 0.0022864806828467258 -0.019208399103090152 0 0.0020870103401307476 -0.017370010369109307 0 0.002495005531108162 -0.019878560882526455 0 0.0024811199781534969 -0.01822222279428453 0 0.0013579321219218327 -0.019150999639139851 0 0.0020445299839737898 -0.018531362489465776 0 0.0034309415415777963 -0.017281744609135168 0 0.0017529146442209296 -0.016566178197763914 0 0.0017529146442209296 -0.016566178197763914 0 0.0022134613251540008 -0.015337393169349718 0 0.0030947514862738126 -0.015761422010429502 0 0.0034309415415777963 -0.017281744609135168 0 0.0017529146442209296 -0.016566178197763914 0 0.0030947514862738126 -0.015761422010429502 0 0.0017529146442209296 -0.016566178197763914 0 0.0022134613251540008 -0.015337393169349718 0 0.0016934943128243411 -0.015430142070235726 0 0.0024811199781534969 -0.01822222279428453 0 0.0016934943128243411 -0.015430142070235726 0 0.0014135387833873131 -0.01675209141254989 0 0.0020870103401307476 -0.017370010369109307 0 0.0017398289814504091 -0.015566150211585987 0 0.0022134613251540008 -0.015337393169349718 0 0.0016934943128243411 -0.015430142070235726 0 0.0020843900182391985 -0.014444883314423097 0 0.0022134613251540008 -0.015337393169349718 0 0.0029596336804829622 -0.014599495130068486 0 0.0023989298877711493 -0.014163234005087157 0 0.0022134613251540008 -0.015337393169349718 0 0.0030947514862738126 -0.015761422010429502 0 0.0029596336804829622 -0.014599495130068486 0 0.0030947514862738126 -0.015761422010429502 0 0.0029596336804829622 -0.014599495130068486 0 0.0039489253042647226 -0.014734036829545388 0 0.0030947514862738126 -0.015761422010429502 0 0.0039489253042647226 -0.014734036829545388 0 0.0048286949123696934 -0.016010873353191332 0 0.0034309415415777963 -0.017281744609135168 0 0.0030947514862738126 -0.015761422010429502 0 0.0048286949123696934 -0.016010873353191332 0 0.0048286949123696934 -0.016010873353191332 0 0.0058195185115584944 -0.015201375949862594 0 0.0051336561664914711 -0.014055114260843509 0 0.0039489253042647226 -0.014734036829545388 0 0.0048286949123696934 -0.016010873353191332 0 0.0051336561664914711 -0.014055114260843509 0 0.0058195185115584944 -0.015201375949862594 0 0.0072083590237375095 -0.015592998175399338 0 0.0062358049706342147 -0.016226643657524586 0 0.0058195185115584944 -0.015201375949862594 0 0.0072083590237375095 -0.015592998175399338 0 0.0066267252309418923 -0.014639079396833008 0 0.0072083590237375095 -0.015592998175399338 0 0.0080188475747982272 -0.015076966383387099 0 0.0066267252309418923 -0.014639079396833008 0 0.0072083590237375095 -0.015592998175399338 0 0.0071040928532110498 -0.016520629836138636 0 0.0062358049706342147 -0.016226643657524586 0 0.0071040928532110498 -0.016520629836138636 0 0.0062358049706342147 -0.016226643657524586 0 0.0066422903796034697 -0.017476608723324495 0 0.0072083590237375095 -0.015592998175399338 0 0.0071040928532110498 -0.016520629836138636 0 0.0077055638292384118 -0.016213724234816644 0 0.0048286949123696934 -0.016010873353191332 0 0.0058195185115584944 -0.015201375949862594 0 0.0062358049706342147 -0.016226643657524586 0 0.0048286949123696934 -0.016010873353191332 0 0.0062358049706342147 -0.016226643657524586 0 0.0058944627333201959 -0.017117235250865306 0 0.0054295171000611599 -0.010773114433879802 0 0.0061428674894715455 -0.012099761912511867 0 0.0076324109617852166 -0.013377427598304662 0 0.0061428674894715455 -0.012099761912511867 0 0.0051594102478805456 -0.01092993693535828 0 0.0046633300229384578 -0.011024408054550461 0 0.0048698369782514258 -0.010871458052101428 0 0.008865977281202829 -0.015839157735428797 0 0.0084110610048381187 -0.015791223701058447 0 0.0080188475747982272 -0.015076966383387099 0 0.0060549849931038988 -0.010662412305737314 0 0.006024841979805351 -0.01078876865564994 0 0.0063511458733817297 -0.010872999008646368 0 0.0051594102478805456 -0.01092993693535828 0 0.0050439205873890293 -0.010797777605429404 0 0.0048698369782514258 -0.010871458052101428 0 0.0084110610048381187 -0.015791223701058447 0 0.0081172674245726922 -0.01563972939864313 0 0.0080188475747982272 -0.015076966383387099 0 0.0081172674245726922 -0.01563972939864313 0 0.0080188475747982272 -0.015076966383387099 0 0.0078320805261660135 -0.015662537032111394 0 0.0084110610048381187 -0.015791223701058447 0 0.0081172674245726922 -0.01563972939864313 0 0.0081395997300770743 -0.016013216801142344 0 0.0081172674245726922 -0.01563972939864313 0 0.0078320805261660135 -0.015662537032111394 0 0.0081395997300770743 -0.016013216801142344 0 0.0072083590237375095 -0.015592998175399338 0 0.0080188475747982272 -0.015076966383387099 0 0.0078320805261660135 -0.015662537032111394 0 0.0072083590237375095 -0.015592998175399338 0 0.0078320805261660135 -0.015662537032111394 0 0.0077055638292384118 -0.016213724234816644 0 0.0078320805261660135 -0.015662537032111394 0 0.0077055638292384118 -0.016213724234816644 0 0.0081395997300770743 -0.016013216801142344 0 0.0071040928532110498 -0.016520629836138636 0 0.0077055638292384118 -0.016213724234816644 0 0.0076739667827861293 -0.01673799962926736 0 0.0077055638292384118 -0.016213724234816644 0 0.0076739667827861293 -0.01673799962926736 0 0.0082083706384086623 -0.016725986805501924 0 0.0077055638292384118 -0.016213724234816644 0 0.0082083706384086623 -0.016725986805501924 0 0.0081395997300770743 -0.016013216801142344 0 0.008865977281202829 -0.015839157735428797 0 0.0085928584628929446 -0.016303023116191039 0 0.0090752773961985979 -0.016696092060949963 0 0.008865977281202829 -0.015839157735428797 0 0.0084110610048381187 -0.015791223701058447 0 0.0085928584628929446 -0.016303023116191039 0 0.0084110610048381187 -0.015791223701058447 0 0.0081395997300770743 -0.016013216801142344 0 0.0085928584628929446 -0.016303023116191039 0 0.0082083706384086623 -0.016725986805501924 0 0.0081395997300770743 -0.016013216801142344 0 0.0085928584628929446 -0.016303023116191039 0 0.0082083706384086623 -0.016725986805501924 0 0.0085928584628929446 -0.016303023116191039 0 0.0087072201868283045 -0.0168851710887548 0 0.0085928584628929446 -0.016303023116191039 0 0.0087072201868283045 -0.0168851710887548 0 0.0090752773961985979 -0.016696092060949963 0 0.0087072201868283045 -0.0168851710887548 0 0.0085767227255036053 -0.017435855908359079 0 0.0090576022752132425 -0.017316499745578206 0 0.0087072201868283045 -0.0168851710887548 0 0.0090752773961985979 -0.016696092060949963 0 0.0090576022752132425 -0.017316499745578206 0 0.0082083706384086623 -0.016725986805501924 0 0.0087072201868283045 -0.0168851710887548 0 0.0085767227255036053 -0.017435855908359079 0 0.0082083706384086623 -0.016725986805501924 0 0.0085767227255036053 -0.017435855908359079 0 0.0080396156830771798 -0.017491886643546763 0 0.0076739667827861293 -0.01673799962926736 0 0.0082083706384086623 -0.016725986805501924 0 0.0080396156830771798 -0.017491886643546763 0 0.0076739667827861293 -0.01673799962926736 0 0.0080396156830771798 -0.017491886643546763 0 0.007422282028607707 -0.01731988408297044 0 0.0080396156830771798 -0.017491886643546763 0 0.0076129618401318492 -0.018348149878832442 0 0.007422282028607707 -0.01731988408297044 0 0.0076129618401318492 -0.018348149878832442 0 0.0083110766928098569 -0.018018134142581525 0 0.0082949331477290746 -0.018630192494808167 0 0.0080396156830771798 -0.017491886643546763 0 0.0076129618401318492 -0.018348149878832442 0 0.0083110766928098569 -0.018018134142581525 0 0.0085767227255036053 -0.017435855908359079 0 0.0080396156830771798 -0.017491886643546763 0 0.0083110766928098569 -0.018018134142581525 0 0.0085767227255036053 -0.017435855908359079 0 0.0083110766928098569 -0.018018134142581525 0 0.0089177486391563907 -0.017865707784019084 0 0.0083110766928098569 -0.018018134142581525 0 0.0089177486391563907 -0.017865707784019084 0 0.0082949331477290746 -0.018630192494808167 0 0.0085767227255036053 -0.017435855908359079 0 0.0089177486391563907 -0.017865707784019084 0 0.0090576022752132425 -0.017316499745578206 0 0.0062358049706342147 -0.016226643657524586 0 0.0058944627333201959 -0.017117235250865306 0 0.0066422903796034697 -0.017476608723324495 0 0.0058944627333201959 -0.017117235250865306 0 0.0066422903796034697 -0.017476608723324495 0 0.0057621887204915507 -0.018130591197225092 0 0.0071040928532110498 -0.016520629836138636 0 0.007422282028607707 -0.01731988408297044 0 0.0066422903796034697 -0.017476608723324495 0 0.0071040928532110498 -0.016520629836138636 0 0.0076739667827861293 -0.01673799962926736 0 0.007422282028607707 -0.01731988408297044 0 0.0076129618401318492 -0.018348149878832442 0 0.007422282028607707 -0.01731988408297044 0 0.0066422903796034697 -0.017476608723324495 0 0.0076129618401318492 -0.018348149878832442 0 0.0066422903796034697 -0.017476608723324495 0 0.0065221411875881321 -0.018765070473533724 0 0.0065221411875881321 -0.018765070473533724 0 0.0057621887204915507 -0.018130591197225092 0 0.0056046139052994557 -0.019324492024141684 0 0.0066422903796034697 -0.017476608723324495 0 0.0065221411875881321 -0.018765070473533724 0 0.0057621887204915507 -0.018130591197225092 0 0.0065221411875881321 -0.018765070473533724 0 0.0056046139052994557 -0.019324492024141684 0 0.0063787085625412196 -0.019984658554892884 0 0.0056046139052994557 -0.019324492024141684 0 0.0056460374699838231 -0.020321022949754176 0 0.0063787085625412196 -0.019984658554892884 0 0.0065221411875881321 -0.018765070473533724 0 0.0072908526650389818 -0.019650509355547359 0 0.0063787085625412196 -0.019984658554892884 0 0.0076118582346458505 -0.018399337132125566 0 0.0072662765985912195 -0.019490967318298521 0 0.0076129618401318492 -0.018348149878832442 0 0.0065221411875881321 -0.018765070473533724 0 0.0072908526650389818 -0.019650509355547359 0 0.0072662765985912195 -0.019490967318298521 0 0.0068357227257398751 -0.018502793819832955 0 0.0072908526650389818 -0.019650509355547359 0 0.0068666567009152083 -0.020768870301126334 0 0.0063787085625412196 -0.019984658554892884 0 0.0068666567009152083 -0.020768870301126334 0 0.0063529453423552904 -0.020823085532294228 0 0.0063787085625412196 -0.019984658554892884 0 0.0066639045524619807 -0.02079908333992243 0 0.0063529453423552904 -0.020823085532294228 0 0.0061067007571400907 -0.021246559211861398 0 0.0068357227257398751 -0.018502793819832955 0 0.0064299110940712308 -0.019339417138358093 0 0.0063529453423552904 -0.020823085532294228 0 0.0059945669750482086 -0.020578941638262318 0 0.0057740090909433033 -0.021031869186912158 0 0.0056460374699838231 -0.020321022949754176 0 0.0057740090909433033 -0.021031869186912158 0 0.0051579736625260632 -0.021061352887147087 0 0.0059945669750482086 -0.020578941638262318 0 0.0056460374699838231 -0.020321022949754176 0 0.0057740090909433033 -0.021031869186912158 0 0.0063529453423552904 -0.020823085532294228 0 0.0059945669750482086 -0.020578941638262318 0 0.0063787085625412196 -0.019984658554892884 0 0.0059945669750482086 -0.020578941638262318 0 0.0056460374699838231 -0.020321022949754176 0 0.0063787085625412196 -0.019984658554892884 0 0.0089177486391563907 -0.017865707784019084 0 0.0082949331477290746 -0.018630192494808167 0 0.009210463201755793 -0.018625694696177083 0 0.0082949331477290746 -0.018630192494808167 0 0.0083210271994223015 -0.019414575237970341 0 0.009210463201755793 -0.018625694696177083 0 0.0074299976480860343 -0.018898567323441775 0 0.0082949331477290746 -0.018630192494808167 0 0.0083210271994223015 -0.019414575237970341 0 0.0076129618401318492 -0.018348149878832442 0 0.0074299976480860343 -0.018898567323441775 0 0.0082949331477290746 -0.018630192494808167 0 0.0068357227257398751 -0.018502793819832955 0 0.0060482002531388251 -0.016609597046094639 0 0.0056648001394102006 -0.013898066434986938 0 0.0042477214067957016 -0.013999984884511148 0 0.0044238337671625334 -0.013153675437914783 0 0.0074299976480860343 -0.018898567323441775 0 0.0072153335387653604 -0.019539100731993411 0 0.0083210271994223015 -0.019414575237970341 0 0.0060482002531388251 -0.016609597046094639 0 0.0069800844684409719 -0.015805550636131149 0 0.0044238337671625334 -0.013153675437914783 0 0.0038703657304376944 -0.012391218821865691 0 0.0033845349020091252 -0.013185836552957401 0 0.0042477214067957016 -0.013999984884511148 0 0.0044238337671625334 -0.013153675437914783 0 0.0033845349020091252 -0.013185836552957401 0 0.0056648001394102006 -0.013898066434986938 0 0.0044238337671625334 -0.013153675437914783 0 0.0050323902774060776 -0.012504593318406879 0 0.0050323902774060776 -0.012504593318406879 0 0.0038703657304376944 -0.012391218821865691 0 0.0046477976910640935 -0.011525304998671203 0 0.0044238337671625334 -0.013153675437914783 0 0.0050323902774060776 -0.012504593318406879 0 0.0038703657304376944 -0.012391218821865691 0 0.0037329356861898269 -0.012251020923391255 0 0.0031428251993199101 -0.011833976790362877 0 0.0066639045524619807 -0.02079908333992243 0 0.0061067007571400907 -0.021246559211861398 0 0.0059551087644146719 -0.02199860274996298 0 0.0057483805007355199 -0.021540244365534696 0 0.0061067007571400907 -0.021246559211861398 0 0.0059551087644146719 -0.02199860274996298 0 0.0057483805007355199 -0.021540244365534696 0 0.0054586506532684634 -0.021920617788575441 0 0.0054193459577201852 -0.02146470463063184 0 0.0057483805007355199 -0.021540244365534696 0 0.0057740090909433033 -0.021031869186912158 0 0.0061067007571400907 -0.021246559211861398 0 0.0057483805007355199 -0.021540244365534696 0 0.0057740090909433033 -0.021031869186912158 0 0.0054193459577201852 -0.02146470463063184 0 0.0063529453423552904 -0.020823085532294228 0 0.0057740090909433033 -0.021031869186912158 0 0.0061067007571400907 -0.021246559211861398 0 0.0056648001394102006 -0.013898066434986938 0 0.0050323902774060776 -0.012504593318406879 0 0.006150066369001163 -0.012379748865557257 0 0.0068357227257398751 -0.018502793819832955 0 0.0060799876220371226 -0.016685242320665785 0 0.0050323902774060776 -0.012504593318406879 0 0.006150066369001163 -0.012379748865557257 0 0.005448627603199062 -0.011665515964668634 0 0.0057483805007355199 -0.021540244365534696 0 0.0059551087644146719 -0.02199860274996298 0 0.0054586506532684634 -0.021920617788575441 0 0.0054311758328023079 -0.021747913401630271 0 0.0055964018173672147 -0.022963359534864166 0 0.0059551087644146719 -0.02199860274996298 0 0.0054586506532684634 -0.021920617788575441 0 0.0056257140373634973 -0.02225559791053542 0 0.0050456510309147898 -0.022192537794653237 0 0.0045878132479542835 -0.021935222937715566 0 0.0049763345084684885 -0.021679905713817733 0 0.0054586506532684634 -0.021920617788575441 0 0.0050456510309147898 -0.022192537794653237 0 0.0053416160611721225 -0.022339869126771723 0 0.0054586506532684634 -0.021920617788575441 0 0.0050456510309147898 -0.022192537794653237 0 0.0049763345084684885 -0.021679905713817733 0 0.0042129024066728657 -0.02277809085791711 0 0.0041461311239035983 -0.021196796225311253 0 0.0029246285878045696 -0.022594471605160801 0 0.0045878132479542835 -0.021935222937715566 0 0.0049763345084684885 -0.021679905713817733 0 0.0041461311239035983 -0.021196796225311253 0 0.0043774855606711852 -0.022265702113244492 0 0.0041912192324636867 -0.021277322684338434 0 0.0049763345084684885 -0.021679905713817733 0 0.0051579736625260632 -0.021061352887147087 0 0.0041461311239035983 -0.021196796225311253 0 0.0054586506532684634 -0.021920617788575441 0 0.0054193459577201852 -0.02146470463063184 0 0.0049763345084684885 -0.021679905713817733 0 0.0054193459577201852 -0.02146470463063184 0 0.0049763345084684885 -0.021679905713817733 0 0.0051579736625260632 -0.021061352887147087 0 0.0057740090909433033 -0.021031869186912158 0 0.0054193459577201852 -0.02146470463063184 0 0.0051579736625260632 -0.021061352887147087 0 0.0056460374699838231 -0.020321022949754176 0 0.0051579736625260632 -0.021061352887147087 0 0.0047143802636598125 -0.019985936178740664 0 0.0051579736625260632 -0.021061352887147087 0 0.0041461311239035983 -0.021196796225311253 0 0.0047143802636598125 -0.019985936178740664 0 0.0041461311239035983 -0.021196796225311253 0 0.0047143802636598125 -0.019985936178740664 0 0.0035431201860223857 -0.020011890107023717 0 0.004854169460735705 -0.018619632946561337 0 0.0038230085639311632 -0.018818280641752352 0 0.0047143802636598125 -0.019985936178740664 0 0.0038230085639311632 -0.018818280641752352 0 0.0047143802636598125 -0.019985936178740664 0 0.0035431201860223857 -0.020011890107023717 0 0.004854169460735705 -0.018619632946561337 0 0.0056046139052994557 -0.019324492024141684 0 0.0047143802636598125 -0.019985936178740664 0 0.0056046139052994557 -0.019324492024141684 0 0.0056460374699838231 -0.020321022949754176 0 0.0047143802636598125 -0.019985936178740664 0 0.002495005531108162 -0.019878560882526455 0 0.0025276800913746284 -0.020772706875692055 0 0.0015724930107741005 -0.020848178365417778 0 0.0022864806828467258 -0.019208399103090152 0 0.0025079335142499937 -0.020678204153983554 0 0.0020445299839737898 -0.018531362489465776 0 0.0035431201860223857 -0.020011890107023717 0 0.0025276800913746284 -0.020772706875692055 0 0.0041461311239035983 -0.021196796225311253 0 0.0035431201860223857 -0.020011890107023717 0 0.0025276800913746284 -0.020772706875692055 0 0.0041461311239035983 -0.021196796225311253 0 0.0025276800913746284 -0.020772706875692055 0 0.0026281472232092969 -0.021695971787580006 0 0.0025276800913746284 -0.020772706875692055 0 0.0015724930107741005 -0.020848178365417778 0 0.0017695456980169181 -0.021586102143677264 0 0.0025276800913746284 -0.020772706875692055 0 0.0026281472232092969 -0.021695971787580006 0 0.0017695456980169181 -0.021586102143677264 0 0.0026281472232092969 -0.021695971787580006 0 0.0018901148140859022 -0.022218420637383801 0 0.0029246285878045696 -0.022594471605160801 0 0.0026281472232092969 -0.021695971787580006 0 0.0018901148140859022 -0.022218420637383801 0 0.0017695456980169181 -0.021586102143677264 0 0.0041461311239035983 -0.021196796225311253 0 0.0026281472232092969 -0.021695971787580006 0 0.0029246285878045696 -0.022594471605160801 0 0.0029246285878045696 -0.022594471605160801 0 0.0022128548081602091 -0.023527051465939464 0 0.0033282464365249338 -0.023559149872826309 0 0.0042129024066728657 -0.02277809085791711 0 0.0029246285878045696 -0.022594471605160801 0 0.0033282464365249338 -0.023559149872826309 0 0.0018901148140859022 -0.022218420637383801 0 0.0029246285878045696 -0.022594471605160801 0 0.0019238575865504828 -0.022922002658759301 0 0.0029246285878045696 -0.022594471605160801 0 0.0019238575865504828 -0.022922002658759301 0 0.0022128548081602091 -0.023527051465939464 0 0.0019238575865504828 -0.022922002658759301 0 0.0014588496615379691 -0.023413564492792818 0 0.0022128548081602091 -0.023527051465939464 0 0.0019238575865504828 -0.022922002658759301 0 0.0014588496615379691 -0.023413564492792818 0 0.0013691828458657295 -0.022871803255946323 0 0.0014588496615379691 -0.023413564492792818 0 0.00086206394614057403 -0.023038859575549849 0 0.00097484814332168704 -0.023536247027403288 0 0.0014588496615379691 -0.023413564492792818 0 0.0013691828458657295 -0.022871803255946323 0 0.00086206394614057403 -0.023038859575549849 0 0.0013691828458657295 -0.022871803255946323 0 0.0011723752356341552 -0.022336826417516383 0 0.00086206394614057403 -0.023038859575549849 0 0.0018901148140859022 -0.022218420637383801 0 0.0019238575865504828 -0.022922002658759301 0 0.0013691828458657295 -0.022871803255946323 0 0.0011723752356341552 -0.022336826417516383 0 0.0017695456980169181 -0.021586102143677264 0 0.00091913287630470775 -0.021718179962370764 0 0.0018901148140859022 -0.022218420637383801 0 0.0013691828458657295 -0.022871803255946323 0 0.0011723752356341552 -0.022336826417516383 0 0.0018901148140859022 -0.022218420637383801 0 0.0011723752356341552 -0.022336826417516383 0 0.0017695456980169181 -0.021586102143677264 0 0.00049791373656543289 -0.022444393218954112 0 0.00017898898415678451 -0.021887669628769028 0 0.00091913287630470775 -0.021718179962370764 0 0.0011723752356341552 -0.022336826417516383 0 0.00049791373656543289 -0.022444393218954112 0 0.00091913287630470775 -0.021718179962370764 0 0.0011723752356341552 -0.022336826417516383 0 0.00049791373656543289 -0.022444393218954112 0 0.00086206394614057403 -0.023038859575549849 0 0.00049791373656543289 -0.022444393218954112 0 0.00086206394614057403 -0.023038859575549849 0 0.00017341472064199634 -0.023075243014172186 0 0.00086206394614057403 -0.023038859575549849 0 0.00036640377404972379 -0.023672786919709508 0 0.00097484814332168704 -0.023536247027403288 0 0.00086206394614057403 -0.023038859575549849 0 0.00017341472064199634 -0.023075243014172186 0 0.00036640377404972379 -0.023672786919709508 0 0.00017341472064199634 -0.023075243014172186 0 -0.00037830606055669228 -0.023259981026147104 0 -0.00030013859723231664 -0.022551838349247299 0 3.0752900442165866e-06 -0.023450710932354044 0 0.00017341472064199634 -0.023075243014172186 0 0.00036640377404972379 -0.023672786919709508 0 3.0752900442165866e-06 -0.023450710932354044 0 -0.00037830606055669228 -0.023259981026147104 0 -0.0003399835527480372 -0.02369026029050509 0 3.0752900442165866e-06 -0.023450710932354044 0 0.00017341472064199634 -0.023075243014172186 0 -0.00037830606055669228 -0.023259981026147104 0 -0.00037830606055669228 -0.023259981026147104 0 -0.00092732560056709085 -0.023135986867890541 0 -0.00030013859723231664 -0.022551838349247299 0 -0.00037830606055669228 -0.023259981026147104 0 -0.00092732560056709085 -0.023135986867890541 0 -0.00084110955699390774 -0.023611043055625298 0 -0.00037830606055669228 -0.023259981026147104 0 -0.0003399835527480372 -0.02369026029050509 0 -0.00084110955699390774 -0.023611043055625298 0 -0.00092732560056709085 -0.023135986867890541 0 -0.00030013859723231664 -0.022551838349247299 0 -0.0010860412853336864 -0.022462021299188294 0 -0.00030013859723231664 -0.022551838349247299 0 -0.00052016664583462912 -0.02200880875301657 0 -0.0010860412853336864 -0.022462021299188294 0 0.00049791373656543289 -0.022444393218954112 0 0.00017341472064199634 -0.023075243014172186 0 -0.00030013859723231664 -0.022551838349247299 0 -0.00030013859723231664 -0.022551838349247299 0 0.00017898898415678451 -0.021887669628769028 0 -0.00052016664583462912 -0.02200880875301657 0 0.00049791373656543289 -0.022444393218954112 0 -0.00030013859723231664 -0.022551838349247299 0 0.00017898898415678451 -0.021887669628769028 0 0.00017898898415678451 -0.021887669628769028 0 -0.00022207528496178143 -0.02142889731350809 0 -0.00052016664583462912 -0.02200880875301657 0 0.00017898898415678451 -0.021887669628769028 0 -0.00022207528496178143 -0.02142889731350809 0 0.00052346443729748583 -0.020969107025872399 0 -0.00052016664583462912 -0.02200880875301657 0 -0.00091088535748510635 -0.02151990072684936 0 -0.0010860412853336864 -0.022462021299188294 0 -0.00022207528496178143 -0.02142889731350809 0 -0.00052016664583462912 -0.02200880875301657 0 -0.00091088535748510635 -0.02151990072684936 0 -0.00022207528496178143 -0.02142889731350809 0 -0.00091088535748510635 -0.02151990072684936 0 -0.0003873177142582047 -0.020431699770358632 0 -0.00091088535748510635 -0.02151990072684936 0 -0.0010370809492872804 -0.020711358811217179 0 -0.0003873177142582047 -0.020431699770358632 0 -0.00022207528496178143 -0.02142889731350809 0 0.00052346443729748583 -0.020969107025872399 0 -0.0003873177142582047 -0.020431699770358632 0 0.00052346443729748583 -0.020969107025872399 0 0.0015724930107741005 -0.020848178365417778 0 0.0012841170749024378 -0.020113103106920601 0 0.0015724930107741005 -0.020848178365417778 0 0.0017695456980169181 -0.021586102143677264 0 0.00091913287630470775 -0.021718179962370764 0 0.00017898898415678451 -0.021887669628769028 0 0.00052346443729748583 -0.020969107025872399 0 0.00091913287630470775 -0.021718179962370764 0 0.00052346443729748583 -0.020969107025872399 0 0.0015724930107741005 -0.020848178365417778 0 0.00091913287630470775 -0.021718179962370764 0 -0.0025919032567549324 -0.022985562187136904 0 -0.0026882577429402227 -0.023312840142095104 0 -0.0023736939033190321 -0.02333633250424819 0 -0.0025919032567549324 -0.022985562187136904 0 -0.0026882577429402227 -0.023312840142095104 0 -0.0028509054798577685 -0.023075375095966105 0 -0.0026130168544168881 -0.023576232773215595 0 -0.0023736939033190321 -0.02333633250424819 0 -0.0023028328713149224 -0.023735365194459315 0 -0.0026882577429402227 -0.023312840142095104 0 -0.0026130168544168881 -0.023576232773215595 0 -0.0023736939033190321 -0.02333633250424819 0 -0.0023736939033190321 -0.02333633250424819 0 -0.0018782542522646284 -0.023631240493311396 0 -0.0023028328713149224 -0.023735365194459315 0 -0.0023736939033190321 -0.02333633250424819 0 -0.001984026068405522 -0.023151395771410756 0 -0.0018782542522646284 -0.023631240493311396 0 -0.0023736939033190321 -0.02333633250424819 0 -0.0022457995498672014 -0.022946446985043379 0 -0.001984026068405522 -0.023151395771410756 0 -0.0025919032567549324 -0.022985562187136904 0 -0.0023736939033190321 -0.02333633250424819 0 -0.0022457995498672014 -0.022946446985043379 0 -0.0018011014097308786 -0.022631978633927973 0 -0.001984026068405522 -0.023151395771410756 0 -0.0015246813166854695 -0.023158509715324228 0 -0.0022457995498672014 -0.022946446985043379 0 -0.0018011014097308786 -0.022631978633927973 0 -0.001984026068405522 -0.023151395771410756 0 -0.001984026068405522 -0.023151395771410756 0 -0.0018782542522646284 -0.023631240493311396 0 -0.0015246813166854695 -0.023158509715324228 0 -0.0018782542522646284 -0.023631240493311396 0 -0.0015246813166854695 -0.023158509715324228 0 -0.0012958992936328189 -0.023782824269465139 0 -0.00092732560056709085 -0.023135986867890541 0 -0.0015246813166854695 -0.023158509715324228 0 -0.0012958992936328189 -0.023782824269465139 0 -0.00092732560056709085 -0.023135986867890541 0 -0.0012958992936328189 -0.023782824269465139 0 -0.00084110955699390774 -0.023611043055625298 0 -0.00092732560056709085 -0.023135986867890541 0 -0.0015246813166854695 -0.023158509715324228 0 -0.0010860412853336864 -0.022462021299188294 0 -0.0018011014097308786 -0.022631978633927973 0 -0.0015246813166854695 -0.023158509715324228 0 -0.0010860412853336864 -0.022462021299188294 0 -0.0018011014097308786 -0.022631978633927973 0 -0.0010860412853336864 -0.022462021299188294 0 -0.0014165886878107763 -0.022043481641440245 0 -0.00091088535748510635 -0.02151990072684936 0 -0.0010860412853336864 -0.022462021299188294 0 -0.0014165886878107763 -0.022043481641440245 0 -0.00091088535748510635 -0.02151990072684936 0 -0.0014165886878107763 -0.022043481641440245 0 -0.0016056049663716438 -0.021287649166244958 0 -0.00091088535748510635 -0.02151990072684936 0 -0.0016056049663716438 -0.021287649166244958 0 -0.0010370809492872804 -0.020711358811217179 0 -0.0014165886878107763 -0.022043481641440245 0 -0.0016056049663716438 -0.021287649166244958 0 -0.0019191710874440736 -0.02207097504278116 0 -0.0016056049663716438 -0.021287649166244958 0 -0.0019191710874440736 -0.02207097504278116 0 -0.0023404970738365471 -0.021794539863318866 0 -0.0019191710874440736 -0.02207097504278116 0 -0.0023886080863543694 -0.022494112413353556 0 -0.0023404970738365471 -0.021794539863318866 0 -0.0018011014097308786 -0.022631978633927973 0 -0.0014165886878107763 -0.022043481641440245 0 -0.0019191710874440736 -0.02207097504278116 0 -0.0022457995498672014 -0.022946446985043379 0 -0.0018011014097308786 -0.022631978633927973 0 -0.0023886080863543694 -0.022494112413353556 0 -0.0018011014097308786 -0.022631978633927973 0 -0.0019191710874440736 -0.02207097504278116 0 -0.0023886080863543694 -0.022494112413353556 0 -0.0025919032567549324 -0.022985562187136904 0 -0.0022457995498672014 -0.022946446985043379 0 -0.0023886080863543694 -0.022494112413353556 0 -0.0025919032567549324 -0.022985562187136904 0 -0.0023886080863543694 -0.022494112413353556 0 -0.002774916354468263 -0.022689774014231449 0 -0.0023886080863543694 -0.022494112413353556 0 -0.0023404970738365471 -0.021794539863318866 0 -0.0028601876910668536 -0.022262446609923041 0 -0.0023404970738365471 -0.021794539863318866 0 -0.0028601876910668536 -0.022262446609923041 0 -0.0027558182135695398 -0.021475248970556172 0 -0.0023886080863543694 -0.022494112413353556 0 -0.0028601876910668536 -0.022262446609923041 0 -0.002774916354468263 -0.022689774014231449 0 -0.0028601876910668536 -0.022262446609923041 0 -0.0030921817377818975 -0.022568261035906749 0 -0.002774916354468263 -0.022689774014231449 0 -0.0028601876910668536 -0.022262446609923041 0 -0.0030921817377818975 -0.022568261035906749 0 -0.0033549370232006152 -0.02232257710447438 0 -0.0029913757549649726 -0.022877441369262543 0 -0.0030921817377818975 -0.022568261035906749 0 -0.002774916354468263 -0.022689774014231449 0 -0.0029913757549649726 -0.022877441369262543 0 -0.002774916354468263 -0.022689774014231449 0 -0.0028509054798577685 -0.023075375095966105 0 -0.0025919032567549324 -0.022985562187136904 0 -0.002774916354468263 -0.022689774014231449 0 -0.0028509054798577685 -0.023075375095966105 0 -0.0033807711103423558 -0.020333786120172993 0 -0.0033961453363702083 -0.021617576890036752 0 -0.0027256818048421684 -0.020798871609157905 0 -0.0033961453363702083 -0.021617576890036752 0 -0.0033549370232006152 -0.02232257710447438 0 -0.0027256818048421684 -0.020798871609157905 0 -0.0043511212734298728 -0.020130487855527589 0 -0.0033807711103423558 -0.020333786120172993 0 -0.0033961453363702083 -0.021617576890036752 0 -0.0033852992886642974 -0.022118858794615039 0 -0.0028093233168376168 -0.020510646127510336 0 -0.0033549370232006152 -0.02232257710447438 0 -0.0027558182135695398 -0.021475248970556172 0 -0.0029410214153048793 -0.020151720768612099 0 -0.0028601876910668536 -0.022262446609923041 0 -0.0033549370232006152 -0.02232257710447438 0 -0.0027558182135695398 -0.021475248970556172 0 -0.0027558182135695398 -0.021475248970556172 0 -0.0029410214153048793 -0.020151720768612099 0 -0.0021630748648061708 -0.020628302308380652 0 -0.0023404970738365471 -0.021794539863318866 0 -0.0027558182135695398 -0.021475248970556172 0 -0.0021630748648061708 -0.020628302308380652 0 -0.0021630748648061708 -0.020628302308380652 0 -0.0013423461233554336 -0.020033336800536407 0 -0.0021604761235073954 -0.018499415677345383 0 -0.0029410214153048793 -0.020151720768612099 0 -0.0021630748648061708 -0.020628302308380652 0 -0.0021604761235073954 -0.018499415677345383 0 -0.0016056049663716438 -0.021287649166244958 0 -0.0023404970738365471 -0.021794539863318866 0 -0.0021630748648061708 -0.020628302308380652 0 -0.0016056049663716438 -0.021287649166244958 0 -0.0021630748648061708 -0.020628302308380652 0 -0.0013423461233554336 -0.020033336800536407 0 -0.0016056049663716438 -0.021287649166244958 0 -0.0013423461233554336 -0.020033336800536407 0 -0.0010370809492872804 -0.020711358811217179 0 -0.0021604761235073954 -0.018499415677345383 0 -0.00093522045697313572 -0.01871252027587576 0 -0.0012020638076330459 -0.01793069783708405 0 -0.0013423461233554336 -0.020033336800536407 0 -0.0021604761235073954 -0.018499415677345383 0 -0.00093522045697313572 -0.01871252027587576 0 -0.0020179450256502971 -0.018661565294759531 0 -0.0012453504200085894 -0.017216617041266067 0 -0.0021604761235073954 -0.018499415677345383 0 -0.0012020638076330459 -0.01793069783708405 0 -0.0012420515191951306 -0.017068398613716583 0 -0.0018610185075985278 -0.018838914907114493 0 -0.0012420515191951306 -0.017068398613716583 0 -0.0021275116326689757 -0.016896863935110168 0 -0.0018610185075985278 -0.018838914907114493 0 -0.0025787140945248092 -0.017756663893995495 0 -0.0021275116326689757 -0.016896863935110168 0 -0.0028093233168376168 -0.020510646127510336 0 -0.0020179450256502971 -0.018661565294759531 0 -0.0033807711103423558 -0.020333786120172993 0 -0.0027256818048421684 -0.020798871609157905 0 -0.0030074248767555261 -0.019034003061728744 0 -0.0027256818048421684 -0.020798871609157905 0 -0.0018610185075985278 -0.018838914907114493 0 -0.0030074248767555261 -0.019034003061728744 0 -0.0030074248767555261 -0.019034003061728744 0 -0.0025787140945248092 -0.017756663893995495 0 -0.0031792906301701561 -0.017698384988052478 0 -0.0018610185075985278 -0.018838914907114493 0 -0.0030074248767555261 -0.019034003061728744 0 -0.0025787140945248092 -0.017756663893995495 0 -0.0030074248767555261 -0.019034003061728744 0 -0.0037913046993295228 -0.018506883694591653 0 -0.0031792906301701561 -0.017698384988052478 0 -0.0030074248767555261 -0.019034003061728744 0 -0.0037913046993295228 -0.018506883694591653 0 -0.0037946793186777127 -0.019461379443699345 0 -0.00451842609391766 -0.01828818205274671 0 -0.0037913046993295228 -0.018506883694591653 0 -0.0039188558249521497 -0.017622769005725 0 -0.0045512681003303376 -0.019162640419243874 0 -0.0037913046993295228 -0.018506883694591653 0 -0.0037946793186777127 -0.019461379443699345 0 -0.0033807711103423558 -0.020333786120172993 0 -0.0030074248767555261 -0.019034003061728744 0 -0.0037946793186777127 -0.019461379443699345 0 -0.0043511212734298728 -0.020130487855527589 0 -0.0033807711103423558 -0.020333786120172993 0 -0.0037946793186777127 -0.019461379443699345 0 0.00052011916629723996 -0.018635765047575491 0 0.0013579321219218327 -0.019150999639139851 0 0.00045264435844499345 -0.019841112374467621 0 0.00052011916629723996 -0.018635765047575491 0 0.0013579321219218327 -0.019150999639139851 0 0.0010844534913704205 -0.017927092848285125 0 0.002495005531108162 -0.019878560882526455 0 0.0015724930107741005 -0.020848178365417778 0 0.0012841170749024378 -0.020113103106920601 0 0.002495005531108162 -0.019878560882526455 0 0.0013579321219218327 -0.019150999639139851 0 0.0012841170749024378 -0.020113103106920601 0 0.0013579321219218327 -0.019150999639139851 0 0.0012841170749024378 -0.020113103106920601 0 0.00045264435844499345 -0.019841112374467621 0 0.00052346443729748583 -0.020969107025872399 0 0.0012841170749024378 -0.020113103106920601 0 0.00045264435844499345 -0.019841112374467621 0 0.00045264435844499345 -0.019841112374467621 0 -0.0003873177142582047 -0.020431699770358632 0 -0.00011247340491641263 -0.019141984105838644 0 0.00052346443729748583 -0.020969107025872399 0 0.00045264435844499345 -0.019841112374467621 0 -0.0003873177142582047 -0.020431699770358632 0 -0.0010370809492872804 -0.020711358811217179 0 -0.0003873177142582047 -0.020431699770358632 0 -0.00070029326732606683 -0.019715713425707344 0 -0.0013423461233554336 -0.020033336800536407 0 -0.0010370809492872804 -0.020711358811217179 0 -0.00070029326732606683 -0.019715713425707344 0 -0.0013423461233554336 -0.020033336800536407 0 -0.00070029326732606683 -0.019715713425707344 0 -0.00093522045697313572 -0.01871252027587576 0 -0.00070029326732606683 -0.019715713425707344 0 -0.00011247340491641263 -0.019141984105838644 0 -0.00093522045697313572 -0.01871252027587576 0 -0.0003873177142582047 -0.020431699770358632 0 -0.00070029326732606683 -0.019715713425707344 0 -0.00011247340491641263 -0.019141984105838644 0 0.00052011916629723996 -0.018635765047575491 0 0.00045264435844499345 -0.019841112374467621 0 -0.00011247340491641263 -0.019141984105838644 0 -4.8424991212938974e-05 -0.01811993133397452 0 -0.00093522045697313572 -0.01871252027587576 0 -0.00047403010055698452 -0.01745119782517392 0 0.00052011916629723996 -0.018635765047575491 0 -0.00011247340491641263 -0.019141984105838644 0 -4.8424991212938974e-05 -0.01811993133397452 0 -0.00011247340491641263 -0.019141984105838644 0 -4.8424991212938974e-05 -0.01811993133397452 0 -0.00093522045697313572 -0.01871252027587576 0 -4.8424991212938974e-05 -0.01811993133397452 0 7.3284712090013486e-05 -0.017343332616010086 0 0.0005362607991264074 -0.017510514501574717 0 -0.00093522045697313572 -0.01871252027587576 0 -0.0012020638076330459 -0.01793069783708405 0 -0.00047403010055698452 -0.01745119782517392 0 -0.00047403010055698452 -0.01745119782517392 0 -0.0012420515191951306 -0.017068398613716583 0 -0.00059370260776619532 -0.016315070714675726 0 -0.0012020638076330459 -0.01793069783708405 0 -0.00047403010055698452 -0.01745119782517392 0 -0.0012420515191951306 -0.017068398613716583 0 -0.00047403010055698452 -0.01745119782517392 0 -0.00011119055965693322 -0.01676132483601446 0 -0.00059370260776619532 -0.016315070714675726 0 -4.8424991212938974e-05 -0.01811993133397452 0 7.3284712090013486e-05 -0.017343332616010086 0 -0.00047403010055698452 -0.01745119782517392 0 7.3284712090013486e-05 -0.017343332616010086 0 -0.00047403010055698452 -0.01745119782517392 0 -0.00011119055965693322 -0.01676132483601446 0 7.3284712090013486e-05 -0.017343332616010086 0 -0.00011119055965693322 -0.01676132483601446 0 0.00037428068266523624 -0.016727614272749096 0 0.00037428068266523624 -0.016727614272749096 0 0.00075501361752807177 -0.016244233809587779 0 0.00091779468983206743 -0.016822110067605846 0 0.00037428068266523624 -0.016727614272749096 0 0.00091779468983206743 -0.016822110067605846 0 0.0005362607991264074 -0.017510514501574717 0 7.3284712090013486e-05 -0.017343332616010086 0 0.00037428068266523624 -0.016727614272749096 0 0.0005362607991264074 -0.017510514501574717 0 0.00091779468983206743 -0.016822110067605846 0 0.0005362607991264074 -0.017510514501574717 0 0.0010844534913704205 -0.017927092848285125 0 0.00052011916629723996 -0.018635765047575491 0 0.0005362607991264074 -0.017510514501574717 0 0.0010844534913704205 -0.017927092848285125 0 0.00052011916629723996 -0.018635765047575491 0 -4.8424991212938974e-05 -0.01811993133397452 0 0.0005362607991264074 -0.017510514501574717 0 0.0024811199781534969 -0.01822222279428453 0 0.0013579321219218327 -0.019150999639139851 0 0.0010844534913704205 -0.017927092848285125 0 0.0024811199781534969 -0.01822222279428453 0 0.0010844534913704205 -0.017927092848285125 0 0.0014135387833873131 -0.01675209141254989 0 0.00091779468983206743 -0.016822110067605846 0 0.0010844534913704205 -0.017927092848285125 0 0.0014135387833873131 -0.01675209141254989 0 0.00091779468983206743 -0.016822110067605846 0 0.0014135387833873131 -0.01675209141254989 0 0.0012299192183277019 -0.016332238896048502 0 0.00091779468983206743 -0.016822110067605846 0 0.0012299192183277019 -0.016332238896048502 0 0.0011449836820215682 -0.015991146982162377 0 0.00075501361752807177 -0.016244233809587779 0 0.00091779468983206743 -0.016822110067605846 0 0.0011449836820215682 -0.015991146982162377 0 0.0016934943128243411 -0.015430142070235726 0 0.0014135387833873131 -0.01675209141254989 0 0.0014300458741217945 -0.015803633702367533 0 0.0012299192183277019 -0.016332238896048502 0 0.0011449836820215682 -0.015991146982162377 0 0.0014300458741217945 -0.015803633702367533 0 0.0014135387833873131 -0.01675209141254989 0 0.0012299192183277019 -0.016332238896048502 0 0.0014300458741217945 -0.015803633702367533 0 0.0011449836820215682 -0.015991146982162377 0 0.0014300458741217945 -0.015803633702367533 0 0.0012272541049750151 -0.015665351045194967 0 0.0014300458741217945 -0.015803633702367533 0 0.0012272541049750151 -0.015665351045194967 0 0.0014519978814096853 -0.015307883680629237 0 0.00075501361752807177 -0.016244233809587779 0 0.0011449836820215682 -0.015991146982162377 0 0.00092264118360060497 -0.015772749639293093 0 0.0011449836820215682 -0.015991146982162377 0 0.0012272541049750151 -0.015665351045194967 0 0.00092264118360060497 -0.015772749639293093 0 0.0012272541049750151 -0.015665351045194967 0 0.0010816239385825078 -0.015383206194001676 0 0.0014519978814096853 -0.015307883680629237 0 0.0010816239385825078 -0.015383206194001676 0 0.0014519978814096853 -0.015307883680629237 0 0.0011014199726581732 -0.014938444616551342 0 0.0010816239385825078 -0.015383206194001676 0 0.00072887318508623247 -0.015308914584949448 0 0.00092264118360060497 -0.015772749639293093 0 0.0012272541049750151 -0.015665351045194967 0 0.0010816239385825078 -0.015383206194001676 0 0.00092264118360060497 -0.015772749639293093 0 0.0014519978814096853 -0.015307883680629237 0 0.0015112957578145971 -0.014745505050655753 0 0.0011014199726581732 -0.014938444616551342 0 0.0010816239385825078 -0.015383206194001676 0 0.0011014199726581732 -0.014938444616551342 0 0.00072887318508623247 -0.015308914584949448 0 0.0011014199726581732 -0.014938444616551342 0 0.0011799745365523391 -0.014291940157279611 0 0.00068137363433308485 -0.014344170691407639 0 0.0015112957578145971 -0.014745505050655753 0 0.0011799745365523391 -0.014291940157279611 0 0.0016116968877822942 -0.014125691863842832 0 0.0015112957578145971 -0.014745505050655753 0 0.0011014199726581732 -0.014938444616551342 0 0.0011799745365523391 -0.014291940157279611 0 0.00072887318508623247 -0.015308914584949448 0 0.00031450384278744009 -0.015064813275901276 0 0.00068137363433308485 -0.014344170691407639 0 0.0011014199726581732 -0.014938444616551342 0 0.00072887318508623247 -0.015308914584949448 0 0.00068137363433308485 -0.014344170691407639 0 0.00031450384278744009 -0.015064813275901276 0 0.00068137363433308485 -0.014344170691407639 0 0.00016581740699411892 -0.014136390006872786 0 0.00072887318508623247 -0.015308914584949448 0 0.00031450384278744009 -0.015064813275901276 0 0.00053399195393153136 -0.015855144572487049 0 0.00031450384278744009 -0.015064813275901276 0 0.00053399195393153136 -0.015855144572487049 0 5.9365426507231562e-05 -0.016025967650421611 0 0.00072887318508623247 -0.015308914584949448 0 0.00092264118360060497 -0.015772749639293093 0 0.00053399195393153136 -0.015855144572487049 0 0.00075501361752807177 -0.016244233809587779 0 0.00092264118360060497 -0.015772749639293093 0 0.00053399195393153136 -0.015855144572487049 0 0.00037428068266523624 -0.016727614272749096 0 0.00053399195393153136 -0.015855144572487049 0 5.9365426507231562e-05 -0.016025967650421611 0 0.00037428068266523624 -0.016727614272749096 0 0.00075501361752807177 -0.016244233809587779 0 0.00053399195393153136 -0.015855144572487049 0 -0.00011119055965693322 -0.01676132483601446 0 0.00037428068266523624 -0.016727614272749096 0 5.9365426507231562e-05 -0.016025967650421611 0 -0.00011119055965693322 -0.01676132483601446 0 5.9365426507231562e-05 -0.016025967650421611 0 -0.00059370260776619532 -0.016315070714675726 0 5.9365426507231562e-05 -0.016025967650421611 0 -0.00059370260776619532 -0.016315070714675726 0 -0.00025783963112265012 -0.015470360049684363 0 -0.0012420515191951306 -0.017068398613716583 0 -0.00059370260776619532 -0.016315070714675726 0 -0.0013764480216189507 -0.015886070044413315 0 -0.00079364641849418078 -0.015300761369785358 0 -0.00039153388651224204 -0.014551831307885552 0 -0.0012846890439157628 -0.014572230131220196 0 -0.00079364641849418078 -0.015300761369785358 0 -0.0012846890439157628 -0.014572230131220196 0 -0.0013764480216189507 -0.015886070044413315 0 -0.00059370260776619532 -0.016315070714675726 0 -0.00079364641849418078 -0.015300761369785358 0 -0.0013764480216189507 -0.015886070044413315 0 0.00031450384278744009 -0.015064813275901276 0 5.9365426507231562e-05 -0.016025967650421611 0 -0.00025783963112265012 -0.015470360049684363 0 -0.00059370260776619532 -0.016315070714675726 0 -0.00079364641849418078 -0.015300761369785358 0 -0.00025783963112265012 -0.015470360049684363 0 -0.00079364641849418078 -0.015300761369785358 0 -0.00025783963112265012 -0.015470360049684363 0 -0.00039153388651224204 -0.014551831307885552 0 0.00031450384278744009 -0.015064813275901276 0 -0.00039153388651224204 -0.014551831307885552 0 0.00016581740699411892 -0.014136390006872786 0 0.00031450384278744009 -0.015064813275901276 0 -0.00025783963112265012 -0.015470360049684363 0 -0.00039153388651224204 -0.014551831307885552 0 -0.00039153388651224204 -0.014551831307885552 0 -0.00021833931461722451 -0.013587829285001716 0 0.00016581740699411892 -0.014136390006872786 0 -0.00039153388651224204 -0.014551831307885552 0 -0.00021833931461722451 -0.013587829285001716 0 -0.00085644774746757545 -0.013768547146047945 0 -0.00039153388651224204 -0.014551831307885552 0 -0.0012846890439157628 -0.014572230131220196 0 -0.00085644774746757545 -0.013768547146047945 0 -0.0012846890439157628 -0.014572230131220196 0 -0.00085644774746757545 -0.013768547146047945 0 -0.0016832858031275268 -0.013433609868426207 0 -0.00085644774746757545 -0.013768547146047945 0 -0.00079252294770548227 -0.012877693896747108 0 -0.0016832858031275268 -0.013433609868426207 0 -0.00079252294770548227 -0.012877693896747108 0 -0.0016832858031275268 -0.013433609868426207 0 -0.0016442907421449307 -0.012462432713962973 0 -0.00079252294770548227 -0.012877693896747108 0 2.7152755333876087e-05 -0.012862443633136803 0 -0.00035501595130546894 -0.012317039311049226 0 -0.00021833931461722451 -0.013587829285001716 0 -0.00079252294770548227 -0.012877693896747108 0 2.7152755333876087e-05 -0.012862443633136803 0 -0.00021833931461722451 -0.013587829285001716 0 -0.00085644774746757545 -0.013768547146047945 0 -0.00079252294770548227 -0.012877693896747108 0 2.7152755333876087e-05 -0.012862443633136803 0 0.00048775111244364698 -0.013369878201587743 0 0.00062424534517084487 -0.012061358956458011 0 -0.00021833931461722451 -0.013587829285001716 0 2.7152755333876087e-05 -0.012862443633136803 0 0.00048775111244364698 -0.013369878201587743 0 0.00048775111244364698 -0.013369878201587743 0 0.0011544789004920796 -0.013335073146371659 0 0.00062424534517084487 -0.012061358956458011 0 0.0011544789004920796 -0.013335073146371659 0 0.00062424534517084487 -0.012061358956458011 0 0.0018080962906259631 -0.011940936122918674 0 0.0011799745365523391 -0.014291940157279611 0 0.0011544789004920796 -0.013335073146371659 0 0.0016116968877822942 -0.014125691863842832 0 0.0011799745365523391 -0.014291940157279611 0 0.0011544789004920796 -0.013335073146371659 0 0.00068137363433308485 -0.014344170691407639 0 0.00048775111244364698 -0.013369878201587743 0 0.0011544789004920796 -0.013335073146371659 0 0.00068137363433308485 -0.014344170691407639 0 -0.00021833931461722451 -0.013587829285001716 0 0.00048775111244364698 -0.013369878201587743 0 0.00016581740699411892 -0.014136390006872786 0 0.00048775111244364698 -0.013369878201587743 0 0.00068137363433308485 -0.014344170691407639 0 0.00016581740699411892 -0.014136390006872786 0 -0.0038449962575146843 -0.016531272543452255 0 -0.0034971785553570868 -0.016912509352178674 0 -0.0033186552689452591 -0.016189038223501526 0 -0.0042592654053264416 -0.016870100004852173 0 -0.0038449962575146843 -0.016531272543452255 0 -0.0034971785553570868 -0.016912509352178674 0 -0.0042592654053264416 -0.016870100004852173 0 -0.0034971785553570868 -0.016912509352178674 0 -0.0039188558249521497 -0.017622769005725 0 -0.0037913046993295228 -0.018506883694591653 0 -0.0039188558249521497 -0.017622769005725 0 -0.0031792906301701561 -0.017698384988052478 0 -0.0034971785553570868 -0.016912509352178674 0 -0.0039188558249521497 -0.017622769005725 0 -0.0031792906301701561 -0.017698384988052478 0 -0.0034971785553570868 -0.016912509352178674 0 -0.0031792906301701561 -0.017698384988052478 0 -0.0026671268352246296 -0.016720984231455044 0 -0.0025787140945248092 -0.017756663893995495 0 -0.0031792906301701561 -0.017698384988052478 0 -0.0026671268352246296 -0.016720984231455044 0 -0.0034971785553570868 -0.016912509352178674 0 -0.0026671268352246296 -0.016720984231455044 0 -0.0033186552689452591 -0.016189038223501526 0 -0.0026671268352246296 -0.016720984231455044 0 -0.0026721675612972422 -0.016155367375597363 0 -0.0033186552689452591 -0.016189038223501526 0 -0.0026671268352246296 -0.016720984231455044 0 -0.0021275116326689757 -0.016896863935110168 0 -0.0020407006839931866 -0.016169058436792855 0 -0.0021682419806414964 -0.016773181057951145 0 -0.0022946978476778351 -0.015459981380758801 0 -0.0026671268352246296 -0.016720984231455044 0 -0.0020407006839931866 -0.016169058436792855 0 -0.0026721675612972422 -0.016155367375597363 0 -0.0025787140945248092 -0.017756663893995495 0 -0.0026671268352246296 -0.016720984231455044 0 -0.0021275116326689757 -0.016896863935110168 0 -0.0012420515191951306 -0.017068398613716583 0 -0.0021275116326689757 -0.016896863935110168 0 -0.0013764480216189507 -0.015886070044413315 0 -0.0021275116326689757 -0.016896863935110168 0 -0.0013764480216189507 -0.015886070044413315 0 -0.0026098526156187948 -0.014773821950459998 0 -0.0012846890439157628 -0.014572230131220196 0 -0.0013764480216189507 -0.015886070044413315 0 -0.0026098526156187948 -0.014773821950459998 0 -0.0012846890439157628 -0.014572230131220196 0 -0.0016832858031275268 -0.013433609868426207 0 -0.0026098526156187948 -0.014773821950459998 0 -0.0016832858031275268 -0.013433609868426207 0 -0.0026543827383767888 -0.013154440013648664 0 -0.0026098526156187948 -0.014773821950459998 0 -0.0016832858031275268 -0.013433609868426207 0 -0.0022137771881595952 -0.012650886181425932 0 -0.0016442907421449307 -0.012462432713962973 0 -0.0016832858031275268 -0.013433609868426207 0 -0.0026543827383767888 -0.013154440013648664 0 -0.0022137771881595952 -0.012650886181425932 0 -0.0024315854618139204 -0.014688744376994627 0 -0.0020135799816172711 -0.014976432811319287 0 -0.0027018591359987891 -0.01551933760813559 0 -0.0024165855320614354 -0.014143778196316558 0 -0.0022946978476778351 -0.015459981380758801 0 -0.0020135799816172711 -0.014976432811319287 0 -0.0020407006839931866 -0.016169058436792855 0 -0.0027018591359987891 -0.01551933760813559 0 -0.0020407006839931866 -0.016169058436792855 0 -0.0026721675612972422 -0.016155367375597363 0 -0.0027018591359987891 -0.01551933760813559 0 -0.0033186552689452591 -0.016189038223501526 0 -0.0027018591359987891 -0.01551933760813559 0 -0.0034978154825535011 -0.015685793155088754 0 -0.0026721675612972422 -0.016155367375597363 0 -0.0033186552689452591 -0.016189038223501526 0 -0.0027018591359987891 -0.01551933760813559 0 -0.0024965886742752395 -0.014706994713360884 0 -0.0031386341603855065 -0.014990894065302962 0 -0.0027018591359987891 -0.01551933760813559 0 -0.00333850229607833 -0.015130191752784289 0 -0.0034978154825535011 -0.015685793155088754 0 -0.0024315854618139204 -0.014688744376994627 0 -0.0029748598296536559 -0.014860273376888007 0 -0.0028328720632112875 -0.01451839293323472 0 -0.0024315854618139204 -0.014688744376994627 0 -0.0027018591359987891 -0.01551933760813559 0 -0.00333850229607833 -0.015130191752784289 0 -0.0029969173723177769 -0.014503141408264931 0 -0.0021463380766861559 -0.013954648868380271 0 -0.0038562553124260736 -0.015325792332435507 0 -0.0031386341603855065 -0.014990894065302962 0 -0.0034265646351051273 -0.015073092924697364 0 -0.0029748598296536559 -0.014860273376888007 0 -0.003346554130053009 -0.014822315894072525 0 -0.0029748598296536559 -0.014860273376888007 0 -0.003346554130053009 -0.014822315894072525 0 -0.0028328720632112875 -0.01451839293323472 0 -0.0042715205691482641 -0.015559516284861508 0 -0.0034978154825535011 -0.015685793155088754 0 -0.0039109863823923938 -0.016031495559778331 0 -0.0042715205691482641 -0.015559516284861508 0 -0.00333850229607833 -0.015130191752784289 0 -0.0034978154825535011 -0.015685793155088754 0 -0.0033186552689452591 -0.016189038223501526 0 -0.0034978154825535011 -0.015685793155088754 0 -0.0039109863823923938 -0.016031495559778331 0 -0.0038449962575146843 -0.016531272543452255 0 -0.0033186552689452591 -0.016189038223501526 0 -0.0039109863823923938 -0.016031495559778331 0 -0.0045787160873307312 -0.016226372458603568 0 -0.0038449962575146843 -0.016531272543452255 0 -0.0039109863823923938 -0.016031495559778331 0 -0.0024303447501318998 -0.012270960711128279 0 -0.0018767664170071115 -0.012329763984859007 0 -0.0016281253204815877 -0.011554553385803593 0 -0.0024303447501318998 -0.012270960711128279 0 -0.0018767664170071115 -0.012329763984859007 0 -0.0022113659676263634 -0.012977931640645842 0 -0.0018767664170071115 -0.012329763984859007 0 -0.0022113659676263634 -0.012977931640645842 0 -0.0014377840774815593 -0.013251065130319805 0 -0.0025927841465890949 -0.014185323715315962 0 -0.0022113659676263634 -0.012977931640645842 0 -0.0014377840774815593 -0.013251065130319805 0 -0.0014377840774815593 -0.013251065130319805 0 -0.0013478508595806766 -0.012211664521402354 0 -0.00097426383579526823 -0.012283566192490996 0 -0.0013478508595806766 -0.012211664521402354 0 -0.0009842474700486525 -0.011840820206131657 0 -0.00097426383579526823 -0.012283566192490996 0 -0.0018767664170071115 -0.012329763984859007 0 -0.0014377840774815593 -0.013251065130319805 0 -0.0013478508595806766 -0.012211664521402354 0 -0.0018767664170071115 -0.012329763984859007 0 -0.0013478508595806766 -0.012211664521402354 0 -0.0016281253204815877 -0.011554553385803593 0 -0.0013478508595806766 -0.012211664521402354 0 -0.0009842474700486525 -0.011840820206131657 0 -0.0016281253204815877 -0.011554553385803593 0 -0.0009842474700486525 -0.011840820206131657 0 -0.00060181511111167033 -0.01177441373475545 0 -0.00064424800533482735 -0.011431153430893173 0 -0.0009842474700486525 -0.011840820206131657 0 -0.00060181511111167033 -0.01177441373475545 0 -0.00097426383579526823 -0.012283566192490996 0 -0.00060181511111167033 -0.01177441373475545 0 -0.00049486482954323719 -0.012333815329374996 0 -0.00097426383579526823 -0.012283566192490996 0 -0.0010990594308164805 -0.011953152011695199 0 -0.0014617963986544821 -0.012542805552589454 0 -0.0021463380766861559 -0.013954648868380271 0 -0.0014617963986544821 -0.012542805552589454 0 -0.0024315854618139204 -0.014688744376994627 0 -0.0020135799816172711 -0.014976432811319287 0 -0.0020958330418022401 -0.01398656032018975 0 -0.0024315854618139204 -0.014688744376994627 0 -0.0028328720632112875 -0.01451839293323472 0 -0.0020958330418022401 -0.01398656032018975 0 -0.0024165855320614354 -0.014143778196316558 0 -0.0014617963986544821 -0.012542805552589454 0 -0.0026543827383767888 -0.013154440013648664 0 -0.0026043047689395457 -0.011785266544486854 0 -0.0022137771881595952 -0.012650886181425932 0 -0.0014377840774815593 -0.013251065130319805 0 -0.00049486482954323719 -0.012333815329374996 0 -0.00097426383579526823 -0.012283566192490996 0 -0.0026043047689395457 -0.011785266544486854 0 -0.002077963901680073 -0.01221076754540292 0 -0.0022137771881595952 -0.012650886181425932 0 -0.0026043047689395457 -0.011785266544486854 0 -0.002077963901680073 -0.01221076754540292 0 -0.0017815660383340855 -0.011892380279016927 0 -0.002077963901680073 -0.01221076754540292 0 -0.0022137771881595952 -0.012650886181425932 0 -0.0016442907421449307 -0.012462432713962973 0 -0.002077963901680073 -0.01221076754540292 0 -0.0016442907421449307 -0.012462432713962973 0 -0.0017815660383340855 -0.011892380279016927 0 -0.0014617963986544821 -0.012542805552589454 0 -0.0010886472228237081 -0.011294392055991084 0 -0.0026043047689395457 -0.011785266544486854 0 -0.0017815660383340855 -0.011892380279016927 0 -0.0015083673029899758 -0.01125094629412784 0 -0.00060181511111167033 -0.01177441373475545 0 -0.00068648358712284437 -0.011457502510433874 0 -0.00068854128886196981 -0.011404962625333089 0 -0.00060181511111167033 -0.01177441373475545 0 -0.00060112672630060473 -0.01178735150136663 0 -0.00068648358712284437 -0.011457502510433874 0 -0.00068648358712284437 -0.011457502510433874 0 -0.00068854128886196981 -0.011404962625333089 0 -0.00085270366467853737 -0.011210041316411439 0 -0.00068854128886196981 -0.011404962625333089 0 -0.00085270366467853737 -0.011210041316411439 0 -0.00064518505480514973 -0.01152092734133333 0 -0.00087452397396890346 -0.011227210700943291 0 -0.00088358361356471733 -0.011361901370750178 0 -0.00085270366467853737 -0.011210041316411439 0 -0.00064518505480514973 -0.01152092734133333 0 -0.001273043513658556 -0.012422647210981739 0 -0.00064518505480514973 -0.01152092734133333 0 -0.00033351746007761281 -0.011645146645363445 0 -0.00049130411003424042 -0.011971890461628677 0 -0.00064518505480514973 -0.01152092734133333 0 -0.00064424800533482735 -0.011431153430893173 0 -0.00033351746007761281 -0.011645146645363445 0 -0.00068854128886196981 -0.011404962625333089 0 -0.00064518505480514973 -0.01152092734133333 0 -0.00064424800533482735 -0.011431153430893173 0 -0.00060181511111167033 -0.01177441373475545 0 -0.00068854128886196981 -0.011404962625333089 0 -0.00064424800533482735 -0.011431153430893173 0 -0.00064424800533482735 -0.011431153430893173 0 -9.2711398460215534e-05 -0.011396642232896237 0 -0.00033351746007761281 -0.011645146645363445 0 -0.00065018998099545253 -0.011442756457754453 0 -0.0008501080166983593 -0.011485282326243049 0 -0.0009842474700486525 -0.011840820206131657 0 -0.00064424800533482735 -0.011431153430893173 0 -0.0016281253204815877 -0.011554553385803593 0 -9.2711398460215534e-05 -0.011396642232896237 0 -0.00033351746007761281 -0.011645146645363445 0 9.2094289400899e-05 -0.011694525682628838 0 -0.00033351746007761281 -0.011645146645363445 0 9.2094289400899e-05 -0.011694525682628838 0 0.00011492103764789238 -0.012152662990768358 0 -0.00033351746007761281 -0.011645146645363445 0 0.00011492103764789238 -0.012152662990768358 0 -0.00049130411003424042 -0.011971890461628677 0 0.0003313558528701923 -0.011458763948891709 0 0.00040010762532430901 -0.011760417128009232 0 9.2094289400899e-05 -0.011694525682628838 0 0.00040010762532430901 -0.011760417128009232 0 9.2094289400899e-05 -0.011694525682628838 0 0.00011492103764789238 -0.012152662990768358 0 0.0005181453384103088 -0.012666170215134177 0 -8.1338777224023055e-05 -0.012970044557301106 0 -0.0026174797869104771 -0.01170645332233013 0 -0.0024303447501318998 -0.012270960711128279 0 -0.0016281253204815877 -0.011554553385803593 0 -0.0011385142005653666 -0.011550053786085528 0 -0.0008501080166983593 -0.011485282326243049 0 0.0003313558528701923 -0.011458763948891709 0 -9.2711398460215534e-05 -0.011396642232896237 0 9.2094289400899e-05 -0.011694525682628838 0 0.00039246864236782184 -0.011187565300974398 0 -0.00024861536158450121 -0.011571118862921486 0 -6.5427375754598723e-05 -0.011007406109516706 0 0.00039246864236782184 -0.011187565300974398 0 0.00062424534517084487 -0.012061358956458011 0 -0.00024861536158450121 -0.011571118862921486 0 0.00039246864236782184 -0.011187565300974398 0 0.0011289633807965531 -0.011364668476548779 0 0.00062424534517084487 -0.012061358956458011 0 0.00039246864236782184 -0.011187565300974398 0 0.001127522221091653 -0.010778332159125744 0 0.0011289633807965531 -0.011364668476548779 0 0.0011289633807965531 -0.011364668476548779 0 0.00062424534517084487 -0.012061358956458011 0 0.0018080962906259631 -0.011940936122918674 0 2.7152755333876087e-05 -0.012862443633136803 0 0.00062424534517084487 -0.012061358956458011 0 -0.00035501595130546894 -0.012317039311049226 0 0.00062424534517084487 -0.012061358956458011 0 -0.00035501595130546894 -0.012317039311049226 0 -0.00024861536158450121 -0.011571118862921486 0 -0.00079252294770548227 -0.012877693896747108 0 -0.00035501595130546894 -0.012317039311049226 0 -0.00096441145435449617 -0.011812051110479716 0 -0.00035501595130546894 -0.012317039311049226 0 -0.00096441145435449617 -0.011812051110479716 0 -0.00024861536158450121 -0.011571118862921486 0 -0.00079252294770548227 -0.012877693896747108 0 -0.0016442907421449307 -0.012462432713962973 0 -0.00096441145435449617 -0.011812051110479716 0 -0.0016442907421449307 -0.012462432713962973 0 -0.0017815660383340855 -0.011892380279016927 0 -0.00096441145435449617 -0.011812051110479716 0 -0.0015083673029899758 -0.01125094629412784 0 -0.00096441145435449617 -0.011812051110479716 0 -0.00048216828223205944 -0.010901633912905434 0 -0.0017815660383340855 -0.011892380279016927 0 -0.0015083673029899758 -0.01125094629412784 0 -0.00096441145435449617 -0.011812051110479716 0 -0.00096441145435449617 -0.011812051110479716 0 -0.00024861536158450121 -0.011571118862921486 0 -0.00048216828223205944 -0.010901633912905434 0 -0.00024861536158450121 -0.011571118862921486 0 -0.00048216828223205944 -0.010901633912905434 0 -6.5427375754598723e-05 -0.011007406109516706 0 -0.00048216828223205944 -0.010901633912905434 0 0.00014676943329058325 -0.010438278356731764 0 -6.5427375754598723e-05 -0.011007406109516706 0 -0.0010886472228237081 -0.011294392055991084 0 -0.0005724456374205574 -0.010982857023497619 0 -0.00068648358712284437 -0.011457502510433874 0 -0.00085270366467853737 -0.011210041316411439 0 -0.00048216828223205944 -0.010901633912905434 0 -0.00085270366467853737 -0.011210041316411439 0 -0.00024935544494285447 -0.010450472336773887 0 -0.00057537158538053959 -0.010270921897869229 0 -0.00085270366467853737 -0.011210041316411439 0 -0.00048216828223205944 -0.010901633912905434 0 -0.00024935544494285447 -0.010450472336773887 0 -0.00048216828223205944 -0.010901633912905434 0 -0.00024935544494285447 -0.010450472336773887 0 0.00014676943329058325 -0.010438278356731764 0 -0.00024935544494285447 -0.010450472336773887 0 0.00014676943329058325 -0.010438278356731764 0 6.1300552401130493e-05 -0.010210151319028821 0 0.00039246864236782184 -0.011187565300974398 0 0.00014676943329058325 -0.010438278356731764 0 -6.5427375754598723e-05 -0.011007406109516706 0 0.00039246864236782184 -0.011187565300974398 0 0.001127522221091653 -0.010778332159125744 0 0.00014676943329058325 -0.010438278356731764 0 0.00018024974892430907 -0.010352307337818776 0 0.00085989911948323517 -0.0098376871881474502 0 0.00014676943329058325 -0.010438278356731764 0 0.0011887458809171779 -0.01017802901581248 0 0.0015088309443418578 -0.0094914578137904656 0 0.001127522221091653 -0.010778332159125744 0 0.00014676943329058325 -0.010438278356731764 0 0.0011887458809171779 -0.01017802901581248 0 0.00014676943329058325 -0.010438278356731764 0 0.00013325518485830484 -0.0099891572882824901 0 0.0001916901675184749 -0.010135999836578778 0 0.00014676943329058325 -0.010438278356731764 0 0.00013325518485830484 -0.0099891572882824901 0 6.1300552401130493e-05 -0.010210151319028821 0 0.00013325518485830484 -0.0099891572882824901 0 0.0001916901675184749 -0.010135999836578778 0 0.00045422987019494893 -0.0097433993967099702 0 0.00085989911948323517 -0.0098376871881474502 0 0.0017263682301041183 -0.0093303364732866805 0 0.0015088309443418578 -0.0094914578137904656 0 0.0019269800213411801 -0.0099975208490362313 0 0.0025976093528784828 -0.0088819875244477899 0 0.0001916901675184749 -0.010135999836578778 0 0.00084681850511293655 -0.0097947745625819645 0 0.00045422987019494893 -0.0097433993967099702 0 0.0019269800213411801 -0.0099975208490362313 0 0.0025976093528784828 -0.0088819875244477899 0 0.0026248843565850086 -0.0096116830292869975 0 0.0019269800213411801 -0.0099975208490362313 0 0.0026248843565850086 -0.0096116830292869975 0 0.0023364689935844807 -0.010419298935821461 0 0.001127522221091653 -0.010778332159125744 0 0.0011887458809171779 -0.01017802901581248 0 0.0019269800213411801 -0.0099975208490362313 0 0.0011887458809171779 -0.01017802901581248 0 0.0015088309443418578 -0.0094914578137904656 0 0.0019269800213411801 -0.0099975208490362313 0 0.0025976093528784828 -0.0088819875244477899 0 0.0032088277546066385 -0.00949132237889805 0 0.0033805987567152363 -0.0083282071943685584 0 0.0017263682301041183 -0.0093303364732866805 0 0.0025192369120153467 -0.0088371658562912854 0 0.0025976093528784828 -0.0088819875244477899 0 0.0026248843565850086 -0.0096116830292869975 0 0.0032088277546066385 -0.00949132237889805 0 0.0026248843565850086 -0.0096116830292869975 0 0.0032088277546066385 -0.00949132237889805 0 0.0023364689935844807 -0.010419298935821461 0 0.0035348218701118273 -0.0092702671768735007 0 0.0031889048836170877 -0.010444364312024968 0 0.0039365809078895963 -0.0092434602188301972 0 0.0033561683294061001 -0.0094041249194917863 0 0.0023719319637014492 -0.010297960929722228 0 0.0035348218701118273 -0.0092702671768735007 0 0.0031889048836170877 -0.010444364312024968 0 0.0023364689935844807 -0.010419298935821461 0 0.0031889048836170877 -0.010444364312024968 0 0.0037539499625793811 -0.01149992540219731 0 0.0027479665992587153 -0.011880919723937499 0 0.003567771862627273 -0.010562901877458517 0 0.0039299781124670806 -0.0094063178031055066 0 0.0031889048836170877 -0.010444364312024968 0 0.0037539499625793811 -0.01149992540219731 0 0.0039365809078895963 -0.0092434602188301972 0 0.0016633152292245558 -0.010879749286708422 0 0.0023364689935844807 -0.010419298935821461 0 0.0018080962906259631 -0.011940936122918674 0 0.001127522221091653 -0.010778332159125744 0 0.0019269800213411801 -0.0099975208490362313 0 0.0016633152292245558 -0.010879749286708422 0 0.001127522221091653 -0.010778332159125744 0 0.0011289633807965531 -0.011364668476548779 0 0.0016633152292245558 -0.010879749286708422 0 0.0019269800213411801 -0.0099975208490362313 0 0.0016633152292245558 -0.010879749286708422 0 0.0023364689935844807 -0.010419298935821461 0 0.0031889048836170877 -0.010444364312024968 0 0.0023364689935844807 -0.010419298935821461 0 0.0027479665992587153 -0.011880919723937499 0 0.0023364689935844807 -0.010419298935821461 0 0.0018080962906259631 -0.011940936122918674 0 0.0027479665992587153 -0.011880919723937499 0 0.0011289633807965531 -0.011364668476548779 0 0.0016633152292245558 -0.010879749286708422 0 0.0018080962906259631 -0.011940936122918674 0 0.0011544789004920796 -0.013335073146371659 0 0.0018080962906259631 -0.011940936122918674 0 0.0020934792789121114 -0.013244173151183968 0 0.0020934792789121114 -0.013244173151183968 0 0.0016116968877822942 -0.014125691863842832 0 0.0022422978052484147 -0.014869262256650072 0 0.0011544789004920796 -0.013335073146371659 0 0.0020934792789121114 -0.013244173151183968 0 0.0016116968877822942 -0.014125691863842832 0 0.0020934792789121114 -0.013244173151183968 0 0.0030867601006923893 -0.013295827551914479 0 0.0022422978052484147 -0.014869262256650072 0 0.0020934792789121114 -0.013244173151183968 0 0.0027479665992587153 -0.011880919723937499 0 0.0030867601006923893 -0.013295827551914479 0 0.0018080962906259631 -0.011940936122918674 0 0.0020934792789121114 -0.013244173151183968 0 0.0027479665992587153 -0.011880919723937499 0 0.003567771862627273 -0.010562901877458517 0 0.0029754438200082418 -0.011971541117638172 0 0.0037539499625793811 -0.01149992540219731 0 0.0027479665992587153 -0.011880919723937499 0 0.0030867601006923893 -0.013295827551914479 0 0.0034629639851301093 -0.0096076841676558718 0 0.0037731522468153877 -0.010506085893311255 0 0.0040107703446605695 -0.0097228819431931304 0 0.0034629639851301093 -0.0096076841676558718 0 0.0037731522468153877 -0.010506085893311255 0 0.0028830465012528589 -0.010624906452590857 0 0.0037731522468153877 -0.010506085893311255 0 0.0028830465012528589 -0.010624906452590857 0 0.0035160489929999652 -0.011523694394394225 0 0.0028830465012528589 -0.010624906452590857 0 0.0035160489929999652 -0.011523694394394225 0 0.0030359127602200232 -0.01299498521761349 0 0.0035160489929999652 -0.011523694394394225 0 0.0037103151274112695 -0.011727897835807558 0 0.0039949203153852187 -0.011052905132728665 0 0.0037731522468153877 -0.010506085893311255 0 0.0035160489929999652 -0.011523694394394225 0 0.0039949203153852187 -0.011052905132728665 0 0.0039489253042647226 -0.014734036829545388 0 0.0051336561664914711 -0.014055114260843509 0 0.0030359127602200232 -0.01299498521761349 0 0.0043014191755517874 -0.01288572519045981 0 0.0030315255807445104 -0.01292228912825491 0 0.0035160489929999652 -0.011523694394394225 0 0.0037103151274112695 -0.011727897835807558 0 0.0030359127602200232 -0.01299498521761349 0 0.0029596336804829622 -0.014599495130068486 0 0.0030359127602200232 -0.01299498521761349 0 0.0023989298877711493 -0.014163234005087157 0 0.0029596336804829622 -0.014599495130068486 0 0.0039489253042647226 -0.014734036829545388 0 0.0030359127602200232 -0.01299498521761349 0 0.0030359127602200232 -0.01299498521761349 0 0.0023989298877711493 -0.014163234005087157 0 0.001952583892580829 -0.01261021982249024 0 0.0016934943128243411 -0.015430142070235726 0 0.0014300458741217945 -0.015803633702367533 0 0.001952583892580829 -0.01261021982249024 0 0.0016934943128243411 -0.015430142070235726 0 0.0020843900182391985 -0.014444883314423097 0 0.001952583892580829 -0.01261021982249024 0 0.001442602469178472 -0.015572862718569952 0 0.0021446085412893945 -0.01375342653141386 0 0.0022134613251540008 -0.015337393169349718 0 0.0023989298877711493 -0.014163234005087157 0 0.0020843900182391985 -0.014444883314423097 0 0.0014300458741217945 -0.015803633702367533 0 0.0014519978814096853 -0.015307883680629237 0 0.0022422978052484147 -0.014869262256650072 0 0.0023989298877711493 -0.014163234005087157 0 0.0020843900182391985 -0.014444883314423097 0 0.001952583892580829 -0.01261021982249024 0 0.0014519978814096853 -0.015307883680629237 0 0.0015112957578145971 -0.014745505050655753 0 0.0022422978052484147 -0.014869262256650072 0 0.0015112957578145971 -0.014745505050655753 0 0.0016116968877822942 -0.014125691863842832 0 0.0022422978052484147 -0.014869262256650072 0 0.0029754438200082418 -0.011971541117638172 0 0.0021446085412893945 -0.01375342653141386 0 0.0028830465012528589 -0.010624906452590857 0 0.0030359127602200232 -0.01299498521761349 0 0.001952583892580829 -0.01261021982249024 0 0.0045308385982429158 -0.010569447346303926 0 0.0042365381583619405 -0.01037029660552463 0 0.0046134027524443715 -0.010100318103646973 0 0.0045308385982429158 -0.010569447346303926 0 0.00480584178046084 -0.010480316288665277 0 0.0046901091887862614 -0.010787430105350902 0 0.0045308385982429158 -0.010569447346303926 0 0.00480584178046084 -0.010480316288665277 0 0.0046134027524443715 -0.010100318103646973 0 0.0049550665622139839 -0.010216994081282202 0 0.00480584178046084 -0.010480316288665277 0 0.0046134027524443715 -0.010100318103646973 0 0.0049550665622139839 -0.010216994081282202 0 0.0050880404259710304 -0.010450052652367755 0 0.00480584178046084 -0.010480316288665277 0 0.00480584178046084 -0.010480316288665277 0 0.004950503292130203 -0.010692277839292405 0 0.0046901091887862614 -0.010787430105350902 0 0.0050880404259710304 -0.010450052652367755 0 0.00480584178046084 -0.010480316288665277 0 0.004950503292130203 -0.010692277839292405 0 0.0050880404259710304 -0.010450052652367755 0 0.004950503292130203 -0.010692277839292405 0 0.0051970432820656713 -0.010695965572402459 0 0.004950503292130203 -0.010692277839292405 0 0.0051970432820656713 -0.010695965572402459 0 0.0050439205873890293 -0.010797777605429404 0 0.0051594102478805456 -0.01092993693535828 0 0.0051970432820656713 -0.010695965572402459 0 0.0050439205873890293 -0.010797777605429404 0 0.004950503292130203 -0.010692277839292405 0 0.0048698369782514258 -0.010871458052101428 0 0.0046901091887862614 -0.010787430105350902 0 0.004950503292130203 -0.010692277839292405 0 0.0050439205873890293 -0.010797777605429404 0 0.0048698369782514258 -0.010871458052101428 0 0.0046633300229384578 -0.011024408054550461 0 0.0046901091887862614 -0.010787430105350902 0 0.004512800404702394 -0.011012330619609831 0 0.0046633300229384578 -0.011024408054550461 0 0.0048698369782514258 -0.010871458052101428 0 0.0046901091887862614 -0.010787430105350902 0 0.0045000863200878446 -0.010810350924977832 0 0.004512800404702394 -0.011012330619609831 0 0.0043080516190085166 -0.01087938982919176 0 0.0045308385982429158 -0.010569447346303926 0 0.0046901091887862614 -0.010787430105350902 0 0.0045000863200878446 -0.010810350924977832 0 0.0045308385982429158 -0.010569447346303926 0 0.0045000863200878446 -0.010810350924977832 0 0.0043080516190085166 -0.01087938982919176 0 0.0046901091887862614 -0.010787430105350902 0 0.0045000863200878446 -0.010810350924977832 0 0.004512800404702394 -0.011012330619609831 0 0.0061428674894715455 -0.012099761912511867 0 0.0046504618838581488 -0.011081022610186959 0 0.0041535295340671113 -0.011216340565166931 0 0.0043080516190085166 -0.01087938982919176 0 0.0039949203153852187 -0.011052905132728665 0 0.0046451648861276437 -0.011030082282643894 0 0.004512800404702394 -0.011012330619609831 0 0.0041535295340671113 -0.011216340565166931 0 0.004512800404702394 -0.011012330619609831 0 0.0041535295340671113 -0.011216340565166931 0 0.0043080516190085166 -0.01087938982919176 0 0.0061428674894715455 -0.012099761912511867 0 0.005423555362789126 -0.013040812724805943 0 0.0037103151274112695 -0.011727897835807558 0 0.0041535295340671113 -0.011216340565166931 0 0.0039949203153852187 -0.011052905132728665 0 0.0043014191755517874 -0.01288572519045981 0 0.005423555362789126 -0.013040812724805943 0 0.0058195185115584944 -0.015201375949862594 0 0.0051336561664914711 -0.014055114260843509 0 0.0066267252309418923 -0.014639079396833008 0 0.0037731522468153877 -0.010506085893311255 0 0.0039949203153852187 -0.011052905132728665 0 0.0042365381583619405 -0.01037029660552463 0 0.0045308385982429158 -0.010569447346303926 0 0.0043080516190085166 -0.01087938982919176 0 0.0042365381583619405 -0.01037029660552463 0 0.0043080516190085166 -0.01087938982919176 0 0.0039949203153852187 -0.011052905132728665 0 0.0042365381583619405 -0.01037029660552463 0 0.0042365381583619405 -0.01037029660552463 0 0.0040107703446605695 -0.0097228819431931304 0 0.0042864991199216794 -0.0097126624377576621 0 0.0037731522468153877 -0.010506085893311255 0 0.0042365381583619405 -0.01037029660552463 0 0.0040107703446605695 -0.0097228819431931304 0 0.0040107703446605695 -0.0097228819431931304 0 0.0042864991199216794 -0.0097126624377576621 0 0.004144841870114364 -0.0089785221919242049 0 0.0042864991199216794 -0.0097126624377576621 0 0.0045388433949842951 -0.0093719763802473412 0 0.004144841870114364 -0.0089785221919242049 0 0.0042365381583619405 -0.01037029660552463 0 0.0042864991199216794 -0.0097126624377576621 0 0.0046134027524443715 -0.010100318103646973 0 0.0042864991199216794 -0.0097126624377576621 0 0.0046134027524443715 -0.010100318103646973 0 0.0045388433949842951 -0.0093719763802473412 0 0.0049550665622139839 -0.010216994081282202 0 0.0046134027524443715 -0.010100318103646973 0 0.0049897966122789943 -0.0097960217492204116 0 0.0046134027524443715 -0.010100318103646973 0 0.0049897966122789943 -0.0097960217492204116 0 0.0045388433949842951 -0.0093719763802473412 0 0.0049897966122789943 -0.0097960217492204116 0 0.0045388433949842951 -0.0093719763802473412 0 0.0049226752895579293 -0.0090228374927017602 0 0.0045388433949842951 -0.0093719763802473412 0 0.004363112625389836 -0.0084707813674365588 0 0.0049226752895579293 -0.0090228374927017602 0 0.004363112625389836 -0.0084707813674365588 0 0.0049226752895579293 -0.0090228374927017602 0 0.0045240569926739667 -0.0070994898111321437 0 0.0045388433949842951 -0.0093719763802473412 0 0.004363112625389836 -0.0084707813674365588 0 0.004144841870114364 -0.0089785221919242049 0 0.004363112625389836 -0.0084707813674365588 0 0.004144841870114364 -0.0089785221919242049 0 0.0041093737651383367 -0.0081434899201592928 0 0.004363112625389836 -0.0084707813674365588 0 0.0041093737651383367 -0.0081434899201592928 0 0.0045240569926739667 -0.0070994898111321437 0 0.0034629639851301093 -0.0096076841676558718 0 0.0040107703446605695 -0.0097228819431931304 0 0.0040003265764250147 -0.0091314423661072626 0 0.0034629639851301093 -0.0096076841676558718 0 0.0040003265764250147 -0.0091314423661072626 0 0.0039365809078895963 -0.0092434602188301972 0 0.0040107703446605695 -0.0097228819431931304 0 0.004144841870114364 -0.0089785221919242049 0 0.0040003265764250147 -0.0091314423661072626 0 0.004144841870114364 -0.0089785221919242049 0 0.0040003265764250147 -0.0091314423661072626 0 0.0040093507102146164 -0.0087058992722761561 0 0.004144841870114364 -0.0089785221919242049 0 0.0041093737651383367 -0.0081434899201592928 0 0.0040093507102146164 -0.0087058992722761561 0 0.0040093507102146164 -0.0087058992722761561 0 0.0039365809078895963 -0.0092434602188301972 0 0.0040002375750867658 -0.0084068973883354454 0 0.0040003265764250147 -0.0091314423661072626 0 0.0040093507102146164 -0.0087058992722761561 0 0.0039365809078895963 -0.0092434602188301972 0 0.0033561683294061001 -0.0094041249194917863 0 0.0038867938181747696 -0.008480321048278977 0 0.0035348218701118273 -0.0092702671768735007 0 0.0039365809078895963 -0.0092434602188301972 0 0.0040002375750867658 -0.0084068973883354454 0 0.0041093737651383367 -0.0081434899201592928 0 0.0040093507102146164 -0.0087058992722761561 0 0.0040002375750867658 -0.0084068973883354454 0 0.0038867938181747696 -0.008480321048278977 0 0.0039651467843500009 -0.0078176729928110741 0 0.0037977792004392935 -0.0085974318431048351 0 0.0039448676493841822 -0.0076993081350415354 0 0.0038439706953805621 -0.0079224037481639784 0 0.0032088277546066385 -0.00949132237889805 0 0.0037977792004392935 -0.0085974318431048351 0 0.0033805987567152363 -0.0083282071943685584 0 0.0037977792004392935 -0.0085974318431048351 0 0.0038439706953805621 -0.0079224037481639784 0 0.0033805987567152363 -0.0083282071943685584 0 0.0039448676493841822 -0.0076993081350415354 0 0.0045240569926739667 -0.0070994898111321437 0 0.0036196984679470125 -0.0070421235346707304 0 0.0041093737651383367 -0.0081434899201592928 0 0.0039448676493841822 -0.0076993081350415354 0 0.0045240569926739667 -0.0070994898111321437 0 0.0041093737651383367 -0.0081434899201592928 0 0.0040002375750867658 -0.0084068973883354454 0 0.0039448676493841822 -0.0076993081350415354 0 0.0033897749730511751 -0.0077828732420433819 0 0.002875778230775553 -0.0077467528622373943 0 0.0030573517799552057 -0.0073990423725939138 0 0.0039448676493841822 -0.0076993081350415354 0 0.0033897749730511751 -0.0077828732420433819 0 0.0036196984679470125 -0.0070421235346707304 0 0.0033787922819968892 -0.0078683320172691588 0 0.0031547873074818252 -0.008300364219191933 0 0.0039448676493841822 -0.0076993081350415354 0 0.0033897749730511751 -0.0077828732420433819 0 0.0038439706953805621 -0.0079224037481639784 0 0.0033897749730511751 -0.0077828732420433819 0 0.002875778230775553 -0.0077467528622373943 0 0.002514115680361674 -0.0087071555981100782 0 0.002875778230775553 -0.0077467528622373943 0 0.0027126279150422104 -0.0075348142666382062 0 0.0030573517799552057 -0.0073990423725939138 0 0.002875778230775553 -0.0077467528622373943 0 0.0027126279150422104 -0.0075348142666382062 0 0.0023360643834019843 -0.007801930027537817 0 0.0027126279150422104 -0.0075348142666382062 0 0.0030573517799552057 -0.0073990423725939138 0 0.0027514979836826079 -0.0074314638276759314 0 0.0023360643834019843 -0.007801930027537817 0 0.0015434980714530053 -0.0076787477170539133 0 0.0021411550278259317 -0.007368115907598523 0 0.0023360643834019843 -0.007801930027537817 0 0.0023530530496878033 -0.0074504810957944922 0 0.0021411550278259317 -0.007368115907598523 0 0.0027126279150422104 -0.0075348142666382062 0 0.0023360643834019843 -0.007801930027537817 0 0.0023530530496878033 -0.0074504810957944922 0 0.0023360643834019843 -0.007801930027537817 0 0.0016218235932634112 -0.0085236917835074914 0 0.0015434980714530053 -0.0076787477170539133 0 0.002875778230775553 -0.0077467528622373943 0 0.0023360643834019843 -0.007801930027537817 0 0.002514115680361674 -0.0087071555981100782 0 0.0023360643834019843 -0.007801930027537817 0 0.002514115680361674 -0.0087071555981100782 0 0.0016218235932634112 -0.0085236917835074914 0 0.0031547873074818252 -0.008300364219191933 0 0.0025192369120153467 -0.0088371658562912854 0 0.002514115680361674 -0.0087071555981100782 0 0.0016594466604392683 -0.0093486089521058798 0 0.0016218235932634112 -0.0085236917835074914 0 0.0016594466604392683 -0.0093486089521058798 0 0.00106434738937607 -0.0091055965543561084 0 0.0016218235932634112 -0.0085236917835074914 0 0.00084681850511293655 -0.0097947745625819645 0 0.00106434738937607 -0.0091055965543561084 0 0.0006132126444006339 -0.0092333417372497412 0 0.00084681850511293655 -0.0097947745625819645 0 0.0016594466604392683 -0.0093486089521058798 0 0.00106434738937607 -0.0091055965543561084 0 0.00106434738937607 -0.0091055965543561084 0 0.0006132126444006339 -0.0092333417372497412 0 0.00066795278569762727 -0.0086345983260494603 0 0.00106434738937607 -0.0091055965543561084 0 0.0016218235932634112 -0.0085236917835074914 0 0.00066795278569762727 -0.0086345983260494603 0 0.00013325518485830484 -0.0099891572882824901 0 0.00033466192100496108 -0.0093222031385983926 0 4.2495912502393788e-05 -0.0090131439197265809 0 0.00013325518485830484 -0.0099891572882824901 0 0.00033466192100496108 -0.0093222031385983926 0 0.00045422987019494893 -0.0097433993967099702 0 0.00084681850511293655 -0.0097947745625819645 0 0.00045422987019494893 -0.0097433993967099702 0 0.0006132126444006339 -0.0092333417372497412 0 0.00033466192100496108 -0.0093222031385983926 0 0.00045422987019494893 -0.0097433993967099702 0 0.0006132126444006339 -0.0092333417372497412 0 0.0006132126444006339 -0.0092333417372497412 0 0.00033717436584930119 -0.0088308301385639221 0 0.00066795278569762727 -0.0086345983260494603 0 0.00033466192100496108 -0.0093222031385983926 0 0.00033717436584930119 -0.0088308301385639221 0 4.2495912502393788e-05 -0.0090131439197265809 0 0.00033466192100496108 -0.0093222031385983926 0 0.0006132126444006339 -0.0092333417372497412 0 0.00033717436584930119 -0.0088308301385639221 0 0.00033717436584930119 -0.0088308301385639221 0 0.00032362312732402289 -0.0087301012851617819 0 0.00066795278569762727 -0.0086345983260494603 0 0.00032362312732402289 -0.0087301012851617819 0 0.00066795278569762727 -0.0086345983260494603 0 0.00046232895500632833 -0.0086413317074482653 0 0.00033717436584930119 -0.0088308301385639221 0 0.00032362312732402289 -0.0087301012851617819 0 0.00015705920197747205 -0.0087950499742391781 0 0.0016218235932634112 -0.0085236917835074914 0 0.00066795278569762727 -0.0086345983260494603 0 0.0015434980714530053 -0.0076787477170539133 0 0.00069228904681412388 -0.0085997873414818508 0 0.0011131629619916166 -0.0082115214059238287 0 0.00066795278569762727 -0.0086345983260494603 0 0.00046232895500632833 -0.0086413317074482653 0 0.00066383640135584581 -0.008712476369458249 0 0.00066383640135584581 -0.008712476369458249 0 0.00076883022152187785 -0.0081502956045627697 0 0.0012442580144108942 -0.0083509500062503867 0 0.00066383640135584581 -0.008712476369458249 0 0.00033268481547645484 -0.008414365675132332 0 0.00076883022152187785 -0.0081502956045627697 0 0.00046232895500632833 -0.0086413317074482653 0 0.00066383640135584581 -0.008712476369458249 0 0.00033268481547645484 -0.008414365675132332 0 0.00033268481547645484 -0.008414365675132332 0 0.00076883022152187785 -0.0081502956045627697 0 0.00041718428621385673 -0.0076495905033610199 0 0.00033268481547645484 -0.008414365675132332 0 -6.9631145841997087e-05 -0.007484010575125064 0 0.00041718428621385673 -0.0076495905033610199 0 0.00032362312732402289 -0.0087301012851617819 0 0.00029917909165697921 -0.008659164279200349 0 0.00021997878567781511 -0.0088268198182337616 0 0.00029917909165697921 -0.008659164279200349 0 0.00021997878567781511 -0.0088268198182337616 0 0.00025405431666289082 -0.0088107285626809872 0 0.00046232895500632833 -0.0086413317074482653 0 0.00033268481547645484 -0.008414365675132332 0 0.00029917909165697921 -0.008659164279200349 0 0.00032362312732402289 -0.0087301012851617819 0 0.00046232895500632833 -0.0086413317074482653 0 0.00029917909165697921 -0.008659164279200349 0 0.00030312810574230353 -0.0083982607614977757 0 0.00015274969105514866 -0.0080856382888426243 0 0.00033268481547645484 -0.008414365675132332 0 0.00031799407020494531 -0.0086514430122403042 0 0.00030873478435984163 -0.0086751768016360455 0 0.00033268481547645484 -0.008414365675132332 0 0.00031799407020494531 -0.0086514430122403042 0 0.00029917909165697921 -0.008659164279200349 0 0.00029917909165697921 -0.008659164279200349 0 0.00029529570408920545 -0.0087114585913820493 0 0.00025405431666289082 -0.0088107285626809872 0 0.00031799407020494531 -0.0086514430122403042 0 0.00029917909165697921 -0.008659164279200349 0 0.00029529570408920545 -0.0087114585913820493 0 0.00029529570408920545 -0.0087114585913820493 0 0.00025405431666289082 -0.0088107285626809872 0 0.00024197068794314675 -0.0087622949556028732 0 0.00029529570408920545 -0.0087114585913820493 0 0.0002897705518755102 -0.0086511552524672509 0 0.00024199299414594063 -0.0086742251899013106 0 0.00031799407020494531 -0.0086514430122403042 0 0.00029529570408920545 -0.0087114585913820493 0 0.00029875826728083238 -0.0086568768673573257 0 0.00029529570408920545 -0.0087114585913820493 0 0.00029875826728083238 -0.0086568768673573257 0 0.0002897705518755102 -0.0086511552524672509 0 0.00028966626733554118 -0.0086523564102530745 0 0.0002480728183722517 -0.0086304839714582363 0 0.00029875826728083238 -0.0086568768673573257 0 0.00030873478435984163 -0.0086751768016360455 0 0.00027731367918214646 -0.0085913297106057947 0 0.00031799407020494531 -0.0086514430122403042 0 0.00029875826728083238 -0.0086568768673573257 0 0.00030873478435984163 -0.0086751768016360455 0 -6.9631145841997087e-05 -0.007484010575125064 0 9.9159320787320661e-05 -0.0071274220770734054 0 0.00018639000473080807 -0.0073447842239902734 0 0.00030873478435984163 -0.0086751768016360455 0 0.00029956244476863134 -0.0085169704409024088 0 0.00027731367918214646 -0.0085913297106057947 0 -6.9631145841997087e-05 -0.007484010575125064 0 9.9159320787320661e-05 -0.0071274220770734054 0 6.9681128977862528e-05 -0.0069443929350091827 0 9.9159320787320661e-05 -0.0071274220770734054 0 6.9681128977862528e-05 -0.0069443929350091827 0 6.1807933293476017e-05 -0.006856482652672114 0 0.00015274969105514866 -0.0080856382888426243 0 0.00019759614020837027 -0.0077425086918296547 0 0.00029875826728083238 -0.0086568768673573257 0 0.00027731367918214646 -0.0085913297106057947 0 0.00019906307552339451 -0.0086021936482020295 0 0.00027731367918214646 -0.0085913297106057947 0 0.00020211141516112826 -0.0085026573115507906 0 0.00019906307552339451 -0.0086021936482020295 0 0.00029956244476863134 -0.0085169704409024088 0 0.00027731367918214646 -0.0085913297106057947 0 0.00020211141516112826 -0.0085026573115507906 0 0.00020211141516112826 -0.0085026573115507906 0 0.00019906307552339451 -0.0086021936482020295 0 7.6950262915709359e-05 -0.0085375371750735628 0 0.00076883022152187785 -0.0081502956045627697 0 0.000849963775750316 -0.0073093407679075059 0 0.00041718428621385673 -0.0076495905033610199 0 0.000849963775750316 -0.0073093407679075059 0 0.00041718428621385673 -0.0076495905033610199 0 0.00034169311771802571 -0.0071750011736589755 0 -6.9631145841997087e-05 -0.007484010575125064 0 0.00041718428621385673 -0.0076495905033610199 0 0.00018639000473080807 -0.0073447842239902734 0 0.00041718428621385673 -0.0076495905033610199 0 0.00018639000473080807 -0.0073447842239902734 0 0.00034169311771802571 -0.0071750011736589755 0 9.9159320787320661e-05 -0.0071274220770734054 0 0.00034169311771802571 -0.0071750011736589755 0 6.1807933293476017e-05 -0.006856482652672114 0 0.00034169311771802571 -0.0071750011736589755 0 0.00056353798137684548 -0.0068641783298033143 0 6.1807933293476017e-05 -0.006856482652672114 0 9.9159320787320661e-05 -0.0071274220770734054 0 0.00018639000473080807 -0.0073447842239902734 0 0.00034169311771802571 -0.0071750011736589755 0 0.000849963775750316 -0.0073093407679075059 0 0.00098789818265263138 -0.0067229120651545503 0 0.00056353798137684548 -0.0068641783298033143 0 0.000849963775750316 -0.0073093407679075059 0 0.00034169311771802571 -0.0071750011736589755 0 0.00056353798137684548 -0.0068641783298033143 0 0.000849963775750316 -0.0073093407679075059 0 0.001505891939919737 -0.0070250281832957943 0 0.00098789818265263138 -0.0067229120651545503 0 0.000849963775750316 -0.0073093407679075059 0 0.001505891939919737 -0.0070250281832957943 0 0.0012955674382690143 -0.0076518112553180181 0 0.00076883022152187785 -0.0081502956045627697 0 0.000849963775750316 -0.0073093407679075059 0 0.0012955674382690143 -0.0076518112553180181 0 0.001505891939919737 -0.0070250281832957943 0 0.0012955674382690143 -0.0076518112553180181 0 0.0020537860187383478 -0.0075083151314768431 0 0.001505891939919737 -0.0070250281832957943 0 0.0021593354529049914 -0.0070647450133383919 0 0.001786336466195357 -0.0067076481092046758 0 0.0021593354529049914 -0.0070647450133383919 0 0.0021771174334065651 -0.0065484324595450486 0 0.0024603258441431822 -0.0069347517741385851 0 0.0021593354529049914 -0.0070647450133383919 0 0.0024711179141335771 -0.0073126390484948801 0 0.0024603258441431822 -0.0069347517741385851 0 0.001505891939919737 -0.0070250281832957943 0 0.0021593354529049914 -0.0070647450133383919 0 0.0020537860187383478 -0.0075083151314768431 0 0.0021593354529049914 -0.0070647450133383919 0 0.0024711179141335771 -0.0073126390484948801 0 0.0020537860187383478 -0.0075083151314768431 0 0.0024711179141335771 -0.0073126390484948801 0 0.0025008462439146647 -0.0074477476164955181 0 0.0020537860187383478 -0.0075083151314768431 0 0.0025008462439146647 -0.0074477476164955181 0 0.0023530530496878033 -0.0074504810957944922 0 0.0020537860187383478 -0.0075083151314768431 0 0.0024711179141335771 -0.0073126390484948801 0 0.0025008462439146647 -0.0074477476164955181 0 0.0026239302522713731 -0.0073925282367818266 0 0.0025008462439146647 -0.0074477476164955181 0 0.0027514979836826079 -0.0074314638276759314 0 0.0026239302522713731 -0.0073925282367818266 0 0.0027126279150422104 -0.0075348142666382062 0 0.0025008462439146647 -0.0074477476164955181 0 0.0027514979836826079 -0.0074314638276759314 0 0.0027126279150422104 -0.0075348142666382062 0 0.0025008462439146647 -0.0074477476164955181 0 0.0023530530496878033 -0.0074504810957944922 0 0.0023530530496878033 -0.0074504810957944922 0 0.0021411550278259317 -0.007368115907598523 0 0.0020537860187383478 -0.0075083151314768431 0 0.0011131629619916166 -0.0082115214059238287 0 0.0016800812499258562 -0.0078483046479287857 0 0.00076883022152187785 -0.0081502956045627697 0 0.0012442580144108942 -0.0083509500062503867 0 0.0012955674382690143 -0.0076518112553180181 0 0.0016800812499258562 -0.0078483046479287857 0 0.00203570884883258 -0.007533764008700288 0 0.0012442580144108942 -0.0083509500062503867 0 0.0012955674382690143 -0.0076518112553180181 0 0.0020537860187383478 -0.0075083151314768431 0 -7.2285382465388505e-05 -0.014451569802816186 0 -0.0003795708611727197 -0.014074046792128474 0 -0.00038300022635944436 -0.014776758722861143 0 -0.0003795708611727197 -0.014074046792128474 0 -0.00044318451785994796 -0.013664537612754966 0 -0.00065159160815945311 -0.013894178582382535 0 -0.0003795708611727197 -0.014074046792128474 0 -0.00012169032521941575 -0.013984995196152579 0 -0.00044318451785994796 -0.013664537612754966 0 -7.2285382465388505e-05 -0.014451569802816186 0 -0.0003795708611727197 -0.014074046792128474 0 -0.00012169032521941575 -0.013984995196152579 0 0.00014759906468697818 -0.013950635604392825 0 -0.00012169032521941575 -0.013984995196152579 0 -0.00015944480400836719 -0.0137170968078263 0 0.00011492103764789238 -0.012152662990768358 0 -0.00024270547545689379 -0.012682182376669279 0 -0.00049130411003424042 -0.011971890461628677 0 -8.1338777224023055e-05 -0.012970044557301106 0 -0.00037595556865748121 -0.013176397911871704 0 -0.00012169032521941575 -0.013984995196152579 0 -0.00015944480400836719 -0.0137170968078263 0 -0.00044318451785994796 -0.013664537612754966 0 -0.00037595556865748121 -0.013176397911871704 0 -0.00083537229997952096 -0.013413290267493366 0 -0.00024270547545689379 -0.012682182376669279 0 -0.00072671212239959373 -0.012534703868737278 0 -0.00086659354367739252 -0.013379028270924369 0 -0.00024270547545689379 -0.012682182376669279 0 -0.00072671212239959373 -0.012534703868737278 0 -0.00049130411003424042 -0.011971890461628677 0 -0.00064518505480514973 -0.01152092734133333 0 -0.00049130411003424042 -0.011971890461628677 0 -0.001273043513658556 -0.012422647210981739 0 -0.00072671212239959373 -0.012534703868737278 0 -0.00049130411003424042 -0.011971890461628677 0 -0.001273043513658556 -0.012422647210981739 0 -0.00072671212239959373 -0.012534703868737278 0 -0.0010877883928195377 -0.012866001883720193 0 -0.001273043513658556 -0.012422647210981739 0 -0.00072671212239959373 -0.012534703868737278 0 -0.0010877883928195377 -0.012866001883720193 0 -0.00086659354367739252 -0.013379028270924369 0 -0.0010877883928195377 -0.012866001883720193 0 -0.0013156024249933495 -0.01305392936610217 0 -0.00081143690261262084 -0.01305785822660155 0 -0.0013156024249933495 -0.01305392936610217 0 -0.00086659354367739252 -0.013379028270924369 0 -0.00094216156837288029 -0.013885330754198111 0 -0.0010877883928195377 -0.012866001883720193 0 -0.0013156024249933495 -0.01305392936610217 0 -0.00086659354367739252 -0.013379028270924369 0 -0.00044318451785994796 -0.013664537612754966 0 -0.00086659354367739252 -0.013379028270924369 0 -0.00065159160815945311 -0.013894178582382535 0 -0.00086659354367739252 -0.013379028270924369 0 -0.00065159160815945311 -0.013894178582382535 0 -0.00094216156837288029 -0.013885330754198111 0 -0.0003795708611727197 -0.014074046792128474 0 -0.00065159160815945311 -0.013894178582382535 0 -0.00067343985786145252 -0.014399208080339268 0 -0.00065159160815945311 -0.013894178582382535 0 -0.00094216156837288029 -0.013885330754198111 0 -0.00067343985786145252 -0.014399208080339268 0 -0.0013156024249933495 -0.01305392936610217 0 -0.00084538580988542233 -0.011591618055227737 0 -0.0011877141420325559 -0.010018112418350151 0 -0.0013114191988979715 -0.013024610721996521 0 -0.0012349246002611295 -0.012363260921973531 0 -0.0013156024249933495 -0.01305392936610217 0 -0.00094216156837288029 -0.013885330754198111 0 -0.0013402840642617272 -0.01460323219424097 0 -0.00057694199866868538 -0.01148064379466862 0 -0.00025944227927885479 -0.010270587655424372 0 -0.00084538580988542233 -0.011591618055227737 0 -0.00081143690261262084 -0.01305785822660155 0 -0.00024276033515837624 -0.010173173066785763 0 -0.00020091519278675785 -0.010038039042304976 0 -0.00029970147622593459 -0.010048246968555552 0 -0.00024276033515837624 -0.010173173066785763 0 -0.00020091519278675785 -0.010038039042304976 0 -0.00016654044924928259 -0.009851085761807838 0 -0.00024276033515837624 -0.010173173066785763 0 -0.00020091519278675785 -0.010038039042304976 0 -0.00021353318265398351 -0.010091732249991636 0 -5.8153451774485169e-05 -0.010103924486476462 0 -0.00020091519278675785 -0.010038039042304976 0 -0.00029970147622593459 -0.010048246968555552 0 -0.00021353318265398351 -0.010091732249991636 0 -0.0013156024249933495 -0.01305392936610217 0 -0.00084538580988542233 -0.011591618055227737 0 -0.00081143690261262084 -0.01305785822660155 0 -0.00057694199866868538 -0.01148064379466862 0 -0.00088358361356471733 -0.011361901370750178 0 -0.00029970147622593459 -0.010048246968555552 0 -0.00057537158538053959 -0.010270921897869229 0 -0.00021353318265398351 -0.010091732249991636 0 -0.0010877883928195377 -0.012866001883720193 0 -0.00081143690261262084 -0.01305785822660155 0 -0.001273043513658556 -0.012422647210981739 0 -0.00024935544494285447 -0.010450472336773887 0 -0.00057537158538053959 -0.010270921897869229 0 -9.3516340978879928e-05 -0.010173866915655938 0 -0.00057537158538053959 -0.010270921897869229 0 -9.3516340978879928e-05 -0.010173866915655938 0 -0.00021353318265398351 -0.010091732249991636 0 -9.3516340978879928e-05 -0.010173866915655938 0 -0.00021353318265398351 -0.010091732249991636 0 -5.8153451774485169e-05 -0.010103924486476462 0 -9.3516340978879928e-05 -0.010173866915655938 0 7.1304070480305586e-05 -0.010138059010663477 0 -5.8153451774485169e-05 -0.010103924486476462 0 -0.00024935544494285447 -0.010450472336773887 0 -9.3516340978879928e-05 -0.010173866915655938 0 6.1300552401130493e-05 -0.010210151319028821 0 -9.3516340978879928e-05 -0.010173866915655938 0 6.1300552401130493e-05 -0.010210151319028821 0 7.1304070480305586e-05 -0.010138059010663477 0 0.00013325518485830484 -0.0099891572882824901 0 6.1300552401130493e-05 -0.010210151319028821 0 7.1304070480305586e-05 -0.010138059010663477 0 0.00013802558317044144 -0.0099778173785974502 0 6.8510789125550054e-05 -0.0095990080899787753 0 0.00033717436584930119 -0.0088308301385639221 0 4.2495912502393788e-05 -0.0090131439197265809 0 0.00015705920197747205 -0.0087950499742391781 0 6.8510789125550054e-05 -0.0095990080899787753 0 0.00010847542061287879 -0.0094089091360789693 0 -0.00020091519278675785 -0.010038039042304976 0 -5.8153451774485169e-05 -0.010103924486476462 0 7.8961876749060984e-05 -0.010042405224321106 0 7.1304070480305586e-05 -0.010138059010663477 0 -5.8153451774485169e-05 -0.010103924486476462 0 7.8961876749060984e-05 -0.010042405224321106 0 -0.00020091519278675785 -0.010038039042304976 0 7.8961876749060984e-05 -0.010042405224321106 0 -0.00016654044924928259 -0.009851085761807838 0 0.00032362312732402289 -0.0087301012851617819 0 0.00015705920197747205 -0.0087950499742391781 0 0.00021997878567781511 -0.0088268198182337616 0 0.00015705920197747205 -0.0087950499742391781 0 0.0001732971736077768 -0.0089911659026560391 0 0.00021997878567781511 -0.0088268198182337616 0 0.0001732971736077768 -0.0089911659026560391 0 0.00021997878567781511 -0.0088268198182337616 0 0.00025405431666289082 -0.0088107285626809872 0 7.8961876749060984e-05 -0.010042405224321106 0 0.00010414036009999893 -0.009274522631934028 0 -0.00016654044924928259 -0.009851085761807838 0 0.00015705920197747205 -0.0087950499742391781 0 0.0001732971736077768 -0.0089911659026560391 0 0.00010414036009999893 -0.009274522631934028 0 0.00010847542061287879 -0.0094089091360789693 0 9.5218604020239176e-05 -0.0092586862184539098 0 0.00010414036009999893 -0.009274522631934028 0 -0.00026459303351276996 -0.009549239453910216 0 -0.00016654044924928259 -0.009851085761807838 0 0.00010414036009999893 -0.009274522631934028 0 3.030547368900531e-05 -0.0088819806926482524 0 -0.00026459303351276996 -0.009549239453910216 0 -0.00029060847590872717 -0.0093188414614908677 0 -0.00029107883496261072 -0.0094885893520094723 0 0.00010414036009999893 -0.009274522631934028 0 3.030547368900531e-05 -0.0088819806926482524 0 0.00020128871523709409 -0.0089232007199243502 0 0.0001732971736077768 -0.0089911659026560391 0 0.00010414036009999893 -0.009274522631934028 0 0.00020128871523709409 -0.0089232007199243502 0 0.0001732971736077768 -0.0089911659026560391 0 0.00020128871523709409 -0.0089232007199243502 0 0.00025405431666289082 -0.0088107285626809872 0 0.00020128871523709409 -0.0089232007199243502 0 0.00025405431666289082 -0.0088107285626809872 0 0.00024197068794314675 -0.0087622949556028732 0 0.00029529570408920545 -0.0087114585913820493 0 0.00024197068794314675 -0.0087622949556028732 0 0.00024199299414594063 -0.0086742251899013106 0 0.00022156205228984275 -0.0087484957707710045 0 -0.00018130496979411553 -0.0091554394372225425 0 0.00020128871523709409 -0.0089232007199243502 0 0.00024197068794314675 -0.0087622949556028732 0 0.00013501249498639944 -0.008664996407740478 0 0.00024197068794314675 -0.0087622949556028732 0 0.00024199299414594063 -0.0086742251899013106 0 0.00013501249498639944 -0.008664996407740478 0 0.0002897705518755102 -0.0086511552524672509 0 0.00024199299414594063 -0.0086742251899013106 0 0.00021219492488513012 -0.0085860209615766514 0 -0.00025612055488126754 -0.0090321251865724175 0 -0.00029077127562801824 -0.0090841400328429689 0 -0.00030932794238748204 -0.0090034024435511947 0 0.0002480728183722517 -0.0086304839714582363 0 5.3788397682718374e-05 -0.0086024522366144815 0 5.3788397682718374e-05 -0.0086024522366144815 0 -0.00018130496979411553 -0.0091554394372225425 0 0.00024199299414594063 -0.0086742251899013106 0 0.00021219492488513012 -0.0085860209615766514 0 0.00013501249498639944 -0.008664996407740478 0 5.3788397682718374e-05 -0.0086024522366144815 0 -0.00063658963040050796 -0.0093346874125299767 0 -0.00018130496979411553 -0.0091554394372225425 0 -0.00063658963040050796 -0.0093346874125299767 0 -0.00066928625142298383 -0.0099139959379067263 0 -0.00077820328787488624 -0.0098021574622031895 0 -0.00077093504849239732 -0.010078910369302689 0 -0.00066928625142298383 -0.0099139959379067263 0 -0.00077820328787488624 -0.0098021574622031895 0 -0.00055620974962912126 -0.0097534746469767741 0 3.030547368900531e-05 -0.0088819806926482524 0 0.00020128871523709409 -0.0089232007199243502 0 0.00013437733606520402 -0.0087289800624208071 0 -0.0005856721908275819 -0.0096372606724635969 0 -0.00077820328787488624 -0.0098021574622031895 0 -0.00055620974962912126 -0.0097534746469767741 0 -0.00029060847590872717 -0.0093188414614908677 0 -0.00018130496979411553 -0.0091554394372225425 0 -0.0005856721908275819 -0.0096372606724635969 0 -0.00055620974962912126 -0.0097534746469767741 0 -0.00041367636552980995 -0.0096370656899711395 0 -0.00042427491060965933 -0.0096924672565500396 0 -0.00055620974962912126 -0.0097534746469767741 0 -0.00041367636552980995 -0.0096370656899711395 0 -0.00042427491060965933 -0.0096924672565500396 0 -0.00055620974962912126 -0.0097534746469767741 0 -0.00052180763905829803 -0.0098869796476790048 0 -0.00066928625142298383 -0.0099139959379067263 0 -0.00055620974962912126 -0.0097534746469767741 0 -0.00052180763905829803 -0.0098869796476790048 0 -0.00066928625142298383 -0.0099139959379067263 0 -0.00052180763905829803 -0.0098869796476790048 0 -0.0006422442219233041 -0.010220875312463348 0 -0.00052180763905829803 -0.0098869796476790048 0 -0.00037118346802461291 -0.009822984446490296 0 -0.00044022579479281433 -0.010079684655057881 0 -0.00042427491060965933 -0.0096924672565500396 0 -0.00052180763905829803 -0.0098869796476790048 0 -0.00037118346802461291 -0.009822984446490296 0 -0.00037118346802461291 -0.009822984446490296 0 2.1575415201661937e-05 -0.010141764890814198 0 -0.00044022579479281433 -0.010079684655057881 0 -0.00042427491060965933 -0.0096924672565500396 0 -0.00043136499454262658 -0.0096598839402664161 0 -0.000420288926475343 -0.0096257133542773723 0 -0.00042427491060965933 -0.0096924672565500396 0 -0.00037118346802461291 -0.009822984446490296 0 -0.000420288926475343 -0.0096257133542773723 0 -0.00042427491060965933 -0.0096924672565500396 0 -0.00043136499454262658 -0.0096598839402664161 0 -0.00041367636552980995 -0.0096370656899711395 0 -0.0005856721908275819 -0.0096372606724635969 0 -0.00041367636552980995 -0.0096370656899711395 0 -0.00026459303351276996 -0.009549239453910216 0 -0.00043136499454262658 -0.0096598839402664161 0 -0.00041367636552980995 -0.0096370656899711395 0 -0.00026459303351276996 -0.009549239453910216 0 -0.00026459303351276996 -0.009549239453910216 0 -0.00016654044924928259 -0.009851085761807838 0 -0.00024276033515837624 -0.010173173066785763 0 -0.00043136499454262658 -0.0096598839402664161 0 -0.00026459303351276996 -0.009549239453910216 0 -0.00024276033515837624 -0.010173173066785763 0 -0.00043136499454262658 -0.0096598839402664161 0 -0.00024276033515837624 -0.010173173066785763 0 -0.0011877141420325559 -0.010018112418350151 0 -0.00084538580988542233 -0.011591618055227737 0 -0.00024276033515837624 -0.010173173066785763 0 -0.0011877141420325559 -0.010018112418350151 0 -0.00094216156837288029 -0.013885330754198111 0 -0.0013402840642617272 -0.01460323219424097 0 -0.00067343985786145252 -0.014399208080339268 0 -0.0013402840642617272 -0.01460323219424097 0 -0.00067343985786145252 -0.014399208080339268 0 -0.00070848327653574936 -0.015126156928820886 0 -0.0013402840642617272 -0.01460323219424097 0 -0.00070848327653574936 -0.015126156928820886 0 -0.0011993511289007644 -0.015467345504510118 0 -0.00043136499454262658 -0.0096598839402664161 0 -0.0011877141420325559 -0.010018112418350151 0 -0.000420288926475343 -0.0096257133542773723 0 -0.0012349246002611295 -0.012363260921973531 0 -0.00082296584092005054 -0.012571653846617327 0 -0.00082296584092005054 -0.012571653846617327 0 -0.00048988648951031567 -0.013205768008438276 0 -0.0011993511289007644 -0.015467345504510118 0 -0.00058688362370111469 -0.015920787534207555 0 -0.00099718758959547755 -0.016264721598830731 0 -0.00037118346802461291 -0.009822984446490296 0 -0.000420288926475343 -0.0096257133542773723 0 2.1575415201661937e-05 -0.010141764890814198 0 -0.00070848327653574936 -0.015126156928820886 0 -0.0011993511289007644 -0.015467345504510118 0 -0.00058688362370111469 -0.015920787534207555 0 -0.00070848327653574936 -0.015126156928820886 0 -0.00058688362370111469 -0.015920787534207555 0 -0.00015739183592379332 -0.015520825467516857 0 -0.00058688362370111469 -0.015920787534207555 0 -0.00015739183592379332 -0.015520825467516857 0 -8.0308437055860149e-05 -0.016262373373847411 0 -0.00030284260344109825 -0.015536310556547644 0 -0.00022212207044618033 -0.016256726874969912 0 -1.8890516986554871e-05 -0.015572618716109526 0 -0.00045329173476112546 -0.015560364921431815 0 -0.00035788116857387979 -0.016256868260597006 0 -4.0560369287307085e-05 -0.015009153850794118 0 -1.8890516986554871e-05 -0.015572618716109526 0 -0.00045329173476112546 -0.015560364921431815 0 -4.0560369287307085e-05 -0.015009153850794118 0 -0.00045329173476112546 -0.015560364921431815 0 -0.00038300022635944436 -0.014776758722861143 0 -0.00030284260344109825 -0.015536310556547644 0 -0.00038423292301122526 -0.01483544410712876 0 -0.00070848327653574936 -0.015126156928820886 0 -0.00015739183592379332 -0.015520825467516857 0 -0.00038300022635944436 -0.014776758722861143 0 -0.0003795708611727197 -0.014074046792128474 0 -0.00067343985786145252 -0.014399208080339268 0 -0.00038300022635944436 -0.014776758722861143 0 -0.00067343985786145252 -0.014399208080339268 0 -0.00070848327653574936 -0.015126156928820886 0 -0.00038300022635944436 -0.014776758722861143 0 -4.0560369287307085e-05 -0.015009153850794118 0 -7.2285382465388505e-05 -0.014451569802816186 0 -0.00038300022635944436 -0.014776758722861143 0 -0.00031904665911371973 -0.017151831478209853 0 -0.00017079978313944881 -0.0168256648534418 0 -0.00045102853850277809 -0.016631510177999801 0 -0.00016720603389578501 -0.017198526137126545 0 -0.00031904665911371973 -0.017151831478209853 0 -0.00017079978313944881 -0.0168256648534418 0 -0.00017079978313944881 -0.0168256648534418 0 -8.0308437055860149e-05 -0.016262373373847411 0 -0.00045102853850277809 -0.016631510177999801 0 -0.00016851091502777119 -0.016781336629532156 0 -0.00022212207044618033 -0.016256726874969912 0 0.0001037048474620378 -0.016482837609397928 0 -0.00017079978313944881 -0.0168256648534418 0 -0.00035788116857387979 -0.016256868260597006 0 -0.00058688362370111469 -0.015920787534207555 0 -8.0308437055860149e-05 -0.016262373373847411 0 -0.00045102853850277809 -0.016631510177999801 0 -0.00045102853850277809 -0.016631510177999801 0 -0.00099718758959547755 -0.016264721598830731 0 -0.00068786264334133108 -0.016880643114879391 0 -0.00058688362370111469 -0.015920787534207555 0 -0.00045102853850277809 -0.016631510177999801 0 -0.00099718758959547755 -0.016264721598830731 0 2.1575415201661937e-05 -0.010141764890814198 0 0.00023503338497275994 -0.010965039430754343 0 -0.00045211932207205307 -0.010466860863662067 0 -0.00048988648951031567 -0.013205768008438276 0 -0.000228981565868392 -0.013913246099612702 0 -0.00031904665911371973 -0.017151831478209853 0 -0.00045102853850277809 -0.016631510177999801 0 -0.00068786264334133108 -0.016880643114879391 0 -0.00031904665911371973 -0.017151831478209853 0 -0.00068786264334133108 -0.016880643114879391 0 -0.00027927821341159855 -0.01718615562903671 0 0.00023503338497275994 -0.010965039430754343 0 -0.00034071341256032241 -0.011159328926533915 0 0.00031498384048575854 -0.011872226760577153 0 -0.000228981565868392 -0.013913246099612702 0 2.706220600899839e-05 -0.014496080237955154 0 -0.00034071341256032241 -0.011159328926533915 0 -0.00034506553887816098 -0.01181423576081473 0 0.00031498384048575854 -0.011872226760577153 0 -0.00034071341256032241 -0.011159328926533915 0 -0.00091449818183346118 -0.011443449692564455 0 -0.00034506553887816098 -0.01181423576081473 0 -0.00067308290758388758 -0.010855568067085755 0 -0.00034071341256032241 -0.011159328926533915 0 -0.00045211932207205307 -0.010466860863662067 0 -0.00067308290758388758 -0.010855568067085755 0 -0.00034071341256032241 -0.011159328926533915 0 -0.00091449818183346118 -0.011443449692564455 0 -0.00067308290758388758 -0.010855568067085755 0 -0.0010978759095259421 -0.010706478153564078 0 -0.00091449818183346118 -0.011443449692564455 0 0.00023503338497275994 -0.010965039430754343 0 -0.00034071341256032241 -0.011159328926533915 0 -0.00045211932207205307 -0.010466860863662067 0 2.1575415201661937e-05 -0.010141764890814198 0 -0.00045211932207205307 -0.010466860863662067 0 -0.00044022579479281433 -0.010079684655057881 0 -0.00045211932207205307 -0.010466860863662067 0 -0.00044022579479281433 -0.010079684655057881 0 -0.0006422442219233041 -0.010220875312463348 0 -0.00052180763905829803 -0.0098869796476790048 0 -0.00044022579479281433 -0.010079684655057881 0 -0.0006422442219233041 -0.010220875312463348 0 -0.00047821691304178546 -0.010422783580833156 0 -0.00071416835486823565 -0.010216739572944214 0 -0.00067308290758388758 -0.010855568067085755 0 -0.00084371457375901303 -0.010221332139040223 0 -0.0010978759095259421 -0.010706478153564078 0 -0.00067308290758388758 -0.010855568067085755 0 -0.00045211932207205307 -0.010466860863662067 0 -0.00084371457375901303 -0.010221332139040223 0 3.4386226063008983e-05 -0.0080902126257759357 0 1.2775478994272206e-06 -0.008081695955060109 0 1.3364522280058651e-05 -0.0081028814512177968 0 3.4386226063008983e-05 -0.0080902126257759357 0 1.2043688703197346e-05 -0.0080712805660853593 0 1.2775478994272206e-06 -0.008081695955060109 0 -0.00066928625142298383 -0.0099139959379067263 0 -0.0006422442219233041 -0.010220875312463348 0 -0.00077093504849239732 -0.010078910369302689 0 -0.00084371457375901303 -0.010221332139040223 0 -0.0010978759095259421 -0.010706478153564078 0 -0.0012477635509860543 -0.0099720717433910717 0 -0.00053215183458643156 -0.0093338341113535523 0 -0.00063658963040050796 -0.0093346874125299767 0 -0.00071416835486823565 -0.010216739572944214 0 -0.00063658963040050796 -0.0093346874125299767 0 1.2043688703197346e-05 -0.0080712805660853593 0 -2.4726219539986829e-06 -0.008074106485473442 0 1.2775478994272206e-06 -0.008081695955060109 0 2.6614605369471775e-07 -0.0080612135897901865 0 -2.4726219539986829e-06 -0.008074106485473442 0 -3.0694778348587712e-05 -0.0080839825704261091 0 2.6614605369471775e-07 -0.0080612135897901865 0 1.2043688703197346e-05 -0.0080712805660853593 0 -2.4726219539986829e-06 -0.008074106485473442 0 -2.4726219539986829e-06 -0.008074106485473442 0 1.2775478994272206e-06 -0.008081695955060109 0 -3.0694778348587712e-05 -0.0080839825704261091 0 1.2775478994272206e-06 -0.008081695955060109 0 1.3364522280058651e-05 -0.0081028814512177968 0 -3.309379298907635e-05 -0.0081118495877030763 0 1.3364522280058651e-05 -0.0081028814512177968 0 -1.4766661691751341e-05 -0.0081429191102327225 0 -3.309379298907635e-05 -0.0081118495877030763 0 -0.00053215183458643156 -0.0093338341113535523 0 -0.00038398863444381886 -0.0098027741662417688 0 3.4386226063008983e-05 -0.0080902126257759357 0 1.3364522280058651e-05 -0.0081028814512177968 0 0.00012820847512566591 -0.0081279398924224092 0 0.00012820847512566591 -0.0081279398924224092 0 -1.4766661691751341e-05 -0.0081429191102327225 0 1.1493517302366297e-05 -0.0082687258889862347 0 1.3364522280058651e-05 -0.0081028814512177968 0 0.00012820847512566591 -0.0081279398924224092 0 -1.4766661691751341e-05 -0.0081429191102327225 0 -1.4766661691751341e-05 -0.0081429191102327225 0 -5.8972825382831476e-05 -0.0081462599790752925 0 -0.00015505907084621142 -0.0082281336201586609 0 -1.4766661691751341e-05 -0.0081429191102327225 0 1.1493517302366297e-05 -0.0082687258889862347 0 -0.00015505907084621142 -0.0082281336201586609 0 0.00012820847512566591 -0.0081279398924224092 0 1.1493517302366297e-05 -0.0082687258889862347 0 0.00035539561513320847 -0.0084200992232654048 0 -0.00022261692572029968 -0.0088141809792278269 0 0.00058249764468959486 -0.0093337369193335594 0 0.00035539561513320847 -0.0084200992232654048 0 1.1493517302366297e-05 -0.0082687258889862347 0 -0.00022261692572029968 -0.0088141809792278269 0 0.00035539561513320847 -0.0084200992232654048 0 -0.00022261692572029968 -0.0088141809792278269 0 -0.00015505907084621142 -0.0082281336201586609 0 -0.00014821700991111538 -0.0081575895223312978 0 1.1493517302366297e-05 -0.0082687258889862347 0 -0.00022261692572029968 -0.0088141809792278269 0 -0.00015505907084621142 -0.0082281336201586609 0 -0.00022261692572029968 -0.0088141809792278269 0 -6.1500060610124788e-07 -0.010025923400922518 0 -8.8504269027770998e-07 -0.0081069840457141436 0 -0.00022261692572029968 -0.0088141809792278269 0 -6.1500060610124788e-07 -0.010025923400922518 0 2.8185582320175561e-05 -0.01034246829666615 0 -0.00022261692572029968 -0.0088141809792278269 0 0.00058249764468959486 -0.0093337369193335594 0 2.8185582320175561e-05 -0.01034246829666615 0 9.1907045228823453e-05 -0.010990755909918045 0 5.6860529750823631e-08 -0.011944118045240256 0 -6.1500060610124788e-07 -0.010025923400922518 0 2.0649934093108542e-06 -0.011941451958286936 0 2.8185582320175561e-05 -0.01034246829666615 0 0.00058249764468959486 -0.0093337369193335594 0 2.0649934093108542e-06 -0.011941451958286936 0 2.8185582320175561e-05 -0.01034246829666615 0 1.2600915088487027e-07 -0.011947080858177882 0 -6.2575872872850033e-07 -0.01307773523897284 0 -0.00022658058517848208 -0.012902818174869867 0 -0.00028146412193676146 -0.012752666240771307 0 1.2600915088487027e-07 -0.011947080858177882 0 -0.00022658058517848208 -0.012902818174869867 0 -0.00028146412193676146 -0.012752666240771307 0 -0.00022658058517848208 -0.012902818174869867 0 -0.00014721878897032723 -0.012378089660720395 0 9.1907045228823453e-05 -0.010990755909918045 0 -0.00014652987158656565 -0.010295314192960722 0 -0.00028146412193676146 -0.012752666240771307 0 -0.00014721878897032723 -0.012378089660720395 0 -0.00066369008297139547 -0.012150410076321663 0 -0.00091449818183346118 -0.011443449692564455 0 -0.00066369008297139547 -0.012150410076321663 0 -0.00034506553887816098 -0.01181423576081473 0 -0.00038398863444381886 -0.0098027741662417688 0 -0.00014652987158656565 -0.010295314192960722 0 -0.00014721878897032723 -0.012378089660720395 0 -0.00066369008297139547 -0.012150410076321663 0 -0.00034506553887816098 -0.01181423576081473 0 -0.00014721878897032723 -0.012378089660720395 0 -0.00034506553887816098 -0.01181423576081473 0 0.00031498384048575854 -0.011872226760577153 0 -2.4713760315932671e-06 -0.01916857979172145 0 1.3648554128007329e-06 -0.014216541703567127 0 -0.00040464837879853255 -0.016941518172150803 0 -0.00021583702502944976 -0.017148593245827043 0 0.0003034204887610163 -0.016658385298696621 0 -0.00040464837879853255 -0.016941518172150803 0 -0.00031904665911371973 -0.017151831478209853 0 -0.00027927821341159855 -0.01718615562903671 0 -0.00021583702502944976 -0.017148593245827043 0 -0.00027927821341159855 -0.01718615562903671 0 -0.00021583702502944976 -0.017148593245827043 0 0.0003034204887610163 -0.016658385298696621 0 -0.00014721878897032723 -0.012378089660720395 0 0.00031498384048575854 -0.011872226760577153 0 0.00029925371069253225 -0.012572062919810249 0 2.706220600899839e-05 -0.014496080237955154 0 0.0002585804050176266 -0.014587983761332794 0 0.0003034204887610163 -0.016658385298696621 0 1.3648554128007329e-06 -0.014216541703567127 0 -0.00040464837879853255 -0.016941518172150803 0 -0.00022658058517848208 -0.012902818174869867 0 -0.00014721878897032723 -0.012378089660720395 0 0.00029925371069253225 -0.012572062919810249 0 -0.00022658058517848208 -0.012902818174869867 0 0.00029925371069253225 -0.012572062919810249 0 9.8905008993374211e-07 -0.014208310300506562 0 -6.2575872872850033e-07 -0.01307773523897284 0 -0.00022658058517848208 -0.012902818174869867 0 9.8905008993374211e-07 -0.014208310300506562 0 0.0002585804050176266 -0.014587983761332794 0 1.2617012158632297e-07 -0.014210942180828726 0 -0.00021313185120991863 -0.017936168200511946 0 -0.00040464837879853255 -0.016941518172150803 0 -0.00036135815428099243 -0.017344201023865219 0 -0.00021583702502944976 -0.017148593245827043 0 -0.00040464837879853255 -0.016941518172150803 0 -0.00036135815428099243 -0.017344201023865219 0 -0.00031904665911371973 -0.017151831478209853 0 -0.00021583702502944976 -0.017148593245827043 0 -0.00036135815428099243 -0.017344201023865219 0 -0.00016720603389578501 -0.017198526137126545 0 -0.00031904665911371973 -0.017151831478209853 0 -0.00036135815428099243 -0.017344201023865219 0 0.00076810915215724373 -0.0058671020589061906 0 0.001309218228259842 -0.0052214579225875928 0 0.0016563726808941181 -0.0057949026265201103 0 0.00076810915215724373 -0.0058671020589061906 0 0.00039024512112483504 -0.0059313072593475914 0 0.00023716983678453806 -0.0056341012954678011 0 0.00076810915215724373 -0.0058671020589061906 0 0.00023716983678453806 -0.0056341012954678011 0 7.4156237631791563e-05 -0.005188080224078166 0 0.00076810915215724373 -0.0058671020589061906 0 0.001309218228259842 -0.0052214579225875928 0 7.4156237631791563e-05 -0.005188080224078166 0 0.001309218228259842 -0.0052214579225875928 0 0.0023008375888777309 -0.0050530421229436299 0 0.0021383035459238537 -0.0056016345284605092 0 0.0023008375888777309 -0.0050530421229436299 0 0.0021383035459238537 -0.0056016345284605092 0 0.0025581312695919303 -0.0057676608263808214 0 0.0021383035459238537 -0.0056016345284605092 0 0.002310350885100424 -0.0058357056242244777 0 0.0025581312695919303 -0.0057676608263808214 0 0.0021383035459238537 -0.0056016345284605092 0 0.0016563726808941181 -0.0057949026265201103 0 0.0021584088366570203 -0.0060525106257950882 0 0.002310350885100424 -0.0058357056242244777 0 0.0021584088366570203 -0.0060525106257950882 0 0.0024562604351454033 -0.0059810137304902129 0 0.0021383035459238537 -0.0056016345284605092 0 0.002310350885100424 -0.0058357056242244777 0 0.0021584088366570203 -0.0060525106257950882 0 0.001309218228259842 -0.0052214579225875928 0 0.0021383035459238537 -0.0056016345284605092 0 0.0016563726808941181 -0.0057949026265201103 0 0.00076810915215724373 -0.0058671020589061906 0 0.0016563726808941181 -0.0057949026265201103 0 0.0016470420959476769 -0.0062545316518510616 0 0.0016563726808941181 -0.0057949026265201103 0 0.0016470420959476769 -0.0062545316518510616 0 0.0021584088366570203 -0.0060525106257950882 0 0.0021584088366570203 -0.0060525106257950882 0 0.0021771174334065651 -0.0065484324595450486 0 0.0025522813125008026 -0.0062628128500152721 0 0.0016470420959476769 -0.0062545316518510616 0 0.0021584088366570203 -0.0060525106257950882 0 0.0021771174334065651 -0.0065484324595450486 0 0.0021771174334065651 -0.0065484324595450486 0 0.0025039577208032186 -0.0066161396242483553 0 0.0024603258441431822 -0.0069347517741385851 0 0.0016470420959476769 -0.0062545316518510616 0 0.0021771174334065651 -0.0065484324595450486 0 0.001786336466195357 -0.0067076481092046758 0 0.0016470420959476769 -0.0062545316518510616 0 0.001786336466195357 -0.0067076481092046758 0 0.0012649403520327185 -0.0064493554445757212 0 0.0021593354529049914 -0.0070647450133383919 0 0.0021771174334065651 -0.0065484324595450486 0 0.001786336466195357 -0.0067076481092046758 0 0.001505891939919737 -0.0070250281832957943 0 0.001786336466195357 -0.0067076481092046758 0 0.0012649403520327185 -0.0064493554445757212 0 0.001505891939919737 -0.0070250281832957943 0 0.0012649403520327185 -0.0064493554445757212 0 0.00098789818265263138 -0.0067229120651545503 0 0.00076810915215724373 -0.0058671020589061906 0 0.0016470420959476769 -0.0062545316518510616 0 0.0012649403520327185 -0.0064493554445757212 0 0.00076810915215724373 -0.0058671020589061906 0 0.0012649403520327185 -0.0064493554445757212 0 0.00058376531805399241 -0.0063236600920743126 0 0.00076810915215724373 -0.0058671020589061906 0 0.00058376531805399241 -0.0063236600920743126 0 0.00039024512112483504 -0.0059313072593475914 0 0.0012649403520327185 -0.0064493554445757212 0 0.00098789818265263138 -0.0067229120651545503 0 0.00058376531805399241 -0.0063236600920743126 0 0.00098789818265263138 -0.0067229120651545503 0 0.00056353798137684548 -0.0068641783298033143 0 0.00058376531805399241 -0.0063236600920743126 0 0.00056353798137684548 -0.0068641783298033143 0 6.1807933293476017e-05 -0.006856482652672114 0 0.00058376531805399241 -0.0063236600920743126 0 3.5952782964685901e-05 -0.0068561019197256531 0 -4.1247546372203967e-06 -0.0067585891005003127 0 6.1807933293476017e-05 -0.006856482652672114 0 0.00014502384488222222 -0.0071915326064455696 0 -0.00016187201627403282 -0.0076076243226597508 0 6.1807933293476017e-05 -0.006856482652672114 0 0.00058376531805399241 -0.0063236600920743126 0 7.9245615216475573e-05 -0.0058686144702845945 0 0.00058376531805399241 -0.0063236600920743126 0 0.00039024512112483504 -0.0059313072593475914 0 7.9245615216475573e-05 -0.0058686144702845945 0 0.00019759614020837027 -0.0077425086918296547 0 0.00013389671910123247 -0.0078899973489916699 0 0.00020211141516112826 -0.0085026573115507906 0 7.6950262915709359e-05 -0.0085375371750735628 0 0.00022551018102933302 -0.0083064375918265546 0 0.00029956244476863134 -0.0085169704409024088 0 0.00020211141516112826 -0.0085026573115507906 0 0.00022551018102933302 -0.0083064375918265546 0 5.3788397682718374e-05 -0.0086024522366144815 0 0.00013389671910123247 -0.0078899973489916699 0 6.9681128977862528e-05 -0.0069443929350091827 0 6.1807933293476017e-05 -0.006856482652672114 0 0.00014502384488222222 -0.0071915326064455696 0 6.9681128977862528e-05 -0.0069443929350091827 0 0.00014502384488222222 -0.0071915326064455696 0 0.00039230220625239079 -0.0072371229023850386 0 0.00014502384488222222 -0.0071915326064455696 0 0.00039230220625239079 -0.0072371229023850386 0 0.00026328278637183553 -0.0076135706573984318 0 0.00014502384488222222 -0.0071915326064455696 0 0.00026328278637183553 -0.0076135706573984318 0 -0.00016187201627403282 -0.0076076243226597508 0 -2.8416813897690147e-05 -0.008121450563881031 0 -3.309379298907635e-05 -0.0081118495877030763 0 -2.4040842588663589e-05 -0.0081244602292750486 0 1.2775478994272206e-06 -0.008081695955060109 0 -3.0694778348587712e-05 -0.0080839825704261091 0 -3.309379298907635e-05 -0.0081118495877030763 0 0.00013389671910123247 -0.0078899973489916699 0 -1.1899286686101591e-05 -0.0081531656585546296 0 0.00013389671910123247 -0.0078899973489916699 0 0.00013029905014542778 -0.0078430087284026683 0 -3.309379298907635e-05 -0.0081118495877030763 0 -2.4040842588663589e-05 -0.0081244602292750486 0 -3.0103405258485257e-05 -0.0081041635132418043 0 -3.309379298907635e-05 -0.0081118495877030763 0 -3.0103405258485257e-05 -0.0081041635132418043 0 -5.8972825382831476e-05 -0.0081462599790752925 0 0.00026328278637183553 -0.0076135706573984318 0 3.4193216850808682e-05 -0.0080414571762090353 0 -0.00016187201627403282 -0.0076076243226597508 0 -2.4040842588663589e-05 -0.0081244602292750486 0 3.4193216850808682e-05 -0.0080414571762090353 0 -3.0103405258485257e-05 -0.0081041635132418043 0 0.00013029905014542778 -0.0078430087284026683 0 3.0773337703895059e-05 -0.0080327027276987564 0 3.4193216850808682e-05 -0.0080414571762090353 0 5.1043058757064914e-05 -0.0082500546070570537 0 -3.2163533216385728e-05 -0.008154673089624637 0 3.4193216850808682e-05 -0.0080414571762090353 0 -3.0103405258485257e-05 -0.0081041635132418043 0 -3.2163533216385728e-05 -0.008154673089624637 0 -1.4766661691751341e-05 -0.0081429191102327225 0 -3.309379298907635e-05 -0.0081118495877030763 0 -5.8972825382831476e-05 -0.0081462599790752925 0 -3.0103405258485257e-05 -0.0081041635132418043 0 -5.8972825382831476e-05 -0.0081462599790752925 0 -3.2163533216385728e-05 -0.008154673089624637 0 0.00039024512112483504 -0.0059313072593475914 0 7.9245615216475573e-05 -0.0058686144702845945 0 0.00023716983678453806 -0.0056341012954678011 0 3.4193216850808682e-05 -0.0080414571762090353 0 -0.00016187201627403282 -0.0076076243226597508 0 5.1043058757064914e-05 -0.0082500546070570537 0 7.9245615216475573e-05 -0.0058686144702845945 0 0.00023716983678453806 -0.0056341012954678011 0 0.0004994118481676732 -0.0057509237351747603 0 -4.1247546372203967e-06 -0.0067585891005003127 0 0.00025756739357606025 -0.0070032666962169437 0 0.00023716983678453806 -0.0056341012954678011 0 0.00016800035891065864 -0.0058018385707266137 0 0.0004994118481676732 -0.0057509237351747603 0 0.00023716983678453806 -0.0056341012954678011 0 0.00016800035891065864 -0.0058018385707266137 0 7.4156237631791563e-05 -0.005188080224078166 0 0.00016800035891065864 -0.0058018385707266137 0 -0.0001310828431090069 -0.006629091466196349 0 7.4156237631791563e-05 -0.005188080224078166 0 0.00022901735698336391 -0.0063985170733595878 0 0.00016800035891065864 -0.0058018385707266137 0 -0.0001310828431090069 -0.006629091466196349 0 0.00022901735698336391 -0.0063985170733595878 0 0.0004994118481676732 -0.0057509237351747603 0 0.00039591242713164532 -0.0074570106174340605 0 0.00022901735698336391 -0.0063985170733595878 0 0.00016800035891065864 -0.0058018385707266137 0 0.0004994118481676732 -0.0057509237351747603 0 5.1043058757064914e-05 -0.0082500546070570537 0 0.00039591242713164532 -0.0074570106174340605 0 -6.070047226584687e-05 -0.0080534195418138915 0 0.00025756739357606025 -0.0070032666962169437 0 0.00038271080544993605 -0.007410896892122168 0 0.00022901735698336391 -0.0063985170733595878 0 0.00039591242713164532 -0.0074570106174340605 0 -0.0001310828431090069 -0.006629091466196349 0 -0.00015505907084621142 -0.0082281336201586609 0 -3.2163533216385728e-05 -0.008154673089624637 0 -6.070047226584687e-05 -0.0080534195418138915 0 -5.8972825382831476e-05 -0.0081462599790752925 0 -0.00015505907084621142 -0.0082281336201586609 0 -3.2163533216385728e-05 -0.008154673089624637 0 5.1043058757064914e-05 -0.0082500546070570537 0 -3.2163533216385728e-05 -0.008154673089624637 0 -6.070047226584687e-05 -0.0080534195418138915 0 0.00039591242713164532 -0.0074570106174340605 0 -6.070047226584687e-05 -0.0080534195418138915 0 -2.4869514207966065e-05 -0.0078005421471259839 0 -6.070047226584687e-05 -0.0080534195418138915 0 -0.00014821700991111538 -0.0081575895223312978 0 -2.4869514207966065e-05 -0.0078005421471259839 0 -0.00015505907084621142 -0.0082281336201586609 0 -6.070047226584687e-05 -0.0080534195418138915 0 -0.00014821700991111538 -0.0081575895223312978 0 -0.00022261692572029968 -0.0088141809792278269 0 -8.5810436297735252e-05 -0.008012394114940884 0 -8.8504269027770998e-07 -0.0081069840457141436 0 -0.00022261692572029968 -0.0088141809792278269 0 -0.00014821700991111538 -0.0081575895223312978 0 -8.5810436297735252e-05 -0.008012394114940884 0 -0.00014821700991111538 -0.0081575895223312978 0 -8.5810436297735252e-05 -0.008012394114940884 0 -2.4869514207966065e-05 -0.0078005421471259839 0 -8.5810436297735252e-05 -0.008012394114940884 0 -2.4869514207966065e-05 -0.0078005421471259839 0 -1.9617892815252744e-05 -0.0074056472304639947 0 0.00039591242713164532 -0.0074570106174340605 0 -2.4869514207966065e-05 -0.0078005421471259839 0 -1.9617892815252744e-05 -0.0074056472304639947 0 -1.9617892815252744e-05 -0.0074056472304639947 0 -8.8504269027770998e-07 -0.0081069840457141436 0 1.2396520387656475e-06 -0.006192395525567768 0 -8.5810436297735252e-05 -0.008012394114940884 0 -1.9617892815252744e-05 -0.0074056472304639947 0 -8.8504269027770998e-07 -0.0081069840457141436 0 0.00039591242713164532 -0.0074570106174340605 0 -0.0001310828431090069 -0.006629091466196349 0 0.00037819891797388435 -0.0074486440670007478 0 -0.00017554643387987891 -0.0052055087208622668 0 0.00011132646419616466 -0.0056672646864403134 0 -0.00040680551170559618 -0.0036840514146964246 0 3.1420083752159993e-05 -0.0039532814176072928 0 -0.00014950304742152129 -0.0033511718843658974 0 0.00039591242713164532 -0.0074570106174340605 0 -1.9617892815252744e-05 -0.0074056472304639947 0 0.00037819891797388435 -0.0074486440670007478 0 0.00011132646419616466 -0.0056672646864403134 0 1.1220788378099436e-08 -0.006188602711467186 0 -1.9617892815252744e-05 -0.0074056472304639947 0 0.00037819891797388435 -0.0074486440670007478 0 1.2396520387656475e-06 -0.006192395525567768 0 3.1420083752159993e-05 -0.0039532814176072928 0 1.5241732670781257e-06 -0.0061860417736078338 0 -8.8280137954201995e-07 -0.0042849794725077885 0 3.1420083752159993e-05 -0.0039532814176072928 0 -8.8280137954201995e-07 -0.0042849794725077885 0 -0.00014950304742152129 -0.0033511718843658974 0 -8.8280137954201995e-07 -0.0042849794725077885 0 -1.1116411971860141e-07 -0.0023807827358174154 0 -0.00014950304742152129 -0.0033511718843658974 0 -1.1116411971860141e-07 -0.0023807827358174154 0 -0.00014950304742152129 -0.0033511718843658974 0 0.0002946061306994718 -0.0027989500053379355 0 -0.00040680551170559618 -0.0036840514146964246 0 -0.00014950304742152129 -0.0033511718843658974 0 0.0002946061306994718 -0.0027989500053379355 0 -0.00040680551170559618 -0.0036840514146964246 0 0.0002946061306994718 -0.0027989500053379355 0 0.00050318260947452914 -0.0042392947479977985 0 0.001309218228259842 -0.0052214579225875928 0 0.00050318260947452914 -0.0042392947479977985 0 7.4156237631791563e-05 -0.005188080224078166 0 -0.00040680551170559618 -0.0036840514146964246 0 0.00050318260947452914 -0.0042392947479977985 0 7.4156237631791563e-05 -0.005188080224078166 0 -0.00017554643387987891 -0.0052055087208622668 0 3.6294036972004819e-05 -0.0052608307242505347 0 0.00042411687915421844 -0.0027121311178008706 0 0.00011374932368864736 -0.0023000559601180294 0 0.00049953834349020687 -0.0023499198629759349 0 0.0013831193227971373 -0.0038906423308924017 0 0.00086068058031423108 -0.0032412380862189552 0 0.001309218228259842 -0.0052214579225875928 0 0.00050318260947452914 -0.0042392947479977985 0 0.0016768938715278658 -0.0041661338071006066 0 0.001309218228259842 -0.0052214579225875928 0 0.0023008375888777309 -0.0050530421229436299 0 0.0016768938715278658 -0.0041661338071006066 0 0.00035983647107939006 -0.0028094552859310343 0 0.00086068058031423108 -0.0032412380862189552 0 0.0002946061306994718 -0.0027989500053379355 0 0.00050318260947452914 -0.0042392947479977985 0 0.0016768938715278658 -0.0041661338071006066 0 0.0002946061306994718 -0.0027989500053379355 0 0.00011374932368864736 -0.0023000559601180294 0 0.00012311655608887524 -0.0019777041248463731 0 0.00011374932368864736 -0.0023000559601180294 0 0.00012311655608887524 -0.0019777041248463731 0 0.00049953834349020687 -0.0023499198629759349 0 -1.1116411971860141e-07 -0.0023807827358174154 0 0.0002946061306994718 -0.0027989500053379355 0 1.1684054256841455e-05 -0.0016884707889686906 0 0.00012311655608887524 -0.0019777041248463731 0 1.1684054256841455e-05 -0.0016884707889686906 0 0.00019041538666524256 -0.00030181949530031432 0 0.0002946061306994718 -0.0027989500053379355 0 0.00012311655608887524 -0.0019777041248463731 0 1.1684054256841455e-05 -0.0016884707889686906 0 -1.1116411971860141e-07 -0.0023807827358174154 0 1.1684054256841455e-05 -0.0016884707889686906 0 2.572931290957185e-07 -0.00047725754032700533 0 1.1684054256841455e-05 -0.0016884707889686906 0 2.572931290957185e-07 -0.00047725754032700533 0 0.00019041538666524256 -0.00030181949530031432 0 0.00019041538666524256 -0.00030181949530031432 0 2.4435971724098551e-07 0.0014265435524428163 0 -6.0260850223231008e-05 0.0006617221591549131 0 2.572931290957185e-07 -0.00047725754032700533 0 0.00019041538666524256 -0.00030181949530031432 0 2.4435971724098551e-07 0.0014265435524428163 0 2.4435971724098551e-07 0.0014265435524428163 0 3.3774926943210278e-05 0.0013867383992870169 0 0.00011951973513401915 0.002622969107587319 0 2.4435971724098551e-07 0.0014265435524428163 0 3.3774926943210278e-05 0.0013867383992870169 0 -6.0260850223231008e-05 0.0006617221591549131 0 -6.0260850223231008e-05 0.0006617221591549131 0 0.00033018178267174694 0.00054594200707632824 0 0.00014101626029978969 0.00051052741890831915 0 -6.0260850223231008e-05 0.0006617221591549131 0 5.398862179531146e-05 0.00058155560676162866 0 0.00014101626029978969 0.00051052741890831915 0 3.3774926943210278e-05 0.0013867383992870169 0 -6.0260850223231008e-05 0.0006617221591549131 0 0.00033018178267174694 0.00054594200707632824 0 0.00012311655608887524 -0.0019777041248463731 0 0.00019041538666524256 -0.00030181949530031432 0 0.00084504445417175162 -0.0018773638600893751 0 0.00024242841085630594 -0.00035007530070956981 0 0.00039436708691717025 -0.00055140156101426995 0 0.00019041538666524256 -0.00030181949530031432 0 -6.0260850223231008e-05 0.0006617221591549131 0 5.398862179531146e-05 0.00058155560676162866 0 9.8959892024547154e-07 0.0033317076717417357 0 -0.00012344805464985334 0.004388092627364594 0 9.9806152805412678e-05 0.0042765913990940423 0 9.8959892024547154e-07 0.0033317076717417357 0 -0.00012344805464985334 0.004388092627364594 0 -1.4666821644980443e-06 0.0052360213589291308 0 -0.00012344805464985334 0.004388092627364594 0 9.9806152805412678e-05 0.0042765913990940423 0 -0.00022444854222846683 0.0048647915117169521 0 9.8959892024547154e-07 0.0033317076717417357 0 0.00011951973513401915 0.002622969107587319 0 9.9806152805412678e-05 0.0042765913990940423 0 0.00024626480797416072 0.0026539695101228293 0 0.00057125897156920361 0.0026581868392868213 0 0.00011951973513401915 0.002622969107587319 0 9.9806152805412678e-05 0.0042765913990940423 0 0.0010002417656719495 0.0049578066590529983 0 2.4435971724098551e-07 0.0014265435524428163 0 9.8959892024547154e-07 0.0033317076717417357 0 0.00011951973513401915 0.002622969107587319 0 3.3774926943210278e-05 0.0013867383992870169 0 0.00011951973513401915 0.002622969107587319 0 0.00033018178267174694 0.00054594200707632824 0 9.9806152805412678e-05 0.0042765913990940423 0 0.0010002417656719495 0.0049578066590529983 0 0.0005251643860010902 0.0055802796191858437 0 9.9806152805412678e-05 0.0042765913990940423 0 -4.8798495556789085e-06 0.0054738588851487805 0 0.0005251643860010902 0.0055802796191858437 0 9.9806152805412678e-05 0.0042765913990940423 0 -4.8798495556789085e-06 0.0054738588851487805 0 -0.00022444854222846683 0.0048647915117169521 0 -4.8798495556789085e-06 0.0054738588851487805 0 0.00018700949072952974 0.0060352619421990385 0 -0.00039804390171955173 0.0060777961735868956 0 -4.8798495556789085e-06 0.0054738588851487805 0 -0.00039804390171955173 0.0060777961735868956 0 -0.00022444854222846683 0.0048647915117169521 0 -4.8798495556789085e-06 0.0054738588851487805 0 0.0005251643860010902 0.0055802796191858437 0 0.00018700949072952974 0.0060352619421990385 0 0.0005251643860010902 0.0055802796191858437 0 0.00057585936306030682 0.0062100673572247555 0 0.00018700949072952974 0.0060352619421990385 0 0.0010002417656719495 0.0049578066590529983 0 0.0005251643860010902 0.0055802796191858437 0 0.00098123762801951078 0.0060828374460922159 0 0.00057125897156920361 0.0026581868392868213 0 0.00061358846238745253 0.0037512178210607414 0 0.0005251643860010902 0.0055802796191858437 0 0.00057585936306030682 0.0062100673572247555 0 0.00098123762801951078 0.0060828374460922159 0 0.00057585936306030682 0.0062100673572247555 0 0.00074394385039521665 0.0065519866665643264 0 6.6752865745105272e-05 0.0066403706151355333 0 0.00057585936306030682 0.0062100673572247555 0 0.00098123762801951078 0.0060828374460922159 0 0.00074394385039521665 0.0065519866665643264 0 0.00018700949072952974 0.0060352619421990385 0 6.6752865745105272e-05 0.0066403706151355333 0 -0.00039804390171955173 0.0060777961735868956 0 0.00057585936306030682 0.0062100673572247555 0 0.00018700949072952974 0.0060352619421990385 0 6.6752865745105272e-05 0.0066403706151355333 0 0.00084504445417175162 -0.0018773638600893751 0 0.00093377272810220258 -0.0024242501755721364 0 0.00049953834349020687 -0.0023499198629759349 0 0.00012311655608887524 -0.0019777041248463731 0 0.00084504445417175162 -0.0018773638600893751 0 0.00049953834349020687 -0.0023499198629759349 0 0.00039436708691717025 -0.00055140156101426995 0 0.00062120080333970295 -0.0014373058116678712 0 5.398862179531146e-05 0.00058155560676162866 0 0.00014101626029978969 0.00051052741890831915 0 0.00013139627068992868 0.00042109440070968695 0 0.00014101626029978969 0.00051052741890831915 0 0.00013139627068992868 0.00042109440070968695 0 0.0001739509471041585 0.00044148633068080234 0 0.00033018178267174694 0.00054594200707632824 0 0.00014101626029978969 0.00051052741890831915 0 0.0001739509471041585 0.00044148633068080234 0 0.00013139627068992868 0.00042109440070968695 0 0.0001739509471041585 0.00044148633068080234 0 0.00015906669923719045 0.00039171703431081691 0 0.00061358846238745253 0.0037512178210607414 0 0.00090619057457532869 0.001226317271837428 0 0.00098123762801951078 0.0060828374460922159 0 0.0010550351102188524 0.0068512420421744805 0 0.00074394385039521665 0.0065519866665643264 0 0.00093377272810220258 -0.0024242501755721364 0 0.00067817287346184257 -0.0025957654716668977 0 0.00049953834349020687 -0.0023499198629759349 0 0.00042411687915421844 -0.0027121311178008706 0 0.00067817287346184257 -0.0025957654716668977 0 0.00049953834349020687 -0.0023499198629759349 0 0.00042411687915421844 -0.0027121311178008706 0 0.00067817287346184257 -0.0025957654716668977 0 0.00086065737187040992 -0.0028828945674663699 0 0.00093377272810220258 -0.0024242501755721364 0 0.00067817287346184257 -0.0025957654716668977 0 0.00086065737187040992 -0.0028828945674663699 0 0.0013831193227971373 -0.0038906423308924017 0 0.0016431325053613715 -0.0043069384873441917 0 0.00042411687915421844 -0.0027121311178008706 0 0.00086065737187040992 -0.0028828945674663699 0 0.00077610651631076816 -0.003094506795904884 0 0.0023008375888777309 -0.0050530421229436299 0 0.0025581312695919303 -0.0057676608263808214 0 0.0027469494834756461 -0.0056847444021069071 0 0.0020687577409935114 -0.0046695664999627977 0 0.0016431325053613715 -0.0043069384873441917 0 0.0025581312695919303 -0.0057676608263808214 0 0.0026960136599874919 -0.0057109259846661597 0 0.00268862508424137 -0.0059754946634587866 0 0.0026960136599874919 -0.0057109259846661597 0 0.00268862508424137 -0.0059754946634587866 0 0.0029621422255661396 -0.0060421659633783315 0 0.0025581312695919303 -0.0057676608263808214 0 0.00268862508424137 -0.0059754946634587866 0 0.0024562604351454033 -0.0059810137304902129 0 0.002310350885100424 -0.0058357056242244777 0 0.0025581312695919303 -0.0057676608263808214 0 0.0024562604351454033 -0.0059810137304902129 0 0.00063267974305149146 -0.0032875546457513264 0 0.0019889327549450103 -0.0027142010136603067 0 0.0016924768121545542 -0.0044994426356714098 0 0.002170183284467388 -0.0034297107456987132 0 0.0028839279253294581 -0.0056337328953588815 0 0.0017714379271207149 -0.0049666847755944817 0 0.00074294094642888956 -0.00069642892686275042 0 0.002085255330212111 -0.0054588749319954338 0 0.002170183284467388 -0.0034297107456987132 0 0.0020016524233936795 -0.0034995912769831615 0 0.0017714379271207149 -0.0049666847755944817 0 0.0016431325053613715 -0.0043069384873441917 0 0.002085255330212111 -0.0054588749319954338 0 0.0016431325053613715 -0.0043069384873441917 0 0.00074294094642888956 -0.00069642892686275042 0 0.00086065737187040992 -0.0028828945674663699 0 0.00077610651631076816 -0.003094506795904884 0 0.0010652512479596879 -0.0029554922412181853 0 0.00062120080333970295 -0.0014373058116678712 0 0.00090619057457532869 0.001226317271837428 0 0.00093377272810220258 -0.0024242501755721364 0 0.00086065737187040992 -0.0028828945674663699 0 0.0010805878378907072 -0.0028598152256730982 0 0.0010191544501274663 0.0069624583479411424 0 0.0010550351102188524 0.0068512420421744805 0 0.00074394385039521665 0.0065519866665643264 0 0.00074294094642888956 -0.00069642892686275042 0 0.00090619057457532869 0.001226317271837428 0 0.00098005994843475969 0.0015455937102267043 0 0.00074294094642888956 -0.00069642892686275042 0 0.0013726205310748301 0.00099547918708484204 0 0.0015058569525615234 0.0010496875415067831 0 0.0014596752011901092 0.00076846130689852429 0 0.00098005994843475969 0.0015455937102267043 0 0.00090619057457532869 0.001226317271837428 0 0.00086065737187040992 -0.0028828945674663699 0 0.0010652512479596879 -0.0029554922412181853 0 0.0010805878378907072 -0.0028598152256730982 0 0.00098005994843475969 0.0015455937102267043 0 -0.00061712977855755123 0.007064904422798301 0 0.0010191544501274663 0.0069624583479411424 0 0.00074394385039521665 0.0065519866665643264 0 6.6752865745105272e-05 0.0066403706151355333 0 -0.0016538094192778616 0.0057668465282773272 0 -0.001070941251966514 0.0060908533617005378 0 -0.0012238478415689995 0.0057242874393318832 0 -0.001070941251966514 0.0060908533617005378 0 -0.00092120087323250969 0.0057663885243527313 0 -0.00067751326365417426 0.0060456356502393404 0 -0.001070941251966514 0.0060908533617005378 0 -0.00092120087323250969 0.0057663885243527313 0 -0.0012238478415689995 0.0057242874393318832 0 -0.00092120087323250969 0.0057663885243527313 0 -0.0010823366286099355 0.0055015174599386566 0 -0.0012238478415689995 0.0057242874393318832 0 -0.0010823366286099355 0.0055015174599386566 0 -0.0012238478415689995 0.0057242874393318832 0 -0.001245230685681137 0.0055202882829838412 0 -0.00092120087323250969 0.0057663885243527313 0 -0.0010823366286099355 0.0055015174599386566 0 -0.00081919538692716348 0.0054273890198520041 0 0.00098005994843475969 0.0015455937102267043 0 0.00058340264741958399 0.00023867139294764361 0 -0.0016538094192778616 0.0057668465282773272 0 -0.0012238478415689995 0.0057242874393318832 0 -0.0013889928054301619 0.005519724380562226 0 -0.0016538094192778616 0.0057668465282773272 0 -0.0013889928054301619 0.005519724380562226 0 -0.0014436539901660575 0.0051581857279150399 0 -0.0012238478415689995 0.0057242874393318832 0 -0.001245230685681137 0.0055202882829838412 0 -0.0013889928054301619 0.005519724380562226 0 -0.001245230685681137 0.0055202882829838412 0 -0.0013889928054301619 0.005519724380562226 0 -0.0012854621513014991 0.0053358362622610333 0 -0.0010823366286099355 0.0055015174599386566 0 -0.001245230685681137 0.0055202882829838412 0 -0.0012854621513014991 0.0053358362622610333 0 -0.0013889928054301619 0.005519724380562226 0 -0.0012854621513014991 0.0053358362622610333 0 -0.0014436539901660575 0.0051581857279150399 0 -0.0012854621513014991 0.0053358362622610333 0 -0.001207960177594565 0.0050243557533361282 0 -0.0014436539901660575 0.0051581857279150399 0 -0.0012854621513014991 0.0053358362622610333 0 -0.001207960177594565 0.0050243557533361282 0 -0.0011614146178932801 0.0052227045961150157 0 0.0028839279253294581 -0.0056337328953588815 0 0.0025409373752222032 -0.006325526024335529 0 0.0025195279321529448 -0.0059720509667899949 0 0.0028839279253294581 -0.0056337328953588815 0 0.0025195279321529448 -0.0059720509667899949 0 0.002314869046756663 -0.0055984856944258114 0 -0.0009652748861106882 0.005251663391277259 0 -0.00079930136805353674 0.0051160942875623722 0 -0.00081919538692716348 0.0054273890198520041 0 -0.0010823366286099355 0.0055015174599386566 0 -0.0009652748861106882 0.005251663391277259 0 -0.00081919538692716348 0.0054273890198520041 0 -0.0010823366286099355 0.0055015174599386566 0 -0.0012854621513014991 0.0053358362622610333 0 -0.0011614146178932801 0.0052227045961150157 0 -0.0010823366286099355 0.0055015174599386566 0 -0.0009652748861106882 0.005251663391277259 0 -0.0011614146178932801 0.0052227045961150157 0 -0.0009652748861106882 0.005251663391277259 0 -0.0011614146178932801 0.0052227045961150157 0 -0.0010193850929849368 0.0050426541153466738 0 -0.001207960177594565 0.0050243557533361282 0 -0.0011614146178932801 0.0052227045961150157 0 -0.0010193850929849368 0.0050426541153466738 0 -0.0009652748861106882 0.005251663391277259 0 -0.0010193850929849368 0.0050426541153466738 0 -0.00079930136805353674 0.0051160942875623722 0 -0.001207960177594565 0.0050243557533361282 0 -0.0011079933802723039 0.0048357018512064729 0 -0.0012026503573266459 0.0045071409380447059 0 -0.0010193850929849368 0.0050426541153466738 0 -0.00087773410268477694 0.0048037926957912843 0 -0.00079930136805353674 0.0051160942875623722 0 -0.0010193850929849368 0.0050426541153466738 0 -0.0011079933802723039 0.0048357018512064729 0 -0.00087773410268477694 0.0048037926957912843 0 -0.001207960177594565 0.0050243557533361282 0 -0.0010193850929849368 0.0050426541153466738 0 -0.0011079933802723039 0.0048357018512064729 0 -0.0011079933802723039 0.0048357018512064729 0 -0.00087773410268477694 0.0048037926957912843 0 -0.0012026503573266459 0.0045071409380447059 0 0.0028839279253294581 -0.0056337328953588815 0 0.0025409373752222032 -0.006325526024335529 0 0.0031731181077977433 -0.0070149579909052516 0 0.00058340264741958399 0.00023867139294764361 0 0.00072048765961481482 -0.0038139084627113935 0 -0.001207960177594565 0.0050243557533361282 0 -0.0014436539901660575 0.0051581857279150399 0 -0.0012026503573266459 0.0045071409380447059 0 0.0025409373752222032 -0.006325526024335529 0 0.0025805096257683121 -0.0069888283791144619 0 0.0031731181077977433 -0.0070149579909052516 0 0.0025409373752222032 -0.006325526024335529 0 0.0023472097515824498 -0.0067503470249757587 0 0.0025805096257683121 -0.0069888283791144619 0 0.0025409373752222032 -0.006325526024335529 0 0.0023472097515824498 -0.0067503470249757587 0 0.0019710400845786291 -0.00659603665448433 0 0.0019710400845786291 -0.00659603665448433 0 0.0025195279321529448 -0.0059720509667899949 0 0.002314869046756663 -0.0055984856944258114 0 0.0025409373752222032 -0.006325526024335529 0 0.0019710400845786291 -0.00659603665448433 0 0.0025195279321529448 -0.0059720509667899949 0 0.0028193159974570529 -0.006692394233785157 0 0.0025039577208032186 -0.0066161396242483553 0 0.0025522813125008026 -0.0062628128500152721 0 0.0028193159974570529 -0.006692394233785157 0 0.0025039577208032186 -0.0066161396242483553 0 0.0024603258441431822 -0.0069347517741385851 0 0.0021771174334065651 -0.0065484324595450486 0 0.0025039577208032186 -0.0066161396242483553 0 0.0025522813125008026 -0.0062628128500152721 0 0.0028193159974570529 -0.006692394233785157 0 0.0025522813125008026 -0.0062628128500152721 0 0.0029621422255661396 -0.0060421659633783315 0 0.0021584088366570203 -0.0060525106257950882 0 0.0024562604351454033 -0.0059810137304902129 0 0.0025522813125008026 -0.0062628128500152721 0 0.00268862508424137 -0.0059754946634587866 0 0.0024562604351454033 -0.0059810137304902129 0 0.0025522813125008026 -0.0062628128500152721 0 0.00268862508424137 -0.0059754946634587866 0 0.0025522813125008026 -0.0062628128500152721 0 0.0029621422255661396 -0.0060421659633783315 0 0.0019710400845786291 -0.00659603665448433 0 0.0019506244066041713 -0.0051971344032910732 0 0.002314869046756663 -0.0055984856944258114 0 0.0024466713596273328 -0.0066373824407525107 0 0.002085255330212111 -0.0054588749319954338 0 0.0028839279253294581 -0.0056337328953588815 0 0.0017714379271207149 -0.0049666847755944817 0 0.002314869046756663 -0.0055984856944258114 0 0.002085255330212111 -0.0054588749319954338 0 0.0021424383484570913 -0.0054512183404896181 0 0.00013842853008606338 0.0053634333107461692 0 0.00014986329613504004 0.0050901122080711471 0 -4.4886731100373245e-05 0.0051201427332262768 0 0.00013842853008606338 0.0053634333107461692 0 -4.4886731100373245e-05 0.0051201427332262768 0 -0.0001796489905566185 0.0053127385079270338 0 0.00013842853008606338 0.0053634333107461692 0 -0.0001796489905566185 0.0053127385079270338 0 -3.3282861088490683e-05 0.0055703225113208294 0 0.00013842853008606338 0.0053634333107461692 0 0.0004091345515309713 0.0054962112043452161 0 0.0003928443796268465 0.0051850662857590999 0 0.0004091345515309713 0.0054962112043452161 0 0.0003928443796268465 0.0051850662857590999 0 0.00063313067671145139 0.0053472430898888626 0 0.00013842853008606338 0.0053634333107461692 0 0.0003928443796268465 0.0051850662857590999 0 0.00014986329613504004 0.0050901122080711471 0 0.0003928443796268465 0.0051850662857590999 0 0.00050486207248329803 0.0049016739527089903 0 0.00063313067671145139 0.0053472430898888626 0 0.0003928443796268465 0.0051850662857590999 0 0.00022743013255252864 0.0049295576180494304 0 0.00014986329613504004 0.0050901122080711471 0 0.00050486207248329803 0.0049016739527089903 0 0.00022743013255252864 0.0049295576180494304 0 0.00013011271544014473 0.0046036380935295107 0 0.0003928443796268465 0.0051850662857590999 0 0.00050486207248329803 0.0049016739527089903 0 0.00022743013255252864 0.0049295576180494304 0 0.00022743013255252864 0.0049295576180494304 0 -4.4625788389666966e-05 0.0048639657291308265 0 0.00013011271544014473 0.0046036380935295107 0 0.00022743013255252864 0.0049295576180494304 0 0.00014986329613504004 0.0050901122080711471 0 -4.4625788389666966e-05 0.0048639657291308265 0 -4.4886731100373245e-05 0.0051201427332262768 0 -4.4625788389666966e-05 0.0048639657291308265 0 -0.00029074962562180759 0.0049705530318651346 0 0.00014986329613504004 0.0050901122080711471 0 -4.4886731100373245e-05 0.0051201427332262768 0 -4.4625788389666966e-05 0.0048639657291308265 0 -0.00029074962562180759 0.0049705530318651346 0 -0.00058912163288845308 0.0049535273096593313 0 -0.00051688496374449665 0.0045547192651128228 0 -4.4625788389666966e-05 0.0048639657291308265 0 -0.00029074962562180759 0.0049705530318651346 0 -0.00051688496374449665 0.0045547192651128228 0 -0.00029074962562180759 0.0049705530318651346 0 -0.00058912163288845308 0.0049535273096593313 0 -0.00052293523119130675 0.0052955774358336948 0 -0.00087773410268477694 0.0048037926957912843 0 -0.00058912163288845308 0.0049535273096593313 0 -0.00051688496374449665 0.0045547192651128228 0 -0.00087773410268477694 0.0048037926957912843 0 -0.00058912163288845308 0.0049535273096593313 0 -0.00079930136805353674 0.0051160942875623722 0 -0.00058912163288845308 0.0049535273096593313 0 -0.00079930136805353674 0.0051160942875623722 0 -0.00052293523119130675 0.0052955774358336948 0 -0.00079930136805353674 0.0051160942875623722 0 -0.00052293523119130675 0.0052955774358336948 0 -0.00081919538692716348 0.0054273890198520041 0 -4.4886731100373245e-05 0.0051201427332262768 0 -0.00029074962562180759 0.0049705530318651346 0 -0.0001796489905566185 0.0053127385079270338 0 -0.00029074962562180759 0.0049705530318651346 0 -0.00052293523119130675 0.0052955774358336948 0 -0.0001796489905566185 0.0053127385079270338 0 -0.00052293523119130675 0.0052955774358336948 0 -0.0001796489905566185 0.0053127385079270338 0 -0.00029941703772731016 0.0055987224140784178 0 -0.0001796489905566185 0.0053127385079270338 0 -0.00029941703772731016 0.0055987224140784178 0 -3.3282861088490683e-05 0.0055703225113208294 0 -0.00052293523119130675 0.0052955774358336948 0 -0.00029941703772731016 0.0055987224140784178 0 -0.00064659570914000531 0.005672753836190053 0 -0.00029941703772731016 0.0055987224140784178 0 -0.00064659570914000531 0.005672753836190053 0 -0.00039955244908202646 0.0058870408798152056 0 -0.00029941703772731016 0.0055987224140784178 0 -0.00039955244908202646 0.0058870408798152056 0 -7.6018674773233941e-05 0.0058390166608706367 0 -0.00092120087323250969 0.0057663885243527313 0 -0.00081919538692716348 0.0054273890198520041 0 -0.00064659570914000531 0.005672753836190053 0 -0.00052293523119130675 0.0052955774358336948 0 -0.00081919538692716348 0.0054273890198520041 0 -0.00064659570914000531 0.005672753836190053 0 -0.00092120087323250969 0.0057663885243527313 0 -0.00064659570914000531 0.005672753836190053 0 -0.00067751326365417426 0.0060456356502393404 0 -0.001070941251966514 0.0060908533617005378 0 -0.00067751326365417426 0.0060456356502393404 0 -0.00051060505303797952 0.0064179632072255367 0 -0.00064659570914000531 0.005672753836190053 0 -0.00067751326365417426 0.0060456356502393404 0 -0.00039955244908202646 0.0058870408798152056 0 -0.00039955244908202646 0.0058870408798152056 0 -7.893660496924136e-05 0.0060029012102834388 0 -7.6018674773233941e-05 0.0058390166608706367 0 -0.00039955244908202646 0.0058870408798152056 0 -0.00038636799136063533 0.0062776759154132625 0 -7.893660496924136e-05 0.0060029012102834388 0 -0.00067751326365417426 0.0060456356502393404 0 -0.00038636799136063533 0.0062776759154132625 0 -0.00051060505303797952 0.0064179632072255367 0 -0.00067751326365417426 0.0060456356502393404 0 -0.00039955244908202646 0.0058870408798152056 0 -0.00038636799136063533 0.0062776759154132625 0 -0.00038636799136063533 0.0062776759154132625 0 4.1094715351507729e-05 0.0064524479302975656 0 -0.00019845303904401291 0.0065058398028600894 0 0.00010595392451551888 0.0059097838126923033 0 -7.893660496924136e-05 0.0060029012102834388 0 0.0003289957887656794 0.006057622131943519 0 -0.00047698713289099769 0.006452427074364676 0 0.00036880580436176788 0.0057209744843340045 0 -0.00038636799136063533 0.0062776759154132625 0 -7.893660496924136e-05 0.0060029012102834388 0 0.0003289957887656794 0.006057622131943519 0 0.00010595392451551888 0.0059097838126923033 0 -7.893660496924136e-05 0.0060029012102834388 0 -7.6018674773233941e-05 0.0058390166608706367 0 0.00013842853008606338 0.0053634333107461692 0 -3.3282861088490683e-05 0.0055703225113208294 0 0.00024390053757343823 0.0057424182395238799 0 -7.6018674773233941e-05 0.0058390166608706367 0 -3.3282861088490683e-05 0.0055703225113208294 0 0.00024390053757343823 0.0057424182395238799 0 0.00010595392451551888 0.0059097838126923033 0 -7.6018674773233941e-05 0.0058390166608706367 0 0.00024390053757343823 0.0057424182395238799 0 -0.00029941703772731016 0.0055987224140784178 0 -7.6018674773233941e-05 0.0058390166608706367 0 -3.3282861088490683e-05 0.0055703225113208294 0 0.0004091345515309713 0.0054962112043452161 0 0.00024390053757343823 0.0057424182395238799 0 0.00057039257633979097 0.0056928903283283471 0 0.00013842853008606338 0.0053634333107461692 0 0.0004091345515309713 0.0054962112043452161 0 0.00024390053757343823 0.0057424182395238799 0 0.00024390053757343823 0.0057424182395238799 0 0.0003289957887656794 0.006057622131943519 0 0.00057039257633979097 0.0056928903283283471 0 4.1094715351507729e-05 0.0064524479302975656 0 0.00013567913618875151 0.0065391058466701887 0 -5.4704054113734547e-05 0.0065519854808979271 0 0.00010595392451551888 0.0059097838126923033 0 0.00024390053757343823 0.0057424182395238799 0 0.0003289957887656794 0.006057622131943519 0 -0.00037108280965765164 0.0057836121130109839 0 0.00034630085548595775 0.0094254628099754451 0 0.00013567913618875151 0.0065391058466701887 0 0.0001041545873493096 0.0066348997116268838 0 -5.4704054113734547e-05 0.0065519854808979271 0 0.0001041545873493096 0.0066348997116268838 0 -5.4704054113734547e-05 0.0065519854808979271 0 0.00012071002448433154 0.0068361233622788549 0 -5.4704054113734547e-05 0.0065519854808979271 0 -6.0326339847695089e-05 0.0068843170630165599 0 9.2445946410850825e-05 0.0070292085834208944 0 4.1094715351507729e-05 0.0064524479302975656 0 -5.4704054113734547e-05 0.0065519854808979271 0 -0.00019845303904401291 0.0065058398028600894 0 -5.4704054113734547e-05 0.0065519854808979271 0 -0.00019845303904401291 0.0065058398028600894 0 -0.00015316998520419184 0.0067215806732276381 0 -0.00019845303904401291 0.0065058398028600894 0 -0.00015316998520419184 0.0067215806732276381 0 -0.00027005146141772672 0.0067145093807684467 0 -5.4704054113734547e-05 0.0065519854808979271 0 -0.00015316998520419184 0.0067215806732276381 0 -6.0326339847695089e-05 0.0068843170630165599 0 -6.0326339847695089e-05 0.0068843170630165599 0 -0.00016103571682593069 0.006962999352397253 0 -2.6855187818425363e-05 0.007084545305802931 0 -0.00015316998520419184 0.0067215806732276381 0 -6.0326339847695089e-05 0.0068843170630165599 0 -0.00016103571682593069 0.006962999352397253 0 -0.00016103571682593069 0.006962999352397253 0 -0.00027005146141772672 0.0067145093807684467 0 -0.00026922444229105999 0.0069123462603647556 0 -0.00015316998520419184 0.0067215806732276381 0 -0.00016103571682593069 0.006962999352397253 0 -0.00027005146141772672 0.0067145093807684467 0 -0.00016103571682593069 0.006962999352397253 0 -0.00026922444229105999 0.0069123462603647556 0 -0.00020016188298141219 0.0071853870950461382 0 -0.00016103571682593069 0.006962999352397253 0 -0.00011837860220435199 0.0072369615539730784 0 -2.6855187818425363e-05 0.007084545305802931 0 -0.00016103571682593069 0.006962999352397253 0 -0.00011837860220435199 0.0072369615539730784 0 -0.00020016188298141219 0.0071853870950461382 0 -4.0320920268243676e-05 0.0073861377574659416 0 5.0538709792384613e-05 0.0072284404317328691 0 -2.6855187818425363e-05 0.007084545305802931 0 -0.00011837860220435199 0.0072369615539730784 0 -4.0320920268243676e-05 0.0073861377574659416 0 -2.6855187818425363e-05 0.007084545305802931 0 -5.4704054113734547e-05 0.0065519854808979271 0 0.00021123721802841091 0.0071360830044057202 0 9.2445946410850825e-05 0.0070292085834208944 0 0.00010146648499807235 0.0075071978611026338 0 0.00021123721802841091 0.0071360830044057202 0 0.00012194601949031278 0.0078465629981971409 0 -4.0320920268243676e-05 0.0073861377574659416 0 5.0538709792384613e-05 0.0072284404317328691 0 0.00010146648499807235 0.0075071978611026338 0 5.0538709792384613e-05 0.0072284404317328691 0 0.00010146648499807235 0.0075071978611026338 0 0.00011262404943710187 0.0072536114604564864 0 0.00010146648499807235 0.0075071978611026338 0 0.00011262404943710187 0.0072536114604564864 0 0.00021123721802841091 0.0071360830044057202 0 0.00011262404943710187 0.0072536114604564864 0 0.00011126957516902877 0.0071607152316794931 0 0.00021123721802841091 0.0071360830044057202 0 5.0538709792384613e-05 0.0072284404317328691 0 0.00011262404943710187 0.0072536114604564864 0 0.00011126957516902877 0.0071607152316794931 0 5.0538709792384613e-05 0.0072284404317328691 0 0.00011126957516902877 0.0071607152316794931 0 9.2445946410850825e-05 0.0070292085834208944 0 0.00011126957516902877 0.0071607152316794931 0 0.00021123721802841091 0.0071360830044057202 0 9.2445946410850825e-05 0.0070292085834208944 0 -6.0326339847695089e-05 0.0068843170630165599 0 -2.6855187818425363e-05 0.007084545305802931 0 9.2445946410850825e-05 0.0070292085834208944 0 5.0538709792384613e-05 0.0072284404317328691 0 -2.6855187818425363e-05 0.007084545305802931 0 9.2445946410850825e-05 0.0070292085834208944 0 -0.00061712977855755123 0.007064904422798301 0 -0.00049768651009555163 0.0062137840594424362 0 6.6752865745105272e-05 0.0066403706151355333 0 -0.00051060505303797952 0.0064179632072255367 0 -0.00039804390171955173 0.0060777961735868956 0 -0.00051060505303797952 0.0064179632072255367 0 -0.00034902523713877838 0.0065109331222242767 0 -0.00037738964384763455 0.0066130503617606298 0 -0.00038636799136063533 0.0062776759154132625 0 -0.00051060505303797952 0.0064179632072255367 0 -0.00034902523713877838 0.0065109331222242767 0 -0.00038636799136063533 0.0062776759154132625 0 -0.00019845303904401291 0.0065058398028600894 0 -0.00034902523713877838 0.0065109331222242767 0 -0.00027005146141772672 0.0067145093807684467 0 -0.00034902523713877838 0.0065109331222242767 0 -0.00037738964384763455 0.0066130503617606298 0 -0.00019845303904401291 0.0065058398028600894 0 -0.00027005146141772672 0.0067145093807684467 0 -0.00034902523713877838 0.0065109331222242767 0 -0.00026922444229105999 0.0069123462603647556 0 -0.00037738964384763455 0.0066130503617606298 0 -0.00033919098508283085 0.0072785001041825751 0 -0.00027005146141772672 0.0067145093807684467 0 -0.00026922444229105999 0.0069123462603647556 0 -0.00037738964384763455 0.0066130503617606298 0 -0.00037738964384763455 0.0066130503617606298 0 -0.00039804390171955173 0.0060777961735868956 0 -0.00033919098508283085 0.0072785001041825751 0 -0.0003341954883079174 0.0061500510316282141 0 -0.00032883105118622108 0.0062326355387340706 0 -0.00051060505303797952 0.0064179632072255367 0 -0.00037738964384763455 0.0066130503617606298 0 -0.00039804390171955173 0.0060777961735868956 0 -0.00039804390171955173 0.0060777961735868956 0 -0.00022444854222846683 0.0048647915117169521 0 -0.00027311426671174186 0.0051611978095665537 0 -0.00026922444229105999 0.0069123462603647556 0 -0.00033919098508283085 0.0072785001041825751 0 -0.00020016188298141219 0.0071853870950461382 0 -0.00027311426671174186 0.0051611978095665537 0 -1.4666821644980443e-06 0.0052360213589291308 0 1.1007269518779881e-06 0.0071365858640564557 0 -0.00032883105118622108 0.0062326355387340706 0 -2.0782200867389883e-07 0.0071389737942103276 0 -0.00012344805464985334 0.004388092627364594 0 -0.00022444854222846683 0.0048647915117169521 0 -1.4666821644980443e-06 0.0052360213589291308 0 -0.00022444854222846683 0.0048647915117169521 0 -0.00027311426671174186 0.0051611978095665537 0 -1.4666821644980443e-06 0.0052360213589291308 0 -3.4388627586131802e-05 0.0076919686627791644 0 -0.00013909781788683359 0.0075124577984337472 0 -0.00010563833598856738 0.0080019158912593077 0 -3.4388627586131802e-05 0.0076919686627791644 0 -0.00010563833598856738 0.0080019158912593077 0 0.00012194601949031278 0.0078465629981971409 0 -4.0320920268243676e-05 0.0073861377574659416 0 0.00010146648499807235 0.0075071978611026338 0 -3.4388627586131802e-05 0.0076919686627791644 0 0.00010146648499807235 0.0075071978611026338 0 -3.4388627586131802e-05 0.0076919686627791644 0 0.00012194601949031278 0.0078465629981971409 0 -4.0320920268243676e-05 0.0073861377574659416 0 -3.4388627586131802e-05 0.0076919686627791644 0 -0.00013909781788683359 0.0075124577984337472 0 -0.00011837860220435199 0.0072369615539730784 0 -4.0320920268243676e-05 0.0073861377574659416 0 -0.00013909781788683359 0.0075124577984337472 0 -0.00033919098508283085 0.0072785001041825751 0 -0.00020016188298141219 0.0071853870950461382 0 -0.00013909781788683359 0.0075124577984337472 0 -0.00011837860220435199 0.0072369615539730784 0 -0.00020016188298141219 0.0071853870950461382 0 -0.00013909781788683359 0.0075124577984337472 0 -0.00033919098508283085 0.0072785001041825751 0 -0.00013909781788683359 0.0075124577984337472 0 -4.8200070262780992e-07 0.0071421046419718488 0 -0.00013909781788683359 0.0075124577984337472 0 -4.8200070262780992e-07 0.0071421046419718488 0 -0.00010563833598856738 0.0080019158912593077 0 -4.8200070262780992e-07 0.0071421046419718488 0 -0.00010563833598856738 0.0080019158912593077 0 -3.7731719460510406e-07 0.0090168447145407855 0 -0.00010563833598856738 0.0080019158912593077 0 -3.7731719460510406e-07 0.0090168447145407855 0 0.0003217864980096426 0.008381957681035463 0 0.00034630085548595775 0.0094254628099754451 0 0.0005778822510377437 0.010505927067709142 0 0.00021123721802841091 0.0071360830044057202 0 0.0003217864980096426 0.008381957681035463 0 0.00012194601949031278 0.0078465629981971409 0 -0.00010563833598856738 0.0080019158912593077 0 0.0003217864980096426 0.008381957681035463 0 0.00012194601949031278 0.0078465629981971409 0 0.00087808240422313519 0.012483232168685209 0 -0.00010090319287389979 0.012750044495935045 0 0.00016395905590993614 0.013198364620259683 0 -3.7731719460510406e-07 0.0090168447145407855 0 0.0003217864980096426 0.008381957681035463 0 1.4695150935662571e-06 0.010893464265089055 0 0.0005778822510377437 0.010505927067709142 0 -1.2983333248742456e-07 0.01089504395780941 0 0.00087808240422313519 0.012483232168685209 0 1.6649211703778246e-06 0.010899783246608308 0 -0.00010090319287389979 0.012750044495935045 0 1.6649211703778246e-06 0.010899783246608308 0 -8.0491759896565145e-07 0.012453869764442758 0 -0.00010090319287389979 0.012750044495935045 0 -8.0491759896565145e-07 0.012453869764442758 0 -0.000190932949956082 0.013253753687394261 0 -0.00010090319287389979 0.012750044495935045 0 -0.000190932949956082 0.013253753687394261 0 -0.00010090319287389979 0.012750044495935045 0 -0.00021831489460224861 0.013476404634647414 0 -0.00010090319287389979 0.012750044495935045 0 0.00016395905590993614 0.013198364620259683 0 -0.00021831489460224861 0.013476404634647414 0 0.00016395905590993614 0.013198364620259683 0 -0.00021831489460224861 0.013476404634647414 0 7.0510238078855564e-06 0.013493707116403001 0 -0.00021831489460224861 0.013476404634647414 0 7.0510238078855564e-06 0.013493707116403001 0 -0.00019726091261316989 0.013587689064882676 0 0.00016395905590993614 0.013198364620259683 0 7.0510238078855564e-06 0.013493707116403001 0 0.00034468768294112747 0.013521900597754384 0 0.00034468768294112747 0.013521900597754384 0 0.00079211191809473865 0.013480130299695274 0 0.00066865609966977558 0.013188654974828741 0 0.00016395905590993614 0.013198364620259683 0 0.00034468768294112747 0.013521900597754384 0 0.00066865609966977558 0.013188654974828741 0 0.0011451961176438433 0.013058660379394346 0 0.00079211191809473865 0.013480130299695274 0 0.00066865609966977558 0.013188654974828741 0 0.0001041545873493096 0.0066348997116268838 0 0.00012071002448433154 0.0068361233622788549 0 0.00022710865526908705 0.0066074207445797192 0 0.00034630085548595775 0.0094254628099754451 0 0.0005109688655687021 0.010159892071724878 0 0.00013567913618875151 0.0065391058466701887 0 0.0001041545873493096 0.0066348997116268838 0 0.00022710865526908705 0.0066074207445797192 0 0.0011451961176438433 0.013058660379394346 0 0.00087808240422313519 0.012483232168685209 0 0.00066865609966977558 0.013188654974828741 0 0.00087808240422313519 0.012483232168685209 0 0.00016395905590993614 0.013198364620259683 0 0.00066865609966977558 0.013188654974828741 0 -0.00036914187839957451 0.01579688745151038 0 2.661173237940289e-06 0.017674228606746171 0 0.00070041162527935885 0.015644354066395218 0 -2.0091470074176164e-06 0.015578388239164345 0 -0.00036914187839957451 0.01579688745151038 0 2.661173237940289e-06 0.017674228606746171 0 1.0753719940432325e-06 0.015569292559190234 0 0.00030003174842834624 0.013986237117088129 0 -0.0001666315400890858 0.013877885851970822 0 -4.7254691856325586e-08 0.015572765769486675 0 -5.4207056337581564e-06 0.014882956889372707 0 0.00030003174842834624 0.013986237117088129 0 -0.0001666315400890858 0.013877885851970822 0 3.7357028994982212e-05 0.013851482235566655 0 1.0753719940432325e-06 0.015569292559190234 0 -0.0001666315400890858 0.013877885851970822 0 -6.4532351399629291e-07 0.014014844545670401 0 -8.0491759896565145e-07 0.012453869764442758 0 -0.000190932949956082 0.013253753687394261 0 -6.4532351399629291e-07 0.014014844545670401 0 -0.000190932949956082 0.013253753687394261 0 -0.0001666315400890858 0.013877885851970822 0 -6.4532351399629291e-07 0.014014844545670401 0 -0.000190932949956082 0.013253753687394261 0 -0.00021831489460224861 0.013476404634647414 0 -0.0001666315400890858 0.013877885851970822 0 -0.00021831489460224861 0.013476404634647414 0 -4.6485650108559426e-05 0.013740918861489702 0 3.7357028994982212e-05 0.013851482235566655 0 -0.00021831489460224861 0.013476404634647414 0 -0.0001666315400890858 0.013877885851970822 0 3.7357028994982212e-05 0.013851482235566655 0 -0.00021831489460224861 0.013476404634647414 0 -4.6485650108559426e-05 0.013740918861489702 0 -0.00019726091261316989 0.013587689064882676 0 -4.6485650108559426e-05 0.013740918861489702 0 3.7357028994982212e-05 0.013851482235566655 0 0.00019723744663509835 0.014196781984198929 0 0.00030003174842834624 0.013986237117088129 0 3.7357028994982212e-05 0.013851482235566655 0 0.00019723744663509835 0.014196781984198929 0 -5.4207056337581564e-06 0.014882956889372707 0 0.00016470163035788959 0.014254576187061368 0 -4.6485650108559426e-05 0.013740918861489702 0 0.00019723744663509835 0.014196781984198929 0 0.00022243741766952234 0.013576031341939533 0 0.00019723744663509835 0.014196781984198929 0 0.0013199565777858163 0.014680817562561363 0 0.00097183690609891466 0.013990046500482337 0 0.00019723744663509835 0.014196781984198929 0 0.00068545113638173881 0.013570955114534921 0 0.00097183690609891466 0.013990046500482337 0 0.00019723744663509835 0.014196781984198929 0 0.00070041162527935885 0.015644354066395218 0 0.0013199565777858163 0.014680817562561363 0 -0.00036914187839957451 0.01579688745151038 0 0.00019723744663509835 0.014196781984198929 0 0.00070041162527935885 0.015644354066395218 0 0.00068545113638173881 0.013570955114534921 0 0.0010697917814836166 0.013065190512146068 0 0.0011508271954591 0.013520977986273481 0 0.00068545113638173881 0.013570955114534921 0 0.00055259374088316015 0.013060314860708499 0 0.0010697917814836166 0.013065190512146068 0 0.00068545113638173881 0.013570955114534921 0 0.00097183690609891466 0.013990046500482337 0 0.0011508271954591 0.013520977986273481 0 0.00019723744663509835 0.014196781984198929 0 0.00068545113638173881 0.013570955114534921 0 0.00022243741766952234 0.013576031341939533 0 0.00022243741766952234 0.013576031341939533 0 8.4570259055968407e-05 0.013195063074905599 0 0.00055259374088316015 0.013060314860708499 0 0.00068545113638173881 0.013570955114534921 0 0.00022243741766952234 0.013576031341939533 0 0.00055259374088316015 0.013060314860708499 0 0.00022243741766952234 0.013576031341939533 0 8.4570259055968407e-05 0.013195063074905599 0 -7.5571403367998168e-05 0.013558720661552157 0 -4.6485650108559426e-05 0.013740918861489702 0 0.00022243741766952234 0.013576031341939533 0 -7.5571403367998168e-05 0.013558720661552157 0 -7.5571403367998168e-05 0.013558720661552157 0 -0.00019726091261316989 0.013587689064882676 0 -0.00030299719324411168 0.013423630876928525 0 -4.6485650108559426e-05 0.013740918861489702 0 -7.5571403367998168e-05 0.013558720661552157 0 -0.00019726091261316989 0.013587689064882676 0 8.4570259055968407e-05 0.013195063074905599 0 -7.5571403367998168e-05 0.013558720661552157 0 -0.00030299719324411168 0.013423630876928525 0 8.4570259055968407e-05 0.013195063074905599 0 -0.00030299719324411168 0.013423630876928525 0 -0.00025145975198520793 0.012465921661151524 0 -0.00030299719324411168 0.013423630876928525 0 -0.00025145975198520793 0.012465921661151524 0 -0.00084021607826079451 0.012619766585390848 0 -0.00025145975198520793 0.012465921661151524 0 0.00018047217655316512 0.012203748627591944 0 -0.00036928928317102186 0.011804839146979506 0 -0.00025145975198520793 0.012465921661151524 0 -0.0007961721627791228 0.011949089009023453 0 -0.00036928928317102186 0.011804839146979506 0 -0.00025145975198520793 0.012465921661151524 0 0.00018047217655316512 0.012203748627591944 0 0.00024366444158479861 0.012657332420423689 0 0.00018047217655316512 0.012203748627591944 0 0.00024366444158479861 0.012657332420423689 0 0.00063269165020271437 0.012468033607070075 0 8.4570259055968407e-05 0.013195063074905599 0 0.00024366444158479861 0.012657332420423689 0 0.00055259374088316015 0.013060314860708499 0 8.4570259055968407e-05 0.013195063074905599 0 -0.00025145975198520793 0.012465921661151524 0 0.00024366444158479861 0.012657332420423689 0 0.00024366444158479861 0.012657332420423689 0 0.00055259374088316015 0.013060314860708499 0 0.00063269165020271437 0.012468033607070075 0 0.00055259374088316015 0.013060314860708499 0 0.00063269165020271437 0.012468033607070075 0 0.0010506327004249582 0.012580625038175738 0 0.00018047217655316512 0.012203748627591944 0 0.00063269165020271437 0.012468033607070075 0 0.00055628300801550165 0.012007558176293899 0 0.00063269165020271437 0.012468033607070075 0 0.00099116822799379437 0.01217428089581362 0 0.00055628300801550165 0.012007558176293899 0 0.00063269165020271437 0.012468033607070075 0 0.0010506327004249582 0.012580625038175738 0 0.00099116822799379437 0.01217428089581362 0 0.0010506327004249582 0.012580625038175738 0 0.00099116822799379437 0.01217428089581362 0 0.0014809347738910731 0.012239747332502564 0 0.00055259374088316015 0.013060314860708499 0 0.0010506327004249582 0.012580625038175738 0 0.0010697917814836166 0.013065190512146068 0 0.0010506327004249582 0.012580625038175738 0 0.0010697917814836166 0.013065190512146068 0 0.0014322039083436301 0.012673616312012784 0 -0.0021734302196230269 0.013646657179782478 0 -0.0016159992520674848 0.013128039488446616 0 -0.0017368726234614446 0.012808760538772741 0 0.00086172299451042257 0.0055659037758098969 0 0.00090455149319033749 0.0059409091760423737 0 0.0011866510328501433 0.0054543151077143977 0 3.4117342921430508e-05 0.0096037002848718012 0 -0.0013411346006041182 0.0099428741098641898 0 0.00086172299451042257 0.0055659037758098969 0 0.00057039257633979097 0.0056928903283283471 0 0.00090455149319033749 0.0059409091760423737 0 4.1094715351507729e-05 0.0064524479302975656 0 0.00013567913618875151 0.0065391058466701887 0 0.00031383343221938898 0.0064775081401590769 0 0.0003289957887656794 0.006057622131943519 0 0.00057039257633979097 0.0056928903283283471 0 0.00090455149319033749 0.0059409091760423737 0 0.00013567913618875151 0.0065391058466701887 0 0.00022710865526908705 0.0066074207445797192 0 0.00031383343221938898 0.0064775081401590769 0 0.0005109688655687021 0.010159892071724878 0 3.4117342921430508e-05 0.0096037002848718012 0 0.00036880580436176788 0.0057209744843340045 0 3.4117342921430508e-05 0.0096037002848718012 0 0.00034468768294112747 0.013521900597754384 0 0.00079211191809473865 0.013480130299695274 0 0.00046875364904425517 0.013772563787525076 0 0.00034468768294112747 0.013521900597754384 0 0.00046875364904425517 0.013772563787525076 0 -3.9214296883821191e-05 0.013723964197450427 0 3.4117342921430508e-05 0.0096037002848718012 0 -0.00096856262930198115 0.014088959845121974 0 7.0510238078855564e-06 0.013493707116403001 0 0.00034468768294112747 0.013521900597754384 0 -3.9214296883821191e-05 0.013723964197450427 0 -0.00019726091261316989 0.013587689064882676 0 -0.00030299719324411168 0.013423630876928525 0 -3.9214296883821191e-05 0.013723964197450427 0 7.0510238078855564e-06 0.013493707116403001 0 -0.00019726091261316989 0.013587689064882676 0 -3.9214296883821191e-05 0.013723964197450427 0 -0.00030299719324411168 0.013423630876928525 0 -0.0013674418443672669 0.013552706773152368 0 -0.0011641805580639359 0.013044784334540817 0 -0.0001657953603089324 0.013340607454601439 0 -0.00096856262930198115 0.014088959845121974 0 -0.0021734302196230269 0.013646657179782478 0 -0.0013674418443672669 0.013552706773152368 0 -0.0016159992520674848 0.013128039488446616 0 -0.0013674418443672669 0.013552706773152368 0 -0.0016159992520674848 0.013128039488446616 0 -0.0011641805580639359 0.013044784334540817 0 -0.0016159992520674848 0.013128039488446616 0 -0.0017368726234614446 0.012808760538772741 0 -0.0014604271928848839 0.01289898039028721 0 -0.0017368726234614446 0.012808760538772741 0 -0.0014604271928848839 0.01289898039028721 0 -0.001327910499327889 0.012597898394564301 0 -0.0014604271928848839 0.01289898039028721 0 -0.001327910499327889 0.012597898394564301 0 -0.0011641805580639359 0.013044784334540817 0 -0.0016159992520674848 0.013128039488446616 0 -0.0014604271928848839 0.01289898039028721 0 -0.0011641805580639359 0.013044784334540817 0 -0.00030299719324411168 0.013423630876928525 0 -0.0011641805580639359 0.013044784334540817 0 -0.00084021607826079451 0.012619766585390848 0 -0.001327910499327889 0.012597898394564301 0 -0.0011641805580639359 0.013044784334540817 0 -0.00084021607826079451 0.012619766585390848 0 -0.001327910499327889 0.012597898394564301 0 -0.00084021607826079451 0.012619766585390848 0 -0.0010487232698233456 0.012204263291599182 0 -0.00025145975198520793 0.012465921661151524 0 -0.00084021607826079451 0.012619766585390848 0 -0.0007961721627791228 0.011949089009023453 0 -0.00084021607826079451 0.012619766585390848 0 -0.0010487232698233456 0.012204263291599182 0 -0.0007961721627791228 0.011949089009023453 0 -0.001327910499327889 0.012597898394564301 0 -0.0010487232698233456 0.012204263291599182 0 -0.0012741156175471047 0.01163291972165478 0 -0.0012741156175471047 0.01163291972165478 0 -0.0007961721627791228 0.011949089009023453 0 -0.0010428468110609975 0.01148481627289686 0 -0.0010487232698233456 0.012204263291599182 0 -0.0012741156175471047 0.01163291972165478 0 -0.0007961721627791228 0.011949089009023453 0 -0.0017368726234614446 0.012808760538772741 0 -0.001327910499327889 0.012597898394564301 0 -0.0012741156175471047 0.01163291972165478 0 -0.0017490977468010733 0.012169007754954497 0 -0.0012741156175471047 0.01163291972165478 0 -0.0018170011808357328 0.011648330310202836 0 -0.0013411346006041182 0.0099428741098641898 0 -0.001596397537979284 0.012669503465202158 0 -0.002309324050028328 0.011844018419965918 0 -0.0025607957580466795 0.011285238395142701 0 -0.0021192519859388362 0.011290115326912396 0 -0.002309324050028328 0.011844018419965918 0 -0.0018170011808357328 0.011648330310202836 0 -0.0021192519859388362 0.011290115326912396 0 -0.0017490977468010733 0.012169007754954497 0 -0.002309324050028328 0.011844018419965918 0 -0.0018170011808357328 0.011648330310202836 0 -0.0013411346006041182 0.0099428741098641898 0 -0.00065836904377728606 0.0084438801103920123 0 0.00086172299451042257 0.0055659037758098969 0 0.0011866510328501433 0.0054543151077143977 0 0.00085724056107812537 0.0051929199025793548 0 0.0004091345515309713 0.0054962112043452161 0 0.00057039257633979097 0.0056928903283283471 0 0.00063313067671145139 0.0053472430898888626 0 0.00086172299451042257 0.0055659037758098969 0 0.00057039257633979097 0.0056928903283283471 0 0.00063313067671145139 0.0053472430898888626 0 0.00086172299451042257 0.0055659037758098969 0 0.00085724056107812537 0.0051929199025793548 0 0.00063313067671145139 0.0053472430898888626 0 -0.0029501876611428093 0.011383319108589697 0 -0.002309324050028328 0.011844018419965918 0 -0.0025607957580466795 0.011285238395142701 0 -0.0011768879053133457 0.008414161278499371 0 -0.00065836904377728606 0.0084438801103920123 0 0.00050486207248329803 0.0049016739527089903 0 0.00085724056107812537 0.0051929199025793548 0 0.00063313067671145139 0.0053472430898888626 0 -0.0024379908027572944 0.010928203377111237 0 -0.0026799520435149731 0.01047035015411916 0 -0.0028403323248031628 0.01072797171701332 0 -0.0023266767624580678 0.010872271458241992 0 -0.0034172625031598089 0.010713559618830561 0 -0.0025607957580466795 0.011285238395142701 0 -0.0024379908027572944 0.010928203377111237 0 -0.0029990365449041141 0.010963463872406353 0 -0.0029501876611428093 0.011383319108589697 0 -0.0025607957580466795 0.011285238395142701 0 -0.0029990365449041141 0.010963463872406353 0 -0.0025607957580466795 0.011285238395142701 0 -0.0024379908027572944 0.010928203377111237 0 -0.0021192519859388362 0.011290115326912396 0 -0.0026799520435149731 0.01047035015411916 0 -0.0024821108711415773 0.0099173041098073282 0 -0.0029701115348598774 0.010303242085132815 0 -0.0024379908027572944 0.010928203377111237 0 -0.0026799520435149731 0.01047035015411916 0 -0.0021583655565602195 0.010601774448294268 0 -0.0026799520435149731 0.01047035015411916 0 -0.0021583655565602195 0.010601774448294268 0 -0.0024821108711415773 0.0099173041098073282 0 -0.0021583655565602195 0.010601774448294268 0 -0.0016033644912923719 0.010528452918228031 0 -0.0018857589185358994 0.010093812537909384 0 -0.0021583655565602195 0.010601774448294268 0 -0.0024821108711415773 0.0099173041098073282 0 -0.0018857589185358994 0.010093812537909384 0 -0.0021583655565602195 0.010601774448294268 0 -0.0021192519859388362 0.011290115326912396 0 -0.001715717401852759 0.011106547517886135 0 -0.0024379908027572944 0.010928203377111237 0 -0.0021583655565602195 0.010601774448294268 0 -0.0021192519859388362 0.011290115326912396 0 -0.0018170011808357328 0.011648330310202836 0 -0.0021192519859388362 0.011290115326912396 0 -0.001715717401852759 0.011106547517886135 0 -0.0012741156175471047 0.01163291972165478 0 -0.0018170011808357328 0.011648330310202836 0 -0.001715717401852759 0.011106547517886135 0 -0.0012741156175471047 0.01163291972165478 0 -0.001715717401852759 0.011106547517886135 0 -0.0012275289937331302 0.011000229386621922 0 -0.00083379419984577167 0.011436305946182633 0 -0.0012275289937331302 0.011000229386621922 0 -0.0011106624881867511 0.010547574333535195 0 -0.0007961721627791228 0.011949089009023453 0 -0.00083379419984577167 0.011436305946182633 0 -0.0010428468110609975 0.01148481627289686 0 -0.0012741156175471047 0.01163291972165478 0 -0.0010428468110609975 0.01148481627289686 0 -0.0012275289937331302 0.011000229386621922 0 -0.00083379419984577167 0.011436305946182633 0 -0.0010428468110609975 0.01148481627289686 0 -0.0012275289937331302 0.011000229386621922 0 -0.00088078605160231264 0.0108274913855042 0 -0.0012569016518757345 0.010819437562751935 0 -0.00083379419984577167 0.011436305946182633 0 -0.0011106624881867511 0.010547574333535195 0 -0.00066392273851724297 0.010082543335484079 0 -0.0021583655565602195 0.010601774448294268 0 -0.001715717401852759 0.011106547517886135 0 -0.0016033644912923719 0.010528452918228031 0 -0.0012275289937331302 0.011000229386621922 0 -0.0011106624881867511 0.010547574333535195 0 -0.0016033644912923719 0.010528452918228031 0 -0.001715717401852759 0.011106547517886135 0 -0.0012275289937331302 0.011000229386621922 0 -0.0016033644912923719 0.010528452918228031 0 -0.0011106624881867511 0.010547574333535195 0 -0.0016033644912923719 0.010528452918228031 0 -0.0013507747222303752 0.010013875242769284 0 -0.0016033644912923719 0.010528452918228031 0 -0.0013507747222303752 0.010013875242769284 0 -0.0018857589185358994 0.010093812537909384 0 -0.0013507747222303752 0.010013875242769284 0 -0.00094573132357556803 0.0094256076748400457 0 -0.0017465484203884908 0.0093584594951364054 0 -0.0013507747222303752 0.010013875242769284 0 -0.0017465484203884908 0.0093584594951364054 0 -0.0018857589185358994 0.010093812537909384 0 -0.0011106624881867511 0.010547574333535195 0 -0.0013507747222303752 0.010013875242769284 0 -0.00066392273851724297 0.010082543335484079 0 -0.0013507747222303752 0.010013875242769284 0 -0.00066392273851724297 0.010082543335484079 0 -0.00094573132357556803 0.0094256076748400457 0 -0.0017239211057058202 0.0093782116759478368 0 -0.0027054576045610072 0.006791345186127745 0 -0.0015926973514893612 0.0075412136302230462 0 -0.0012569016518757345 0.010819437562751935 0 -0.00086179454268580692 0.0030072472758531626 0 -0.00066392273851724297 0.010082543335484079 0 -0.00094573132357556803 0.0094256076748400457 0 -0.00078415964614185311 0.0087375734523159575 0 -0.00094573132357556803 0.0094256076748400457 0 -0.00078415964614185311 0.0087375734523159575 0 -0.0017465484203884908 0.0093584594951364054 0 -0.0027054576045610072 0.006791345186127745 0 -0.0015926973514893612 0.0075412136302230462 0 -0.0017555683483722515 0.0066481536290726477 0 -0.00086179454268580692 0.0030072472758531626 0 -0.0016161796441820785 0.0010151292394107354 0 -0.0025088754600653624 -0.0064397215199243621 0 -0.0013418985780496197 -0.006951329081952078 0 -0.0015819236958267123 -0.0063021836775713491 0 -0.0013418985780496197 -0.006951329081952078 0 -0.00064541466491540417 -0.0064886772148004188 0 -0.0015819236958267123 -0.0063021836775713491 0 -0.0013418985780496197 -0.006951329081952078 0 -0.00034295229160913413 -0.0072649437104753724 0 -0.00064541466491540417 -0.0064886772148004188 0 -0.00034295229160913413 -0.0072649437104753724 0 -0.00064541466491540417 -0.0064886772148004188 0 0.00056454712234075492 -0.0066666446368623374 0 -0.0013625460857231888 0.001306949836638776 0 -0.001508988981433938 0.0016629853865509588 0 -0.0016161796441820785 0.0010151292394107354 0 -0.0013625460857231888 0.001306949836638776 0 -0.0017465484203884908 0.0093584594951364054 0 -0.0024821108711415773 0.0099173041098073282 0 -0.0018857589185358994 0.010093812537909384 0 0.0014122067345448972 0.01151140654435967 0 0.00095081612974136788 0.011818944321896717 0 0.0009903359860726278 0.011521859306754603 0 0.0014122067345448972 0.01151140654435967 0 0.0009903359860726278 0.011521859306754603 0 0.0013725586541764349 0.011246436054516607 0 0.0014122067345448972 0.01151140654435967 0 0.0013157442168148968 0.011885019138438074 0 0.00095081612974136788 0.011818944321896717 0 0.0013157442168148968 0.011885019138438074 0 0.00099116822799379437 0.01217428089581362 0 0.0014809347738910731 0.012239747332502564 0 0.0013157442168148968 0.011885019138438074 0 0.00099116822799379437 0.01217428089581362 0 0.00095081612974136788 0.011818944321896717 0 0.00099116822799379437 0.01217428089581362 0 0.00095081612974136788 0.011818944321896717 0 0.00055628300801550165 0.012007558176293899 0 0.00095081612974136788 0.011818944321896717 0 0.00055628300801550165 0.012007558176293899 0 0.00056741269842264306 0.011679143685869732 0 0.00056741269842264306 0.011679143685869732 0 0.0009903359860726278 0.011521859306754603 0 0.00075909338881199699 0.011334131448304049 0 0.00095081612974136788 0.011818944321896717 0 0.00056741269842264306 0.011679143685869732 0 0.0009903359860726278 0.011521859306754603 0 0.00056741269842264306 0.011679143685869732 0 2.0655926509848119e-05 0.011537187723118828 0 0.00075909338881199699 0.011334131448304049 0 0.00056741269842264306 0.011679143685869732 0 2.0655926509848119e-05 0.011537187723118828 0 0.00014633790119952385 0.011821521689181757 0 0.00018047217655316512 0.012203748627591944 0 0.00014633790119952385 0.011821521689181757 0 -0.00036928928317102186 0.011804839146979506 0 0.00055628300801550165 0.012007558176293899 0 0.00056741269842264306 0.011679143685869732 0 0.00014633790119952385 0.011821521689181757 0 0.00018047217655316512 0.012203748627591944 0 0.00055628300801550165 0.012007558176293899 0 0.00014633790119952385 0.011821521689181757 0 -8.5581639245580819e-05 0.010726087689981168 0 -0.00037382399558704609 0.011786124503075089 0 2.0655926509848119e-05 0.011537187723118828 0 0.00014633790119952385 0.011821521689181757 0 -0.00036928928317102186 0.011804839146979506 0 -0.00083379419984577167 0.011436305946182633 0 -0.00012834742983179614 0.0098842035194009088 0 -0.00036928928317102186 0.011804839146979506 0 -0.0007961721627791228 0.011949089009023453 0 -0.00083379419984577167 0.011436305946182633 0 -0.00036928928317102186 0.011804839146979506 0 -0.00083379419984577167 0.011436305946182633 0 -0.0017239211057058202 0.0093782116759478368 0 -0.00012834742983179614 0.0098842035194009088 0 -0.0017239211057058202 0.0093782116759478368 0 -0.00012834742983179614 0.0098842035194009088 0 -0.00069923254483923464 0.0079677008784490317 0 -0.0017239211057058202 0.0093782116759478368 0 -0.0015926973514893612 0.0075412136302230462 0 -0.00069923254483923464 0.0079677008784490317 0 -0.0015926973514893612 0.0075412136302230462 0 -0.00069923254483923464 0.0079677008784490317 0 -0.0010824808644590122 0.0066602182840117428 0 -0.0015926973514893612 0.0075412136302230462 0 -0.0010824808644590122 0.0066602182840117428 0 -0.0017555683483722515 0.0066481536290726477 0 -0.00069923254483923464 0.0079677008784490317 0 2.4590807360658309e-05 0.006589197405569183 0 -0.0010824808644590122 0.0066602182840117428 0 -0.00069923254483923464 0.0079677008784490317 0 0.00058554129730490549 0.0074996583568224095 0 2.4590807360658309e-05 0.006589197405569183 0 -0.00012834742983179614 0.0098842035194009088 0 -0.00069923254483923464 0.0079677008784490317 0 0.00058554129730490549 0.0074996583568224095 0 -8.5581639245580819e-05 0.010726087689981168 0 0.00029939757715564209 0.0088530818356925643 0 2.0655926509848119e-05 0.011537187723118828 0 -0.00011695087255329903 0.010392307657753392 0 0.00075909338881199699 0.011334131448304049 0 0.0009903359860726278 0.011521859306754603 0 0.00075909338881199699 0.011334131448304049 0 0.0013725586541764349 0.011246436054516607 0 0.00075909338881199699 0.011334131448304049 0 0.001722643291829512 0.010900253569749808 0 0.0013725586541764349 0.011246436054516607 0 -0.00011695087255329903 0.010392307657753392 0 0.001722643291829512 0.010900253569749808 0 0.0014527833341219305 0.0056318507772856637 0 -0.00011695087255329903 0.010392307657753392 0 0.00075909338881199699 0.011334131448304049 0 0.001722643291829512 0.010900253569749808 0 0.0017995870795651347 0.011099815797940536 0 0.0033332805587856047 0.012232306789866181 0 0.001722643291829512 0.010900253569749808 0 0.0049668089895789046 0.013285672179906808 0 0.0043434241311734335 0.0088193346399170064 0 0.001722643291829512 0.010900253569749808 0 0.0015197039597121974 0.011199022593588837 0 0.0013725586541764349 0.011246436054516607 0 0.0014122067345448972 0.01151140654435967 0 0.0015197039597121974 0.011199022593588837 0 0.0013725586541764349 0.011246436054516607 0 0.0047895487940931075 0.0054703275097312378 0 0.0014527833341219305 0.0056318507772856637 0 0.0037668710651243701 0.0027793808070340977 0 0.0047895487940931075 0.0054703275097312378 0 0.0043434241311734335 0.0088193346399170064 0 0.0014527833341219305 0.0056318507772856637 0 0.001722643291829512 0.010900253569749808 0 0.0043434241311734335 0.0088193346399170064 0 0.0014527833341219305 0.0056318507772856637 0 0.0014527833341219305 0.0056318507772856637 0 0.00016293871370197041 0.0034317017838463777 0 -0.00037646574143150054 0.0054081842571475159 0 0.00058554129730490549 0.0074996583568224095 0 0.0014527833341219305 0.0056318507772856637 0 2.4590807360658309e-05 0.006589197405569183 0 0.0014527833341219305 0.0056318507772856637 0 2.4590807360658309e-05 0.006589197405569183 0 -0.00037646574143150054 0.0054081842571475159 0 0.00029939757715564209 0.0088530818356925643 0 0.0013905850921474927 0.0058055836269381546 0 -0.00037646574143150054 0.0054081842571475159 0 -0.0010824808644590122 0.0066602182840117428 0 -0.0017955776933599439 0.0054540234706644906 0 2.4590807360658309e-05 0.006589197405569183 0 -0.00037646574143150054 0.0054081842571475159 0 -0.0010824808644590122 0.0066602182840117428 0 -0.0010824808644590122 0.0066602182840117428 0 -0.0017555683483722515 0.0066481536290726477 0 -0.0017955776933599439 0.0054540234706644906 0 -0.001262816204858082 0.0037754040953020354 0 -0.00083592235708323138 0.0012266234739396688 0 -0.0033501234828728658 0.0031767681141829339 0 -0.0017955776933599439 0.0054540234706644906 0 -0.001262816204858082 0.0037754040953020354 0 -0.0033501234828728658 0.0031767681141829339 0 -0.00037646574143150054 0.0054081842571475159 0 -0.0017955776933599439 0.0054540234706644906 0 -0.001262816204858082 0.0037754040953020354 0 0.00016293871370197041 0.0034317017838463777 0 -0.00037646574143150054 0.0054081842571475159 0 -0.001262816204858082 0.0037754040953020354 0 0.00016293871370197041 0.0034317017838463777 0 -0.001262816204858082 0.0037754040953020354 0 -0.00083592235708323138 0.0012266234739396688 0 -0.00083592235708323138 0.0012266234739396688 0 -0.00051638821111189164 -0.0017875307295488199 0 -0.0026788230525511153 -0.0024162392459979678 0 -0.00083592235708323138 0.0012266234739396688 0 -0.00051638821111189164 -0.0017875307295488199 0 0.0018260812390403758 0.00075283249858994585 0 -0.00051638821111189164 -0.0017875307295488199 0 0.0018260812390403758 0.00075283249858994585 0 0.0013401196429661448 -0.0024431362290387002 0 0.00016293871370197041 0.0034317017838463777 0 -0.00083592235708323138 0.0012266234739396688 0 0.0018260812390403758 0.00075283249858994585 0 0.0014527833341219305 0.0056318507772856637 0 0.00016293871370197041 0.0034317017838463777 0 0.0018260812390403758 0.00075283249858994585 0 0.0014527833341219305 0.0056318507772856637 0 0.0018260812390403758 0.00075283249858994585 0 0.0037668710651243701 0.0027793808070340977 0 0.0018260812390403758 0.00075283249858994585 0 0.0044191337518545174 2.8139809816811126e-05 0 0.0033621197189688773 -0.0024596137868383786 0 0.0044191337518545174 2.8139809816811126e-05 0 0.0037668710651243701 0.0027793808070340977 0 0.0068790043749049224 0.0019934417609800033 0 0.0018260812390403758 0.00075283249858994585 0 0.0044191337518545174 2.8139809816811126e-05 0 0.0037668710651243701 0.0027793808070340977 0 0.0047895487940931075 0.0054703275097312378 0 0.0037668710651243701 0.0027793808070340977 0 0.0068790043749049224 0.0019934417609800033 0 -1.8676959606483067e-05 -0.0057260570337632826 0 -0.00064541466491540417 -0.0064886772148004188 0 0.00056454712234075492 -0.0066666446368623374 0 -1.8676959606483067e-05 -0.0057260570337632826 0 -0.0013234904769076758 -0.0057945397826720917 0 -0.00073455280463539897 -0.0047320108169613771 0 -1.8676959606483067e-05 -0.0057260570337632826 0 -0.00064541466491540417 -0.0064886772148004188 0 -0.0013234904769076758 -0.0057945397826720917 0 -0.00064541466491540417 -0.0064886772148004188 0 -0.0013234904769076758 -0.0057945397826720917 0 -0.0015819236958267123 -0.0063021836775713491 0 -0.0013234904769076758 -0.0057945397826720917 0 -0.002610093805546187 -0.0049969495980249252 0 -0.00073455280463539897 -0.0047320108169613771 0 -0.0013234904769076758 -0.0057945397826720917 0 -0.0015819236958267123 -0.0063021836775713491 0 -0.0022038132611510129 -0.0058025925838340433 0 -0.0027054576045610072 0.006791345186127745 0 -0.0017955776933599439 0.0054540234706644906 0 -0.0033501234828728658 0.0031767681141829339 0 -0.00086179454268580692 0.0030072472758531626 0 -0.0031407496140922848 -0.0016218600519595063 0 -0.0025088754600653624 -0.0064397215199243621 0 -0.0022038132611510129 -0.0058025925838340433 0 -0.002610093805546187 -0.0049969495980249252 0 -0.0025088754600653624 -0.0064397215199243621 0 -0.0015819236958267123 -0.0063021836775713491 0 -0.0022038132611510129 -0.0058025925838340433 0 -0.0027054576045610072 0.006791345186127745 0 -0.0017555683483722515 0.0066481536290726477 0 -0.0017955776933599439 0.0054540234706644906 0 -0.0013234904769076758 -0.0057945397826720917 0 -0.0022038132611510129 -0.0058025925838340433 0 -0.002610093805546187 -0.0049969495980249252 0 -0.002610093805546187 -0.0049969495980249252 0 -0.0014176000898077699 -0.003461244937731174 0 -0.00073455280463539897 -0.0047320108169613771 0 -0.002610093805546187 -0.0049969495980249252 0 -0.0026788230525511153 -0.0024162392459979678 0 -0.0014176000898077699 -0.003461244937731174 0 -0.0031407496140922848 -0.0016218600519595063 0 -0.0026844900030583928 -0.0019482475962309578 0 -0.00083592235708323138 0.0012266234739396688 0 -0.0033501234828728658 0.0031767681141829339 0 -0.0026788230525511153 -0.0024162392459979678 0 -0.0014176000898077699 -0.003461244937731174 0 -0.00073455280463539897 -0.0047320108169613771 0 -0.000279993667932425 -0.0040825998636588321 0 -0.00073455280463539897 -0.0047320108169613771 0 0.00049516671157876977 -0.0049116281499045943 0 -0.000279993667932425 -0.0040825998636588321 0 -1.8676959606483067e-05 -0.0057260570337632826 0 -0.00073455280463539897 -0.0047320108169613771 0 0.00049516671157876977 -0.0049116281499045943 0 -1.8676959606483067e-05 -0.0057260570337632826 0 0.00049516671157876977 -0.0049116281499045943 0 0.00081204381533297619 -0.0059167219058044122 0 0.00049516671157876977 -0.0049116281499045943 0 0.0015330371333589024 -0.0058047395643356474 0 0.0011632919615848418 -0.0048919378741734687 0 0.00049516671157876977 -0.0049116281499045943 0 0.00081204381533297619 -0.0059167219058044122 0 0.0015330371333589024 -0.0058047395643356474 0 -1.8676959606483067e-05 -0.0057260570337632826 0 0.00081204381533297619 -0.0059167219058044122 0 0.00056454712234075492 -0.0066666446368623374 0 0.00081204381533297619 -0.0059167219058044122 0 0.0013727018794799746 -0.0065072972826553449 0 0.0015330371333589024 -0.0058047395643356474 0 0.0013727018794799746 -0.0065072972826553449 0 0.00056454712234075492 -0.0066666446368623374 0 0.0016140161585243209 -0.007384710872631076 0 0.00081204381533297619 -0.0059167219058044122 0 0.0013727018794799746 -0.0065072972826553449 0 0.00056454712234075492 -0.0066666446368623374 0 0.0020085712802075909 -0.0069670217164005226 0 0.0019509294195525567 -0.0065369795475423986 0 0.0023822622767526434 -0.0069635438027648502 0 0.0020085712802075909 -0.0069670217164005226 0 0.0013727018794799746 -0.0065072972826553449 0 0.0019509294195525567 -0.0065369795475423986 0 0.0020085712802075909 -0.0069670217164005226 0 0.0013727018794799746 -0.0065072972826553449 0 0.0016140161585243209 -0.007384710872631076 0 0.0013727018794799746 -0.0065072972826553449 0 0.0019509294195525567 -0.0065369795475423986 0 0.0015330371333589024 -0.0058047395643356474 0 0.0020673875401409393 -0.0062586966416240371 0 0.0015330371333589024 -0.0058047395643356474 0 0.0022575321054765151 -0.0060521353127529695 0 0.0019509294195525567 -0.0065369795475423986 0 0.0020673875401409393 -0.0062586966416240371 0 0.0015330371333589024 -0.0058047395643356474 0 0.0019509294195525567 -0.0065369795475423986 0 0.0020673875401409393 -0.0062586966416240371 0 0.0024885080490589253 -0.0066381299016788067 0 0.0015330371333589024 -0.0058047395643356474 0 0.0018931705942515458 -0.0053754056882001243 0 0.0011632919615848418 -0.0048919378741734687 0 0.0015330371333589024 -0.0058047395643356474 0 0.0022575321054765151 -0.0060521353127529695 0 0.0018931705942515458 -0.0053754056882001243 0 0.0022575321054765151 -0.0060521353127529695 0 0.0029055647846436433 -0.0065123866423942873 0 0.0024885080490589253 -0.0066381299016788067 0 0.0029055647846436433 -0.0065123866423942873 0 0.0029135169807767416 -0.006990573939224933 0 0.0024885080490589253 -0.0066381299016788067 0 0.0029055647846436433 -0.0065123866423942873 0 0.0029135169807767416 -0.006990573939224933 0 0.0031694403402393657 -0.0070086919052127564 0 0.0020673875401409393 -0.0062586966416240371 0 0.0022575321054765151 -0.0060521353127529695 0 0.0024885080490589253 -0.0066381299016788067 0 0.0033897749730511751 -0.0077828732420433819 0 0.0032682640712251632 -0.0073494947976467696 0 0.0036196984679470125 -0.0070421235346707304 0 0.0031694403402393657 -0.0070086919052127564 0 0.0032682640712251632 -0.0073494947976467696 0 0.0036196984679470125 -0.0070421235346707304 0 0.0029055647846436433 -0.0065123866423942873 0 0.0031694403402393657 -0.0070086919052127564 0 0.0036196984679470125 -0.0070421235346707304 0 0.0029135169807767416 -0.006990573939224933 0 0.0032682640712251632 -0.0073494947976467696 0 0.0030573517799552057 -0.0073990423725939138 0 0.0029135169807767416 -0.006990573939224933 0 0.0031694403402393657 -0.0070086919052127564 0 0.0032682640712251632 -0.0073494947976467696 0 0.0033897749730511751 -0.0077828732420433819 0 0.0032682640712251632 -0.0073494947976467696 0 0.0030573517799552057 -0.0073990423725939138 0 0.0029135169807767416 -0.006990573939224933 0 0.0030573517799552057 -0.0073990423725939138 0 0.002726164981022715 -0.0071239196774394815 0 0.0030573517799552057 -0.0073990423725939138 0 0.002726164981022715 -0.0071239196774394815 0 0.0027412753461079223 -0.0073532932561101603 0 0.0030573517799552057 -0.0073990423725939138 0 0.0027514979836826079 -0.0074314638276759314 0 0.0027412753461079223 -0.0073532932561101603 0 0.0019509294195525567 -0.0065369795475423986 0 0.0024885080490589253 -0.0066381299016788067 0 0.0023822622767526434 -0.0069635438027648502 0 0.0024885080490589253 -0.0066381299016788067 0 0.002726164981022715 -0.0071239196774394815 0 0.0023822622767526434 -0.0069635438027648502 0 0.0029135169807767416 -0.006990573939224933 0 0.0024885080490589253 -0.0066381299016788067 0 0.002726164981022715 -0.0071239196774394815 0 0.002726164981022715 -0.0071239196774394815 0 0.0025848773141965925 -0.0072387213983863951 0 0.0027412753461079223 -0.0073532932561101603 0 0.002726164981022715 -0.0071239196774394815 0 0.0023822622767526434 -0.0069635438027648502 0 0.0025848773141965925 -0.0072387213983863951 0 0.0023822622767526434 -0.0069635438027648502 0 0.0023377093860371782 -0.0072010107548174489 0 0.0025848773141965925 -0.0072387213983863951 0 0.0020085712802075909 -0.0069670217164005226 0 0.0023822622767526434 -0.0069635438027648502 0 0.0023377093860371782 -0.0072010107548174489 0 0.0023377093860371782 -0.0072010107548174489 0 0.0023468944856273842 -0.0073565357712359293 0 0.0024906767741255213 -0.0073650805819720066 0 0.0023377093860371782 -0.0072010107548174489 0 0.0023468944856273842 -0.0073565357712359293 0 0.0021172018649826636 -0.0073234835477229161 0 0.0023377093860371782 -0.0072010107548174489 0 0.0024906767741255213 -0.0073650805819720066 0 0.0025848773141965925 -0.0072387213983863951 0 0.0025848773141965925 -0.0072387213983863951 0 0.0026095810150564063 -0.0073520009486552308 0 0.0027412753461079223 -0.0073532932561101603 0 0.0024906767741255213 -0.0073650805819720066 0 0.0025848773141965925 -0.0072387213983863951 0 0.0026095810150564063 -0.0073520009486552308 0 0.0024906767741255213 -0.0073650805819720066 0 0.0026095810150564063 -0.0073520009486552308 0 0.0025463508287082519 -0.0073867832807740621 0 0.0025463508287082519 -0.0073867832807740621 0 0.0024193449601255727 -0.0075293786315654247 0 0.00254056626786684 -0.0072336695486522043 0 0.0026095810150564063 -0.0073520009486552308 0 0.0025463508287082519 -0.0073867832807740621 0 0.0025833979478961295 -0.0073694065020671121 0 0.0025463508287082519 -0.0073867832807740621 0 0.0025833979478961295 -0.0073694065020671121 0 0.00254056626786684 -0.0072336695486522043 0 0.0024906767741255213 -0.0073650805819720066 0 0.0025463508287082519 -0.0073867832807740621 0 0.0024193449601255727 -0.0075293786315654247 0 0.0020939388492421567 -0.0069539206343033023 0 0.0021272099560141768 -0.0070874226731548707 0 0.0018549704822405056 -0.0071459354178608743 0 0.0023468944856273842 -0.0073565357712359293 0 0.0024193449601255727 -0.0075293786315654247 0 0.0021172018649826636 -0.0073234835477229161 0 0.0023468944856273842 -0.0073565357712359293 0 0.0024906767741255213 -0.0073650805819720066 0 0.0024193449601255727 -0.0075293786315654247 0 0.0027514979836826079 -0.0074314638276759314 0 0.0027412753461079223 -0.0073532932561101603 0 0.0026239302522713731 -0.0073925282367818266 0 0.0027412753461079223 -0.0073532932561101603 0 0.0025833979478961295 -0.0073694065020671121 0 0.0026239302522713731 -0.0073925282367818266 0 0.0026095810150564063 -0.0073520009486552308 0 0.0027412753461079223 -0.0073532932561101603 0 0.0025833979478961295 -0.0073694065020671121 0 0.0025833979478961295 -0.0073694065020671121 0 0.0026239302522713731 -0.0073925282367818266 0 0.0023218960552506161 -0.0072349576407143845 0 0.0024711179141335771 -0.0073126390484948801 0 0.0026239302522713731 -0.0073925282367818266 0 0.0026841015267146709 -0.007178537357337725 0 0.0024711179141335771 -0.0073126390484948801 0 0.0026841015267146709 -0.007178537357337725 0 0.0024603258441431822 -0.0069347517741385851 0 0.0025995230325175016 -0.0073678269562333512 0 0.0025016467279444358 -0.0071721047503157361 0 0.0025833979478961295 -0.0073694065020671121 0 0.0023218960552506161 -0.0072349576407143845 0 0.00254056626786684 -0.0072336695486522043 0 0.0023218960552506161 -0.0072349576407143845 0 0.00254056626786684 -0.0072336695486522043 0 0.0024116605348784566 -0.0070540952803496921 0 0.00254056626786684 -0.0072336695486522043 0 0.0024116605348784566 -0.0070540952803496921 0 0.0025150628870013567 -0.0071162692824424242 0 0.0019710400845786291 -0.00659603665448433 0 0.0023218960552506161 -0.0072349576407143845 0 0.0024116605348784566 -0.0070540952803496921 0 0.0023472097515824498 -0.0067503470249757587 0 0.0019710400845786291 -0.00659603665448433 0 0.0024116605348784566 -0.0070540952803496921 0 0.0023472097515824498 -0.0067503470249757587 0 0.0024116605348784566 -0.0070540952803496921 0 0.0025805096257683121 -0.0069888283791144619 0 0.0028193159974570529 -0.006692394233785157 0 0.0026841015267146709 -0.007178537357337725 0 0.0024603258441431822 -0.0069347517741385851 0 0.0024466713596273328 -0.0066373824407525107 0 0.0025016467279444358 -0.0071721047503157361 0 0.0021272099560141768 -0.0070874226731548707 0 0.0024256585359828382 -0.0071489834734976372 0 0.0024879844215076217 -0.0071554180796036581 0 0.0019985595243521073 -0.0070982459711159858 0 0.0021272099560141768 -0.0070874226731548707 0 0.0019501086061078515 -0.0070792679034130321 0 0.0020939388492421567 -0.0069539206343033023 0 0.00254056626786684 -0.0072336695486522043 0 0.0021272099560141768 -0.0070874226731548707 0 0.0027262094008422394 -0.0084789270391440619 0 0.00072048765961481482 -0.0038139084627113935 0 0.0019985595243521073 -0.0070982459711159858 0 0.0021272099560141768 -0.0070874226731548707 0 0.0018549704822405056 -0.0071459354178608743 0 0.0022392683593776162 -0.0072379304568225477 0 0.0025100039315013004 -0.0072382545292736756 0 0.00254056626786684 -0.0072336695486522043 0 0.0021272099560141768 -0.0070874226731548707 0 0.0024256585359828382 -0.0071489834734976372 0 0.00254056626786684 -0.0072336695486522043 0 0.0024256585359828382 -0.0071489834734976372 0 0.0025150628870013567 -0.0071162692824424242 0 0.0024256585359828382 -0.0071489834734976372 0 0.0025150628870013567 -0.0071162692824424242 0 0.0024879844215076217 -0.0071554180796036581 0 0.0024116605348784566 -0.0070540952803496921 0 0.0025150628870013567 -0.0071162692824424242 0 0.0025805096257683121 -0.0069888283791144619 0 0.0025150628870013567 -0.0071162692824424242 0 0.0025805096257683121 -0.0069888283791144619 0 0.0024879844215076217 -0.0071554180796036581 0 0.0030648581728578705 -0.0061483893313841551 0 0.00072048765961481482 -0.0038139084627113935 0 0.00072048765961481482 -0.0038139084627113935 0 0.00099991130688310381 -0.0016012046612007681 0 0.0019985595243521073 -0.0070982459711159858 0 0.0019501086061078515 -0.0070792679034130321 0 0.0019568881705979116 -0.0070748426423944714 0 -0.00087773410268477694 0.0048037926957912843 0 -0.0012026503573266459 0.0045071409380447059 0 -0.00051688496374449665 0.0045547192651128228 0 0.0019501086061078515 -0.0070792679034130321 0 0.0019319192180257383 -0.007004038239671443 0 0.0019568881705979116 -0.0070748426423944714 0 0.0019319192180257383 -0.007004038239671443 0 0.0019217787351408536 -0.0070790795663585142 0 0.001919590701984401 -0.0070368449538645364 0 0.0019319192180257383 -0.007004038239671443 0 0.0019568881705979116 -0.0070748426423944714 0 0.0019217787351408536 -0.0070790795663585142 0 0.0019985595243521073 -0.0070982459711159858 0 0.0019568881705979116 -0.0070748426423944714 0 0.0019217787351408536 -0.0070790795663585142 0 0.0019985595243521073 -0.0070982459711159858 0 0.0019217787351408536 -0.0070790795663585142 0 0.0018549704822405056 -0.0071459354178608743 0 0.0019217787351408536 -0.0070790795663585142 0 0.0018549704822405056 -0.0071459354178608743 0 0.001919590701984401 -0.0070368449538645364 0 0.0020859778900523211 -0.0092521305462085722 0 -0.00041879666777529701 -0.0003427501648496081 0 0.0018549704822405056 -0.0071459354178608743 0 0.0012292908184746733 -0.0073525103783878892 0 0.0012030512121752495 -0.0071619174239893786 0 0.0018549704822405056 -0.0071459354178608743 0 0.0012292908184746733 -0.0073525103783878892 0 0.0010358958649369138 -0.0077313246633972724 0 0.0018549704822405056 -0.0071459354178608743 0 0.001919590701984401 -0.0070368449538645364 0 0.001983231670227922 -0.0069383352878891833 0 0.0012292908184746733 -0.0073525103783878892 0 0.00084046886284109158 -0.007366826015717854 0 0.0012030512121752495 -0.0071619174239893786 0 -4.4625788389666966e-05 0.0048639657291308265 0 -0.00051688496374449665 0.0045547192651128228 0 0.00013011271544014473 0.0046036380935295107 0 0.0019319192180257383 -0.007004038239671443 0 0.001919590701984401 -0.0070368449538645364 0 0.001983231670227922 -0.0069383352878891833 0 0.0019319192180257383 -0.007004038239671443 0 0.0020075199388816275 -0.0068154347132534246 0 0.001983231670227922 -0.0069383352878891833 0 0.00099991130688310381 -0.0016012046612007681 0 -0.00053701086002598802 0.0040350598128649452 0 -0.0031000044244231251 0.010597808661533857 0 -0.0032585218099768138 0.01043373973652908 0 -0.0029936402237469273 0.010510255164698815 0 -0.00053701086002598802 0.0040350598128649452 0 -0.00041879666777529701 -0.0003427501648496081 0 -0.0031000044244231251 0.010597808661533857 0 -0.0028403323248031628 0.01072797171701332 0 -0.0029936402237469273 0.010510255164698815 0 -0.0026799520435149731 0.01047035015411916 0 -0.0028403323248031628 0.01072797171701332 0 -0.0029936402237469273 0.010510255164698815 0 -0.0011768879053133457 0.008414161278499371 0 -0.00053701086002598802 0.0040350598128649452 0 -0.00053701086002598802 0.0040350598128649452 0 -0.0034172625031598089 0.010713559618830561 0 -0.0029501876611428093 0.011383319108589697 0 -0.0035080272090620705 0.010932995492639999 0 -0.0029990365449041141 0.010963463872406353 0 -0.0026799520435149731 0.01047035015411916 0 -0.0029701115348598774 0.010303242085132815 0 -0.0029936402237469273 0.010510255164698815 0 0.0010358958649369138 -0.0077313246633972724 0 0.00038861798908618379 -0.0074566155868197497 0 0.00084046886284109158 -0.007366826015717854 0 -0.00041879666777529701 -0.0003427501648496081 0 -0.001508988981433938 0.0016629853865509588 0 -0.0032585218099768138 0.01043373973652908 0 -0.0029701115348598774 0.010303242085132815 0 -0.0029936402237469273 0.010510255164698815 0 0.0012292908184746733 -0.0073525103783878892 0 0.0010358958649369138 -0.0077313246633972724 0 0.00084046886284109158 -0.007366826015717854 0 0.00084046886284109158 -0.007366826015717854 0 0.00098781272249557164 -0.0070806281319756477 0 0.0012030512121752495 -0.0071619174239893786 0 0.00038861798908618379 -0.0074566155868197497 0 0.00084046886284109158 -0.007366826015717854 0 0.00060623622968225142 -0.0070323248032117857 0 0.00098781272249557164 -0.0070806281319756477 0 0.00060623622968225142 -0.0070323248032117857 0 0.0013008379426176285 -0.006770763940641614 0 0.00084046886284109158 -0.007366826015717854 0 0.00098781272249557164 -0.0070806281319756477 0 0.00060623622968225142 -0.0070323248032117857 0 -0.00034295229160913413 -0.0072649437104753724 0 0.00038861798908618379 -0.0074566155868197497 0 0.00060623622968225142 -0.0070323248032117857 0 -0.00034295229160913413 -0.0072649437104753724 0 0.00060623622968225142 -0.0070323248032117857 0 0.00056454712234075492 -0.0066666446368623374 0 0.0006231465098369399 -0.0066981988407439959 0 0.0014607820703119024 -0.007063386990496595 0 0.00060623622968225142 -0.0070323248032117857 0 0.00056454712234075492 -0.0066666446368623374 0 0.0013008379426176285 -0.006770763940641614 0 0.0020085712802075909 -0.0069670217164005226 0 0.0016140161585243209 -0.007384710872631076 0 0.0021172018649826636 -0.0073234835477229161 0 0.0020085712802075909 -0.0069670217164005226 0 0.0023377093860371782 -0.0072010107548174489 0 0.0021172018649826636 -0.0073234835477229161 0 0.0024193449601255727 -0.0075293786315654247 0 0.0016140161585243209 -0.007384710872631076 0 0.0021172018649826636 -0.0073234835477229161 0 0.0022392683593776162 -0.0072379304568225477 0 0.0014607820703119024 -0.007063386990496595 0 0.0020939388492421567 -0.0069539206343033023 0 0.0018549704822405056 -0.0071459354178608743 0 0.0013008379426176285 -0.006770763940641614 0 0.0018549704822405056 -0.0071459354178608743 0 0.0013008379426176285 -0.006770763940641614 0 0.0012030512121752495 -0.0071619174239893786 0 0.00098781272249557164 -0.0070806281319756477 0 0.0013008379426176285 -0.006770763940641614 0 0.0012030512121752495 -0.0071619174239893786 0 3.6824088838472322e-06 0.034966089422848026 0 -2.1104387115560199e-05 0.034964007432573732 0 1.7287627637028775e-07 0.035000795072327562 0 -2.1104387115560199e-05 0.034964007432573732 0 -4.1040338707467371e-07 0.034998085959435453 0 1.7287627637028775e-07 0.035000795072327562 0 3.6824088838472322e-06 0.034966089422848026 0 1.6952541562256712e-05 0.034983592999414989 0 1.7287627637028775e-07 0.035000795072327562 0 3.6824088838472322e-06 0.034966089422848026 0 2.3284880635307176e-06 0.034942193836546058 0 1.6973737426650378e-05 0.034932060379232008 0 3.6824088838472322e-06 0.034966089422848026 0 4.6703318894619644e-05 0.034961180016599792 0 1.6973737426650378e-05 0.034932060379232008 0 3.6824088838472322e-06 0.034966089422848026 0 1.6952541562256712e-05 0.034983592999414989 0 4.6703318894619644e-05 0.034961180016599792 0 2.9844389404355655e-05 0.034980519380906162 0 3.4445547881083966e-05 0.034976988343319936 0 4.6703318894619644e-05 0.034961180016599792 0 1.6952541562256712e-05 0.034983592999414989 0 2.9844389404355655e-05 0.034980519380906162 0 4.6703318894619644e-05 0.034961180016599792 0 2.9844389404355655e-05 0.034980519380906162 0 3.4445547881083966e-05 0.034976988343319936 0 2.9390478171294208e-05 0.03498294985335354 0 -2.9786689526949094e-05 0.034384927229663409 0 -0.00015693800422482946 0.034417351866448953 0 -0.00024511647051326786 0.034283762411696297 0 -2.9786689526949094e-05 0.034384927229663409 0 -0.00015693800422482946 0.034417351866448953 0 -7.8901964684630784e-05 0.034543595769264399 0 -0.00015693800422482946 0.034417351866448953 0 -7.8901964684630784e-05 0.034543595769264399 0 -0.00030043599690601915 0.034424857601256471 0 -2.3220161833176283e-05 0.034859833611207605 0 0.00014305468500523986 0.03284042770209613 0 -0.00011855989040206416 0.03470718168707973 0 -7.8901964684630784e-05 0.034543595769264399 0 -0.00030043599690601915 0.034424857601256471 0 -0.00011855989040206416 0.03470718168707973 0 -7.8901964684630784e-05 0.034543595769264399 0 6.1392509413659419e-05 0.034652208557867728 0 -2.9786689526949094e-05 0.034384927229663409 0 -7.8901964684630784e-05 0.034543595769264399 0 6.1392509413659419e-05 0.034652208557867728 0 -0.00011855989040206416 0.03470718168707973 0 6.1392509413659419e-05 0.034652208557867728 0 2.2351447158991224e-05 0.034774560772850203 0 6.152369764168532e-05 0.034699166629876023 0 3.9482782329596422e-05 0.034790900327840928 0 3.9482782329596422e-05 0.034790900327840928 0 5.2433667967209564e-05 0.034850351987440208 0 6.1392509413659419e-05 0.034652208557867728 0 2.2351447158991224e-05 0.034774560772850203 0 5.0063080305113496e-05 0.034864251397746647 0 2.2351447158991224e-05 0.034774560772850203 0 1.4350848223079262e-05 0.034783444776349551 0 3.5086949146521425e-05 0.034818724626503879 0 2.2351447158991224e-05 0.034774560772850203 0 3.5086949146521425e-05 0.034818724626503879 0 5.0063080305113496e-05 0.034864251397746647 0 -2.2024494951945163e-05 0.034519688659251362 0 -4.6737591952220954e-05 0.034716936854550476 0 1.4350848223079262e-05 0.034783444776349551 0 -2.3220161833176283e-05 0.034859833611207605 0 -3.2179073296652918e-05 0.03467083989963933 0 -0.00011855989040206416 0.03470718168707973 0 2.2351447158991224e-05 0.034774560772850203 0 1.4350848223079262e-05 0.034783444776349551 0 -2.2024494951945163e-05 0.034519688659251362 0 -4.6737591952220954e-05 0.034716936854550476 0 -0.00011662822438182307 0.034693331690718331 0 -4.6737591952220954e-05 0.034716936854550476 0 -5.6658075771439191e-05 0.034783222787493857 0 -0.00011662822438182307 0.034693331690718331 0 -4.6737591952220954e-05 0.034716936854550476 0 1.4350848223079262e-05 0.034783444776349551 0 -5.6658075771439191e-05 0.034783222787493857 0 1.4350848223079262e-05 0.034783444776349551 0 -5.6658075771439191e-05 0.034783222787493857 0 1.7882436263756467e-05 0.034817104126858719 0 -2.8499143063199616e-05 0.034009310446988045 0 -7.8030068076670179e-05 0.034483705405315028 0 3.5086949146521425e-05 0.034818724626503879 0 1.7882436263756467e-05 0.034817104126858719 0 3.7152428256747792e-05 0.034843258555690766 0 1.4350848223079262e-05 0.034783444776349551 0 3.5086949146521425e-05 0.034818724626503879 0 1.7882436263756467e-05 0.034817104126858719 0 3.7152428256747792e-05 0.034843258555690766 0 1.6933840070761447e-05 0.034898878598993495 0 -2.1104387115560199e-05 0.034964007432573732 0 3.7152428256747792e-05 0.034843258555690766 0 5.0063080305113496e-05 0.034864251397746647 0 1.6933840070761447e-05 0.034898878598993495 0 3.5086949146521425e-05 0.034818724626503879 0 3.7152428256747792e-05 0.034843258555690766 0 5.0063080305113496e-05 0.034864251397746647 0 5.0063080305113496e-05 0.034864251397746647 0 1.6933840070761447e-05 0.034898878598993495 0 1.6973737426650378e-05 0.034932060379232008 0 4.6703318894619644e-05 0.034961180016599792 0 5.0063080305113496e-05 0.034864251397746647 0 1.6973737426650378e-05 0.034932060379232008 0 1.6933840070761447e-05 0.034898878598993495 0 2.3284880635307176e-06 0.034942193836546058 0 1.6973737426650378e-05 0.034932060379232008 0 3.6824088838472322e-06 0.034966089422848026 0 2.3284880635307176e-06 0.034942193836546058 0 -2.1104387115560199e-05 0.034964007432573732 0 1.6933840070761447e-05 0.034898878598993495 0 2.3284880635307176e-06 0.034942193836546058 0 -2.1104387115560199e-05 0.034964007432573732 0 -0.00012720320240135961 0.03412587323436949 0 -2.1104387115560199e-05 0.034964007432573732 0 -0.0002979508197610158 0.034426140983151159 0 -2.1104387115560199e-05 0.034964007432573732 0 -4.1040338707467371e-07 0.034998085959435453 0 -0.0002979508197610158 0.034426140983151159 0 -7.8030068076670179e-05 0.034483705405315028 0 -8.9040446086393344e-05 0.034869135202310698 0 -4.1040338707467371e-07 0.034998085959435453 0 -0.0002979508197610158 0.034426140983151159 0 -7.2403677358787744e-05 0.034807097325331653 0 -4.1040338707467371e-07 0.034998085959435453 0 -7.2403677358787744e-05 0.034807097325331653 0 -5.3371266401601258e-07 0.034997605301286296 0 -0.00012720320240135961 0.03412587323436949 0 -0.0002979508197610158 0.034426140983151159 0 -7.9759531190374205e-05 0.033503863018384601 0 -0.00012720320240135961 0.03412587323436949 0 -7.9759531190374205e-05 0.033503863018384601 0 1.0031539178986829e-05 0.033138879776725361 0 -7.9759531190374205e-05 0.033503863018384601 0 1.609454956639675e-05 0.032774622021030951 0 1.0031539178986829e-05 0.033138879776725361 0 -7.9759531190374205e-05 0.033503863018384601 0 -0.00019550876854796117 0.032131350699803878 0 1.609454956639675e-05 0.032774622021030951 0 -0.00019550876854796117 0.032131350699803878 0 -7.7362401631051884e-05 0.032143708413944976 0 1.609454956639675e-05 0.032774622021030951 0 -0.0002979508197610158 0.034426140983151159 0 -7.9759531190374205e-05 0.033503863018384601 0 -0.00019550876854796117 0.032131350699803878 0 -0.00028089177538866291 0.034338727640583537 0 -0.00013213339485909444 0.033514625035282283 0 -0.00019550876854796117 0.032131350699803878 0 -7.7362401631051884e-05 0.032143708413944976 0 -0.00018940132246022623 0.032304642345210667 0 -0.00013213339485909444 0.033514625035282283 0 -5.6019796889996102e-08 0.033667713013686686 0 -0.00019550876854796117 0.032131350699803878 0 7.6970943324575362e-07 0.033664256682965278 0 -0.00018940132246022623 0.032304642345210667 0 -7.2403677358787744e-05 0.034807097325331653 0 8.9328703386153633e-07 0.033672247817429113 0 -5.3371266401601258e-07 0.034997605301286296 0 -8.1554862410444896e-07 0.031697455570510104 0 -5.1542539236565897e-05 0.031548319435875022 0 -8.9369901772132909e-05 0.030621055721480328 0 7.6970943324575362e-07 0.033664256682965278 0 -8.1554862410444896e-07 0.031697455570510104 0 -0.00018940132246022623 0.032304642345210667 0 -8.1554862410444896e-07 0.031697455570510104 0 -0.00018940132246022623 0.032304642345210667 0 -5.1542539236565897e-05 0.031548319435875022 0 -7.7362401631051884e-05 0.032143708413944976 0 -0.00018940132246022623 0.032304642345210667 0 -5.1542539236565897e-05 0.031548319435875022 0 -5.1542539236565897e-05 0.031548319435875022 0 -1.5438267827046067e-05 0.031034762652021767 0 -8.9369901772132909e-05 0.030621055721480328 0 -5.1542539236565897e-05 0.031548319435875022 0 4.7206101348394854e-05 0.031581969816653808 0 -1.5438267827046067e-05 0.031034762652021767 0 -5.1542539236565897e-05 0.031548319435875022 0 4.7206101348394854e-05 0.031581969816653808 0 7.6918272418478981e-05 0.032314082419859544 0 4.7206101348394854e-05 0.031581969816653808 0 7.6918272418478981e-05 0.032314082419859544 0 0.00011582677543904753 0.031963502458049513 0 4.7206101348394854e-05 0.031581969816653808 0 0.00011582677543904753 0.031963502458049513 0 0.00010593099939906367 0.031618852030347602 0 -7.7362401631051884e-05 0.032143708413944976 0 -5.1542539236565897e-05 0.031548319435875022 0 7.6918272418478981e-05 0.032314082419859544 0 -7.7362401631051884e-05 0.032143708413944976 0 7.6918272418478981e-05 0.032314082419859544 0 1.609454956639675e-05 0.032774622021030951 0 0.0001209694663999549 0.032924547269763786 0 7.6918272418478981e-05 0.032314082419859544 0 1.0031539178986829e-05 0.033138879776725361 0 0.0001209694663999549 0.032924547269763786 0 -0.00012720320240135961 0.03412587323436949 0 1.0031539178986829e-05 0.033138879776725361 0 7.6918272418478981e-05 0.032314082419859544 0 1.609454956639675e-05 0.032774622021030951 0 1.0031539178986829e-05 0.033138879776725361 0 -2.8499143063199616e-05 0.034009310446988045 0 3.0156755322308721e-05 0.032069746531802473 0 0.0001209694663999549 0.032924547269763786 0 7.6918272418478981e-05 0.032314082419859544 0 0.00014160149005662618 0.032297965458203189 0 0.0001209694663999549 0.032924547269763786 0 0.00014160149005662618 0.032297965458203189 0 0.00033196062723249913 0.03195193743112025 0 -5.6658075771439191e-05 0.034783222787493857 0 1.7882436263756467e-05 0.034817104126858719 0 -0.00011712739969543181 0.034838872686325802 0 0.00021292907980621813 0.031900736280689686 0 0.00011582677543904753 0.031963502458049513 0 0.00014160149005662618 0.032297965458203189 0 0.00021292907980621813 0.031900736280689686 0 0.00011582677543904753 0.031963502458049513 0 0.00010593099939906367 0.031618852030347602 0 7.6918272418478981e-05 0.032314082419859544 0 0.00011582677543904753 0.031963502458049513 0 0.00014160149005662618 0.032297965458203189 0 0.00021292907980621813 0.031900736280689686 0 0.00014160149005662618 0.032297965458203189 0 0.00033196062723249913 0.03195193743112025 0 3.0156755322308721e-05 0.032069746531802473 0 0.00010023194177517751 0.030329175199421642 0 9.5935473722688852e-05 0.031575555669355798 0 5.1124978826014125e-05 0.031131531385352258 0 6.2164327340035255e-05 0.030794601863678276 0 8.353086003071187e-05 0.031988603167228701 0 3.0156755322308721e-05 0.032069746531802473 0 9.5935473722688852e-05 0.031575555669355798 0 5.1124978826014125e-05 0.031131531385352258 0 8.6111485728285965e-05 0.031434700767494349 0 0.00021292907980621813 0.031900736280689686 0 9.5935473722688852e-05 0.031575555669355798 0 8.6111485728285965e-05 0.031434700767494349 0 0.00021292907980621813 0.031900736280689686 0 8.6111485728285965e-05 0.031434700767494349 0 0.00010593099939906367 0.031618852030347602 0 0.00026040441945976753 0.029814880295264759 0 0.00059174418655278706 0.031330498515039204 0 0.00014268721901871908 0.030053786941381212 0 0.000245382603403684 0.030058185000488555 0 0.00014634768882823985 0.03033446198633924 0 -0.00013549742332409585 0.030159206734338785 0 0.00014268721901871908 0.030053786941381212 0 0.00014634768882823985 0.03033446198633924 0 2.8794791290809629e-05 0.030613664383838224 0 -3.5113900450043692e-05 0.030468164007696422 0 2.6310564848073212e-05 0.029672225859025403 0 6.2164327340035255e-05 0.030794601863678276 0 2.8794791290809629e-05 0.030613664383838224 0 0.0001231292739108229 0.030123988688579555 0 5.1124978826014125e-05 0.031131531385352258 0 6.2164327340035255e-05 0.030794601863678276 0 2.8794791290809629e-05 0.030613664383838224 0 2.8794791290809629e-05 0.030613664383838224 0 3.2254640953571027e-05 0.031134410179789514 0 -3.5113900450043692e-05 0.030468164007696422 0 2.8794791290809629e-05 0.030613664383838224 0 2.6310564848073212e-05 0.029672225859025403 0 0.0001231292739108229 0.030123988688579555 0 4.7206101348394854e-05 0.031581969816653808 0 0.00010593099939906367 0.031618852030347602 0 3.2254640953571027e-05 0.031134410179789514 0 8.6111485728285965e-05 0.031434700767494349 0 0.00010593099939906367 0.031618852030347602 0 3.2254640953571027e-05 0.031134410179789514 0 5.1124978826014125e-05 0.031131531385352258 0 2.8794791290809629e-05 0.030613664383838224 0 3.2254640953571027e-05 0.031134410179789514 0 5.1124978826014125e-05 0.031131531385352258 0 8.6111485728285965e-05 0.031434700767494349 0 3.2254640953571027e-05 0.031134410179789514 0 3.2254640953571027e-05 0.031134410179789514 0 -1.5438267827046067e-05 0.031034762652021767 0 -3.5113900450043692e-05 0.030468164007696422 0 4.7206101348394854e-05 0.031581969816653808 0 3.2254640953571027e-05 0.031134410179789514 0 -1.5438267827046067e-05 0.031034762652021767 0 -8.9369901772132909e-05 0.030621055721480328 0 -3.5113900450043692e-05 0.030468164007696422 0 -6.3861515475988301e-05 0.029615296339300174 0 -1.5438267827046067e-05 0.031034762652021767 0 -8.9369901772132909e-05 0.030621055721480328 0 -3.5113900450043692e-05 0.030468164007696422 0 -3.5113900450043692e-05 0.030468164007696422 0 -6.3861515475988301e-05 0.029615296339300174 0 2.6310564848073212e-05 0.029672225859025403 0 -6.3861515475988301e-05 0.029615296339300174 0 1.7775062992208241e-07 0.029726782988760466 0 -1.077934006240014e-06 0.027755434094289034 0 -8.1554862410444896e-07 0.031697455570510104 0 -8.9369901772132909e-05 0.030621055721480328 0 1.7775062992208241e-07 0.029726782988760466 0 -8.9369901772132909e-05 0.030621055721480328 0 -6.3861515475988301e-05 0.029615296339300174 0 1.7775062992208241e-07 0.029726782988760466 0 -1.077934006240014e-06 0.027755434094289034 0 0.00018530854500751486 0.028773792890402442 0 3.6011355408204436e-06 0.025788971236541794 0 -6.3861515475988301e-05 0.029615296339300174 0 -1.077934006240014e-06 0.027755434094289034 0 2.6310564848073212e-05 0.029672225859025403 0 -1.077934006240014e-06 0.027755434094289034 0 2.6310564848073212e-05 0.029672225859025403 0 0.00018530854500751486 0.028773792890402442 0 2.6310564848073212e-05 0.029672225859025403 0 0.00018530854500751486 0.028773792890402442 0 0.00021216054767458692 0.029604188470394702 0 0.00018530854500751486 0.028773792890402442 0 0.00066884875740370496 0.029579897733114275 0 0.001353794113940518 0.028872710668656522 0 0.00066884875740370496 0.029579897733114275 0 0.00036712795554337557 0.029927563249448379 0 0.00068002510746121344 0.030071155624768725 0 0.00066884875740370496 0.029579897733114275 0 0.00021216054767458692 0.029604188470394702 0 0.00036712795554337557 0.029927563249448379 0 0.00018530854500751486 0.028773792890402442 0 0.00066884875740370496 0.029579897733114275 0 0.00021216054767458692 0.029604188470394702 0 6.2164327340035255e-05 0.030794601863678276 0 0.0001231292739108229 0.030123988688579555 0 0.00036712795554337557 0.029927563249448379 0 2.6310564848073212e-05 0.029672225859025403 0 0.0001231292739108229 0.030123988688579555 0 0.00021216054767458692 0.029604188470394702 0 0.0001231292739108229 0.030123988688579555 0 0.00021216054767458692 0.029604188470394702 0 0.00036712795554337557 0.029927563249448379 0 0.00014268721901871908 0.030053786941381212 0 0.00036712795554337557 0.029927563249448379 0 0.000245382603403684 0.030058185000488555 0 0.00010023194177517751 0.030329175199421642 0 0.00030891183709730265 0.030058220718332071 0 0.00036712795554337557 0.029927563249448379 0 0.000245382603403684 0.030058185000488555 0 0.00042294834476572891 0.030116716218890817 0 0.000245382603403684 0.030058185000488555 0 0.00042294834476572891 0.030116716218890817 0 0.0003281802011281485 0.030286254593127709 0 0.00036712795554337557 0.029927563249448379 0 0.00042294834476572891 0.030116716218890817 0 0.00068002510746121344 0.030071155624768725 0 0.00042294834476572891 0.030116716218890817 0 0.00068002510746121344 0.030071155624768725 0 0.00057017221376739807 0.030312537115264215 0 0.00068002510746121344 0.030071155624768725 0 0.00057017221376739807 0.030312537115264215 0 0.00088789885445304697 0.030412995273176546 0 0.00057017221376739807 0.030312537115264215 0 0.00049476344452889552 0.030648581185087394 0 0.00088789885445304697 0.030412995273176546 0 0.00049476344452889552 0.030648581185087394 0 0.00094994004729843787 0.030872522998177384 0 0.00088789885445304697 0.030412995273176546 0 0.0010460573643194715 0.030140526920648922 0 0.0039197835679453119 0.025261058905108724 0 0.0019623649147215336 0.029054838561512603 0 0.0019025860033368583 0.029354629933049783 0 0.0023791005929243484 0.02927050555309824 0 0.0019623649147215336 0.029054838561512603 0 0.0013596537443365728 0.029249284214880437 0 0.0019025860033368583 0.029354629933049783 0 0.00057017221376739807 0.030312537115264215 0 0.00049476344452889552 0.030648581185087394 0 0.0003281802011281485 0.030286254593127709 0 0.0010460573643194715 0.030140526920648922 0 0.00059174418655278706 0.031330498515039204 0 0.00049476344452889552 0.030648581185087394 0 0.0003281802011281485 0.030286254593127709 0 8.9591541517896757e-05 0.030393255539091828 0 0.000245382603403684 0.030058185000488555 0 0.0003281802011281485 0.030286254593127709 0 8.9591541517896757e-05 0.030393255539091828 0 0.00042294834476572891 0.030116716218890817 0 0.00057017221376739807 0.030312537115264215 0 0.0003281802011281485 0.030286254593127709 0 -0.00011712739969543181 0.034838872686325802 0 -0.00028779606956113815 0.034721031301149174 0 -0.00014105264213053661 0.034763609292100227 0 -0.00028779606956113815 0.034721031301149174 0 -0.00014105264213053661 0.034763609292100227 0 -0.00019447476037851307 0.034689979327490413 0 3.0156755322308721e-05 0.032069746531802473 0 0.00059174418655278706 0.031330498515039204 0 -5.6658075771439191e-05 0.034783222787493857 0 -0.00011712739969543181 0.034838872686325802 0 -0.00014105264213053661 0.034763609292100227 0 -0.00014105264213053661 0.034763609292100227 0 -0.00019447476037851307 0.034689979327490413 0 -0.00011662822438182307 0.034693331690718331 0 -5.6658075771439191e-05 0.034783222787493857 0 -0.00014105264213053661 0.034763609292100227 0 -0.00011662822438182307 0.034693331690718331 0 -0.00019447476037851307 0.034689979327490413 0 -0.00022322588747729867 0.034533361767678933 0 -0.00011662822438182307 0.034693331690718331 0 -2.2024494951945163e-05 0.034519688659251362 0 -0.00022322588747729867 0.034533361767678933 0 -0.00011662822438182307 0.034693331690718331 0 0.00059174418655278706 0.031330498515039204 0 0.00063438883875199575 0.03179776690812245 0 -0.00028779606956113815 0.034721031301149174 0 -0.00019447476037851307 0.034689979327490413 0 -0.00022322588747729867 0.034533361767678933 0 0.0019623649147215336 0.029054838561512603 0 0.0015629150264882471 0.02883356432185482 0 0.0013596537443365728 0.029249284214880437 0 0.0013596537443365728 0.029249284214880437 0 0.0016780793661117831 0.029551276942840949 0 0.0014347348329536999 0.029730785051122942 0 0.0013596537443365728 0.029249284214880437 0 0.0016780793661117831 0.029551276942840949 0 0.0019025860033368583 0.029354629933049783 0 0.00063438883875199575 0.03179776690812245 0 0.00014305468500523986 0.03284042770209613 0 0.0013596537443365728 0.029249284214880437 0 0.0011425923756649772 0.029694192571106854 0 0.0014347348329536999 0.029730785051122942 0 -2.2024494951945163e-05 0.034519688659251362 0 -0.00022322588747729867 0.034533361767678933 0 -0.00012146290833310383 0.034282050950745463 0 0.0011425923756649772 0.029694192571106854 0 0.0014347348329536999 0.029730785051122942 0 0.0013278308747138956 0.030038240657069771 0 0.00014305468500523986 0.03284042770209613 0 1.1839274029068015e-05 0.032286091875902118 0 -0.00030382945278768938 0.034406129882649628 0 -0.00024511647051326786 0.034283762411696297 0 -0.0004554864887056196 0.03412344718182353 0 -0.00015693800422482946 0.034417351866448953 0 -0.00030043599690601915 0.034424857601256471 0 -0.00024511647051326786 0.034283762411696297 0 0.00014305468500523986 0.03284042770209613 0 -0.00039808592851522706 0.034323370458402169 0 0.0016780793661117831 0.029551276942840949 0 0.0014347348329536999 0.029730785051122942 0 0.0016525173334426618 0.02977550594155054 0 0.0014347348329536999 0.029730785051122942 0 0.0016525173334426618 0.02977550594155054 0 0.001543817318417262 0.029983934630118017 0 0.0016780793661117831 0.029551276942840949 0 0.0016525173334426618 0.02977550594155054 0 0.0020869662089919574 0.029607514244894086 0 0.0016525173334426618 0.02977550594155054 0 0.0020869662089919574 0.029607514244894086 0 0.0017851924531289089 0.029955476472238906 0 0.0035670518068000173 0.025108351675425779 0 0.002508156506262686 0.026287932994290761 0 0.0020869662089919574 0.029607514244894086 0 0.0019025860033368583 0.029354629933049783 0 0.0023791005929243484 0.02927050555309824 0 0.0048575647847601388 0.020832718916469706 0 0.0065272627393386309 0.019201614400157545 0 0.0071932235864205522 0.020537112447804196 0 0.0035670518068000173 0.025108351675425779 0 0.0039197835679453119 0.025261058905108724 0 0.0016780793661117831 0.029551276942840949 0 0.0020869662089919574 0.029607514244894086 0 0.0019025860033368583 0.029354629933049783 0 0.0072075898926165626 0.018126124384706867 0 0.0071198599955243714 0.018165907095406265 0 0.0083727868063913531 0.020332365346398283 0 0.0071198599955243714 0.018165907095406265 0 0.0083727868063913531 0.020332365346398283 0 0.0088429899300761367 0.018748221304738511 0 0.007492850118143623 0.01825640794450132 0 0.0081708067708072124 0.020236773732577696 0 0.0077280274197579933 0.019833343391116243 0 0.0080053673444520877 0.019299346075636731 0 0.0083727868063913531 0.020332365346398283 0 0.0077280274197579933 0.019833343391116243 0 0.0071932235864205522 0.020537112447804196 0 0.0083727868063913531 0.020332365346398283 0 0.0077280274197579933 0.019833343391116243 0 0.0080053673444520877 0.019299346075636731 0 0.0075031881972047569 0.019326045218862241 0 0.0075031881972047569 0.019326045218862241 0 0.0071082385989726304 0.019593028371643745 0 0.0067909072916768291 0.019398528099777278 0 0.0077280274197579933 0.019833343391116243 0 0.0075031881972047569 0.019326045218862241 0 0.0071082385989726304 0.019593028371643745 0 0.0046963581641541402 0.023102994910398918 0 0.0039197835679453119 0.025261058905108724 0 0.0071082385989726304 0.019593028371643745 0 0.0065272627393386309 0.019201614400157545 0 0.0071932235864205522 0.020537112447804196 0 0.0077280274197579933 0.019833343391116243 0 0.0071082385989726304 0.019593028371643745 0 0.0071932235864205522 0.020537112447804196 0 0.0048575647847601388 0.020832718916469706 0 0.0071932235864205522 0.020537112447804196 0 0.0067218968681212257 0.022128590209198804 0 0.0071932235864205522 0.020537112447804196 0 0.0067218968681212257 0.022128590209198804 0 0.0082096787877999206 0.02168423068936606 0 0.0082096787877999206 0.02168423068936606 0 0.0083727868063913531 0.020332365346398283 0 0.0099722602204788419 0.021214363184003937 0 0.0071932235864205522 0.020537112447804196 0 0.0082096787877999206 0.02168423068936606 0 0.0083727868063913531 0.020332365346398283 0 0.0083727868063913531 0.020332365346398283 0 0.0099722602204788419 0.021214363184003937 0 0.0099921084426366803 0.019394352719783212 0 0.011266747887780378 0.020603457505677748 0 0.010233670425658146 0.019454307333251035 0 0.0099722602204788419 0.021214363184003937 0 0.011835150747622902 0.021141658943904382 0 0.0099921084426366803 0.019394352719783212 0 0.010628364844937311 0.019817020775716353 0 0.010951239088657782 0.019377187797102804 0 0.0099921084426366803 0.019394352719783212 0 0.011150547686233152 0.019869742889983489 0 0.010628364844937311 0.019817020775716353 0 0.010951239088657782 0.019377187797102804 0 0.010951239088657782 0.019377187797102804 0 0.010441879448912809 0.018572895075068308 0 0.0099921084426366803 0.019394352719783212 0 0.010951239088657782 0.019377187797102804 0 0.010441879448912809 0.018572895075068308 0 0.011505066349228014 0.01841477718535257 0 0.0071198599955243714 0.018165907095406265 0 0.0088429899300761367 0.018748221304738511 0 0.0095534825106243521 0.017884966011217859 0 0.0083727868063913531 0.020332365346398283 0 0.0099921084426366803 0.019394352719783212 0 0.0088429899300761367 0.018748221304738511 0 0.010441879448912809 0.018572895075068308 0 0.0088429899300761367 0.018748221304738511 0 0.0095534825106243521 0.017884966011217859 0 0.010441879448912809 0.018572895075068308 0 0.0099921084426366803 0.019394352719783212 0 0.0088429899300761367 0.018748221304738511 0 0.0013680908864120529 0.022178001270079045 0 0.0041355819295163252 0.021890898667026495 0 0.0056609464821829507 0.020038687695343387 0 0.0071198599955243714 0.018165907095406265 0 0.0013680908864120529 0.022178001270079045 0 0.0056609464821829507 0.020038687695343387 0 0.0071198599955243714 0.018165907095406265 0 0.0095534825106243521 0.017884966011217859 0 0.0099989161391122131 0.016320640163258359 0 0.0069894793563634568 0.018307702561819364 0 0.0055701865663795652 0.019120110468938932 0 0.010441879448912809 0.018572895075068308 0 0.0095534825106243521 0.017884966011217859 0 0.010483494047886285 0.017386750411302096 0 0.0095534825106243521 0.017884966011217859 0 0.010483494047886285 0.017386750411302096 0 0.0099989161391122131 0.016320640163258359 0 0.010483494047886285 0.017386750411302096 0 0.010730178555704371 0.015688610621974571 0 0.011505066349228014 0.01841477718535257 0 0.0053398190059170672 0.017586562551342722 0 0.0076188986601843376 0.015239513846881891 0 0.0034790290710718539 0.014142763303295711 0 0.0039315323667423793 0.014358797728525332 0 0.0032737041854042524 0.013125004596060677 0 0.010441879448912809 0.018572895075068308 0 0.010483494047886285 0.017386750411302096 0 0.011505066349228014 0.01841477718535257 0 0.0037349456959220504 0.012933624547167552 0 0.0014982030897180436 0.018846119838692173 0 0.010483494047886285 0.017386750411302096 0 0.010730178555704371 0.015688610621974571 0 0.0099989161391122131 0.016320640163258359 0 0.0034790290710718539 0.014142763303295711 0 0.0039315323667423793 0.014358797728525332 0 0.0032490391239684406 0.015075780405050296 0 0.0053398190059170672 0.017586562551342722 0 0.0055701865663795652 0.019120110468938932 0 0.00089644159627665879 0.023168027517667191 0 0.0013680908864120529 0.022178001270079045 0 0.001232275322234456 0.02372955648040714 0 0.0013680908864120529 0.022178001270079045 0 0.0025424224653853144 0.023956013013547189 0 0.0041355819295163252 0.021890898667026495 0 0.0013680908864120529 0.022178001270079045 0 0.0025424224653853144 0.023956013013547189 0 0.001232275322234456 0.02372955648040714 0 0.0043131897937849261 0.024235935226504846 0 0.0013949135421368582 0.027718451261003647 0 0.0025424224653853144 0.023956013013547189 0 0.0023074679842968009 0.024262616384945566 0 0.0020630920453911356 0.024150611784700095 0 0.0025424224653853144 0.023956013013547189 0 0.0041355819295163252 0.021890898667026495 0 0.0071454632136624691 0.021334639937225536 0 0.003198688595907646 0.02343313810784424 0 0.0043131897937849261 0.024235935226504846 0 0.007492850118143623 0.01825640794450132 0 0.0043131897937849261 0.024235935226504846 0 0.0041355819295163252 0.021890898667026495 0 0.0056609464821829507 0.020038687695343387 0 0.0071454632136624691 0.021334639937225536 0 0.0072075898926165626 0.018126124384706867 0 0.0056609464821829507 0.020038687695343387 0 0.0071454632136624691 0.021334639937225536 0 0.0080053673444520877 0.019299346075636731 0 0.0075031881972047569 0.019326045218862241 0 0.0078060159351333496 0.018368203144751138 0 0.0072075898926165626 0.018126124384706867 0 0.0071198599955243714 0.018165907095406265 0 0.0056609464821829507 0.020038687695343387 0 0.0039197835679453119 0.025261058905108724 0 0.0043131897937849261 0.024235935226504846 0 0.0075031881972047569 0.019326045218862241 0 0.0067909072916768291 0.019398528099777278 0 0.0078060159351333496 0.018368203144751138 0 0.00094994004729843787 0.030872522998177384 0 0.0012915564551956896 0.030521572761480299 0 0.00088789885445304697 0.030412995273176546 0 0.0012915564551956896 0.030521572761480299 0 0.00088789885445304697 0.030412995273176546 0 0.0012827269651299118 0.030022216519701155 0 0.00068002510746121344 0.030071155624768725 0 0.00088789885445304697 0.030412995273176546 0 0.0012827269651299118 0.030022216519701155 0 0.00066884875740370496 0.029579897733114275 0 0.00068002510746121344 0.030071155624768725 0 0.0012827269651299118 0.030022216519701155 0 0.0025424224653853144 0.023956013013547189 0 0.0020630920453911356 0.024150611784700095 0 0.0016085123282644413 0.024477148323535917 0 0.0020630920453911356 0.024150611784700095 0 0.0016085123282644413 0.024477148323535917 0 0.0013405276220249723 0.024939587057629144 0 0.00066884875740370496 0.029579897733114275 0 0.0012827269651299118 0.030022216519701155 0 0.001353794113940518 0.028872710668656522 0 0.0013949135421368582 0.027718451261003647 0 0.0012858533018491223 0.026706568130232061 0 0.00018530854500751486 0.028773792890402442 0 0.001353794113940518 0.028872710668656522 0 3.6011355408204436e-06 0.025788971236541794 0 0.0016085123282644413 0.024477148323535917 0 0.0013405276220249723 0.024939587057629144 0 0.0013146297326786696 0.024832795205947181 0 0.0013405276220249723 0.024939587057629144 0 0.0013146297326786696 0.024832795205947181 0 0.0010673692554539643 0.025073333734990131 0 0.0013405276220249723 0.024939587057629144 0 0.0010673692554539643 0.025073333734990131 0 1.8369654597023814e-06 0.025443891568874041 0 2.3757051775535363e-05 0.023587931949833382 0 7.4095915501218567e-07 0.025437841533512622 0 -3.8182784823077646e-07 0.023919952873673676 0 0.0004463636439889194 0.024422493836263919 0 2.5350667752786062e-07 0.025438932202208293 0 0.0012858533018491223 0.026706568130232061 0 5.1085233450375341e-07 0.025785060801434483 0 0.0013405276220249723 0.024939587057629144 0 1.8369654597023814e-06 0.025443891568874041 0 -4.2317838645550497e-07 0.025779807152672061 0 -1.3134524579595511e-05 0.022788140035567249 0 -7.6885607763772208e-07 0.022399642451221419 0 -0.00016897638502228406 0.023176697630412798 0 -7.6885607763772208e-07 0.022399642451221419 0 -3.8182784823077646e-07 0.023919952873673676 0 -0.00016897638502228406 0.023176697630412798 0 2.3757051775535363e-05 0.023587931949833382 0 -3.8182784823077646e-07 0.023919952873673676 0 -0.00016897638502228406 0.023176697630412798 0 0.0004463636439889194 0.024422493836263919 0 0.0004641390102520958 0.024065157592098471 0 0.0016085123282644413 0.024477148323535917 0 0.0013146297326786696 0.024832795205947181 0 0.0011381014663590164 0.024822220488546796 0 2.3757051775535363e-05 0.023587931949833382 0 -0.00016897638502228406 0.023176697630412798 0 -0.00026543132041406079 0.023264623790320595 0 0.0013146297326786696 0.024832795205947181 0 0.0010673692554539643 0.025073333734990131 0 0.0011381014663590164 0.024822220488546796 0 -0.00026543132041406079 0.023264623790320595 0 0.00023735709611332891 0.023422971096223846 0 0.00053777412690448657 0.024013932110535787 0 -1.3134524579595511e-05 0.022788140035567249 0 -0.00016897638502228406 0.023176697630412798 0 -0.00026543132041406079 0.023264623790320595 0 -1.3134524579595511e-05 0.022788140035567249 0 -0.00026543132041406079 0.023264623790320595 0 0.00023735709611332891 0.023422971096223846 0 -1.3134524579595511e-05 0.022788140035567249 0 0.00023735709611332891 0.023422971096223846 0 0.00073320402979936338 0.023587821200381484 0 0.0004641390102520958 0.024065157592098471 0 0.00053050341863751451 0.024036580609253448 0 0.0011381014663590164 0.024822220488546796 0 0.00053777412690448657 0.024013932110535787 0 0.0011172144555900727 0.024346536871528171 0 0.00053777412690448657 0.024013932110535787 0 0.0011172144555900727 0.024346536871528171 0 0.0011922500033305933 0.024162650726360008 0 0.0016085123282644413 0.024477148323535917 0 0.0011172144555900727 0.024346536871528171 0 0.0011922500033305933 0.024162650726360008 0 0.0016085123282644413 0.024477148323535917 0 0.0011381014663590164 0.024822220488546796 0 0.0011172144555900727 0.024346536871528171 0 0.0025424224653853144 0.023956013013547189 0 0.0016085123282644413 0.024477148323535917 0 0.0011922500033305933 0.024162650726360008 0 0.0025424224653853144 0.023956013013547189 0 0.0011922500033305933 0.024162650726360008 0 0.001232275322234456 0.02372955648040714 0 0.00089644159627665879 0.023168027517667191 0 0.001232275322234456 0.02372955648040714 0 0.00051414483056131982 0.024054899192864843 0 0.00053777412690448657 0.024013932110535787 0 0.0011922500033305933 0.024162650726360008 0 0.00051414483056131982 0.024054899192864843 0 0.0011922500033305933 0.024162650726360008 0 0.001232275322234456 0.02372955648040714 0 0.00051414483056131982 0.024054899192864843 0 0.0053398190059170672 0.017586562551342722 0 0.0014982030897180436 0.018846119838692173 0 0.0033353548016535062 0.014931967334755637 0 0.0027909679755256755 0.01490233239941993 0 0.002848619770741489 0.014337816071314442 0 0.0033353548016535062 0.014931967334755637 0 0.0027909679755256755 0.01490233239941993 0 0.0027757534807101424 0.015511468450673731 0 0.0014982030897180436 0.018846119838692173 0 0.0016475496627128083 0.017282850722692606 0 0.0027909679755256755 0.01490233239941993 0 0.0021914913171995377 0.014834195790765481 0 0.002848619770741489 0.014337816071314442 0 0.0027909679755256755 0.01490233239941993 0 0.0021914913171995377 0.014834195790765481 0 0.0027757534807101424 0.015511468450673731 0 0.0021914913171995377 0.014834195790765481 0 0.0021632321214843913 0.01610341283464482 0 0.0027757534807101424 0.015511468450673731 0 0.0023755982733276886 0.014245980128281646 0 0.0025410974193164361 0.01530769803684376 0 0.0019492626772836107 0.014692639751263406 0 0.0024006209166045215 0.014178890076052173 0 0.0012100516816229993 0.017373680032419091 0 0.0012100516816229993 0.017373680032419091 0 0.0016475496627128083 0.017282850722692606 0 0.00053777412690448657 0.024013932110535787 0 0.00051414483056131982 0.024054899192864843 0 0.00073320402979936338 0.023587821200381484 0 0.0014982030897180436 0.018846119838692173 0 0.00033284407887605646 0.022314670428898821 0 0.00066832963115086188 0.018853675872231919 0 0.00022465511853385662 0.019266158135423424 0 0.00039692297402906342 0.019907813501135241 0 -0.00018883316324680004 0.019672172498567862 0 0.00022465511853385662 0.019266158135423424 0 0.00039692297402906342 0.019907813501135241 0 0.00023735709611332891 0.023422971096223846 0 0.00053777412690448657 0.024013932110535787 0 0.00073320402979936338 0.023587821200381484 0 -0.00018883316324680004 0.019672172498567862 0 0.00039692297402906342 0.019907813501135241 0 -0.00018447250526037765 0.020276717662073576 0 0.00017062473623892074 0.018949335109977931 0 0.00016108071506732086 0.019203052292522567 0 -6.8540565081616256e-05 0.019254967288326368 0 0.0012100516816229993 0.017373680032419091 0 1.9545038683057655e-06 0.020037201465836263 0 -0.00018447250526037765 0.020276717662073576 0 -2.0427102431336243e-07 0.02016930153962777 0 2.4284594820091616e-07 0.02087686142458749 0 0.00016108071506732086 0.019203052292522567 0 6.2594312633920235e-07 0.020164118876731158 0 -8.2487090620194357e-05 0.019404808276397154 0 1.9545038683057655e-06 0.020037201465836263 0 -7.1690678686986829e-09 0.020165222600358985 0 0.00039692297402906342 0.019907813501135241 0 -0.00018447250526037765 0.020276717662073576 0 2.4284594820091616e-07 0.02087686142458749 0 -1.3134524579595511e-05 0.022788140035567249 0 -7.6885607763772208e-07 0.022399642451221419 0 2.0159192035259951e-06 0.020883525147462553 0 0.00033284407887605646 0.022314670428898821 0 4.5318649736955899e-07 0.020879943273789846 0 -1.3134524579595511e-05 0.022788140035567249 0 0.00073320402979936338 0.023587821200381484 0 2.0159192035259951e-06 0.020883525147462553 0 9.2142395140744883e-08 0.017680584076119346 0 0.00077786590249713061 0.017715338957894247 0 2.661173237940289e-06 0.017674228606746171 0 0.0016934428272282638 0.016340063260251305 0 0.00070041162527935885 0.015644354066395218 0 5.4144698792943464e-07 0.017682110547092945 0 -5.6864586431355538e-07 0.018922807822949965 0 -6.8540565081616256e-05 0.019254967288326368 0 0.00016108071506732086 0.019203052292522567 0 -8.2487090620194357e-05 0.019404808276397154 0 -6.8540565081616256e-05 0.019254967288326368 0 6.2594312633920235e-07 0.020164118876731158 0 -5.6864586431355538e-07 0.018922807822949965 0 -8.2487090620194357e-05 0.019404808276397154 0 -5.6864586431355538e-07 0.018922807822949965 0 -8.2487090620194357e-05 0.019404808276397154 0 -6.8540565081616256e-05 0.019254967288326368 0 0.0025410974193164361 0.01530769803684376 0 0.0016934428272282638 0.016340063260251305 0 0.0017088188612598024 0.015352441904425806 0 0.0012100516816229993 0.017373680032419091 0 0.00077786590249713061 0.017715338957894247 0 0.0016934428272282638 0.016340063260251305 0 0.00070041162527935885 0.015644354066395218 0 0.0017088188612598024 0.015352441904425806 0 0.00070041162527935885 0.015644354066395218 0 0.0013199565777858163 0.014680817562561363 0 0.0017088188612598024 0.015352441904425806 0 0.0025410974193164361 0.01530769803684376 0 0.0017088188612598024 0.015352441904425806 0 0.0019492626772836107 0.014692639751263406 0 0.0013199565777858163 0.014680817562561363 0 0.0017088188612598024 0.015352441904425806 0 0.0019492626772836107 0.014692639751263406 0 0.0023755982733276886 0.014245980128281646 0 0.0019492626772836107 0.014692639751263406 0 0.0017110687187368726 0.013983055402074382 0 0.0013199565777858163 0.014680817562561363 0 0.0019492626772836107 0.014692639751263406 0 0.0017110687187368726 0.013983055402074382 0 0.0013199565777858163 0.014680817562561363 0 0.00097183690609891466 0.013990046500482337 0 0.0017110687187368726 0.013983055402074382 0 0.00097183690609891466 0.013990046500482337 0 0.0011508271954591 0.013520977986273481 0 0.0017110687187368726 0.013983055402074382 0 0.0011508271954591 0.013520977986273481 0 0.001749242728046512 0.013461722040019613 0 0.0017110687187368726 0.013983055402074382 0 0.0010697917814836166 0.013065190512146068 0 0.0011508271954591 0.013520977986273481 0 0.0016975743409952094 0.01294846014125952 0 0.0011508271954591 0.013520977986273481 0 0.001749242728046512 0.013461722040019613 0 0.0016975743409952094 0.01294846014125952 0 0.001749242728046512 0.013461722040019613 0 0.0023308160714349524 0.012983503188769594 0 0.0016975743409952094 0.01294846014125952 0 0.001749242728046512 0.013461722040019613 0 0.0017110687187368726 0.013983055402074382 0 0.0023194269064063938 0.01359744683891332 0 0.0023755982733276886 0.014245980128281646 0 0.0017110687187368726 0.013983055402074382 0 0.0023194269064063938 0.01359744683891332 0 0.0024006209166045215 0.014178890076052173 0 0.0022902769151820325 0.013817039033176062 0 0.0021914913171995377 0.014834195790765481 0 0.002848619770741489 0.014337816071314442 0 0.0023194269064063938 0.01359744683891332 0 0.0034790290710718539 0.014142763303295711 0 0.0033353548016535062 0.014931967334755637 0 0.002848619770741489 0.014337816071314442 0 0.002848619770741489 0.014337816071314442 0 0.0029364393850928702 0.013670095022572293 0 0.0023194269064063938 0.01359744683891332 0 0.0034790290710718539 0.014142763303295711 0 0.002848619770741489 0.014337816071314442 0 0.0029364393850928702 0.013670095022572293 0 0.0029364393850928702 0.013670095022572293 0 0.0023308160714349524 0.012983503188769594 0 0.0032737041854042524 0.013125004596060677 0 0.0034790290710718539 0.014142763303295711 0 0.0029364393850928702 0.013670095022572293 0 0.0032737041854042524 0.013125004596060677 0 0.001749242728046512 0.013461722040019613 0 0.0023194269064063938 0.01359744683891332 0 0.0023308160714349524 0.012983503188769594 0 0.0029364393850928702 0.013670095022572293 0 0.0023194269064063938 0.01359744683891332 0 0.0023308160714349524 0.012983503188769594 0 0.0076188986601843376 0.015239513846881891 0 0.0071018991722132177 0.016214615736406979 0 0.0023308160714349524 0.012983503188769594 0 0.0032737041854042524 0.013125004596060677 0 0.0027968473627848112 0.012286328983964473 0 0.010951239088657782 0.019377187797102804 0 0.011505066349228014 0.01841477718535257 0 0.011580072571612343 0.019833297150153771 0 0.011150547686233152 0.019869742889983489 0 0.010951239088657782 0.019377187797102804 0 0.011580072571612343 0.019833297150153771 0 0.0027968473627848112 0.012286328983964473 0 0.0022630226492722887 0.012434345552494726 0 0.0023178397500677093 0.012032496583904638 0 0.0023308160714349524 0.012983503188769594 0 0.0027968473627848112 0.012286328983964473 0 0.0022630226492722887 0.012434345552494726 0 0.0022630226492722887 0.012434345552494726 0 0.0018531791977518498 0.012557419678846195 0 0.0019717511048129611 0.012121214265916185 0 0.0023308160714349524 0.012983503188769594 0 0.0022630226492722887 0.012434345552494726 0 0.0018531791977518498 0.012557419678846195 0 0.0018531791977518498 0.012557419678846195 0 0.0014809347738910731 0.012239747332502564 0 0.0019717511048129611 0.012121214265916185 0 0.0010506327004249582 0.012580625038175738 0 0.0014809347738910731 0.012239747332502564 0 0.0014322039083436301 0.012673616312012784 0 0.0018531791977518498 0.012557419678846195 0 0.0014809347738910731 0.012239747332502564 0 0.0014322039083436301 0.012673616312012784 0 0.0018531791977518498 0.012557419678846195 0 0.0014322039083436301 0.012673616312012784 0 0.0016975743409952094 0.01294846014125952 0 0.0010697917814836166 0.013065190512146068 0 0.0014322039083436301 0.012673616312012784 0 0.0016975743409952094 0.01294846014125952 0 0.0023308160714349524 0.012983503188769594 0 0.0018531791977518498 0.012557419678846195 0 0.0016975743409952094 0.01294846014125952 0 0.0075938064415020405 0.015530358113210282 0 0.0045830788382792646 0.013025821391670392 0 0.0020845614305017197 0.011770695455907627 0 0.0017127522116457028 0.011784456768069104 0 0.001919025621392859 0.011370353504095022 0 0.0020845614305017197 0.011770695455907627 0 0.0024398582488691823 0.01158983217370234 0 0.001919025621392859 0.011370353504095022 0 0.0014122067345448972 0.01151140654435967 0 0.0017127522116457028 0.011784456768069104 0 0.001919025621392859 0.011370353504095022 0 0.0014122067345448972 0.01151140654435967 0 0.0013157442168148968 0.011885019138438074 0 0.0017127522116457028 0.011784456768069104 0 0.0013157442168148968 0.011885019138438074 0 0.0014809347738910731 0.012239747332502564 0 0.0017127522116457028 0.011784456768069104 0 0.0014809347738910731 0.012239747332502564 0 0.0017127522116457028 0.011784456768069104 0 0.0019717511048129611 0.012121214265916185 0 0.0020845614305017197 0.011770695455907627 0 0.0017127522116457028 0.011784456768069104 0 0.0019717511048129611 0.012121214265916185 0 0.0020845614305017197 0.011770695455907627 0 0.0019717511048129611 0.012121214265916185 0 0.0023178397500677093 0.012032496583904638 0 0.0022630226492722887 0.012434345552494726 0 0.0019717511048129611 0.012121214265916185 0 0.0023178397500677093 0.012032496583904638 0 0.0027968473627848112 0.012286328983964473 0 0.0023178397500677093 0.012032496583904638 0 0.0024398582488691823 0.01158983217370234 0 0.0071018991722132177 0.016214615736406979 0 0.0075938064415020405 0.015530358113210282 0 0.011580072571612343 0.019833297150153771 0 0.011424879506928061 0.020275449986642054 0 0.011639027506803474 0.020364685332616119 0 0.011150547686233152 0.019869742889983489 0 0.011580072571612343 0.019833297150153771 0 0.011424879506928061 0.020275449986642054 0 0.011150547686233152 0.019869742889983489 0 0.011424879506928061 0.020275449986642054 0 0.011022950478355553 0.02018248531466111 0 0.011777172686626151 0.018723929678310016 0 0.012451583458773272 0.020351138410324533 0 0.011312016862656791 0.016775042474848564 0 0.01156214383239567 0.015673624417916761 0 0.012632417264626298 0.017425558248661432 0 0.012718802921324929 0.019613426038398496 0 0.012451583458773272 0.020351138410324533 0 0.011312016862656791 0.016775042474848564 0 0.010911462990954949 0.016006320252789624 0 0.01156214383239567 0.015673624417916761 0 0.010911462990954949 0.016006320252789624 0 0.01156214383239567 0.015673624417916761 0 0.010622014051632765 0.015359617883621748 0 0.01371287067031552 0.024141291757610213 0 0.013632441656367678 0.023618948599486548 0 0.01413016020706275 0.023667552833745571 0 0.0020845614305017197 0.011770695455907627 0 0.0023178397500677093 0.012032496583904638 0 0.0024398582488691823 0.01158983217370234 0 0.011777172686626151 0.018723929678310016 0 0.0075938064415020405 0.015530358113210282 0 0.011312016862656791 0.016775042474848564 0 0.010911462990954949 0.016006320252789624 0 0.010116974127976571 0.016235792292106584 0 0.010911462990954949 0.016006320252789624 0 0.010116974127976571 0.016235792292106584 0 0.010622014051632765 0.015359617883621748 0 0.010622014051632765 0.015359617883621748 0 0.0095080398065101688 0.014605359722469782 0 0.010777145668989194 0.014536347477380085 0 0.010116974127976571 0.016235792292106584 0 0.010622014051632765 0.015359617883621748 0 0.0095080398065101688 0.014605359722469782 0 0.01371287067031552 0.024141291757610213 0 0.014038834619224132 0.016415244360670482 0 0.010777145668989194 0.014536347477380085 0 0.012718802921324929 0.019613426038398496 0 0.010861201629128094 0.015242061848282725 0 0.01371287067031552 0.024141291757610213 0 0.014964456968035736 0.023005938121232982 0 0.014038834619224132 0.016415244360670482 0 0.01156214383239567 0.015673624417916761 0 0.010622014051632765 0.015359617883621748 0 0.010777145668989194 0.014536347477380085 0 0.01371287067031552 0.024141291757610213 0 0.014964456968035736 0.023005938121232982 0 0.01413016020706275 0.023667552833745571 0 0.011878439055901821 0.012525269531585679 0 0.014678120026183319 0.011897500055116564 0 0.010349050535540961 0.010659165999363944 0 0.014038834619224132 0.016415244360670482 0 0.014678120026183319 0.011897500055116564 0 0.019185712615026076 0.014946915666290909 0 0.014038834619224132 0.016415244360670482 0 0.011878439055901821 0.012525269531585679 0 0.010777145668989194 0.014536347477380085 0 0.014038834619224132 0.016415244360670482 0 0.011878439055901821 0.012525269531585679 0 0.014678120026183319 0.011897500055116564 0 0.0095080398065101688 0.014605359722469782 0 0.0094257595432433242 0.01297644457510236 0 0.010777145668989194 0.014536347477380085 0 0.0094257595432433242 0.01297644457510236 0 0.010777145668989194 0.014536347477380085 0 0.010276110097561519 0.012693956318886509 0 0.011878439055901821 0.012525269531585679 0 0.010777145668989194 0.014536347477380085 0 0.010276110097561519 0.012693956318886509 0 0.011878439055901821 0.012525269531585679 0 0.010276110097561519 0.012693956318886509 0 0.010265281072305744 0.011302854629127515 0 0.010276110097561519 0.012693956318886509 0 0.0095904854668293262 0.011831907618495367 0 0.010265281072305744 0.011302854629127515 0 0.0094257595432433242 0.01297644457510236 0 0.010276110097561519 0.012693956318886509 0 0.0095904854668293262 0.011831907618495367 0 0.0095904854668293262 0.011831907618495367 0 0.010265281072305744 0.011302854629127515 0 0.0093322902044919321 0.01070279342563075 0 0.0094257595432433242 0.01297644457510236 0 0.0095904854668293262 0.011831907618495367 0 0.0084549363784630037 0.010859353830849992 0 0.0095904854668293262 0.011831907618495367 0 0.0084549363784630037 0.010859353830849992 0 0.0093322902044919321 0.01070279342563075 0 0.0084549363784630037 0.010859353830849992 0 0.0076861410368004434 0.012755755071073276 0 0.0065595368625448961 0.010616049156558107 0 0.0094257595432433242 0.01297644457510236 0 0.0084549363784630037 0.010859353830849992 0 0.0076861410368004434 0.012755755071073276 0 0.0095080398065101688 0.014605359722469782 0 0.0094257595432433242 0.01297644457510236 0 0.0076861410368004434 0.012755755071073276 0 0.010116974127976571 0.016235792292106584 0 0.0095080398065101688 0.014605359722469782 0 0.0078502339214557484 0.015146786653635556 0 0.0095080398065101688 0.014605359722469782 0 0.0076861410368004434 0.012755755071073276 0 0.0078502339214557484 0.015146786653635556 0 0.0033332805587856047 0.012232306789866181 0 0.0045830788382792646 0.013025821391670392 0 0.0049668089895789046 0.013285672179906808 0 0.0076861410368004434 0.012755755071073276 0 0.0078502339214557484 0.015146786653635556 0 0.0014122067345448972 0.01151140654435967 0 0.0015197039597121974 0.011199022593588837 0 0.001919025621392859 0.011370353504095022 0 0.0049668089895789046 0.013285672179906808 0 0.0043434241311734335 0.0088193346399170064 0 0.0065595368625448961 0.010616049156558107 0 0.0049668089895789046 0.013285672179906808 0 0.0076861410368004434 0.012755755071073276 0 0.0065595368625448961 0.010616049156558107 0 0.0047895487940931075 0.0054703275097312378 0 0.0043434241311734335 0.0088193346399170064 0 0.0073026907119362683 0.0080346689674469177 0 0.0043434241311734335 0.0088193346399170064 0 0.0065595368625448961 0.010616049156558107 0 0.0073026907119362683 0.0080346689674469177 0 0.0084549363784630037 0.010859353830849992 0 0.0073026907119362683 0.0080346689674469177 0 0.0093648638512902338 0.0093671362466282923 0 0.0073026907119362683 0.0080346689674469177 0 0.0093648638512902338 0.0093671362466282923 0 0.0088646513411755456 0.0076702187796429469 0 0.0084549363784630037 0.010859353830849992 0 0.0065595368625448961 0.010616049156558107 0 0.0073026907119362683 0.0080346689674469177 0 0.0084549363784630037 0.010859353830849992 0 0.0093648638512902338 0.0093671362466282923 0 0.0093322902044919321 0.01070279342563075 0 0.0073026907119362683 0.0080346689674469177 0 0.0088646513411755456 0.0076702187796429469 0 0.0084323613615513247 0.005881517850397951 0 0.0088646513411755456 0.0076702187796429469 0 0.0086920337300690435 0.005577847608822014 0 0.010644071469587927 0.009439494744080219 0 0.0088646513411755456 0.0076702187796429469 0 0.0084323613615513247 0.005881517850397951 0 0.0086920337300690435 0.005577847608822014 0 0.0047895487940931075 0.0054703275097312378 0 0.0073026907119362683 0.0080346689674469177 0 0.0068790043749049224 0.0019934417609800033 0 0.0073101849235208917 0.0078366725484863425 0 0.0068107904042113082 0.0033639635993226234 0 0.0073026907119362683 0.0080346689674469177 0 0.0067237939119456783 0.004943222719388061 0 0.0084323613615513247 0.005881517850397951 0 0.007987238254257437 0.0076376474389676409 0 0.006008015460636177 0.0052794280369386657 0 0.0067237939119456783 0.004943222719388061 0 0.0084323613615513247 0.005881517850397951 0 0.0086287980365073076 0.0056742666977154591 0 0.0067237939119456783 0.004943222719388061 0 0.0086287980365073076 0.0056742666977154591 0 0.0073857758210579688 0.0036767530427165903 0 0.0082087445482685404 0.0073182058299366415 0 0.007987238254257437 0.0076376474389676409 0 0.0058023032008287633 0.0081685888042947394 0 0.0046859034279262681 0.0064492338347098103 0 0.0076985570864822233 0.0061358881084398629 0 0.0046859034279262681 0.0064492338347098103 0 0.0076985570864822233 0.0061358881084398629 0 0.0059280758528272061 0.004550432706981581 0 0.0068107904042113082 0.0033639635993226234 0 0.0055882552045240109 0.00039248701687283712 0 0.0044191337518545174 2.8139809816811126e-05 0 0.0068790043749049224 0.0019934417609800033 0 0.0058681219738666414 -0.0023108038149145457 0 0.006008015460636177 0.0052794280369386657 0 0.0055882552045240109 0.00039248701687283712 0 0.0067237939119456783 0.004943222719388061 0 0.0073857758210579688 0.0036767530427165903 0 0.0060672072188552211 0.0016355672012480769 0 0.010613888942283229 0.0094592843286198536 0 0.010794154933248732 0.0095029597939484053 0 0.010578737278688001 0.0098975563939260238 0 0.010613888942283229 0.0094592843286198536 0 0.010794154933248732 0.0095029597939484053 0 0.010775445168254436 0.009320724568795782 0 0.010762597881850799 0.0092556543113055424 0 0.010775445168254436 0.009320724568795782 0 0.010778114257452965 0.0092053860580432537 0 0.010762597881850799 0.0092556543113055424 0 0.010794154933248732 0.0095029597939484053 0 0.010775445168254436 0.009320724568795782 0 0.007987238254257437 0.0076376474389676409 0 0.0093445494412020668 0.0074721957493095849 0 0.010613888942283229 0.0094592843286198536 0 0.010775445168254436 0.009320724568795782 0 0.010778114257452965 0.0092053860580432537 0 0.014960234222599376 0.015762724711324359 0 0.015573517301844376 0.014944217071496523 0 0.019431864144343933 0.022241275346295556 0 0.020144042478801822 0.020692699499364302 0 0.019051619331762602 0.021033099362467975 0 0.010762597881850799 0.0092556543113055424 0 0.010778114257452965 0.0092053860580432537 0 0.010644071469587927 0.009439494744080219 0 0.007987238254257437 0.0076376474389676409 0 0.011158093284103072 0.0093658824310264479 0 0.010778114257452965 0.0092053860580432537 0 0.010644071469587927 0.009439494744080219 0 0.010721322905932527 0.0098403884402214412 0 0.015573517301844376 0.014944217071496523 0 0.014832284483649861 0.01453597922260968 0 0.0093648638512902338 0.0093671362466282923 0 0.010644071469587927 0.009439494744080219 0 0.010224501596541657 0.0098245213462742603 0 0.0093648638512902338 0.0093671362466282923 0 0.0088646513411755456 0.0076702187796429469 0 0.010644071469587927 0.009439494744080219 0 0.011878439055901821 0.012525269531585679 0 0.010349050535540961 0.010659165999363944 0 0.010265281072305744 0.011302854629127515 0 0.011060267376973481 0.010100108351540231 0 0.010426329994609429 0.010315226275144029 0 0.010265281072305744 0.011302854629127515 0 0.014832284483649861 0.01453597922260968 0 0.01433125504211461 0.013534039866081602 0 0.014832284483649861 0.01453597922260968 0 0.014390910317377797 0.014469500580247147 0 0.010644071469587927 0.009439494744080219 0 0.010721322905932527 0.0098403884402214412 0 0.010224501596541657 0.0098245213462742603 0 0.010224501596541657 0.0098245213462742603 0 0.010426329994609429 0.010315226275144029 0 0.009803376313909375 0.010253255322765777 0 0.010721322905932527 0.0098403884402214412 0 0.010224501596541657 0.0098245213462742603 0 0.010426329994609429 0.010315226275144029 0 0.010426329994609429 0.010315226275144029 0 0.010265281072305744 0.011302854629127515 0 0.009803376313909375 0.010253255322765777 0 0.010265281072305744 0.011302854629127515 0 0.0093322902044919321 0.01070279342563075 0 0.009803376313909375 0.010253255322765777 0 0.0093648638512902338 0.0093671362466282923 0 0.0093322902044919321 0.01070279342563075 0 0.009803376313909375 0.010253255322765777 0 0.0093648638512902338 0.0093671362466282923 0 0.010224501596541657 0.0098245213462742603 0 0.009803376313909375 0.010253255322765777 0 0.020144042478801822 0.020692699499364302 0 0.020779946758247847 0.019143934533960377 0 0.019076963752742659 0.019890707770544514 0 0.014832284483649861 0.01453597922260968 0 0.019425220327909561 0.013141262829351557 0 0.014678120026183319 0.011897500055116564 0 0.010349050535540961 0.010659165999363944 0 0.017527040748287308 0.0083404030714940708 0 0.014678120026183319 0.011897500055116564 0 0.017527040748287308 0.0083404030714940708 0 0.019185712615026076 0.014946915666290909 0 0.017527040748287308 0.0083404030714940708 0 0.021569935756124786 0.010366455283718781 0 0.019185712615026076 0.014946915666290909 0 0.011751963509609551 0.030572321786065906 0 0.01015504030090225 0.033041715295898007 0 0.0092480886215355659 0.030936779333637109 0 0.016726931784395233 0.020450032604623216 0 0.016799769508391297 0.019707696127188451 0 0.017527040748287308 0.0083404030714940708 0 0.021569935756124786 0.010366455283718781 0 0.024281748222643663 0.0063142003590964096 0 0.019425220327909561 0.013141262829351557 0 0.016799769508391297 0.019707696127188451 0 0.020144042478801822 0.020692699499364302 0 0.019076963752742659 0.019890707770544514 0 0.019051619331762602 0.021033099362467975 0 0.019076963752742659 0.019890707770544514 0 0.019051619331762602 0.021033099362467975 0 0.017344262325138474 0.020618804545609899 0 0.019431864144343933 0.022241275346295556 0 0.019051619331762602 0.021033099362467975 0 0.018321577623593762 0.021756289763759665 0 0.019051619331762602 0.021033099362467975 0 0.018321577623593762 0.021756289763759665 0 0.017344262325138474 0.020618804545609899 0 0.018321577623593762 0.021756289763759665 0 0.017210060407971996 0.022173198451646236 0 0.017344262325138474 0.020618804545609899 0 0.018321577623593762 0.021756289763759665 0 0.017847113634222825 0.022395284382891834 0 0.017210060407971996 0.022173198451646236 0 0.017847113634222825 0.022395284382891834 0 0.017975826776645824 0.022980821047673364 0 0.018532159993867741 0.02256262781509533 0 0.018321577623593762 0.021756289763759665 0 0.017847113634222825 0.022395284382891834 0 0.018532159993867741 0.02256262781509533 0 0.017975826776645824 0.022980821047673364 0 0.018532159993867741 0.02256262781509533 0 0.018720968297969737 0.023592307281883322 0 0.017847113634222825 0.022395284382891834 0 0.017975826776645824 0.022980821047673364 0 0.01714143058245279 0.022518101416780775 0 0.018231657009987568 0.023385061429989168 0 0.016930902293050921 0.022312384989353132 0 0.019431864144343933 0.022241275346295556 0 0.018321577623593762 0.021756289763759665 0 0.018532159993867741 0.02256262781509533 0 0.019431864144343933 0.022241275346295556 0 0.018532159993867741 0.02256262781509533 0 0.018720968297969737 0.023592307281883322 0 0.014960234222599376 0.015762724711324359 0 0.01519563254634539 0.017313220099914289 0 0.016788028833526168 0.023167186258387432 0 0.013061884902526296 0.023440669331596952 0 0.016331581681792433 0.022927912043535122 0 0.014275114663534929 0.02200544972715986 0 0.012035464949174377 0.02358133938555743 0 0.017425934317889809 0.023600829767407638 0 0.015307454311074333 0.025011982744773915 0 0.013762725084066915 0.023878066228645013 0 0.016331581681792433 0.022927912043535122 0 0.016135104237737667 0.022587646447297525 0 0.014275114663534929 0.02200544972715986 0 0.016331581681792433 0.022927912043535122 0 0.016135104237737667 0.022587646447297525 0 0.016432341438331947 0.022651480153810494 0 0.016788028833526168 0.023167186258387432 0 0.016595435234833512 0.023731579405012519 0 0.017285479539856419 0.022727842963094314 0 0.017669888152352264 0.022610550970967709 0 0.017348858361479761 0.022510853268202496 0 0.017285479539856419 0.022727842963094314 0 0.017348858361479761 0.022510853268202496 0 0.01716129139827299 0.022583551554004603 0 0.017348858361479761 0.022510853268202496 0 0.01716129139827299 0.022583551554004603 0 0.017167435918511217 0.022500659174541884 0 0.01716129139827299 0.022583551554004603 0 0.017113094046430372 0.022578461436542865 0 0.017167435918511217 0.022500659174541884 0 0.017034455961981981 0.022543438697446176 0 0.017113094046430372 0.022578461436542865 0 0.01714143058245279 0.022518101416780775 0 0.017034455961981981 0.022543438697446176 0 0.017113094046430372 0.022578461436542865 0 0.017167435918511217 0.022500659174541884 0 0.017847113634222825 0.022395284382891834 0 0.01714143058245279 0.022518101416780775 0 0.017210060407971996 0.022173198451646236 0 0.017113094046430372 0.022578461436542865 0 0.01714143058245279 0.022518101416780775 0 0.016942513728563448 0.022654306754929372 0 0.01714143058245279 0.022518101416780775 0 0.016942513728563448 0.022654306754929372 0 0.017210060407971996 0.022173198451646236 0 0.016942513728563448 0.022654306754929372 0 0.016432341438331947 0.022651480153810494 0 0.017210060407971996 0.022173198451646236 0 0.016135104237737667 0.022587646447297525 0 0.016432341438331947 0.022651480153810494 0 0.017210060407971996 0.022173198451646236 0 0.017285479539856419 0.022727842963094314 0 0.01716129139827299 0.022583551554004603 0 0.016942513728563448 0.022654306754929372 0 0.01716129139827299 0.022583551554004603 0 0.017113094046430372 0.022578461436542865 0 0.016942513728563448 0.022654306754929372 0 0.016788028833526168 0.023167186258387432 0 0.016889069479412034 0.022981465912619254 0 0.016248977899399608 0.02279302382304231 0 0.016942513728563448 0.022654306754929372 0 0.016432341438331947 0.022651480153810494 0 0.016788028833526168 0.023167186258387432 0 0.016745316257818416 0.023160294919735525 0 0.016135104237737667 0.022587646447297525 0 0.017210060407971996 0.022173198451646236 0 0.017344262325138474 0.020618804545609899 0 0.016028154601042365 0.020781398176452193 0 0.014926816220457689 0.019970798484304025 0 0.018624275827317138 0.018659053664001068 0 0.016135104237737667 0.022587646447297525 0 0.016028154601042365 0.020781398176452193 0 0.018624275827317138 0.018659053664001068 0 0.016594702487388618 0.022344657058869122 0 0.016799769508391297 0.019707696127188451 0 0.016028154601042365 0.020781398176452193 0 0.014275114663534929 0.02200544972715986 0 0.014926816220457689 0.019970798484304025 0 0.016135104237737667 0.022587646447297525 0 0.016028154601042365 0.020781398176452193 0 0.014275114663534929 0.02200544972715986 0 0.0070648939690421252 0.034273488392467355 0 0.01015504030090225 0.033041715295898007 0 0.0066489251760880859 0.032115185747335601 0 0.010235006922218827 0.027928783390615192 0 0.016799769508391297 0.019707696127188451 0 0.01015504030090225 0.033041715295898007 0 0.0092480886215355659 0.030936779333637109 0 0.0066489251760880859 0.032115185747335601 0 0.011751963509609551 0.030572321786065906 0 0.0092480886215355659 0.030936779333637109 0 0.0099367655175622484 0.029099950724962097 0 0.0092480886215355659 0.030936779333637109 0 0.0078685810442263374 0.029836236409456374 0 0.0099367655175622484 0.029099950724962097 0 0.0066489251760880859 0.032115185747335601 0 0.0078685810442263374 0.029836236409456374 0 0.0049092427933326655 0.029931932801752013 0 0.0092480886215355659 0.030936779333637109 0 0.0066489251760880859 0.032115185747335601 0 0.0078685810442263374 0.029836236409456374 0 0.0078685810442263374 0.029836236409456374 0 0.0075467846271800899 0.027558641353668142 0 0.0049092427933326655 0.029931932801752013 0 0.0078644591062030193 0.025494670394751704 0 0.0048415939901339609 0.0275908387949346 0 0.0075467846271800899 0.027558641353668142 0 0.0080334114508858762 0.025273223274558599 0 0.0046713492521165108 0.027095815202718861 0 0.0075467846271800899 0.027558641353668142 0 0.010213242534577312 0.026670513907740459 0 0.0080334114508858762 0.025273223274558599 0 0.010213242534577312 0.026670513907740459 0 0.010762377336531211 0.024616976367997173 0 0.0080334114508858762 0.025273223274558599 0 0.0078685810442263374 0.029836236409456374 0 0.0075467846271800899 0.027558641353668142 0 0.0099367655175622484 0.029099950724962097 0 0.0075467846271800899 0.027558641353668142 0 0.0099367655175622484 0.029099950724962097 0 0.010213242534577312 0.026670513907740459 0 0.011751963509609551 0.030572321786065906 0 0.0099367655175622484 0.029099950724962097 0 0.013329477438497913 0.027758034865014068 0 0.0099367655175622484 0.029099950724962097 0 0.013329477438497913 0.027758034865014068 0 0.010213242534577312 0.026670513907740459 0 0.016726931784395233 0.020450032604623216 0 0.016114535651160271 0.021484999467758448 0 0.014964456968035736 0.023005938121232982 0 0.014038834619224132 0.016415244360670482 0 0.019185712615026076 0.014946915666290909 0 0.014964456968035736 0.023005938121232982 0 0.013329477438497913 0.027758034865014068 0 0.012297203724393095 0.025211575247990784 0 0.014964456968035736 0.023005938121232982 0 0.012297203724393095 0.025211575247990784 0 0.013519502639824597 0.02387314732522209 0 0.015037024792091038 0.022983813682495521 0 0.016114535651160271 0.021484999467758448 0 0.014964456968035736 0.023005938121232982 0 0.01413016020706275 0.023667552833745571 0 0.013519502639824597 0.02387314732522209 0 0.013329477438497913 0.027758034865014068 0 0.010213242534577312 0.026670513907740459 0 0.012297203724393095 0.025211575247990784 0 0.010213242534577312 0.026670513907740459 0 0.012297203724393095 0.025211575247990784 0 0.010762377336531211 0.024616976367997173 0 0.010762377336531211 0.024616976367997173 0 0.011579122431456534 0.023547224487651973 0 0.010044354846482166 0.022936542537759487 0 0.010762377336531211 0.024616976367997173 0 0.011579122431456534 0.023547224487651973 0 0.01231972392384683 0.024098780343434541 0 0.012297203724393095 0.025211575247990784 0 0.010762377336531211 0.024616976367997173 0 0.01231972392384683 0.024098780343434541 0 0.011579122431456534 0.023547224487651973 0 0.01231972392384683 0.024098780343434541 0 0.012548824561901569 0.023425588939800675 0 0.01371287067031552 0.024141291757610213 0 0.013416844098638836 0.023304707838019925 0 0.013389786959446062 0.022812104215765901 0 0.01371287067031552 0.024141291757610213 0 0.013632441656367678 0.023618948599486548 0 0.013416844098638836 0.023304707838019925 0 0.013632441656367678 0.023618948599486548 0 0.01413016020706275 0.023667552833745571 0 0.013519502639824597 0.02387314732522209 0 0.013632441656367678 0.023618948599486548 0 0.013519502639824597 0.02387314732522209 0 0.013138160171700115 0.023675039913239382 0 0.012297203724393095 0.025211575247990784 0 0.013519502639824597 0.02387314732522209 0 0.01231972392384683 0.024098780343434541 0 0.013519502639824597 0.02387314732522209 0 0.01231972392384683 0.024098780343434541 0 0.013138160171700115 0.023675039913239382 0 0.01231972392384683 0.024098780343434541 0 0.012548824561901569 0.023425588939800675 0 0.013138160171700115 0.023675039913239382 0 0.012548824561901569 0.023425588939800675 0 0.013416844098638836 0.023304707838019925 0 0.012953175920644235 0.023029803675926438 0 0.012548824561901569 0.023425588939800675 0 0.013138160171700115 0.023675039913239382 0 0.013416844098638836 0.023304707838019925 0 0.013632441656367678 0.023618948599486548 0 0.013138160171700115 0.023675039913239382 0 0.013416844098638836 0.023304707838019925 0 0.013416844098638836 0.023304707838019925 0 0.013389786959446062 0.022812104215765901 0 0.012953175920644235 0.023029803675926438 0 0.013389786959446062 0.022812104215765901 0 0.012893591209554817 0.022591834656759915 0 0.012953175920644235 0.023029803675926438 0 0.012451583458773272 0.020351138410324533 0 0.012816607991417863 0.020718396278487476 0 0.012548824561901569 0.023425588939800675 0 0.012953175920644235 0.023029803675926438 0 0.011719651793888803 0.022579244173165428 0 0.012893591209554817 0.022591834656759915 0 0.012953175920644235 0.023029803675926438 0 0.011719651793888803 0.022579244173165428 0 0.011266747887780378 0.020603457505677748 0 0.012451583458773272 0.020351138410324533 0 0.011835150747622902 0.021141658943904382 0 0.013303408156279957 0.022727740415724444 0 0.012893591209554817 0.022591834656759915 0 0.011835150747622902 0.021141658943904382 0 0.012893591209554817 0.022591834656759915 0 0.011719651793888803 0.022579244173165428 0 0.011150547686233152 0.019869742889983489 0 0.010628364844937311 0.019817020775716353 0 0.011022950478355553 0.02018248531466111 0 0.011579122431456534 0.023547224487651973 0 0.012548824561901569 0.023425588939800675 0 0.011719651793888803 0.022579244173165428 0 0.011579122431456534 0.023547224487651973 0 0.010044354846482166 0.022936542537759487 0 0.011719651793888803 0.022579244173165428 0 0.0099722602204788419 0.021214363184003937 0 0.011835150747622902 0.021141658943904382 0 0.011719651793888803 0.022579244173165428 0 0.0099722602204788419 0.021214363184003937 0 0.010044354846482166 0.022936542537759487 0 0.011719651793888803 0.022579244173165428 0 0.0082096787877999206 0.02168423068936606 0 0.0099722602204788419 0.021214363184003937 0 0.010044354846482166 0.022936542537759487 0 0.0082096787877999206 0.02168423068936606 0 0.010044354846482166 0.022936542537759487 0 0.0076593283232572621 0.023234839265959262 0 0.0067218968681212257 0.022128590209198804 0 0.0082096787877999206 0.02168423068936606 0 0.0076593283232572621 0.023234839265959262 0 0.0067218968681212257 0.022128590209198804 0 0.0076593283232572621 0.023234839265959262 0 0.0053216877242132608 0.024266468488343511 0 0.0076593283232572621 0.023234839265959262 0 0.0080334114508858762 0.025273223274558599 0 0.0053216877242132608 0.024266468488343511 0 0.010762377336531211 0.024616976367997173 0 0.010044354846482166 0.022936542537759487 0 0.0080334114508858762 0.025273223274558599 0 0.010044354846482166 0.022936542537759487 0 0.0076593283232572621 0.023234839265959262 0 0.0080334114508858762 0.025273223274558599 0 0.0027278718234705584 0.025258551056002772 0 0.0053216877242132608 0.024266468488343511 0 0.0030929483577774434 0.027468212981178689 0 0.0027278718234705584 0.025258551056002772 0 0.0014354988778141847 0.02715098237498282 0 0.0030929483577774434 0.027468212981178689 0 0.0080334114508858762 0.025273223274558599 0 0.0053216877242132608 0.024266468488343511 0 0.0050186446101283585 0.028121596883190478 0 0.0053216877242132608 0.024266468488343511 0 0.0030929483577774434 0.027468212981178689 0 0.0050186446101283585 0.028121596883190478 0 0.0048575647847601388 0.020832718916469706 0 0.0067218968681212257 0.022128590209198804 0 0.0053216877242132608 0.024266468488343511 0 0.0048575647847601388 0.020832718916469706 0 0.0053216877242132608 0.024266468488343511 0 0.0029037566157789235 0.023097679154549414 0 0.0027278718234705584 0.025258551056002772 0 0.0053216877242132608 0.024266468488343511 0 0.0029037566157789235 0.023097679154549414 0 0.0027278718234705584 0.025258551056002772 0 0.0029037566157789235 0.023097679154549414 0 0.00071819461901280457 0.025857842281047799 0 0.0017851924531289089 0.029955476472238906 0 0.001543817318417262 0.029983934630118017 0 0.0014593464451808558 0.030315778305819718 0 0.0016525173334426618 0.02977550594155054 0 0.0017851924531289089 0.029955476472238906 0 0.001543817318417262 0.029983934630118017 0 0.002508156506262686 0.026287932994290761 0 0.00052321571310756166 0.029741058474712308 0 0.0014347348329536999 0.029730785051122942 0 0.001543817318417262 0.029983934630118017 0 0.0013278308747138956 0.030038240657069771 0 0.0018390499767747526 0.030620951457849061 0 1.1839274029068015e-05 0.032286091875902118 0 1.1839274029068015e-05 0.032286091875902118 0 0.00052321571310756166 0.029741058474712308 0 0.001543817318417262 0.029983934630118017 0 0.001303768692257612 0.030033841916635214 0 0.0014593464451808558 0.030315778305819718 0 -0.0020887663166339319 0.034883295400560239 0 -0.0020417969099852098 0.034567315070602178 0 -0.0023637395722124472 0.03442436678961875 0 -0.0020887663166339319 0.034883295400560239 0 -0.0020417969099852098 0.034567315070602178 0 -0.0015423806608270295 0.034784598020483171 0 1.1839274029068015e-05 0.032286091875902118 0 -0.00093418505868164117 0.034749885318069607 0 -0.00024511647051326786 0.034283762411696297 0 -0.0004554864887056196 0.03412344718182353 0 -0.00019838561853027212 0.034081495176540445 0 -0.0017905461230333665 0.034340514945184947 0 -0.00093418505868164117 0.034749885318069607 0 -0.0020417969099852098 0.034567315070602178 0 -0.0018365460823254749 0.03431822722929604 0 -0.0015423806608270295 0.034784598020483171 0 -0.0020417969099852098 0.034567315070602178 0 -0.0018365460823254749 0.03431822722929604 0 -0.0023637395722124472 0.03442436678961875 0 0.00052321571310756166 0.029741058474712308 0 -0.0013021421915897506 0.031559482278749613 0 -0.0018365460823254749 0.03431822722929604 0 -0.0023637395722124472 0.03442436678961875 0 -0.0019724919169084873 0.033793021246265237 0 -0.0018365460823254749 0.03431822722929604 0 -0.0019724919169084873 0.033793021246265237 0 -0.0014470728417359149 0.034044109543639324 0 -0.0018365460823254749 0.03431822722929604 0 -0.0014470728417359149 0.034044109543639324 0 -0.0011761937273232995 0.034483683028325204 0 0.00095307822897884413 0.026253134516005843 0 0.0014354988778141847 0.02715098237498282 0 -0.00052352743076274804 0.029075385898129528 0 0.0027278718234705584 0.025258551056002772 0 0.00071819461901280457 0.025857842281047799 0 0.0014354988778141847 0.02715098237498282 0 0.00052321571310756166 0.029741058474712308 0 0.00029526669973845585 0.027506810903365483 0 0.0014354988778141847 0.02715098237498282 0 0.00038570319348249591 0.030076680278785101 0 -0.00052352743076274804 0.029075385898129528 0 0.00038570319348249591 0.030076680278785101 0 0.0015717296521009321 0.030788214010258354 0 0.0030929483577774434 0.027468212981178689 0 0.0014354988778141847 0.02715098237498282 0 0.00038570319348249591 0.030076680278785101 0 0.0030929483577774434 0.027468212981178689 0 0.00038570319348249591 0.030076680278785101 0 -0.00052352743076274804 0.029075385898129528 0 -0.0010623144198542644 0.032351673611623576 0 -0.0019724919169084873 0.033793021246265237 0 -0.001089567321523733 0.033549839675815998 0 -0.0014470728417359149 0.034044109543639324 0 -0.0013021421915897506 0.031559482278749613 0 -0.0010326380097305311 0.032005998137192397 0 0.00038570319348249591 0.030076680278785101 0 -0.00072110441093590301 0.032437834702407471 0 -0.0010623144198542644 0.032351673611623576 0 0.0015334724420750757 0.030149907322744144 0 -0.00061267585528200399 0.032163107937107999 0 0.0014278855610433175 0.029422586494083448 0 0.00047257949907828417 0.031939521833778989 0 -0.00072110441093590301 0.032437834702407471 0 0.00038570319348249591 0.030076680278785101 0 0.0015717296521009321 0.030788214010258354 0 -0.00072110441093590301 0.032437834702407471 0 0.0014278855610433175 0.029422586494083448 0 0.0022278370076881295 0.031407844425546082 0 0.00047257949907828417 0.031939521833778989 0 0.0014278855610433175 0.029422586494083448 0 0.0046713492521165108 0.027095815202718861 0 0.0049092427933326655 0.029931932801752013 0 0.0014278855610433175 0.029422586494083448 0 0.0049092427933326655 0.029931932801752013 0 0.0022278370076881295 0.031407844425546082 0 0.0015334724420750757 0.030149907322744144 0 0.0048415939901339609 0.0275908387949346 0 0.0015717296521009321 0.030788214010258354 0 0.0030929483577774434 0.027468212981178689 0 0.0050186446101283585 0.028121596883190478 0 0.0075467846271800899 0.027558641353668142 0 0.0046713492521165108 0.027095815202718861 0 0.0049092427933326655 0.029931932801752013 0 0.0066489251760880859 0.032115185747335601 0 0.0049092427933326655 0.029931932801752013 0 0.004225513225249557 0.032072945318529542 0 0.0049092427933326655 0.029931932801752013 0 0.004225513225249557 0.032072945318529542 0 0.0022278370076881295 0.031407844425546082 0 0.004225513225249557 0.032072945318529542 0 0.0022278370076881295 0.031407844425546082 0 0.0023466614721472023 0.033467993767824215 0 0.004225513225249557 0.032072945318529542 0 0.0023466614721472023 0.033467993767824215 0 0.004099600361707899 0.035390626131251102 0 0.0066489251760880859 0.032115185747335601 0 0.004225513225249557 0.032072945318529542 0 0.004099600361707899 0.035390626131251102 0 0.0070648939690421252 0.034273488392467355 0 0.0066489251760880859 0.032115185747335601 0 0.004099600361707899 0.035390626131251102 0 0.014275114663534929 0.02200544972715986 0 0.01067859842045683 0.021463512367601634 0 0.012035464949174377 0.02358133938555743 0 0.010235006922218827 0.027928783390615192 0 0.0077000868250195302 0.028192739559111432 0 0.014275114663534929 0.02200544972715986 0 0.014926816220457689 0.019970798484304025 0 0.01067859842045683 0.021463512367601634 0 0.004099600361707899 0.035390626131251102 0 0.0012878751147484763 0.036349952937071224 0 0.0020844478907346875 0.035076799336481251 0 0.0077000868250195302 0.028192739559111432 0 0.0030406264227855993 0.030653289392488355 0 0.0023466614721472023 0.033467993767824215 0 0.004099600361707899 0.035390626131251102 0 0.0020844478907346875 0.035076799336481251 0 0.01067859842045683 0.021463512367601634 0 0.0073761226934456071 0.024079704652079956 0 0.005889543733453035 0.023305073446814459 0 0.0080067425645095405 0.027168377937829339 0 0.015413232335501858 0.024783573703323993 0 0.013762725084066915 0.023878066228645013 0 0.010061640937242303 0.02417081144407281 0 0.01318445457094408 0.026432168756289922 0 0.01067859842045683 0.021463512367601634 0 0.012035464949174377 0.02358133938555743 0 0.0073761226934456071 0.024079704652079956 0 0.013061884902526296 0.023440669331596952 0 0.0080067425645095405 0.027168377937829339 0 0.015307454311074333 0.025011982744773915 0 0.013762725084066915 0.023878066228645013 0 0.01318445457094408 0.026432168756289922 0 0.00057098693468017397 0.034069729626507221 0 0.0038361777240098474 0.031008695982578216 0 0.0016138768104955051 0.033659310657392354 0 0.0020044016922456023 0.033853503379402433 0 0.0025084311081649698 0.033521492952298233 0 0.00051634283700825018 0.034053660932912157 0 0.00051266947103909423 0.034058602713871296 0 0.00053004701705155035 0.034040394720030655 0 0.00051634283700825018 0.034053660932912157 0 0.00051414083284475373 0.034103705114978899 0 0.00046924935194011722 0.034073192556602669 0 0.00051414083284475373 0.034103705114978899 0 0.00051266947103909423 0.034058602713871296 0 0.0005663097614426434 0.034163699883230467 0 0.00051634283700825018 0.034053660932912157 0 0.00051414083284475373 0.034103705114978899 0 0.00051266947103909423 0.034058602713871296 0 0.0020044016922456023 0.033853503379402433 0 0.0025084311081649698 0.033521492952298233 0 0.0021603973400992375 0.034134606487379926 0 0.0080067425645095405 0.027168377937829339 0 0.0038361777240098474 0.031008695982578216 0 0.0080067425645095405 0.027168377937829339 0 0.0030406264227855993 0.030653289392488355 0 0.0058835308683471421 0.029415096923075753 0 0.0047967813282467292 0.029501826586477948 0 0.0047010842518217296 0.028786079580729904 0 0.00051634283700825018 0.034053660932912157 0 0.00046923836884577729 0.034063886912109959 0 0.00046924935194011722 0.034073192556602669 0 0.00051634283700825018 0.034053660932912157 0 0.00053004701705155035 0.034040394720030655 0 0.00053397865146404227 0.034028737685501187 0 -0.00024153260689825664 0.033526638341487058 0 0.0030406264227855993 0.030653289392488355 0 0.0038361777240098474 0.031008695982578216 0 0.0030406264227855993 0.030653289392488355 0 0.0030406264227855993 0.030653289392488355 0 0.0022426564555088125 0.033004583171806406 0 0.0022426564555088125 0.033004583171806406 0 0.00092326208172760938 0.034294225611039592 0 0.0012661098105069565 0.036171700463903451 0 0.0020844478907346875 0.035076799336481251 0 0.0010183989340187484 0.034341714288904708 0 0.0012878751147484763 0.036349952937071224 0 0.0012661098105069565 0.036171700463903451 0 0.0020844478907346875 0.035076799336481251 0 0.0023466614721472023 0.033467993767824215 0 0.0020844478907346875 0.035076799336481251 0 0.0010183989340187484 0.034341714288904708 0 0.0022426564555088125 0.033004583171806406 0 1.4314493883776993e-05 0.034000535644350745 0 0.00080992276650252164 0.034449528280303537 0 0.00068863555025173127 0.033603924711179955 0 -0.00016314631902371532 0.033702352426283139 0 0.00051414083284475373 0.034103705114978899 0 0.00046924935194011722 0.034073192556602669 0 0.00051297846675104231 0.034188314355519382 0 0.00051414083284475373 0.034103705114978899 0 0.00051297846675104231 0.034188314355519382 0 0.0005663097614426434 0.034163699883230467 0 -0.00016314631902371532 0.033702352426283139 0 0.00019868578881659379 0.033247888231362918 0 -0.00037632964127496689 0.03291851012158372 0 0.00068863555025173127 0.033603924711179955 0 -0.00016314631902371532 0.033702352426283139 0 0.00019868578881659379 0.033247888231362918 0 0.00019868578881659379 0.033247888231362918 0 -0.00037632964127496689 0.03291851012158372 0 0.00070471407587671545 0.03268317835145243 0 0.00068863555025173127 0.033603924711179955 0 0.00019868578881659379 0.033247888231362918 0 0.00070471407587671545 0.03268317835145243 0 0.00092326208172760938 0.034294225611039592 0 0.00070264338689640833 0.032712015137671739 0 0.0023466614721472023 0.033467993767824215 0 0.0010183989340187484 0.034341714288904708 0 0.00070471407587671545 0.03268317835145243 0 0.0022278370076881295 0.031407844425546082 0 0.0023466614721472023 0.033467993767824215 0 0.00070471407587671545 0.03268317835145243 0 0.0022278370076881295 0.031407844425546082 0 0.00070471407587671545 0.03268317835145243 0 0.00047257949907828417 0.031939521833778989 0 -0.00037632964127496689 0.03291851012158372 0 0.00070471407587671545 0.03268317835145243 0 0.00047257949907828417 0.031939521833778989 0 -0.00037632964127496689 0.03291851012158372 0 0.00047257949907828417 0.031939521833778989 0 -0.00072110441093590301 0.032437834702407471 0 -0.00066513341878209 0.032870393134000475 0 -0.00059836428315839961 0.033175371873556021 0 -0.00071662342856077411 0.033017933531720479 0 -0.00037632964127496689 0.03291851012158372 0 -0.00072110441093590301 0.032437834702407471 0 -0.00066513341878209 0.032870393134000475 0 -0.00072110441093590301 0.032437834702407471 0 -0.00066513341878209 0.032870393134000475 0 -0.00059836428315839961 0.033175371873556021 0 -0.00059836428315839961 0.033175371873556021 0 -0.00071662342856077411 0.033017933531720479 0 -6.1884290496704253e-05 0.033838713931773609 0 -4.266934169534889e-05 0.03369363029165167 0 -7.627787079061041e-05 0.033782445010666913 0 -0.00059836428315839961 0.033175371873556021 0 -6.1884290496704253e-05 0.033838713931773609 0 -0.00022231691007052888 0.033780915778737174 0 0.0002861339842566078 0.034406357372683737 0 0.00058147016871597723 0.034284623678839631 0 -6.1884290496704253e-05 0.033838713931773609 0 0.0002861339842566078 0.034406357372683737 0 0.00058147016871597723 0.034284623678839631 0 0.0005394795971010659 0.034240620408323812 0 1.4314493883776993e-05 0.034000535644350745 0 -4.266934169534889e-05 0.03369363029165167 0 0.00051297846675104231 0.034188314355519382 0 0.00058147016871597723 0.034284623678839631 0 0.00055842658520059197 0.034221504860244077 0 -0.00016314631902371532 0.033702352426283139 0 -0.00037632964127496689 0.03291851012158372 0 -0.00071662342856077411 0.033017933531720479 0 -0.00037632964127496689 0.03291851012158372 0 -0.00066513341878209 0.032870393134000475 0 -0.00071662342856077411 0.033017933531720479 0 0.00058147016871597723 0.034284623678839631 0 0.00055842658520059197 0.034221504860244077 0 0.0005394795971010659 0.034240620408323812 0 0.00051297846675104231 0.034188314355519382 0 0.0005663097614426434 0.034163699883230467 0 0.00055842658520059197 0.034221504860244077 0 0.0005663097614426434 0.034163699883230467 0 0.0005394795971010659 0.034240620408323812 0 0.00063909338670710544 0.034109767491322579 0 0.0005663097614426434 0.034163699883230467 0 0.00055842658520059197 0.034221504860244077 0 0.0005394795971010659 0.034240620408323812 0 0.0002861339842566078 0.034406357372683737 0 0.0005394795971010659 0.034240620408323812 0 0.00070761752043918503 0.034029927732066492 0 0.0002861339842566078 0.034406357372683737 0 0.00029768831736791087 0.034952728686720134 0 0.00012940158387884728 0.03479946936628224 0 0.00036285961800875684 0.034230805780075396 0 0.00027921414705213215 0.034842888636909826 0 0.0005394795971010659 0.034240620408323812 0 0.00070761752043918503 0.034029927732066492 0 0.00063909338670710544 0.034109767491322579 0 0.00070761752043918503 0.034029927732066492 0 0.00077582204613338304 0.034034271186985668 0 0.00077878423801312551 0.034322841415956387 0 0.00027921414705213215 0.034842888636909826 0 0.0024444703878512401 0.0330446870838517 0 0.00070761752043918503 0.034029927732066492 0 0.00077582204613338304 0.034034271186985668 0 0.00063909338670710544 0.034109767491322579 0 0.00029768831736791087 0.034952728686720134 0 0.00017806997538743368 0.034996608771273967 0 0.0003118405125754366 0.035128074971505795 0 0.00057098693468017397 0.034069729626507221 0 0.0010141858218677688 0.033956703057335579 0 0.0016138768104955051 0.033659310657392354 0 0.00077582204613338304 0.034034271186985668 0 0.0012039327771021246 0.034169603803121971 0 0.00051266947103909423 0.034058602713871296 0 0.00077582204613338304 0.034034271186985668 0 0.00063909338670710544 0.034109767491322579 0 0.00051266947103909423 0.034058602713871296 0 0.0005663097614426434 0.034163699883230467 0 0.00063909338670710544 0.034109767491322579 0 -5.8194042767434262e-08 0.034999797752079398 0 3.2704353301286458e-05 0.034936639291251514 0 9.6822287604713418e-08 0.034999997915785057 0 8.7448081960571665e-05 0.035013556192676869 0 3.2704353301286458e-05 0.034936639291251514 0 9.6822287604713418e-08 0.034999997915785057 0 0.00029768831736791087 0.034952728686720134 0 0.00017806997538743368 0.034996608771273967 0 0.00012940158387884728 0.03479946936628224 0 0.00017806997538743368 0.034996608771273967 0 0.00012940158387884728 0.03479946936628224 0 3.2704353301286458e-05 0.034936639291251514 0 8.7448081960571665e-05 0.035013556192676869 0 0.00017806997538743368 0.034996608771273967 0 3.2704353301286458e-05 0.034936639291251514 0 8.7448081960571665e-05 0.035013556192676869 0 0.00017806997538743368 0.034996608771273967 0 0.00017878516388112689 0.035071468628739798 0 0.00012940158387884728 0.03479946936628224 0 3.2704353301286458e-05 0.034936639291251514 0 -3.8569512159251224e-05 0.034673714585933768 0 -5.8194042767434262e-08 0.034999797752079398 0 3.2704353301286458e-05 0.034936639291251514 0 -3.8569512159251224e-05 0.034673714585933768 0 -5.8194042767434262e-08 0.034999797752079398 0 -3.8569512159251224e-05 0.034673714585933768 0 -1.5648239115126076e-07 0.034999066891509008 0 0.0002861339842566078 0.034406357372683737 0 0.00012940158387884728 0.03479946936628224 0 -3.8569512159251224e-05 0.034673714585933768 0 0.0002861339842566078 0.034406357372683737 0 -3.8569512159251224e-05 0.034673714585933768 0 -6.1884290496704253e-05 0.033838713931773609 0 -3.8569512159251224e-05 0.034673714585933768 0 -6.1884290496704253e-05 0.033838713931773609 0 -4.1549960487565592e-05 0.034445921322234091 0 -6.1884290496704253e-05 0.033838713931773609 0 -4.1549960487565592e-05 0.034445921322234091 0 -4.2145516977519927e-05 0.034395791744239804 0 -3.8569512159251224e-05 0.034673714585933768 0 -4.1549960487565592e-05 0.034445921322234091 0 -1.5648239115126076e-07 0.034999066891509008 0 -4.1549960487565592e-05 0.034445921322234091 0 -1.5648239115126076e-07 0.034999066891509008 0 -4.2145516977519927e-05 0.034395791744239804 0 -1.5648239115126076e-07 0.034999066891509008 0 5.597592024210642e-08 0.034999157340497841 0 -4.2145516977519927e-05 0.034395791744239804 0 5.597592024210642e-08 0.034999157340497841 0 -9.1119273379308252e-07 0.034628059817942439 0 1.0258700995148082e-07 0.034999548457808914 0 5.597592024210642e-08 0.034999157340497841 0 -9.1119273379308252e-07 0.034628059817942439 0 -4.2145516977519927e-05 0.034395791744239804 0 -9.1119273379308252e-07 0.034628059817942439 0 -0.0001526584577703077 0.034090099921163027 0 -4.2145516977519927e-05 0.034395791744239804 0 -9.1119273379308252e-07 0.034628059817942439 0 -0.0001526584577703077 0.034090099921163027 0 -0.00023182815863966681 0.034329492406560802 0 -6.1884290496704253e-05 0.033838713931773609 0 -4.2145516977519927e-05 0.034395791744239804 0 -0.00022231691007052888 0.033780915778737174 0 -0.0001526584577703077 0.034090099921163027 0 -4.2145516977519927e-05 0.034395791744239804 0 -0.00022231691007052888 0.033780915778737174 0 -0.0001526584577703077 0.034090099921163027 0 -0.00022231691007052888 0.033780915778737174 0 -0.00049508820783878598 0.033469155628652818 0 -0.00059836428315839961 0.033175371873556021 0 -0.00022231691007052888 0.033780915778737174 0 -0.00049508820783878598 0.033469155628652818 0 -0.00059836428315839961 0.033175371873556021 0 -0.0010623144198542644 0.032351673611623576 0 -0.00049508820783878598 0.033469155628652818 0 -0.00072110441093590301 0.032437834702407471 0 -0.00059836428315839961 0.033175371873556021 0 -0.0010623144198542644 0.032351673611623576 0 -0.0019724919169084873 0.033793021246265237 0 -0.0010623144198542644 0.032351673611623576 0 -0.001089567321523733 0.033549839675815998 0 -0.0010623144198542644 0.032351673611623576 0 -0.001089567321523733 0.033549839675815998 0 -0.00049508820783878598 0.033469155628652818 0 -0.001089567321523733 0.033549839675815998 0 -0.00049508820783878598 0.033469155628652818 0 -0.00078895124194745196 0.0341073622852145 0 -0.001089567321523733 0.033549839675815998 0 -0.0014470728417359149 0.034044109543639324 0 -0.00078895124194745196 0.0341073622852145 0 -0.0001526584577703077 0.034090099921163027 0 -0.00049508820783878598 0.033469155628652818 0 -0.00023182815863966681 0.034329492406560802 0 -0.00049508820783878598 0.033469155628652818 0 -0.00023182815863966681 0.034329492406560802 0 -0.00078895124194745196 0.0341073622852145 0 -0.00023182815863966681 0.034329492406560802 0 -0.00078895124194745196 0.0341073622852145 0 -0.00042294536276913037 0.034810644674442094 0 -0.00023182815863966681 0.034329492406560802 0 -0.00042294536276913037 0.034810644674442094 0 -1.6305111393013609e-05 0.034736616286380632 0 -0.00078895124194745196 0.0341073622852145 0 -0.0011761937273232995 0.034483683028325204 0 -0.00042294536276913037 0.034810644674442094 0 -0.0014470728417359149 0.034044109543639324 0 -0.00078895124194745196 0.0341073622852145 0 -0.0011761937273232995 0.034483683028325204 0 -0.0018365460823254749 0.03431822722929604 0 -0.0011761937273232995 0.034483683028325204 0 -0.0013397891969950649 0.035041166373174781 0 2.7017108807669667e-05 0.03498250421245102 0 2.9390478171294208e-05 0.03498294985335354 0 2.6833483864815066e-05 0.034989296490830518 0 -0.00093418505868164117 0.034749885318069607 0 -0.00016566029585662854 0.034913643656561279 0 -0.0011761937273232995 0.034483683028325204 0 -0.0013397891969950649 0.035041166373174781 0 -0.00042294536276913037 0.034810644674442094 0 6.152369764168532e-05 0.034699166629876023 0 -0.00093418505868164117 0.034749885318069607 0 3.4445547881083966e-05 0.034976988343319936 0 2.7017108807669667e-05 0.03498250421245102 0 2.9390478171294208e-05 0.03498294985335354 0 -2.9786689526949094e-05 0.034384927229663409 0 -0.00024511647051326786 0.034283762411696297 0 -0.00019838561853027212 0.034081495176540445 0 1.6952541562256712e-05 0.034983592999414989 0 2.9844389404355655e-05 0.034980519380906162 0 2.6833483864815066e-05 0.034989296490830518 0 2.9844389404355655e-05 0.034980519380906162 0 2.9390478171294208e-05 0.03498294985335354 0 2.6833483864815066e-05 0.034989296490830518 0 1.6952541562256712e-05 0.034983592999414989 0 2.6833483864815066e-05 0.034989296490830518 0 1.2974558508663286e-05 0.034995920301868995 0 1.6952541562256712e-05 0.034983592999414989 0 1.7287627637028775e-07 0.035000795072327562 0 1.2974558508663286e-05 0.034995920301868995 0 -9.1119273379308252e-07 0.034628059817942439 0 1.0258700995148082e-07 0.034999548457808914 0 -1.6305111393013609e-05 0.034736616286380632 0 6.1720464116380052e-08 0.034999920412253215 0 -2.4903210896297849e-06 0.034882560188725424 0 -0.00016566029585662854 0.034913643656561279 0 -2.4903210896297849e-06 0.034882560188725424 0 -9.1119273379308252e-07 0.034628059817942439 0 -0.00023182815863966681 0.034329492406560802 0 -1.6305111393013609e-05 0.034736616286380632 0 0.0095345906731246384 0.030154732004836968 0 0.01548154482049598 0.02426857827030663 0 0.014141082964200353 0.023151321717278742 0 -5.3712973262259112e-05 0.035136796744819405 0 0.014141082964200353 0.023151321717278742 0 0.00022214314448525138 0.034460153985461275 0 0.0095345906731246384 0.030154732004836968 0 -5.3712973262259112e-05 0.035136796744819405 0 0.014141082964200353 0.023151321717278742 0 0.0095345906731246384 0.030154732004836968 0 -5.3712973262259112e-05 0.035136796744819405 0 0.0051754219328163445 0.034113843162464387 0 0.0095345906731246384 0.030154732004836968 0 0.0051754219328163445 0.034113843162464387 0 0.01129778681188633 0.032741898622137604 0 0.0135290855830677 0.028140472744115654 0 0.014989325849546742 0.024330724908646649 0 0.0095345906731246384 0.030154732004836968 0 0.01129778681188633 0.032741898622137604 0 0.01548154482049598 0.02426857827030663 0 0.015632756917667582 0.024236981489087935 0 0.016463536386529129 0.023566883585584279 0 0.016782433723820784 0.024054348354449962 0 0.016463536386529129 0.023566883585584279 0 0.01548154482049598 0.02426857827030663 0 0.016771587588102096 0.022061760262982035 0 0.016463536386529129 0.023566883585584279 0 0.016771587588102096 0.022061760262982035 0 0.017253900313275856 0.022392191506942761 0 0.015632756917667582 0.024236981489087935 0 0.016463536386529129 0.023566883585584279 0 0.01548154482049598 0.02426857827030663 0 0.01548154482049598 0.02426857827030663 0 0.01619484778671083 0.020650452186596911 0 0.016771587588102096 0.022061760262982035 0 0.01619484778671083 0.020650452186596911 0 0.016771587588102096 0.022061760262982035 0 0.016764097339031416 0.020334343930561799 0 0.016771587588102096 0.022061760262982035 0 0.01725690649576115 0.021143818848223202 0 0.017253900313275856 0.022392191506942761 0 0.016771587588102096 0.022061760262982035 0 0.016764097339031416 0.020334343930561799 0 0.01725690649576115 0.021143818848223202 0 0.016764097339031416 0.020334343930561799 0 0.016397658634981049 0.018848463502638746 0 0.016686859790698821 0.019553661501034138 0 0.016764097339031416 0.020334343930561799 0 0.017092043360717051 0.020120545094694683 0 0.01725690649576115 0.021143818848223202 0 0.016764097339031416 0.020334343930561799 0 0.016686859790698821 0.019553661501034138 0 0.017092043360717051 0.020120545094694683 0 0.01619484778671083 0.020650452186596911 0 0.015462743635431658 0.016534228485196627 0 0.016397658634981049 0.018848463502638746 0 0.01619484778671083 0.020650452186596911 0 0.016764097339031416 0.020334343930561799 0 0.016397658634981049 0.018848463502638746 0 0.01619484778671083 0.020650452186596911 0 0.015462743635431658 0.016534228485196627 0 0.014141082964200353 0.023151321717278742 0 0.01548154482049598 0.02426857827030663 0 0.01619484778671083 0.020650452186596911 0 0.014141082964200353 0.023151321717278742 0 0.014141082964200353 0.023151321717278742 0 0.00022214314448525138 0.034460153985461275 0 0.018378037871556493 -0.0035323533746829581 0 0.015462743635431658 0.016534228485196627 0 0.014141082964200353 0.023151321717278742 0 0.018378037871556493 -0.0035323533746829581 0 1.3673989918547412e-05 0.034983506137690391 0 0.0079574576634914677 0.023678006829500484 0 9.0055735547552618e-08 0.03492026159058767 0 2.1726049852775339e-08 0.034999989753897426 0 1.5909778542427669e-05 0.03497975961798909 0 0.0079574576634914677 0.023678006829500484 0 0.0012163102894488659 0.032790176625801887 0 0.0093743110421438108 0.019057159096341834 0 0.0079574576634914677 0.023678006829500484 0 0.0019339729724367964 0.026796237973869267 0 0.0059183808483425611 0.024116017143934684 0 0.0040656041414304451 0.027964866697579846 0 2.1726049852775339e-08 0.034999989753897426 0 1.5909778542427669e-05 0.03497975961798909 0 6.8640849425200893e-05 0.034978810876883072 0 0.0040656041414304451 0.027964866697579846 0 0.0018528299997392604 0.029152785067197363 0 0.0021450254597117162 0.031588174133617274 0 0.0019339729724367964 0.026796237973869267 0 0.0018528299997392604 0.029152785067197363 0 -0.0017459743221811483 0.0293736774531656 0 0.0018528299997392604 0.029152785067197363 0 0.0021450254597117162 0.031588174133617274 0 -0.0017459743221811483 0.0293736774531656 0 0.0012163102894488659 0.032790176625801887 0 0.0012478033327534817 0.032972082795322169 0 0.0019339729724367964 0.026796237973869267 0 0.0040656041414304451 0.027964866697579846 0 0.0018528299997392604 0.029152785067197363 0 2.1726049852775339e-08 0.034999989753897426 0 6.8640849425200893e-05 0.034978810876883072 0 5.4908262674034258e-08 0.034999946906250176 0 6.8640849425200893e-05 0.034978810876883072 0 5.4908262674034258e-08 0.034999946906250176 0 9.865143153978683e-05 0.034951634146968287 0 6.8640849425200893e-05 0.034978810876883072 0 0.00014526920068925721 0.034788019190240237 0 9.865143153978683e-05 0.034951634146968287 0 0.0012478033327534817 0.032972082795322169 0 0.00019532001250570081 0.034799885243306669 0 0.00017806997538743368 0.034996608771273967 0 0.00017878516388112689 0.035071468628739798 0 0.0003118405125754366 0.035128074971505795 0 0.00014526920068925721 0.034788019190240237 0 0.00017878516388112689 0.035071468628739798 0 9.865143153978683e-05 0.034951634146968287 0 8.7448081960571665e-05 0.035013556192676869 0 0.00017878516388112689 0.035071468628739798 0 9.865143153978683e-05 0.034951634146968287 0 8.7448081960571665e-05 0.035013556192676869 0 9.6822287604713418e-08 0.034999997915785057 0 9.865143153978683e-05 0.034951634146968287 0 5.4908262674034258e-08 0.034999946906250176 0 9.6822287604713418e-08 0.034999997915785057 0 9.865143153978683e-05 0.034951634146968287 0 0.0012039327771021246 0.034169603803121971 0 0.00077878423801312551 0.034322841415956387 0 0.0013861554366347898 0.034696363759139391 0 0.0012039327771021246 0.034169603803121971 0 0.0013861554366347898 0.034696363759139391 0 0.0017090739819784749 0.034188668834815805 0 0.0016138768104955051 0.033659310657392354 0 0.0012039327771021246 0.034169603803121971 0 0.0017090739819784749 0.034188668834815805 0 0.00077582204613338304 0.034034271186985668 0 0.0012039327771021246 0.034169603803121971 0 0.00077878423801312551 0.034322841415956387 0 0.00014526920068925721 0.034788019190240237 0 0.00017878516388112689 0.035071468628739798 0 -0.0007031502602487912 0.035144682665662182 0 -0.00036447194756307282 0.034914469352469168 0 0.0024444703878512401 0.0330446870838517 0 0.00014526920068925721 0.034788019190240237 0 -0.0007031502602487912 0.035144682665662182 0 -0.0013762205742043337 0.032628651764833976 0 0.0021450254597117162 0.031588174133617274 0 0.00014526920068925721 0.034788019190240237 0 -0.0013762205742043337 0.032628651764833976 0 0.0024444703878512401 0.0330446870838517 0 0.0029456031950851548 0.030535884762262541 0 0.0074741857069661691 0.028563439470822814 0 0.0073050452622951722 0.028415416328573709 0 0.0074861566391658972 0.028297847091213763 0 0.0024444703878512401 0.0330446870838517 0 0.0040462292108252819 0.03157586581369367 0 0.0073050452622951722 0.028415416328573709 0 0.0073098968378369411 0.028168073081767334 0 0.0074861566391658972 0.028297847091213763 0 0.0073098968378369411 0.028168073081767334 0 0.0074861566391658972 0.028297847091213763 0 0.007486255241569352 0.028032234888094018 0 0.01346547625064713 0.022825570498589874 0 0.0079919116457227869 0.026491058387078121 0 0.0029456031950851548 0.030535884762262541 0 0.0079919116457227869 0.026491058387078121 0 0.0021450254597117162 0.031588174133617274 0 -0.0013762205742043337 0.032628651764833976 0 -0.0017459743221811483 0.0293736774531656 0 0.015462743635431658 0.016534228485196627 0 0.016579606059577978 0.019412654704985231 0 0.016397658634981049 0.018848463502638746 0 0.0093743110421438108 0.019057159096341834 0 0.0079919116457227869 0.026491058387078121 0 0.016579606059577978 0.019412654704985231 0 0.016397658634981049 0.018848463502638746 0 0.016686859790698821 0.019553661501034138 0 0.016905827092329555 0.019382015506091102 0 0.016579606059577978 0.019412654704985231 0 0.016802013801780688 0.01953990200251568 0 0.016579606059577978 0.019412654704985231 0 0.016802013801780688 0.01953990200251568 0 0.016686859790698821 0.019553661501034138 0 0.016802013801780688 0.01953990200251568 0 0.016686859790698821 0.019553661501034138 0 0.017092043360717051 0.020120545094694683 0 0.016802013801780688 0.01953990200251568 0 0.01744372944264316 0.019751131191704848 0 0.017092043360717051 0.020120545094694683 0 0.01744372944264316 0.019751131191704848 0 0.017709684796210212 0.020709525560225525 0 0.017092043360717051 0.020120545094694683 0 0.016905827092329555 0.019382015506091102 0 0.016802013801780688 0.01953990200251568 0 0.01744372944264316 0.019751131191704848 0 0.01744372944264316 0.019751131191704848 0 0.018371509052788792 0.020151827530483151 0 0.017709684796210212 0.020709525560225525 0 0.016594774197181986 0.022205239469764302 0 0.018345235049791141 0.020672826636841751 0 0.01744372944264316 0.019751131191704848 0 0.018209069488691217 0.019350732337146442 0 0.018371509052788792 0.020151827530483151 0 0.01744372944264316 0.019751131191704848 0 0.018209069488691217 0.019350732337146442 0 0.017478610169540984 0.019024744444314221 0 0.016594774197181986 0.022205239469764302 0 0.0093329378519307581 0.027320375439195407 0 0.016905827092329555 0.019382015506091102 0 0.01744372944264316 0.019751131191704848 0 0.017478610169540984 0.019024744444314221 0 0.01346547625064713 0.022825570498589874 0 0.0093329378519307581 0.027320375439195407 0 0.0013861554366347898 0.034696363759139391 0 0.0019615938366821816 0.034570875595485176 0 0.0021537182218809786 0.035025255500380256 0 0.0040462292108252819 0.03157586581369367 0 0.0093329378519307581 0.027320375439195407 0 0.0073050452622951722 0.028415416328573709 0 0.0073098968378369411 0.028168073081767334 0 0.0071534463922756711 0.028289874303264601 0 0.0013861554366347898 0.034696363759139391 0 0.0019615938366821816 0.034570875595485176 0 0.0017090739819784749 0.034188668834815805 0 0.018350118380595578 0.021927081122234775 0 0.018357721059821482 0.022227056192212241 0 0.018236920899762102 0.022042307044846721 0 0.0093329378519307581 0.027320375439195407 0 0.01080972436601956 0.028499636389239382 0 0.012254707679185749 0.025918151569873277 0 0.012295143171195198 0.025969489908788525 0 0.012244327120109869 0.026011993595438185 0 0.0019615938366821816 0.034570875595485176 0 0.0021537182218809786 0.035025255500380256 0 0.0027065128702673555 0.03466165423844484 0 0.016594774197181986 0.022205239469764302 0 0.01080972436601956 0.028499636389239382 0 0.0099636064944926724 0.026429462720642911 0 0.0092590100141347696 0.026488441085737516 0 0.0096815759116586266 0.029464090233907912 0 0.0038361777240098474 0.031008695982578216 0 0.01080972436601956 0.028499636389239382 0 0.0019615938366821816 0.034570875595485176 0 0.0027065128702673555 0.03466165423844484 0 0.0021603973400992375 0.034134606487379926 0 0.0025084311081649698 0.033521492952298233 0 0.0027065128702673555 0.03466165423844484 0 0.0021603973400992375 0.034134606487379926 0 0.0020044016922456023 0.033853503379402433 0 0.0021603973400992375 0.034134606487379926 0 0.0017090739819784749 0.034188668834815805 0 0.0016138768104955051 0.033659310657392354 0 0.0020044016922456023 0.033853503379402433 0 0.0017090739819784749 0.034188668834815805 0 0.0019615938366821816 0.034570875595485176 0 0.0021603973400992375 0.034134606487379926 0 0.0017090739819784749 0.034188668834815805 0 0.01793140671525963 0.022342527085362735 0 0.01797566748330157 0.022461382110606099 0 0.01804443135602618 0.022242519289769686 0 0.01793140671525963 0.022342527085362735 0 0.017807668621273146 0.022335665963273188 0 0.01794952967231854 0.022440958999038696 0 0.01793140671525963 0.022342527085362735 0 0.01794952967231854 0.022440958999038696 0 0.01797566748330157 0.022461382110606099 0 0.017807668621273146 0.022335665963273188 0 0.01794952967231854 0.022440958999038696 0 0.01766579624899111 0.022445882276784335 0 0.01793140671525963 0.022342527085362735 0 0.017807668621273146 0.022335665963273188 0 0.017895215368047706 0.022239208159241179 0 0.017669888152352264 0.022610550970967709 0 0.01794952967231854 0.022440958999038696 0 0.01766579624899111 0.022445882276784335 0 0.017669888152352264 0.022610550970967709 0 0.01794952967231854 0.022440958999038696 0 0.017978071438065627 0.022465129928919938 0 0.016595435234833512 0.023731579405012519 0 0.015413232335501858 0.024783573703323993 0 0.015539783612995978 0.024743811320631404 0 0.015413232335501858 0.024783573703323993 0 0.018357721059821482 0.022227056192212241 0 0.01797566748330157 0.022461382110606099 0 0.01804443135602618 0.022242519289769686 0 0.01080972436601956 0.028499636389239382 0 0.015413232335501858 0.024783573703323993 0 0.0099636064944926724 0.026429462720642911 0 0.0096815759116586266 0.029464090233907912 0 0.012035473863540617 0.027901187703123706 0 0.018357721059821482 0.022227056192212241 0 0.018125571093532515 0.022107748791257684 0 0.01804443135602618 0.022242519289769686 0 0.018357721059821482 0.022227056192212241 0 0.018236920899762102 0.022042307044846721 0 0.018125571093532515 0.022107748791257684 0 0.018236920899762102 0.022042307044846721 0 0.018125571093532515 0.022107748791257684 0 0.01813713363660175 0.021948816188326867 0 0.018125571093532515 0.022107748791257684 0 0.017956129854376238 0.022083688268442894 0 0.01804443135602618 0.022242519289769686 0 0.018125571093532515 0.022107748791257684 0 0.017956129854376238 0.022083688268442894 0 0.01813713363660175 0.021948816188326867 0 0.01793140671525963 0.022342527085362735 0 0.01804443135602618 0.022242519289769686 0 0.017895215368047706 0.022239208159241179 0 0.017956129854376238 0.022083688268442894 0 0.01804443135602618 0.022242519289769686 0 0.017895215368047706 0.022239208159241179 0 0.017956129854376238 0.022083688268442894 0 0.017895215368047706 0.022239208159241179 0 0.017761109669364821 0.02219661096123144 0 0.017807668621273146 0.022335665963273188 0 0.017895215368047706 0.022239208159241179 0 0.017761109669364821 0.02219661096123144 0 0.017956129854376238 0.022083688268442894 0 0.017775509324063549 0.02203589016945133 0 0.017761109669364821 0.02219661096123144 0 0.017956129854376238 0.022083688268442894 0 0.017991513429039017 0.021879196360068392 0 0.017775509324063549 0.02203589016945133 0 0.017991513429039017 0.021879196360068392 0 0.01781735053715151 0.021872604217660272 0 0.017775509324063549 0.02203589016945133 0 0.017956129854376238 0.022083688268442894 0 0.017991513429039017 0.021879196360068392 0 0.01813713363660175 0.021948816188326867 0 0.017991513429039017 0.021879196360068392 0 0.01813713363660175 0.021948816188326867 0 0.018203468310996937 0.021766447985379751 0 0.017991513429039017 0.021879196360068392 0 0.018203468310996937 0.021766447985379751 0 0.018078871371749461 0.021719906880534112 0 0.017991513429039017 0.021879196360068392 0 0.017911883670346671 0.021690719406497208 0 0.01781735053715151 0.021872604217660272 0 0.017991513429039017 0.021879196360068392 0 0.018078871371749461 0.021719906880534112 0 0.017911883670346671 0.021690719406497208 0 0.018497913048788672 0.021918787789848845 0 0.018203468310996937 0.021766447985379751 0 0.018471896951988212 0.021593757793695406 0 0.018350118380595578 0.021927081122234775 0 0.018236920899762102 0.022042307044846721 0 0.01813713363660175 0.021948816188326867 0 0.018350118380595578 0.021927081122234775 0 0.01813713363660175 0.021948816188326867 0 0.018203468310996937 0.021766447985379751 0 0.016594774197181986 0.022205239469764302 0 0.018659138408629421 0.02201933264099927 0 0.018203468310996937 0.021766447985379751 0 0.018471896951988212 0.021593757793695406 0 0.018326140185828708 0.021471685612482055 0 0.018203468310996937 0.021766447985379751 0 0.018326140185828708 0.021471685612482055 0 0.018196753643891287 0.02154012429196232 0 0.018196753643891287 0.02154012429196232 0 0.017936519177740806 0.021524859013622694 0 0.017911883670346671 0.021690719406497208 0 0.018078871371749461 0.021719906880534112 0 0.018196753643891287 0.02154012429196232 0 0.017911883670346671 0.021690719406497208 0 0.018203468310996937 0.021766447985379751 0 0.018078871371749461 0.021719906880534112 0 0.018196753643891287 0.02154012429196232 0 0.018196753643891287 0.02154012429196232 0 0.018164387031381245 0.021380063595134748 0 0.017936519177740806 0.021524859013622694 0 0.018196753643891287 0.02154012429196232 0 0.018394842215385381 0.021456917100159831 0 0.018164387031381245 0.021380063595134748 0 0.01859999435310402 0.021849472033778659 0 0.019321372471915389 0.022342794500809015 0 0.019514621543489017 0.02179023217992114 0 0.018394842215385381 0.021456917100159831 0 0.01859999435310402 0.021849472033778659 0 0.018164387031381245 0.021380063595134748 0 0.01854643089714526 0.02178913778658597 0 0.018796960408524015 0.021378472675984309 0 0.01859999435310402 0.021849472033778659 0 0.019514621543489017 0.02179023217992114 0 0.019423148707819485 0.021240402462219341 0 0.01859999435310402 0.021849472033778659 0 0.018302631338295537 0.021808240193866547 0 0.018300211500894559 0.022603611252373534 0 0.018394842215385381 0.021456917100159831 0 0.01859999435310402 0.021849472033778659 0 0.018302631338295537 0.021808240193866547 0 0.018471896951988212 0.021593757793695406 0 0.018326140185828708 0.021471685612482055 0 0.01838148171710562 0.021275951515443137 0 0.018345235049791141 0.020672826636841751 0 0.018413563844031013 0.021282730932993467 0 0.018394842215385381 0.021456917100159831 0 0.018302631338295537 0.021808240193866547 0 0.01838148171710562 0.021275951515443137 0 0.018326140185828708 0.021471685612482055 0 0.018196753643891287 0.02154012429196232 0 0.018394842215385381 0.021456917100159831 0 0.018326140185828708 0.021471685612482055 0 0.018394842215385381 0.021456917100159831 0 0.01838148171710562 0.021275951515443137 0 0.01838148171710562 0.021275951515443137 0 0.017709684796210212 0.020709525560225525 0 0.01781665457611268 0.021656508923562596 0 0.018371509052788792 0.020151827530483151 0 0.01838148171710562 0.021275951515443137 0 0.017709684796210212 0.020709525560225525 0 0.017709684796210212 0.020709525560225525 0 0.017092043360717051 0.020120545094694683 0 0.01725690649576115 0.021143818848223202 0 0.017709684796210212 0.020709525560225525 0 0.01725690649576115 0.021143818848223202 0 0.01781665457611268 0.021656508923562596 0 0.01725690649576115 0.021143818848223202 0 0.017253900313275856 0.022392191506942761 0 0.01781665457611268 0.021656508923562596 0 0.017253900313275856 0.022392191506942761 0 0.01781665457611268 0.021656508923562596 0 0.017830207829877317 0.02251429855791455 0 0.018302631338295537 0.021808240193866547 0 0.01838148171710562 0.021275951515443137 0 0.01781665457611268 0.021656508923562596 0 0.018302631338295537 0.021808240193866547 0 0.01781665457611268 0.021656508923562596 0 0.017830207829877317 0.02251429855791455 0 0.017830207829877317 0.02251429855791455 0 0.017323204486753837 0.023266894827479023 0 0.017851902538673022 0.023346874269115175 0 0.017830207829877317 0.02251429855791455 0 0.017851902538673022 0.023346874269115175 0 0.018300211500894559 0.022603611252373534 0 0.016463536386529129 0.023566883585584279 0 0.017253900313275856 0.022392191506942761 0 0.017323204486753837 0.023266894827479023 0 0.017253900313275856 0.022392191506942761 0 0.017830207829877317 0.02251429855791455 0 0.017323204486753837 0.023266894827479023 0 0.016463536386529129 0.023566883585584279 0 0.017323204486753837 0.023266894827479023 0 0.016782433723820784 0.024054348354449962 0 0.017323204486753837 0.023266894827479023 0 0.016782433723820784 0.024054348354449962 0 0.01742178160292987 0.023996637278937947 0 0.01742178160292987 0.023996637278937947 0 0.017851902538673022 0.023346874269115175 0 0.017863827122404474 0.024201075084564139 0 0.017323204486753837 0.023266894827479023 0 0.01742178160292987 0.023996637278937947 0 0.017851902538673022 0.023346874269115175 0 0.017851902538673022 0.023346874269115175 0 0.018401918072848779 0.02347641162853422 0 0.018300211500894559 0.022603611252373534 0 0.017851902538673022 0.023346874269115175 0 0.018401918072848779 0.02347641162853422 0 0.017863827122404474 0.024201075084564139 0 0.018401918072848779 0.02347641162853422 0 0.018405604779969914 0.024100844915413536 0 0.017863827122404474 0.024201075084564139 0 0.018401918072848779 0.02347641162853422 0 0.018964106388285107 0.023980400081493151 0 0.018405604779969914 0.024100844915413536 0 0.018401918072848779 0.02347641162853422 0 0.018888637401810286 0.022913470570383516 0 0.018964106388285107 0.023980400081493151 0 0.018888637401810286 0.022913470570383516 0 0.019470270719333427 0.023246739823002439 0 0.018964106388285107 0.023980400081493151 0 0.019470270719333427 0.023246739823002439 0 0.019428861225723296 0.023972085177795331 0 0.018964106388285107 0.023980400081493151 0 0.019321372471915389 0.022342794500809015 0 0.018888637401810286 0.022913470570383516 0 0.019470270719333427 0.023246739823002439 0 0.01859999435310402 0.021849472033778659 0 0.019321372471915389 0.022342794500809015 0 0.018888637401810286 0.022913470570383516 0 0.018401918072848779 0.02347641162853422 0 0.018888637401810286 0.022913470570383516 0 0.018300211500894559 0.022603611252373534 0 0.01859999435310402 0.021849472033778659 0 0.018888637401810286 0.022913470570383516 0 0.018300211500894559 0.022603611252373534 0 0.018302631338295537 0.021808240193866547 0 0.017830207829877317 0.02251429855791455 0 0.018300211500894559 0.022603611252373534 0 0.014730269239619823 0.018186294767161305 0 0.015828352143525185 0.017079103226505042 0 0.020223563281525751 0.022861065093722613 0 0.020774610973429985 0.022597947987475657 0 0.020066447063876433 0.021478470422046245 0 0.020918601109878424 0.022725796960932909 0 0.020774610973429985 0.022597947987475657 0 0.020881524038336895 0.02119048274546426 0 0.020223563281525751 0.022861065093722613 0 0.020906681760384526 0.022720986927039097 0 0.020774610973429985 0.022597947987475657 0 0.014730269239619823 0.018186294767161305 0 0.016460166567589887 0.019634502822641203 0 0.019321372471915389 0.022342794500809015 0 0.019470270719333427 0.023246739823002439 0 0.020064949630458989 0.021873459696754576 0 0.019344543142808646 0.023108867015486586 0 0.02057063874313771 0.021892213747228346 0 0.020223563281525751 0.022861065093722613 0 0.019470270719333427 0.023246739823002439 0 0.020066447063876433 0.021478470422046245 0 0.020223563281525751 0.022861065093722613 0 0.019470270719333427 0.023246739823002439 0 0.020037893278685989 0.02382326556552463 0 0.019470270719333427 0.023246739823002439 0 0.020037893278685989 0.02382326556552463 0 0.019428861225723296 0.023972085177795331 0 0.020223563281525751 0.022861065093722613 0 0.020906681760384526 0.022720986927039097 0 0.020037893278685989 0.02382326556552463 0 0.014730269239619823 0.018186294767161305 0 0.0087092165565793474 0.018818651408269032 0 0.018822249244315373 0.024044132841013255 0 0.018514290715761578 0.024607736520742763 0 0.018854390056491876 0.024612986819650427 0 0.014730269239619823 0.018186294767161305 0 0.019704659741546882 0.024715987674249786 0 0.0045371444382679774 0.011504433795678941 0 0.0052353559124617942 0.010813292837583754 0 0.0025786271389116929 0.0084695471532434848 0 0.010052690751252041 0.017440230463304056 0 0.0095419594001913619 0.017005438750130698 0 0.010013073990187972 0.016548643128124745 0 0.0050495092695774209 0.013622280448909181 0 0.0087092165565793474 0.018818651408269032 0 0.0050495092695774209 0.013622280448909181 0 -0.00028328480911838592 0.010589857683942652 0 0.0071500355459081077 0.012151253388174481 0 0.0050495092695774209 0.013622280448909181 0 0.0071500355459081077 0.012151253388174481 0 0.0080734567133678454 0.011645988653358899 0 0.0092938791260208722 0.011775107546770037 0 0.009471422733244585 0.01198301765526155 0 0.0090431577295700324 0.011993567703141039 0 0.0092938791260208722 0.011775107546770037 0 0.0095500382748607525 0.011529534065940301 0 0.009471422733244585 0.01198301765526155 0 0.01023963684858986 0.012127884053013755 0 0.0095500382748607525 0.011529534065940301 0 0.009471422733244585 0.01198301765526155 0 0.014730269239619823 0.018186294767161305 0 0.0050495092695774209 0.013622280448909181 0 0.0071500355459081077 0.012151253388174481 0 0.0032053738179100653 0.0098770723742834746 0 0.0045371444382679774 0.011504433795678941 0 0.00037395801005547796 0.012153853182429139 0 0.0025786271389116929 0.0084695471532434848 0 0.0093000708106242384 0.011741409653303158 0 0.0090431577295700324 0.011993567703141039 0 0.0076256251212587422 0.011967683527636533 0 0.0085713085825587926 0.012816169377544772 0 0.0090431577295700324 0.011993567703141039 0 0.0076256251212587422 0.011967683527636533 0 0.0085713085825587926 0.012816169377544772 0 0.0082072500611704777 0.013088120036608102 0 0.0076256251212587422 0.011967683527636533 0 0.0085713085825587926 0.012816169377544772 0 0.0090431577295700324 0.011993567703141039 0 0.0092053864864993212 0.012452225516210743 0 0.0090087897376372704 0.012921503016839459 0 0.0085713085825587926 0.012816169377544772 0 0.0092053864864993212 0.012452225516210743 0 0.01023963684858986 0.012127884053013755 0 0.009466369980123901 0.012677989773153165 0 0.0091694149998747428 0.013530195716412501 0 0.014730269239619823 0.018186294767161305 0 0.0083754887010591573 0.011568324641884759 0 0.01023963684858986 0.012127884053013755 0 0.0096863356183327538 0.012304059757799081 0 0.009471422733244585 0.01198301765526155 0 0.01023963684858986 0.012127884053013755 0 0.0096863356183327538 0.012304059757799081 0 0.009466369980123901 0.012677989773153165 0 0.009471422733244585 0.01198301765526155 0 0.0090431577295700324 0.011993567703141039 0 0.0092053864864993212 0.012452225516210743 0 0.0096863356183327538 0.012304059757799081 0 0.009471422733244585 0.01198301765526155 0 0.0092053864864993212 0.012452225516210743 0 0.0096863356183327538 0.012304059757799081 0 0.0092053864864993212 0.012452225516210743 0 0.009466369980123901 0.012677989773153165 0 0.0090087897376372704 0.012921503016839459 0 0.0092053864864993212 0.012452225516210743 0 0.009466369980123901 0.012677989773153165 0 0.0091694149998747428 0.013530195716412501 0 0.0098915411323909335 0.01423246712969016 0 0.010790982025517202 0.013717066210089559 0 0.010797393122438506 0.011778165891949461 0 0.0091694149998747428 0.013530195716412501 0 0.010790982025517202 0.013717066210089559 0 0.0090087897376372704 0.012921503016839459 0 0.009466369980123901 0.012677989773153165 0 0.0091694149998747428 0.013530195716412501 0 0.0091694149998747428 0.013530195716412501 0 0.0098915411323909335 0.01423246712969016 0 0.0091348368848877259 0.014196970866639838 0 0.0078733742454963757 0.013024876344206283 0 0.0083595894771481185 0.013635433167577187 0 0.0085713085825587926 0.012816169377544772 0 0.0082072500611704777 0.013088120036608102 0 0.0087470852595799981 0.013195980728119191 0 0.0090087897376372704 0.012921503016839459 0 0.0091694149998747428 0.013530195716412501 0 0.0087470852595799981 0.013195980728119191 0 0.0082072500611704777 0.013088120036608102 0 0.0087470852595799981 0.013195980728119191 0 0.0085174678384735622 0.013809138233631292 0 0.0090087897376372704 0.012921503016839459 0 0.0085713085825587926 0.012816169377544772 0 0.0087470852595799981 0.013195980728119191 0 0.0091694149998747428 0.013530195716412501 0 0.0087470852595799981 0.013195980728119191 0 0.0085174678384735622 0.013809138233631292 0 0.0091694149998747428 0.013530195716412501 0 0.0085174678384735622 0.013809138233631292 0 0.0091348368848877259 0.014196970866639838 0 0.0078459797211946555 0.012605053303223373 0 0.0085174678384735622 0.013809138233631292 0 0.0076777223115698911 0.013591346428861726 0 0.0085174678384735622 0.013809138233631292 0 0.0076777223115698911 0.013591346428861726 0 0.0079357785941947742 0.014295908785158504 0 0.0079357785941947742 0.014295908785158504 0 0.0083738928466665155 0.014944400192533139 0 0.007131884620304979 0.014975996904601151 0 0.0085174678384735622 0.013809138233631292 0 0.0079357785941947742 0.014295908785158504 0 0.0083738928466665155 0.014944400192533139 0 0.0085174678384735622 0.013809138233631292 0 0.0083738928466665155 0.014944400192533139 0 0.0091348368848877259 0.014196970866639838 0 0.0083738928466665155 0.014944400192533139 0 0.0091348368848877259 0.014196970866639838 0 0.0094863009812667879 0.014855181869638027 0 0.0089816576954081361 0.015356701208160323 0 0.0083738928466665155 0.014944400192533139 0 0.0094863009812667879 0.014855181869638027 0 0.0089816576954081361 0.015356701208160323 0 0.0083738928466665155 0.014944400192533139 0 0.008710418275736459 0.016031258553600512 0 0.0083738928466665155 0.014944400192533139 0 0.0078182035970723058 0.015785939832548421 0 0.007131884620304979 0.014975996904601151 0 0.010142943341504245 0.014854597047928214 0 0.0098915411323909335 0.01423246712969016 0 0.010790982025517202 0.013717066210089559 0 0.010142943341504245 0.014854597047928214 0 0.0098915411323909335 0.01423246712969016 0 0.0094863009812667879 0.014855181869638027 0 0.0098915411323909335 0.01423246712969016 0 0.0091348368848877259 0.014196970866639838 0 0.0094863009812667879 0.014855181869638027 0 0.0089816576954081361 0.015356701208160323 0 0.0094863009812667879 0.014855181869638027 0 0.0096487202311925716 0.015774377798369574 0 0.010142943341504245 0.014854597047928214 0 0.0094863009812667879 0.014855181869638027 0 0.0096487202311925716 0.015774377798369574 0 0.010142943341504245 0.014854597047928214 0 0.010876975224474672 0.01572236707365696 0 0.0096487202311925716 0.015774377798369574 0 0.020064949630458989 0.021873459696754576 0 0.019943618314966407 0.021232082315003103 0 0.020566708090967147 0.020616709365823931 0 0.020881524038336895 0.02119048274546426 0 0.020066447063876433 0.021478470422046245 0 0.02080065045705792 0.019651872373892543 0 0.02057063874313771 0.021892213747228346 0 0.017230076671497549 0.018651285186879148 0 0.010142943341504245 0.014854597047928214 0 0.010790982025517202 0.013717066210089559 0 0.010876975224474672 0.01572236707365696 0 0.015828352143525185 0.017079103226505042 0 0.017230076671497549 0.018651285186879148 0 0.019943618314966407 0.021232082315003103 0 0.020566708090967147 0.020616709365823931 0 0.020146932525843427 0.020625285887132867 0 0.020774610973429985 0.022597947987475657 0 0.020881524038336895 0.02119048274546426 0 0.020066447063876433 0.021478470422046245 0 0.019321372471915389 0.022342794500809015 0 0.020064949630458989 0.021873459696754576 0 0.019514621543489017 0.02179023217992114 0 0.020064949630458989 0.021873459696754576 0 0.019514621543489017 0.02179023217992114 0 0.019943618314966407 0.021232082315003103 0 0.019514621543489017 0.02179023217992114 0 0.019423148707819485 0.021240402462219341 0 0.019943618314966407 0.021232082315003103 0 0.019423148707819485 0.021240402462219341 0 0.019943618314966407 0.021232082315003103 0 0.020146932525843427 0.020625285887132867 0 0.018796960408524015 0.021378472675984309 0 0.018526599541124886 0.020684690192848319 0 0.018164387031381245 0.021380063595134748 0 0.017936519177740806 0.021524859013622694 0 0.017620661319507933 0.021481906144394193 0 0.017936519177740806 0.021524859013622694 0 0.017798069927735766 0.021599839561876978 0 0.017911883670346671 0.021690719406497208 0 0.017936519177740806 0.021524859013622694 0 0.017798069927735766 0.021599839561876978 0 0.017620661319507933 0.021481906144394193 0 0.017798069927735766 0.021599839561876978 0 0.017687001217887858 0.021676722062853572 0 0.017620661319507933 0.021481906144394193 0 0.017798069927735766 0.021599839561876978 0 0.017687001217887858 0.021676722062853572 0 0.017911883670346671 0.021690719406497208 0 0.017687001217887858 0.021676722062853572 0 0.017911883670346671 0.021690719406497208 0 0.017760429905999759 0.021770481462301487 0 0.018005865369352489 0.020288294775000038 0 0.017673750974952353 0.020635967959825492 0 0.017673565378324589 0.020555439542170102 0 0.017230076671497549 0.018651285186879148 0 0.017169418064347172 0.019842358728409591 0 0.020566708090967147 0.020616709365823931 0 0.020146932525843427 0.020625285887132867 0 0.020550507988556076 0.020269385618974043 0 0.018526599541124886 0.020684690192848319 0 0.017104253070666341 0.020761530209499397 0 0.018526599541124886 0.020684690192848319 0 0.017169418064347172 0.019842358728409591 0 0.017687001217887858 0.021676722062853572 0 0.017373892108684199 0.02165740017909111 0 0.017498090205108965 0.021786105117570322 0 0.017687001217887858 0.021676722062853572 0 0.017620661319507933 0.021481906144394193 0 0.017373892108684199 0.02165740017909111 0 0.015653909457070195 0.018279005940019816 0 0.015652851360568449 0.019001076961824449 0 0.015063981227587803 0.019475402973392713 0 0.017230076671497549 0.018651285186879148 0 0.012979570259950765 0.018602566022453589 0 0.015166874786400672 0.019335304691932877 0 0.015167214197083306 0.019175025597806553 0 0.014722142587720239 0.019526013362666898 0 0.017169418064347172 0.019842358728409591 0 0.012979570259950765 0.018602566022453589 0 0.017104253070666341 0.020761530209499397 0 0.017169418064347172 0.019842358728409591 0 0.017303024384681381 0.021515457702579167 0 0.017310500304077173 0.021865773283125514 0 0.017047263999054502 0.021800827126101315 0 0.017104253070666341 0.020761530209499397 0 0.01728023355985589 0.022011673387395948 0 0.017373892108684199 0.02165740017909111 0 0.017498090205108965 0.021786105117570322 0 0.017310500304077173 0.021865773283125514 0 0.017498090205108965 0.021786105117570322 0 0.017416174687291661 0.021958410553140538 0 0.017628876819092351 0.021855058367273611 0 0.017498090205108965 0.021786105117570322 0 0.017416174687291661 0.021958410553140538 0 0.017310500304077173 0.021865773283125514 0 0.017416174687291661 0.021958410553140538 0 0.017310500304077173 0.021865773283125514 0 0.017146213209806239 0.021966363365597538 0 0.01781735053715151 0.021872604217660272 0 0.017760429905999759 0.021770481462301487 0 0.017628876819092351 0.021855058367273611 0 0.017911883670346671 0.021690719406497208 0 0.01781735053715151 0.021872604217660272 0 0.017760429905999759 0.021770481462301487 0 0.017687001217887858 0.021676722062853572 0 0.017760429905999759 0.021770481462301487 0 0.017628876819092351 0.021855058367273611 0 0.017687001217887858 0.021676722062853572 0 0.017498090205108965 0.021786105117570322 0 0.017628876819092351 0.021855058367273611 0 0.01781735053715151 0.021872604217660272 0 0.017628876819092351 0.021855058367273611 0 0.017620050018951727 0.022001074470553394 0 0.017416174687291661 0.021958410553140538 0 0.017628876819092351 0.021855058367273611 0 0.017620050018951727 0.022001074470553394 0 0.01781735053715151 0.021872604217660272 0 0.017620050018951727 0.022001074470553394 0 0.017775509324063549 0.02203589016945133 0 0.017775509324063549 0.02203589016945133 0 0.017761109669364821 0.02219661096123144 0 0.017624567338111269 0.022155471165437073 0 0.017620050018951727 0.022001074470553394 0 0.017775509324063549 0.02203589016945133 0 0.017624567338111269 0.022155471165437073 0 0.017761109669364821 0.02219661096123144 0 0.017624567338111269 0.022155471165437073 0 0.017644690678740475 0.022305120437497144 0 0.017624567338111269 0.022155471165437073 0 0.017644690678740475 0.022305120437497144 0 0.017481767944155648 0.022269483706142207 0 0.017624567338111269 0.022155471165437073 0 0.017455358731275905 0.022113753918937891 0 0.017481767944155648 0.022269483706142207 0 0.017620050018951727 0.022001074470553394 0 0.017624567338111269 0.022155471165437073 0 0.017455358731275905 0.022113753918937891 0 0.017416174687291661 0.021958410553140538 0 0.017620050018951727 0.022001074470553394 0 0.017455358731275905 0.022113753918937891 0 0.017416174687291661 0.021958410553140538 0 0.017455358731275905 0.022113753918937891 0 0.017208630742538887 0.022123005520713831 0 0.017416174687291661 0.021958410553140538 0 0.017208630742538887 0.022123005520713831 0 0.017146213209806239 0.021966363365597538 0 0.017208630742538887 0.022123005520713831 0 0.017303792266858267 0.022229562720523288 0 0.017108187731841386 0.022331385584430694 0 0.017455358731275905 0.022113753918937891 0 0.017303792266858267 0.022229562720523288 0 0.017481767944155648 0.022269483706142207 0 0.017455358731275905 0.022113753918937891 0 0.017208630742538887 0.022123005520713831 0 0.017303792266858267 0.022229562720523288 0 0.017303792266858267 0.022229562720523288 0 0.017316047813675982 0.022360940420953816 0 0.017481767944155648 0.022269483706142207 0 0.017303792266858267 0.022229562720523288 0 0.017316047813675982 0.022360940420953816 0 0.017108187731841386 0.022331385584430694 0 0.017316047813675982 0.022360940420953816 0 0.017167435918511217 0.022500659174541884 0 0.017108187731841386 0.022331385584430694 0 0.017348858361479761 0.022510853268202496 0 0.017316047813675982 0.022360940420953816 0 0.017167435918511217 0.022500659174541884 0 0.017348858361479761 0.022510853268202496 0 0.017316047813675982 0.022360940420953816 0 0.017486432800170697 0.022377163813867843 0 0.017348858361479761 0.022510853268202496 0 0.01766579624899111 0.022445882276784335 0 0.017486432800170697 0.022377163813867843 0 0.017669888152352264 0.022610550970967709 0 0.017348858361479761 0.022510853268202496 0 0.01766579624899111 0.022445882276784335 0 0.01766579624899111 0.022445882276784335 0 0.017644690678740475 0.022305120437497144 0 0.017486432800170697 0.022377163813867843 0 0.017807668621273146 0.022335665963273188 0 0.01766579624899111 0.022445882276784335 0 0.017644690678740475 0.022305120437497144 0 0.017807668621273146 0.022335665963273188 0 0.017761109669364821 0.02219661096123144 0 0.017644690678740475 0.022305120437497144 0 0.017644690678740475 0.022305120437497144 0 0.017481767944155648 0.022269483706142207 0 0.017486432800170697 0.022377163813867843 0 0.017316047813675982 0.022360940420953816 0 0.017481767944155648 0.022269483706142207 0 0.017486432800170697 0.022377163813867843 0 0.010613888942283229 0.0094592843286198536 0 0.010475989970337652 0.0098202091643583619 0 0.01053378292207215 0.0098568266846606658 0 0.010613888942283229 0.0094592843286198536 0 0.01053378292207215 0.0098568266846606658 0 0.010578737278688001 0.0098975563939260238 0 0.01519563254634539 0.017313220099914289 0 0.010206316998120923 0.0098452479774149733 0 0.010475989970337652 0.0098202091643583619 0 0.01053378292207215 0.0098568266846606658 0 0.010577088486130795 0.009898521845758174 0 0.010341683787323216 0.0099184386977530965 0 0.010206316998120923 0.0098452479774149733 0 0.017034455961981981 0.022543438697446176 0 0.016802778793413197 0.022345103938010074 0 0.017108187731841386 0.022331385584430694 0 0.018231657009987568 0.023385061429989168 0 0.01519563254634539 0.017313220099914289 0 0.016802778793413197 0.022345103938010074 0 0.017108187731841386 0.022331385584430694 0 0.016902077029087428 0.022132347979814063 0 0.017034455961981981 0.022543438697446176 0 0.017167435918511217 0.022500659174541884 0 0.017108187731841386 0.022331385584430694 0 0.017208630742538887 0.022123005520713831 0 0.016902077029087428 0.022132347979814063 0 0.017146213209806239 0.021966363365597538 0 0.017208630742538887 0.022123005520713831 0 0.017108187731841386 0.022331385584430694 0 0.016902077029087428 0.022132347979814063 0 0.014276733770160003 0.018981757094646178 0 0.011270616925953537 0.017546083628831189 0 0.016902077029087428 0.022132347979814063 0 0.017146213209806239 0.021966363365597538 0 0.016990852599404725 0.021865839501645917 0 0.011952336283847315 0.01549035117680966 0 0.013459313270059886 0.014733676770502156 0 0.011398412941944228 0.016980302811339137 0 0.010019395495275628 0.01259578550201332 0 0.0089234274578181266 0.013830529180022685 0 0.010242392607552426 0.012791413539713224 0 0.010206316998120923 0.0098452479774149733 0 0.011270616925953537 0.017546083628831189 0 0.012648995711219571 0.014040943534773852 0 0.011952336283847315 0.01549035117680966 0 0.013459313270059886 0.014733676770502156 0 0.01519563254634539 0.017313220099914289 0 0.014276733770160003 0.018981757094646178 0 0.010206316998120923 0.0098452479774149733 0 0.0092115814030194389 0.0098983515515631108 0 0.010206316998120923 0.0098452479774149733 0 0.0092177817564382345 0.0080112561547997872 0 0.0089234274578181266 0.013830529180022685 0 0.010319847217386872 0.014122437162260037 0 0.010242392607552426 0.012791413539713224 0 0.0097188328423384925 0.018002468965677025 0 0.0093232140737389366 0.017787657711740758 0 0.0073356055339126097 0.01746965997547157 0 0.011270616925953537 0.017546083628831189 0 0.0079881538673695716 0.014234994466732038 0 0.0085504182112676793 0.017045837288074017 0 0.0093232140737389366 0.017787657711740758 0 0.0073356055339126097 0.01746965997547157 0 0.0085504182112676793 0.017045837288074017 0 0.0093232140737389366 0.017787657711740758 0 0.0093484976425367225 0.016794661211348753 0 0.017310500304077173 0.021865773283125514 0 0.017146213209806239 0.021966363365597538 0 0.017047263999054502 0.021800827126101315 0 0.017146213209806239 0.021966363365597538 0 0.016990852599404725 0.021865839501645917 0 0.017047263999054502 0.021800827126101315 0 0.011270616925953537 0.017546083628831189 0 0.013210096465398134 0.019065116098014125 0 0.0097188328423384925 0.018002468965677025 0 0.0093232140737389366 0.017787657711740758 0 0.010019131054292455 0.017703432493905429 0 0.0093232140737389366 0.017787657711740758 0 0.010321113472406648 0.016938397830134747 0 0.0093484976425367225 0.016794661211348753 0 0.0095589649694892437 0.018141552002072663 0 0.012979570259950765 0.018602566022453589 0 0.015166874786400672 0.019335304691932877 0 0.014447400821760331 0.020071859730978928 0 0.014722142587720239 0.019526013362666898 0 0.013210096465398134 0.019065116098014125 0 0.012979570259950765 0.018602566022453589 0 0.017104253070666341 0.020761530209499397 0 0.013210096465398134 0.019065116098014125 0 0.0093232140737389366 0.017787657711740758 0 0.010019131054292455 0.017703432493905429 0 0.010410934913935589 0.016930600363435782 0 0.010876975224474672 0.01572236707365696 0 0.010321113472406648 0.016938397830134747 0 0.010050263474612374 0.016306575796076441 0 0.010321113472406648 0.016938397830134747 0 0.0093484976425367225 0.016794661211348753 0 0.010050263474612374 0.016306575796076441 0 0.0089816576954081361 0.015356701208160323 0 0.0096487202311925716 0.015774377798369574 0 0.008710418275736459 0.016031258553600512 0 0.0093484976425367225 0.016794661211348753 0 0.0096487202311925716 0.015774377798369574 0 0.010050263474612374 0.016306575796076441 0 0.0093484976425367225 0.016794661211348753 0 0.0096487202311925716 0.015774377798369574 0 0.008710418275736459 0.016031258553600512 0 0.010876975224474672 0.01572236707365696 0 0.0096487202311925716 0.015774377798369574 0 0.010050263474612374 0.016306575796076441 0 0.0081699479934503726 0.016573275484730539 0 0.0078182035970723058 0.015785939832548421 0 0.0073356055339126097 0.01746965997547157 0 0.0085504182112676793 0.017045837288074017 0 0.0081699479934503726 0.016573275484730539 0 0.0073356055339126097 0.01746965997547157 0 0.0085504182112676793 0.017045837288074017 0 0.0093484976425367225 0.016794661211348753 0 0.0086955566625805895 0.016611369195414998 0 0.0085504182112676793 0.017045837288074017 0 0.0081699479934503726 0.016573275484730539 0 0.0086955566625805895 0.016611369195414998 0 0.0093484976425367225 0.016794661211348753 0 0.0086955566625805895 0.016611369195414998 0 0.008710418275736459 0.016031258553600512 0 0.0081699479934503726 0.016573275484730539 0 0.0086955566625805895 0.016611369195414998 0 0.008710418275736459 0.016031258553600512 0 0.0081699479934503726 0.016573275484730539 0 0.008710418275736459 0.016031258553600512 0 0.0078182035970723058 0.015785939832548421 0 0.0083738928466665155 0.014944400192533139 0 0.008710418275736459 0.016031258553600512 0 0.0078182035970723058 0.015785939832548421 0 0.0079881538673695716 0.014234994466732038 0 0.0069648856379836421 0.014622027883907611 0 0.0069803631207134747 0.014401475928250492 0 0.0065779178197790849 0.014314276232795655 0 0.0069507722410689391 0.013559614048196847 0 0.0078182035970723058 0.015785939832548421 0 0.0073356055339126097 0.01746965997547157 0 0.007131884620304979 0.014975996904601151 0 0.0065779178197790849 0.014314276232795655 0 0.0064556516398144408 0.013398581797564164 0 0.0069507722410689391 0.013559614048196847 0 0.0016841606481209927 0.0069714868153848922 0 0.0022298663478051962 0.0074755487535297918 0 0.0020562280213041149 0.0052505440007516958 0 0.0054754527038308534 0.010197718404183924 0 0.0043474256022798113 0.0094517830466697064 0 0.0016841606481209927 0.0069714868153848922 0 0.00084520778686621948 0.0062276634479782392 0 0.0020562280213041149 0.0052505440007516958 0 0.0016841606481209927 0.0069714868153848922 0 0.0010544002611995184 0.0071975312960255115 0 0.0022298663478051962 0.0074755487535297918 0 0.0016841606481209927 0.0069714868153848922 0 0.0010382744274909769 0.0071959279923829809 0 0.00084520778686621948 0.0062276634479782392 0 0.0011515233113567535 0.0061601646929683547 0 0.001758817309824672 0.0049677792142954107 0 0.0031483909704474247 0.0057470881187934413 0 0.0059077987467616271 0.0063685363450001232 0 0.0060814171802921748 0.0091241734198998573 0 0.0031483909704474247 0.0057470881187934413 0 0.0060814171802921748 0.0091241734198998573 0 0.0024648456026470146 0.0059998258676720612 0 0.006939676929755772 0.0083419267548965424 0 0.0024949318791407491 0.0035679795242883152 0 0.0072701587992152665 0.00615636223884229 0 0.0057515526525136985 0.0061826637722225981 0 0.0035481639896614149 0.0029183824628775594 0 0.001758817309824672 0.0049677792142954107 0 0.0054754527038308534 0.010197718404183924 0 0.0075668728869246835 0.010911472108771124 0 0.007710631197135877 0.01093649993342736 0 0.0077100856697767855 0.010746226792582154 0 0.0079881538673695716 0.014234994466732038 0 0.0054754527038308534 0.010197718404183924 0 0.0054754527038308534 0.010197718404183924 0 0.006939676929755772 0.0083419267548965424 0 0.0093071176288632897 0.0039352275001985583 0 0.0072499951335713705 0.0025768208990032057 0 0.0078547438982699714 0.0042663674771243635 0 0.0092177817564382345 0.0080112561547997872 0 0.0066979062552013401 0.0043266251292114616 0 0.0097853330572230356 0.0087576814527093923 0 0.0073007543383155644 0.006673892561532657 0 0.0057515526525136985 0.0061826637722225981 0 0.0079881538673695716 0.014234994466732038 0 0.0092115814030194389 0.0098983515515631108 0 0.0075668728869246835 0.010911472108771124 0 0.0075627796066052395 0.010605992542430935 0 0.0077100856697767855 0.010746226792582154 0 0.0097853330572230356 0.0087576814527093923 0 0.0097567168852532114 0.0083137635596984526 0 0.0073007543383155644 0.006673892561532657 0 0.0098167501086100228 0.0097077625179502573 0 0.0086951449926246718 0.009379413472753154 0 0.0086506933249791123 0.0087066206417702706 0 0.0096773408350362636 0.0040543463364716174 0 0.0093067998315100615 0.0039446437704942052 0 0.0093157650544473565 0.0040859316717407309 0 0.0092177817564382345 0.0080112561547997872 0 0.0092035748904421323 0.0076662416356177701 0 0.0092177817564382345 0.0080112561547997872 0 0.0092115814030194389 0.0098983515515631108 0 0.0097567168852532114 0.0083137635596984526 0 0.0073007543383155644 0.006673892561532657 0 0.0072690417620957914 0.0061581339542534181 0 0.0092115814030194389 0.0098983515515631108 0 0.006939676929755772 0.0083419267548965424 0 0.0069449424298647202 0.007903115981700886 0 0.006939676929755772 0.0083419267548965424 0 0.0072499951335713705 0.0025768208990032057 0 0.0078547438982699714 0.0042663674771243635 0 0.0059280758528272061 0.004550432706981581 0 0.0073007543383155644 0.006673892561532657 0 0.0072701587992152665 0.00615636223884229 0 0.0057515526525136985 0.0061826637722225981 0 0.0076985570864822233 0.0061358881084398629 0 0.0078547438982699714 0.0042663674771243635 0 0.0059280758528272061 0.004550432706981581 0 0.0076985570864822233 0.0061358881084398629 0 0.0096773408350362636 0.0040543463364716174 0 0.0093157650544473565 0.0040859316717407309 0 0.0076985570864822233 0.0061358881084398629 0 0.0078547438982699714 0.0042663674771243635 0 0.0093157650544473565 0.0040859316717407309 0 0.0093445494412020668 0.0074721957493095849 0 0.010206316998120923 0.0098452479774149733 0 0.0093071176288632897 0.0039352275001985583 0 0.0078547438982699714 0.0042663674771243635 0 0.0093157650544473565 0.0040859316717407309 0 0.0035529721014556353 0.0047010363505243435 0 0.0059280758528272061 0.004550432706981581 0 0.0048469503119251342 0.0030515215590576602 0 0.0046859034279262681 0.0064492338347098103 0 0.0035529721014556353 0.0047010363505243435 0 0.0059280758528272061 0.004550432706981581 0 0.0072499951335713705 0.0025768208990032057 0 0.0059280758528272061 0.004550432706981581 0 0.0048469503119251342 0.0030515215590576602 0 0.0055882552045240109 0.00039248701687283712 0 0.00097325487908794372 -0.0010790894016393072 0 0.0035529721014556353 0.0047010363505243435 0 0.0048469503119251342 0.0030515215590576602 0 0.0030218495025831822 0.0020067351049470224 0 0.00075539179681804807 -0.00010899938318172072 0 -0.0010988992409412931 -0.0012742714208661059 0 -0.0017727260744285511 0.00081580180947905746 0 0.0024019963475823587 0.0016396422111490021 0 0.00097325487908794372 -0.0010790894016393072 0 0.0048469503119251342 0.0030515215590576602 0 0.0051628645346629299 0.0012282695695938399 0 0.0030218495025831822 0.0020067351049470224 0 0.0066979062552013401 0.0043266251292114616 0 0.0024019963475823587 0.0016396422111490021 0 0.0057515526525136985 0.0061826637722225981 0 0.0017153590547019791 0.0035965591599819401 0 0.0035481639896614149 0.0029183824628775594 0 0.0072499951335713705 0.0025768208990032057 0 0.0048469503119251342 0.0030515215590576602 0 0.0051628645346629299 0.0012282695695938399 0 0.0024019963475823587 0.0016396422111490021 0 0.0024949318791407491 0.0035679795242883152 0 0.00066341997044748382 -3.9243918590804161e-05 0 0.0017798416744456604 -0.00043437737482046661 0 0.001381733037054532 -0.00078401556874007716 0 0.00047358439590411021 0.0070608793746820908 0 0.00084520778686621948 0.0062276634479782392 0 -0.00073420189512006615 0.0060010159751582304 0 0.0010382744274909769 0.0071959279923829809 0 0.00047358439590411021 0.0070608793746820908 0 0.00084520778686621948 0.0062276634479782392 0 0.001758817309824672 0.0049677792142954107 0 0.0012258936135367624 0.0024519408774913952 0 0.0022572812529679802 0.0038416334472562582 0 0.0018805096464555855 0.0039790611058103872 0 0.0015306373260782233 0.0036723913273742533 0 0.001758817309824672 0.0049677792142954107 0 0.0024949318791407491 0.0035679795242883152 0 0.0024949318791407491 0.0035679795242883152 0 0.0012258936135367624 0.0024519408774913952 0 0.0012258936135367624 0.0024519408774913952 0 -0.00036669981369758051 -0.00095207647386405438 0 0.00066341997044748382 -3.9243918590804161e-05 0 0.001381733037054532 -0.00078401556874007716 0 -0.00037504908323363051 -0.0012194254829549049 0 0.0012258936135367624 0.0024519408774913952 0 -0.00054780757251159356 0.001951105780755479 0 -0.0010988992409412931 -0.0012742714208661059 0 -0.0016089898721363181 -0.0016011802699790877 0 -0.0017727260744285511 0.00081580180947905746 0 -0.0010988992409412931 -0.0012742714208661059 0 -0.00037504908323363051 -0.0012194254829549049 0 -0.00084549325593455925 -0.0017734041636961104 0 0.0024019963475823587 0.0016396422111490021 0 -0.0016019328614445736 -0.0016044294465086719 0 0.00066341997044748382 -3.9243918590804161e-05 0 -0.0010988992409412931 -0.0012742714208661059 0 -0.00037504908323363051 -0.0012194254829549049 0 0.0013177981565756034 -0.00081223969561511561 0 -0.00037504908323363051 -0.0012194254829549049 0 -0.0004100179595936362 -0.0022852683026541409 0 -0.00037504908323363051 -0.0012194254829549049 0 -0.00084549325593455925 -0.0017734041636961104 0 -0.0004100179595936362 -0.0022852683026541409 0 -0.00084549325593455925 -0.0017734041636961104 0 -0.0012053003656602795 -0.0020451610625796869 0 -0.0004100179595936362 -0.0022852683026541409 0 -0.00084549325593455925 -0.0017734041636961104 0 -0.0012053003656602795 -0.0020451610625796869 0 -0.0016089898721363181 -0.0016011802699790877 0 -0.0010988992409412931 -0.0012742714208661059 0 -0.00084549325593455925 -0.0017734041636961104 0 -0.0016089898721363181 -0.0016011802699790877 0 -0.00073420189512006615 0.0060010159751582304 0 -0.00060081684844908692 0.0044099069518357958 0 -0.0019201901293302204 0.0049509429529073319 0 -0.0004100179595936362 -0.0022852683026541409 0 -0.0020322156726806885 -0.0035161007036195878 0 -0.0018595610954166169 -0.0024567755984490065 0 -0.0012053003656602795 -0.0020451610625796869 0 -0.0004100179595936362 -0.0022852683026541409 0 -0.0018595610954166169 -0.0024567755984490065 0 -0.00054780757251159356 0.001951105780755479 0 -0.0018935804149477508 0.00036654578126332906 0 -0.0028410673761506034 -0.0012247875855769174 0 -0.0030030269981825247 -0.0011955002630200673 0 -0.002587962976330621 -0.0022331560879632934 0 -0.00060081684844908692 0.0044099069518357958 0 -0.0011940577444697327 0.0030969253686080442 0 -0.0019201901293302204 0.0049509429529073319 0 0.00058959080852678944 0.0042717309769878002 0 0.001140342737817972 0.0036523799655799639 0 -5.6671183004083929e-06 0.0029263111667127222 0 -0.00060081684844908692 0.0044099069518357958 0 0.00058959080852678944 0.0042717309769878002 0 -5.6671183004083929e-06 0.0029263111667127222 0 -0.00060081684844908692 0.0044099069518357958 0 0.00058959080852678944 0.0042717309769878002 0 0.00043026808303704353 0.0052310926293562812 0 -0.00073420189512006615 0.0060010159751582304 0 -0.00060081684844908692 0.0044099069518357958 0 0.00043026808303704353 0.0052310926293562812 0 0.00084520778686621948 0.0062276634479782392 0 -0.00073420189512006615 0.0060010159751582304 0 0.00043026808303704353 0.0052310926293562812 0 0.00084520778686621948 0.0062276634479782392 0 0.00043026808303704353 0.0052310926293562812 0 0.0020562280213041149 0.0052505440007516958 0 0.00058959080852678944 0.0042717309769878002 0 0.00043026808303704353 0.0052310926293562812 0 0.0020562280213041149 0.0052505440007516958 0 0.0076777223115698911 0.013591346428861726 0 0.0079357785941947742 0.014295908785158504 0 0.007131884620304979 0.014975996904601151 0 0.0064556516398144408 0.013398581797564164 0 0.0069507722410689391 0.013559614048196847 0 0.0070473054922737888 0.012320587300649539 0 0.0069648856379836421 0.014622027883907611 0 0.007044265415841894 0.012264642308909168 0 0.0076777223115698911 0.013591346428861726 0 0.007131884620304979 0.014975996904601151 0 0.0070473054922737888 0.012320587300649539 0 0.0064556516398144408 0.013398581797564164 0 0.0061294856554014541 0.011849746853514604 0 0.0070473054922737888 0.012320587300649539 0 0.0078459797211946555 0.012605053303223373 0 0.0076777223115698911 0.013591346428861726 0 0.0070473054922737888 0.012320587300649539 0 0.0043474256022798113 0.0094517830466697064 0 0.0022077966641523661 0.0075154025066228296 0 0.0020562280213041149 0.0052505440007516958 0 0.001140342737817972 0.0036523799655799639 0 0.0018877164629132477 0.003057049965196425 0 0.00058959080852678944 0.0042717309769878002 0 0.0020562280213041149 0.0052505440007516958 0 0.001140342737817972 0.0036523799655799639 0 0.001140342737817972 0.0036523799655799639 0 0.0018877164629132477 0.003057049965196425 0 0.0011828941330827973 0.002760511359130188 0 -0.00071953998672297421 0.0062876952051469969 0 -0.0023316395382113118 0.0036028199925604667 0 0.0022077966641523661 0.0075154025066228296 0 -0.0023316395382113118 0.0036028199925604667 0 0.00040993033704368422 0.0058596561628224825 0 0.00034183984024998686 0.00477558576136066 0 -0.0015258069253508699 0.0050674099442832334 0 0.0022077966641523661 0.0075154025066228296 0 -0.00071953998672297421 0.0062876952051469969 0 -0.0056190206937531467 0.0026036434782998421 0 -0.005773701295765714 0.0026167475255800907 0 -0.0057841547507778163 0.0024291364032317684 0 0.0078733742454963757 0.013024876344206283 0 0.0032053738179100653 0.0098770723742834746 0 0.0078459797211946555 0.012605053303223373 0 0.0061294856554014541 0.011849746853514604 0 0.0070473054922737888 0.012320587300649539 0 0.0078733742454963757 0.013024876344206283 0 0.0022077966641523661 0.0075154025066228296 0 0.0066587616860261057 0.012110322920757107 0 0.0012225985371095429 0.0098918961364963705 0 0.0046956221077982191 0.0081226623956601653 0 0.0012225985371095429 0.0098918961364963705 0 0.0011473495591036722 0.0086826692801553855 0 0.0046956221077982191 0.0081226623956601653 0 -0.00071953998672297421 0.0062876952051469969 0 0.0032053738179100653 0.0098770723742834746 0 0.00037395801005547796 0.012153853182429139 0 -0.0011013304789959698 0.0091942857360186071 0 0.0025786271389116929 0.0084695471532434848 0 0.0032053738179100653 0.0098770723742834746 0 -0.0008690480053708537 0.0074841910898816276 0 -0.0015808694795842666 0.0084230961373110997 0 0.00063932322772333435 0.0080795945476135316 0 -0.0006607997115321701 0.0054778356348356592 0 -0.0015808694795842666 0.0084230961373110997 0 -0.001768544495347431 0.0056516252148096314 0 -0.0006607997115321701 0.0054778356348356592 0 -0.00071953998672297421 0.0062876952051469969 0 -0.0038131818234761667 0.0036499875491358383 0 -0.0056190206937531467 0.0026036434782998421 0 -0.0057841547507778163 0.0024291364032317684 0 -0.005693958896234491 0.0022873345892867711 0 -0.005773701295765714 0.0026167475255800907 0 -0.0057841547507778163 0.0024291364032317684 0 -0.0059334909660965825 0.0024022261937929343 0 -0.0057841547507778163 0.0024291364032317684 0 -0.005693958896234491 0.0022873345892867711 0 -0.0058835006171653638 0.0022537846000101436 0 -0.0048729194521404638 0.00075181191148874929 0 -0.0058329349693300118 0.0017374172678571202 0 -0.0059334909660965825 0.0024022261937929343 0 -0.0059631735386126879 0.002273720786384091 0 -0.0058835006171653638 0.0022537846000101436 0 -0.0023316395382113118 0.0036028199925604667 0 -0.0048729194521404638 0.00075181191148874929 0 -0.0057841547507778163 0.0024291364032317684 0 -0.0059334909660965825 0.0024022261937929343 0 -0.0058835006171653638 0.0022537846000101436 0 -0.00602896045687429 0.0023354096270017722 0 -0.0061661268407668937 0.0024278235189414471 0 -0.006011134074787019 0.0021737961801055476 0 -0.005773701295765714 0.0026167475255800907 0 -0.0059334909660965825 0.0024022261937929343 0 -0.0061661268407668937 0.0024278235189414471 0 -0.0059334909660965825 0.0024022261937929343 0 -0.00602896045687429 0.0023354096270017722 0 -0.0061661268407668937 0.0024278235189414471 0 -0.0059334909660965825 0.0024022261937929343 0 -0.00602896045687429 0.0023354096270017722 0 -0.0059631735386126879 0.002273720786384091 0 -0.0049916476311686903 8.850840750572506e-05 0 -0.0048819033595964862 0.00084259751290444249 0 -0.0039901832178642896 0.00043013451932561922 0 -0.0032002382711462246 0.0014773184671855722 0 -0.0034245015587781977 0.0020703450563522695 0 -0.0028066661745486019 0.0019831663308485007 0 -0.00060081684844908692 0.0044099069518357958 0 -0.0011940577444697327 0.0030969253686080442 0 -5.6671183004083929e-06 0.0029263111667127222 0 -0.005082320788484973 -4.5973246513458242e-05 0 -0.0045958555814418272 -0.00080497850168484084 0 -0.0044616266093936083 -0.00014770475613580717 0 -0.0043696866312238495 0.00098300095943133292 0 -0.0036040287119645351 -0.00023820484772221268 0 -0.003903976248148271 -0.00018964336422635226 0 -0.0048729194521404638 0.00075181191148874929 0 -0.003007041106318119 0.00084306350204484679 0 -0.0048729194521404638 0.00075181191148874929 0 -0.0033001075969582559 -0.00054158382746999345 0 -0.0033001075969582559 -0.00054158382746999345 0 -0.003007041106318119 0.00084306350204484679 0 -0.003007041106318119 0.00084306350204484679 0 -0.0010604524052772845 0.0023637833558066614 0 -0.0021878279992139844 0.0018980022569456043 0 -0.0032002382711462246 0.0014773184671855722 0 -0.0028066661745486019 0.0019831663308485007 0 0.001140342737817972 0.0036523799655799639 0 0.0011828941330827973 0.002760511359130188 0 -5.6671183004083929e-06 0.0029263111667127222 0 -0.0023316395382113118 0.0036028199925604667 0 -0.0010604524052772845 0.0023637833558066614 0 -0.0054667798234964027 0.0018731489829833597 0 -0.005119801980883321 0.0017118810042206854 0 -0.0054046200404282594 0.0013857079194691704 0 -0.0054667798234964027 0.0018731489829833597 0 -0.0054046200404282594 0.0013857079194691704 0 -0.0058856517696975258 0.0019737462677294651 0 -0.0056012793556385184 0.0021591234237966564 0 -0.0058856517696975258 0.0019737462677294651 0 -0.0058097096172057341 0.0023044711008845414 0 -0.0054667798234964027 0.0018731489829833597 0 -0.0056012793556385184 0.0021591234237966564 0 -0.0058856517696975258 0.0019737462677294651 0 -0.0054667798234964027 0.0018731489829833597 0 -0.0052607559091086597 0.002141370593290743 0 -0.005119801980883321 0.0017118810042206854 0 -0.0054667798234964027 0.0018731489829833597 0 -0.0056012793556385184 0.0021591234237966564 0 -0.0052607559091086597 0.002141370593290743 0 -0.0052607559091086597 0.002141370593290743 0 -0.0047979236286219938 0.0020285486316892315 0 -0.0049214532569747532 0.0025457207499122916 0 -0.0052607559091086597 0.002141370593290743 0 -0.0047979236286219938 0.0020285486316892315 0 -0.005119801980883321 0.0017118810042206854 0 -0.0047979236286219938 0.0020285486316892315 0 -0.0043020531248827761 0.0018232400976807329 0 -0.0044712772873226015 0.0023711919368736862 0 -0.0047979236286219938 0.0020285486316892315 0 -0.0047155632399678857 0.0015711490834783761 0 -0.0043020531248827761 0.0018232400976807329 0 -0.005119801980883321 0.0017118810042206854 0 -0.0049678782326354476 0.0012821315115637956 0 -0.0054046200404282594 0.0013857079194691704 0 -0.0047155632399678857 0.0015711490834783761 0 -0.005119801980883321 0.0017118810042206854 0 -0.0049678782326354476 0.0012821315115637956 0 -0.0047979236286219938 0.0020285486316892315 0 -0.0047155632399678857 0.0015711490834783761 0 -0.005119801980883321 0.0017118810042206854 0 -0.0048729194521404638 0.00075181191148874929 0 -0.005374453680600696 0.0010727350048211344 0 -0.0049678782326354476 0.0012821315115637956 0 -0.0048819033595964862 0.00084259751290444249 0 -0.0054046200404282594 0.0013857079194691704 0 -0.0049916476311686903 8.850840750572506e-05 0 -0.0048819033595964862 0.00084259751290444249 0 -0.0054046200404282594 0.0013857079194691704 0 -0.0047155632399678857 0.0015711490834783761 0 -0.0049678782326354476 0.0012821315115637956 0 -0.0044195035827316268 0.0012311032003563844 0 -0.0049678782326354476 0.0012821315115637956 0 -0.0048819033595964862 0.00084259751290444249 0 -0.0044195035827316268 0.0012311032003563844 0 -0.0054676369703841174 0.0010142002182049962 0 -0.0054046200404282594 0.0013857079194691704 0 -0.0058856517696975258 0.0019737462677294651 0 -0.0058329349693300118 0.0017374172678571202 0 -0.0058447366124879611 0.0018692770533671533 0 -0.004958699633549263 0.00016575103430287809 0 -0.0054676369703841174 0.0010142002182049962 0 -0.0054046200404282594 0.0013857079194691704 0 -0.006011134074787019 0.0021737961801055476 0 -0.0058948406615281996 0.0021040979690153858 0 -0.0058856517696975258 0.0019737462677294651 0 -0.00602896045687429 0.0023354096270017722 0 -0.006011134074787019 0.0021737961801055476 0 -0.0059631735386126879 0.002273720786384091 0 -0.006011134074787019 0.0021737961801055476 0 -0.0059368188628594141 0.0021915233539958551 0 -0.0058948406615281996 0.0021040979690153858 0 -0.0059368188628594141 0.0021915233539958551 0 -0.0058835006171653638 0.0022537846000101436 0 -0.0058948406615281996 0.0021040979690153858 0 -0.006011134074787019 0.0021737961801055476 0 -0.0059368188628594141 0.0021915233539958551 0 -0.0059631735386126879 0.002273720786384091 0 -0.0059368188628594141 0.0021915233539958551 0 -0.0059631735386126879 0.002273720786384091 0 -0.0058835006171653638 0.0022537846000101436 0 -0.005693958896234491 0.0022873345892867711 0 -0.0058948406615281996 0.0021040979690153858 0 -0.0058172705043615198 0.0020400686720323273 0 -0.005693958896234491 0.0022873345892867711 0 -0.0058835006171653638 0.0022537846000101436 0 -0.0058948406615281996 0.0021040979690153858 0 -0.0038131818234761667 0.0036499875491358383 0 -0.0038503951471679319 0.0034005106748727495 0 -0.0008690480053708537 0.0074841910898816276 0 -0.0038503951471679319 0.0034005106748727495 0 -0.001768544495347431 0.0056516252148096314 0 -0.0006607997115321701 0.0054778356348356592 0 -0.0019737644156428325 0.0028880256922607212 0 -0.0011013304789959698 0.0091942857360186071 0 -7.9698403402537227e-05 0.0061298680451949113 0 -0.0025794364817989896 0.0062324366295210456 0 -0.0011013304789959698 0.0091942857360186071 0 -7.9698403402537227e-05 0.0061298680451949113 0 0.0025786271389116929 0.0084695471532434848 0 -0.0038668575605485707 0.01189700153014411 0 -0.0038175868916825433 0.010393073716043994 0 -0.0018820659951643915 0.011347548485088017 0 -0.0038668575605485707 0.01189700153014411 0 -0.0054910543324622075 0.01043331080926788 0 -0.0038175868916825433 0.010393073716043994 0 -0.0016730309446176799 0.0093511506092108163 0 -0.0047479202192329557 0.0051096446786187341 0 -0.0058796773270175309 0.0020319642199667161 0 -0.0058172705043615198 0.0020400686720323273 0 -0.0059986296673033273 0.0020443160180007806 0 -0.0058796773270175309 0.0020319642199667161 0 -0.0059986296673033273 0.0020443160180007806 0 -0.0058856517696975258 0.0019737462677294651 0 -0.0058948406615281996 0.0021040979690153858 0 -0.0058796773270175309 0.0020319642199667161 0 -0.0058172705043615198 0.0020400686720323273 0 -0.0058948406615281996 0.0021040979690153858 0 -0.0058796773270175309 0.0020319642199667161 0 -0.0058856517696975258 0.0019737462677294651 0 -0.0038503951471679319 0.0034005106748727495 0 -0.0054559879938275739 0.00168064646628691 0 -7.9698403402537227e-05 0.0061298680451949113 0 -0.0025794364817989896 0.0062324366295210456 0 -0.0027439176400086492 0.003798330114710599 0 -0.0038503951471679319 0.0034005106748727495 0 -0.0047479202192329557 0.0051096446786187341 0 -0.0061179562155376259 0.0017112366895891274 0 -0.0059986296673033273 0.0020443160180007806 0 -0.0061816963445472045 0.0023066333933519029 0 -0.0059986296673033273 0.0020443160180007806 0 -0.0058856517696975258 0.0019737462677294651 0 -0.0058097096172057341 0.0023044711008845414 0 -0.0059986296673033273 0.0020443160180007806 0 -0.0061816963445472045 0.0023066333933519029 0 -0.0058097096172057341 0.0023044711008845414 0 -0.0047479202192329557 0.0051096446786187341 0 -0.0064166115292455779 0.0022327160232227228 0 -0.0047479202192329557 0.0051096446786187341 0 -0.0059578197835313419 0.0060720938483394271 0 -0.0062747357179858956 0.0024424507533506883 0 -0.0061791740032382456 0.0036299144795315309 0 -0.0056407445418997001 0.002978753341976561 0 -0.0054910543324622075 0.01043331080926788 0 -0.0044633933117159677 0.0091574853760028937 0 -0.0056558622591908842 0.0079918621596600983 0 -0.0061816963445472045 0.0023066333933519029 0 -0.0056407445418997001 0.002978753341976561 0 -0.0058097096172057341 0.0023044711008845414 0 -0.0054910543324622075 0.01043331080926788 0 -0.0038175868916825433 0.010393073716043994 0 -0.0044633933117159677 0.0091574853760028937 0 -0.0038175868916825433 0.010393073716043994 0 -0.0044633933117159677 0.0091574853760028937 0 -0.0028282000314292233 0.008909162276047539 0 -0.0043014252272351354 0.0078301754349328623 0 -0.0033639770922868112 0.0068159658142395198 0 -0.0028282000314292233 0.008909162276047539 0 -0.0044633933117159677 0.0091574853760028937 0 -0.0043014252272351354 0.0078301754349328623 0 -0.0028282000314292233 0.008909162276047539 0 -0.0044633933117159677 0.0091574853760028937 0 -0.0043014252272351354 0.0078301754349328623 0 -0.0056558622591908842 0.0079918621596600983 0 -0.0043014252272351354 0.0078301754349328623 0 -0.0056558622591908842 0.0079918621596600983 0 -0.0046239825992223597 0.0066489983799655518 0 -0.0053730737202332523 0.0038982303470097034 0 -0.0056407445418997001 0.002978753341976561 0 -0.0050862967234557837 0.0031639324569902533 0 -0.0061791740032382456 0.0036299144795315309 0 -0.0053730737202332523 0.0038982303470097034 0 -0.0056407445418997001 0.002978753341976561 0 -0.0054387432964811844 0.0025436855545391914 0 -0.0049214532569747532 0.0025457207499122916 0 -0.0050862967234557837 0.0031639324569902533 0 -0.0056407445418997001 0.002978753341976561 0 -0.0054387432964811844 0.0025436855545391914 0 -0.0050862967234557837 0.0031639324569902533 0 -0.0052607559091086597 0.002141370593290743 0 -0.0054387432964811844 0.0025436855545391914 0 -0.0049214532569747532 0.0025457207499122916 0 -0.0056012793556385184 0.0021591234237966564 0 -0.0052607559091086597 0.002141370593290743 0 -0.0054387432964811844 0.0025436855545391914 0 -0.0056407445418997001 0.002978753341976561 0 -0.0054387432964811844 0.0025436855545391914 0 -0.0058097096172057341 0.0023044711008845414 0 -0.0056012793556385184 0.0021591234237966564 0 -0.0054387432964811844 0.0025436855545391914 0 -0.0058097096172057341 0.0023044711008845414 0 -0.0049214532569747532 0.0025457207499122916 0 -0.0050862967234557837 0.0031639324569902533 0 -0.004432043077047889 0.0030227249523864415 0 -0.0047979236286219938 0.0020285486316892315 0 -0.0049214532569747532 0.0025457207499122916 0 -0.0044712772873226015 0.0023711919368736862 0 -0.0049214532569747532 0.0025457207499122916 0 -0.004432043077047889 0.0030227249523864415 0 -0.0044712772873226015 0.0023711919368736862 0 -0.0050862967234557837 0.0031639324569902533 0 -0.0048050962259042086 0.0038870052956984477 0 -0.004432043077047889 0.0030227249523864415 0 -0.0053730737202332523 0.0038982303470097034 0 -0.0050862967234557837 0.0031639324569902533 0 -0.0048050962259042086 0.0038870052956984477 0 -0.0048050962259042086 0.0038870052956984477 0 -0.0046805210511430767 0.0045371092632136853 0 -0.0052143923584939481 0.0047088192967692207 0 -0.0048050962259042086 0.0038870052956984477 0 -0.0046805210511430767 0.0045371092632136853 0 -0.0041697784823438739 0.0037243968501371946 0 -0.0053730737202332523 0.0038982303470097034 0 -0.0052143923584939481 0.0047088192967692207 0 -0.0055696983779654017 0.0051724529823921773 0 -0.0053730737202332523 0.0038982303470097034 0 -0.0048050962259042086 0.0038870052956984477 0 -0.0052143923584939481 0.0047088192967692207 0 -0.0052143923584939481 0.0047088192967692207 0 -0.0054029333151345326 0.0049031711608801022 0 -0.0049072300779084569 0.0051350415961609669 0 -0.0052143923584939481 0.0047088192967692207 0 -0.0054029333151345326 0.0049031711608801022 0 -0.0055696983779654017 0.0051724529823921773 0 -0.0046805210511430767 0.0045371092632136853 0 -0.0052143923584939481 0.0047088192967692207 0 -0.0049072300779084569 0.0051350415961609669 0 -0.0050485928339908445 0.0045991245611010636 0 -0.0049632555437923121 0.0076284972733538974 0 -0.0050396151641148171 0.006376482325745083 0 -0.0049632555437923121 0.0076284972733538974 0 -0.0049072300779084569 0.0051350415961609669 0 -0.0050147034660066592 0.0062228817828513545 0 -0.0062950869036057702 0.0060325323953099742 0 -0.0054029333151345326 0.0049031711608801022 0 -0.0049072300779084569 0.0051350415961609669 0 -0.0053526969184954955 0.0048405539733549184 0 -0.0047195975310852841 0.0066948559820722191 0 -0.005442816409092382 0.0067012019766508751 0 -0.0051214582347847218 0.0070730765623082401 0 -0.005442816409092382 0.0067012019766508751 0 -0.0051214582347847218 0.0070730765623082401 0 -0.0055349082147564321 0.0073595513986355289 0 -0.0051214582347847218 0.0070730765623082401 0 -0.0055349082147564321 0.0073595513986355289 0 -0.0051261145852344522 0.0074241497434744987 0 -0.0051214582347847218 0.0070730765623082401 0 -0.0047553156428149406 0.0071887318213716732 0 -0.0051261145852344522 0.0074241497434744987 0 -0.0047553156428149406 0.0071887318213716732 0 -0.004290456268824544 0.0070182761396312748 0 -0.0043663332794766571 0.0075503872947421018 0 -0.0047195975310852841 0.0066948559820722191 0 -0.0047553156428149406 0.0071887318213716732 0 -0.004290456268824544 0.0070182761396312748 0 -0.0047195975310852841 0.0066948559820722191 0 -0.0051214582347847218 0.0070730765623082401 0 -0.0047553156428149406 0.0071887318213716732 0 0.007586065418202767 0.025955160305840504 0 0.0074840421420868742 0.024292052403667018 0 0.0069499334264213515 0.025523880324940976 0 -0.00018019749867713737 0.016976385156268758 0 0.00042051961375556748 0.013470946183885887 0 -0.0021795842121953577 0.011482827662373638 0 -0.0027662890133006712 0.01179888189183761 0 -0.0021263101840922763 0.012363826740451249 0 -0.0064373344954270313 0.0075261742198966305 0 -0.0059628782180136163 0.0071257136326136417 0 -0.0060442133704360582 0.0075702279560177794 0 -0.00018019749867713737 0.016976385156268758 0 -0.0044177912313341436 0.0093642421577999815 0 -0.005442816409092382 0.0067012019766508751 0 -0.0055349082147564321 0.0073595513986355289 0 -0.0059628782180136163 0.0071257136326136417 0 -0.0055349082147564321 0.0073595513986355289 0 -0.0059628782180136163 0.0071257136326136417 0 -0.0060442133704360582 0.0075702279560177794 0 -0.0049632555437923121 0.0076284972733538974 0 -0.0044177912313341436 0.0093642421577999815 0 -0.0054029333151345326 0.0049031711608801022 0 -0.0050025174590687853 0.0044716633041379118 0 -0.0047671313512940225 0.0047535345757479574 0 -0.0054029333151345326 0.0049031711608801022 0 -0.0053526969184954955 0.0048405539733549184 0 -0.0050025174590687853 0.0044716633041379118 0 -0.0049632555437923121 0.0076284972733538974 0 -0.0043757423655167845 0.0083739613011189259 0 -0.0027662890133006712 0.01179888189183761 0 -0.0027459010085045454 0.012252112412060711 0 -0.0021263101840922763 0.012363826740451249 0 -0.0033788962694572574 0.012120179224345898 0 -0.0027662890133006712 0.01179888189183761 0 -0.0027459010085045454 0.012252112412060711 0 -0.0040421154224022839 0.0042814050668900493 0 -0.003826632316642251 0.0047977408775271473 0 -0.0047671313512940225 0.0047535345757479574 0 -0.0050025174590687853 0.0044716633041379118 0 -0.0040421154224022839 0.0042814050668900493 0 -0.0047671313512940225 0.0047535345757479574 0 -0.0043757423655167845 0.0083739613011189259 0 0.00042051961375556748 0.013470946183885887 0 0.00042051961375556748 0.013470946183885887 0 -0.0024810591397480134 0.0035062488023506777 0 -0.003826632316642251 0.0047977408775271473 0 -0.0047671313512940225 0.0047535345757479574 0 -0.004372805394988832 0.0055843529083136161 0 -0.003826632316642251 0.0047977408775271473 0 -0.004372805394988832 0.0055843529083136161 0 -0.0034515735554617117 0.0056950751200910421 0 -0.0054029333151345326 0.0049031711608801022 0 -0.0047671313512940225 0.0047535345757479574 0 -0.0055696983779654017 0.0051724529823921773 0 -0.0047671313512940225 0.0047535345757479574 0 -0.004372805394988832 0.0055843529083136161 0 -0.0055696983779654017 0.0051724529823921773 0 -0.0061791740032382456 0.0036299144795315309 0 -0.0053730737202332523 0.0038982303470097034 0 -0.0055696983779654017 0.0051724529823921773 0 -0.0059578197835313419 0.0060720938483394271 0 -0.0056492883450095076 0.005093833348365117 0 -0.0056558622591908842 0.0079918621596600983 0 -0.0055696983779654017 0.0051724529823921773 0 -0.0046239825992223597 0.0066489983799655518 0 -0.004372805394988832 0.0055843529083136161 0 -0.0055696983779654017 0.0051724529823921773 0 -0.0046239825992223597 0.0066489983799655518 0 -0.004372805394988832 0.0055843529083136161 0 -0.0034515735554617117 0.0056950751200910421 0 -0.0033639770922868112 0.0068159658142395198 0 -0.004372805394988832 0.0055843529083136161 0 -0.0046239825992223597 0.0066489983799655518 0 -0.0033639770922868112 0.0068159658142395198 0 -0.0043014252272351354 0.0078301754349328623 0 -0.0046239825992223597 0.0066489983799655518 0 -0.0033639770922868112 0.0068159658142395198 0 -0.0033639770922868112 0.0068159658142395198 0 -0.0021967103104010076 0.005685975700141563 0 -0.0017525025287265074 0.0075178691188073259 0 -0.0034515735554617117 0.0056950751200910421 0 -0.0033639770922868112 0.0068159658142395198 0 -0.0021967103104010076 0.005685975700141563 0 -0.00026385826350752549 0.0068259960396897046 0 -0.0021967103104010076 0.005685975700141563 0 -0.0017525025287265074 0.0075178691188073259 0 -0.00026385826350752549 0.0068259960396897046 0 -0.0021967103104010076 0.005685975700141563 0 -0.00057007276957066124 0.0042919108610795899 0 -0.0021967103104010076 0.005685975700141563 0 -0.0021601582951255678 0.0040134849610748598 0 -0.00057007276957066124 0.0042919108610795899 0 0.0025713148703519423 0.013664373248927773 0 0.0022870315551224928 0.017330238052125243 0 -0.003826632316642251 0.0047977408775271473 0 -0.0021967103104010076 0.005685975700141563 0 -0.0021601582951255678 0.0040134849610748598 0 -0.003826632316642251 0.0047977408775271473 0 -0.0034515735554617117 0.0056950751200910421 0 -0.0021967103104010076 0.005685975700141563 0 0.0074840421420868742 0.024292052403667018 0 0.0066858850464520548 0.024868257911911572 0 0.0064687587513156666 0.024175202488971495 0 0.00042051961375556748 0.013470946183885887 0 0.0023171940410802077 0.014190013424865864 0 -0.0038466508318692918 0.0037793636048934118 0 -0.003826632316642251 0.0047977408775271473 0 -0.0021601582951255678 0.0040134849610748598 0 0.0074840421420868742 0.024292052403667018 0 0.0066858850464520548 0.024868257911911572 0 0.0069499334264213515 0.025523880324940976 0 0.0066858850464520548 0.024868257911911572 0 0.0064687587513156666 0.024175202488971495 0 0.0060998854399586687 0.024708749667363621 0 0.0066858850464520548 0.024868257911911572 0 0.0060998854399586687 0.024708749667363621 0 0.006126986629478289 0.025242102548071077 0 0.0064687587513156666 0.024175202488971495 0 0.0054681066497122358 0.024004293498270823 0 0.0055116802633530092 0.024382467172185344 0 0.0064687587513156666 0.024175202488971495 0 0.0055116802633530092 0.024382467172185344 0 0.0060998854399586687 0.024708749667363621 0 0.0023171940410802077 0.014190013424865864 0 0.0022870315551224928 0.017330238052125243 0 0.0022870315551224928 0.017330238052125243 0 0.0033990353013405384 0.022165091653068018 0 0.0054925216749631307 0.023964087972708006 0 0.0055116802633530092 0.024382467172185344 0 0.0050302679936451312 0.024300027042725221 0 0.0055116802633530092 0.024382467172185344 0 0.0053027997962084095 0.024979171891081633 0 0.0050302679936451312 0.024300027042725221 0 0.0055116802633530092 0.024382467172185344 0 0.0057034839889714807 0.024841557971311028 0 0.0053027997962084095 0.024979171891081633 0 0.0055116802633530092 0.024382467172185344 0 0.0057034839889714807 0.024841557971311028 0 0.0060998854399586687 0.024708749667363621 0 0.0057034839889714807 0.024841557971311028 0 0.0060998854399586687 0.024708749667363621 0 0.006126986629478289 0.025242102548071077 0 0.0057034839889714807 0.024841557971311028 0 0.006126986629478289 0.025242102548071077 0 0.0057005204972535454 0.02541441815863716 0 0.006126986629478289 0.025242102548071077 0 0.0057005204972535454 0.02541441815863716 0 0.0061200940172726733 0.025758806833507935 0 0.0053027997962084095 0.024979171891081633 0 0.0057005204972535454 0.02541441815863716 0 0.0052169390448317124 0.025481426909758371 0 0.0057034839889714807 0.024841557971311028 0 0.0053027997962084095 0.024979171891081633 0 0.0057005204972535454 0.02541441815863716 0 0.0057005204972535454 0.02541441815863716 0 0.0052169390448317124 0.025481426909758371 0 0.0054448600086374928 0.026043915153035946 0 0.0057005204972535454 0.02541441815863716 0 0.0054448600086374928 0.026043915153035946 0 0.0061200940172726733 0.025758806833507935 0 0.0054448600086374928 0.026043915153035946 0 0.0061200940172726733 0.025758806833507935 0 0.0059676322868130183 0.026385463863272368 0 0.0061200940172726733 0.025758806833507935 0 0.0065154415624776559 0.026001066112712641 0 0.0059676322868130183 0.026385463863272368 0 0.0061200940172726733 0.025758806833507935 0 0.0065114851070319389 0.025556561701339828 0 0.0065154415624776559 0.026001066112712641 0 0.0065114851070319389 0.025556561701339828 0 0.0065154415624776559 0.026001066112712641 0 0.0069499334264213515 0.025523880324940976 0 0.0065154415624776559 0.026001066112712641 0 0.0069499334264213515 0.025523880324940976 0 0.0068962933202711772 0.026458418268312932 0 0.007586065418202767 0.025955160305840504 0 0.0069499334264213515 0.025523880324940976 0 0.0068962933202711772 0.026458418268312932 0 0.0066858850464520548 0.024868257911911572 0 0.0065114851070319389 0.025556561701339828 0 0.0069499334264213515 0.025523880324940976 0 0.0066858850464520548 0.024868257911911572 0 0.006126986629478289 0.025242102548071077 0 0.0065114851070319389 0.025556561701339828 0 0.006126986629478289 0.025242102548071077 0 0.0061200940172726733 0.025758806833507935 0 0.0065114851070319389 0.025556561701339828 0 0.0029611196785577203 0.025682168119274207 0 0.0039349867425024256 0.025705548756891516 0 0.0036843140283372307 0.024787252291979384 0 0.0039349867425024256 0.025705548756891516 0 0.0042369942672012802 0.025103421663730571 0 0.0036843140283372307 0.024787252291979384 0 0.0029611196785577203 0.025682168119274207 0 0.0039349867425024256 0.025705548756891516 0 0.0033742737159246391 0.026636174343774181 0 0.0039349867425024256 0.025705548756891516 0 0.0042698733329175542 0.026417613412347479 0 0.0033742737159246391 0.026636174343774181 0 0.0039349867425024256 0.025705548756891516 0 0.0047123967533182296 0.025781571390565864 0 0.0042698733329175542 0.026417613412347479 0 0.0054448600086374928 0.026043915153035946 0 0.0047123967533182296 0.025781571390565864 0 0.0049096252433921631 0.026823626746799206 0 0.0052169390448317124 0.025481426909758371 0 0.0054448600086374928 0.026043915153035946 0 0.0047123967533182296 0.025781571390565864 0 0.0052169390448317124 0.025481426909758371 0 0.0047123967533182296 0.025781571390565864 0 0.004783763739437832 0.024933035120275594 0 0.0053027997962084095 0.024979171891081633 0 0.0052169390448317124 0.025481426909758371 0 0.004783763739437832 0.024933035120275594 0 0.0047123967533182296 0.025781571390565864 0 0.0042369942672012802 0.025103421663730571 0 0.004783763739437832 0.024933035120275594 0 0.0039349867425024256 0.025705548756891516 0 0.0047123967533182296 0.025781571390565864 0 0.0042369942672012802 0.025103421663730571 0 0.0042369942672012802 0.025103421663730571 0 0.004783763739437832 0.024933035120275594 0 0.0042995754900021612 0.024340925139433523 0 0.004783763739437832 0.024933035120275594 0 0.0050302679936451312 0.024300027042725221 0 0.0042995754900021612 0.024340925139433523 0 0.0053027997962084095 0.024979171891081633 0 0.004783763739437832 0.024933035120275594 0 0.0050302679936451312 0.024300027042725221 0 0.0050302679936451312 0.024300027042725221 0 0.0042995754900021612 0.024340925139433523 0 0.0047708939602691723 0.023794374935860538 0 0.0022870315551224928 0.017330238052125243 0 0.005821541132246112 0.02188941355638117 0 0.0054925216749631307 0.023964087972708006 0 0.0050302679936451312 0.024300027042725221 0 0.0047708939602691723 0.023794374935860538 0 0.0042995754900021612 0.024340925139433523 0 0.0037104462523608619 0.023523395975396703 0 0.0047708939602691723 0.023794374935860538 0 0.0029843242020034444 0.024337590099906339 0 0.0036843140283372307 0.024787252291979384 0 0.0037104462523608619 0.023523395975396703 0 0.0029611196785577203 0.025682168119274207 0 0.0029843242020034444 0.024337590099906339 0 0.0036843140283372307 0.024787252291979384 0 0.0042995754900021612 0.024340925139433523 0 0.0036843140283372307 0.024787252291979384 0 0.0037104462523608619 0.023523395975396703 0 0.0042369942672012802 0.025103421663730571 0 0.0042995754900021612 0.024340925139433523 0 0.0036843140283372307 0.024787252291979384 0 0.0037104462523608619 0.023523395975396703 0 0.0039244396980447549 0.022087018663124316 0 0.0026521004874632951 0.022872199022053355 0 0.0029843242020034444 0.024337590099906339 0 0.0037104462523608619 0.023523395975396703 0 0.0026521004874632951 0.022872199022053355 0 0.0037104462523608619 0.023523395975396703 0 0.0046658099322094164 0.023037025722361715 0 0.0039244396980447549 0.022087018663124316 0 0.0053975280433434898 0.021952820901447657 0 0.0055366936989770668 0.023860574963509112 0 0.0046658099322094164 0.023037025722361715 0 0.0055366936989770668 0.023860574963509112 0 0.0047708939602691723 0.023794374935860538 0 0.0046658099322094164 0.023037025722361715 0 0.0037104462523608619 0.023523395975396703 0 0.0047708939602691723 0.023794374935860538 0 0.0046658099322094164 0.023037025722361715 0 0.0053975280433434898 0.021952820901447657 0 0.0046658099322094164 0.023037025722361715 0 0.0039244396980447549 0.022087018663124316 0 0.0039244396980447549 0.022087018663124316 0 0.0031400148652156465 0.021089799811356578 0 0.0026521004874632951 0.022872199022053355 0 0.0039244396980447549 0.022087018663124316 0 0.0042367017769675492 0.020635053331382061 0 0.0031400148652156465 0.021089799811356578 0 0.0042367017769675492 0.020635053331382061 0 0.003424090331776407 0.019994773650135696 0 0.0040038031826094772 0.019496792452897226 0 0.003424090331776407 0.019994773650135696 0 0.0040038031826094772 0.019496792452897226 0 0.0038006708265147363 0.018794741611635676 0 0.0042367017769675492 0.020635053331382061 0 0.0040038031826094772 0.019496792452897226 0 0.0046555454260950096 0.019481241506444039 0 0.0042367017769675492 0.020635053331382061 0 0.003424090331776407 0.019994773650135696 0 0.0031400148652156465 0.021089799811356578 0 0.0042367017769675492 0.020635053331382061 0 0.0053342984104469571 0.020146298766788598 0 0.0046555454260950096 0.019481241506444039 0 0.0053975280433434898 0.021952820901447657 0 0.0039244396980447549 0.022087018663124316 0 0.0042367017769675492 0.020635053331382061 0 0.0053975280433434898 0.021952820901447657 0 0.0042367017769675492 0.020635053331382061 0 0.0053342984104469571 0.020146298766788598 0 0.00013031834671339596 0.0094980290118294383 0 -0.0017525025287265074 0.0075178691188073259 0 -0.0028282000314292233 0.008909162276047539 0 0.0025713148703519423 0.013664373248927773 0 0.0027091977142600465 0.015024329080715569 0 -0.00026385826350752549 0.0068259960396897046 0 0.00013031834671339596 0.0094980290118294383 0 -0.0017525025287265074 0.0075178691188073259 0 -0.0033639770922868112 0.0068159658142395198 0 -0.0017525025287265074 0.0075178691188073259 0 -0.0028282000314292233 0.008909162276047539 0 -0.0038175868916825433 0.010393073716043994 0 -0.0028282000314292233 0.008909162276047539 0 -0.0018820659951643915 0.011347548485088017 0 0.00013031834671339596 0.0094980290118294383 0 -0.0028282000314292233 0.008909162276047539 0 -0.0018820659951643915 0.011347548485088017 0 -0.0018820659951643915 0.011347548485088017 0 0.0004912468519133673 0.012303478216371865 0 0.00045095703198233994 0.011972083280853734 0 0.00013031834671339596 0.0094980290118294383 0 -0.0018820659951643915 0.011347548485088017 0 0.00045095703198233994 0.011972083280853734 0 -0.0038668575605485707 0.01189700153014411 0 -0.0018820659951643915 0.011347548485088017 0 -0.0022238749043254776 0.013370079350229814 0 -0.0018820659951643915 0.011347548485088017 0 -0.0022238749043254776 0.013370079350229814 0 -0.00072325806292184369 0.013120576316386008 0 -0.0016730309446176799 0.0093511506092108163 0 -0.00028328480911838592 0.010589857683942652 0 -0.00054197798328367336 0.014842183471079641 0 -0.00072325806292184369 0.013120576316386008 0 0.00054663189236434106 0.013754019258828406 0 -0.00054197798328367336 0.014842183471079641 0 -0.0022238749043254776 0.013370079350229814 0 -0.00072325806292184369 0.013120576316386008 0 -0.0018820659951643915 0.011347548485088017 0 -0.00072325806292184369 0.013120576316386008 0 0.0004912468519133673 0.012303478216371865 0 -0.00072325806292184369 0.013120576316386008 0 0.00054663189236434106 0.013754019258828406 0 0.0004912468519133673 0.012303478216371865 0 0.0052658395269387492 0.017365960529361749 0 0.0038006708265147363 0.018794741611635676 0 0.0046945189081747463 0.018644786847167017 0 0.018514290715761578 0.024607736520742763 0 0.018854390056491876 0.024612986819650427 0 0.018489788610233475 0.025259452697678618 0 0.0052658395269387492 0.017365960529361749 0 0.0052444564785880171 0.018286378033275059 0 0.0046945189081747463 0.018644786847167017 0 0.0087092165565793474 0.018818651408269032 0 0.011678617930908476 0.02229720799639414 0 0.0087092165565793474 0.018818651408269032 0 0.0034127634902381978 0.014742896135668131 0 0.018514290715761578 0.024607736520742763 0 0.018489788610233475 0.025259452697678618 0 0.018323401829956482 0.02517629759471985 0 0.019704659741546882 0.024715987674249786 0 0.018756382372598728 0.024940058414931646 0 0.020037893278685989 0.02382326556552463 0 0.019428861225723296 0.023972085177795331 0 0.019243431631783822 0.024828495255174568 0 0.0040038031826094772 0.019496792452897226 0 0.0038006708265147363 0.018794741611635676 0 0.0046945189081747463 0.018644786847167017 0 0.0046555454260950096 0.019481241506444039 0 0.005257092607536944 0.018495649346739029 0 0.0046945189081747463 0.018644786847167017 0 0.0027091977142600465 0.015024329080715569 0 0.0031763170926362686 0.015027574088748882 0 0.0040038031826094772 0.019496792452897226 0 0.0046555454260950096 0.019481241506444039 0 0.0046945189081747463 0.018644786847167017 0 0.0053342984104469571 0.020146298766788598 0 0.0046555454260950096 0.019481241506444039 0 0.005257092607536944 0.018495649346739029 0 0.0052444564785880171 0.018286378033275059 0 0.005257092607536944 0.018495649346739029 0 0.0046945189081747463 0.018644786847167017 0 0.0034127634902381978 0.014742896135668131 0 0.0031763170926362686 0.015027574088748882 0 0.018500300131037106 0.025037181446566019 0 0.018652864226346856 0.024524669799552951 0 0.018206812077224511 0.024699958144291871 0 0.018500300131037106 0.025037181446566019 0 0.017993663548967018 0.025273716603672173 0 0.018206812077224511 0.024699958144291871 0 0.017993663548967018 0.025273716603672173 0 0.018206812077224511 0.024699958144291871 0 0.01773327728784321 0.024879532903298147 0 0.017993663548967018 0.025273716603672173 0 0.017472448406231317 0.025393284305511552 0 0.017869632381964741 0.025793442778567092 0 0.018500300131037106 0.025037181446566019 0 0.017993663548967018 0.025273716603672173 0 0.01827425272290769 0.025747129283902853 0 0.018489788610233475 0.025259452697678618 0 0.018323401829956482 0.02517629759471985 0 0.01827425272290769 0.025747129283902853 0 0.018500300131037106 0.025037181446566019 0 0.019243431631783822 0.024828495255174568 0 0.01827425272290769 0.025747129283902853 0 0.018756382372598728 0.024940058414931646 0 0.018319838024553968 0.02567904576059088 0 0.018500300131037106 0.025037181446566019 0 0.019243431631783822 0.024828495255174568 0 0.018652864226346856 0.024524669799552951 0 0.019243431631783822 0.024828495255174568 0 0.018652864226346856 0.024524669799552951 0 0.018964106388285107 0.023980400081493151 0 0.019428861225723296 0.023972085177795331 0 0.019243431631783822 0.024828495255174568 0 0.018964106388285107 0.023980400081493151 0 0.018652864226346856 0.024524669799552951 0 0.018964106388285107 0.023980400081493151 0 0.018405604779969914 0.024100844915413536 0 0.018652864226346856 0.024524669799552951 0 0.018405604779969914 0.024100844915413536 0 0.018206812077224511 0.024699958144291871 0 0.018206812077224511 0.024699958144291871 0 0.017863827122404474 0.024201075084564139 0 0.01773327728784321 0.024879532903298147 0 0.018405604779969914 0.024100844915413536 0 0.018206812077224511 0.024699958144291871 0 0.017863827122404474 0.024201075084564139 0 0.01742178160292987 0.023996637278937947 0 0.017863827122404474 0.024201075084564139 0 0.017141672429352418 0.024818215700160438 0 0.017863827122404474 0.024201075084564139 0 0.017141672429352418 0.024818215700160438 0 0.01773327728784321 0.024879532903298147 0 0.016782433723820784 0.024054348354449962 0 0.017141672429352418 0.024818215700160438 0 0.016249216072597546 0.024710064669535518 0 0.016782433723820784 0.024054348354449962 0 0.01742178160292987 0.023996637278937947 0 0.017141672429352418 0.024818215700160438 0 0.017141672429352418 0.024818215700160438 0 0.016819021052630348 0.025612302903536503 0 0.016343967709198465 0.025264036657058585 0 0.017141672429352418 0.024818215700160438 0 0.016343967709198465 0.025264036657058585 0 0.016249216072597546 0.024710064669535518 0 0.017141672429352418 0.024818215700160438 0 0.017472448406231317 0.025393284305511552 0 0.016819021052630348 0.025612302903536503 0 0.017141672429352418 0.024818215700160438 0 0.01773327728784321 0.024879532903298147 0 0.017472448406231317 0.025393284305511552 0 0.017993663548967018 0.025273716603672173 0 0.01773327728784321 0.024879532903298147 0 0.017472448406231317 0.025393284305511552 0 0.017472448406231317 0.025393284305511552 0 0.017261769668953916 0.025853404737072035 0 0.017869632381964741 0.025793442778567092 0 0.017261769668953916 0.025853404737072035 0 0.016819021052630348 0.025612302903536503 0 0.016908488559276191 0.026356669544803819 0 0.017472448406231317 0.025393284305511552 0 0.017261769668953916 0.025853404737072035 0 0.016819021052630348 0.025612302903536503 0 0.017261769668953916 0.025853404737072035 0 0.017621921589819105 0.026269873298381631 0 0.016908488559276191 0.026356669544803819 0 0.017261769668953916 0.025853404737072035 0 0.017621921589819105 0.026269873298381631 0 0.017869632381964741 0.025793442778567092 0 0.016819021052630348 0.025612302903536503 0 0.016083584980892622 0.02603540566480458 0 0.016343967709198465 0.025264036657058585 0 0.016819021052630348 0.025612302903536503 0 0.016908488559276191 0.026356669544803819 0 0.016083584980892622 0.02603540566480458 0 0.016908488559276191 0.026356669544803819 0 0.016269733246113062 0.026763337684028426 0 0.016083584980892622 0.02603540566480458 0 0.016908488559276191 0.026356669544803819 0 0.016269733246113062 0.026763337684028426 0 0.016608787334121543 0.027236924403188225 0 0.016269733246113062 0.026763337684028426 0 0.016608787334121543 0.027236924403188225 0 0.016001059975163181 0.02733896183465153 0 0.016908488559276191 0.026356669544803819 0 0.017431590013942233 0.027229076339728941 0 0.016608787334121543 0.027236924403188225 0 0.017621921589819105 0.026269873298381631 0 0.016908488559276191 0.026356669544803819 0 0.017431590013942233 0.027229076339728941 0 0.0021328498142707672 0.020258822258732743 0 0.0018194539944384027 0.022536153794816643 0 -0.00017961361380458351 0.022481141400084118 0 0.017621921589819105 0.026269873298381631 0 0.018387780514755134 0.026005132984867781 0 0.017431590013942233 0.027229076339728941 0 0.010099098979445593 0.023149578754656876 0 0.008830315841722924 0.0248009485131373 0 0.017621921589819105 0.026269873298381631 0 0.017869632381964741 0.025793442778567092 0 0.018387780514755134 0.026005132984867781 0 0.01827425272290769 0.025747129283902853 0 0.017869632381964741 0.025793442778567092 0 0.018387780514755134 0.026005132984867781 0 0.017993663548967018 0.025273716603672173 0 0.01827425272290769 0.025747129283902853 0 0.017869632381964741 0.025793442778567092 0 0.018489788610233475 0.025259452697678618 0 0.01827425272290769 0.025747129283902853 0 0.018387780514755134 0.026005132984867781 0 0.011678617930908476 0.02229720799639414 0 0.010099098979445593 0.023149578754656876 0 0.003424090331776407 0.019994773650135696 0 0.0021328498142707672 0.020258822258732743 0 0.0031400148652156465 0.021089799811356578 0 0.003424090331776407 0.019994773650135696 0 0.0038006708265147363 0.018794741611635676 0 0.0021328498142707672 0.020258822258732743 0 0.0021328498142707672 0.020258822258732743 0 0.0031400148652156465 0.021089799811356578 0 0.0018194539944384027 0.022536153794816643 0 0.0031323579739832674 0.021241761663218013 0 0.0028519400411497033 0.023641437979362596 0 0.0018194539944384027 0.022536153794816643 0 0.00091455627140957934 0.024810252172376156 0 0.003089744288292561 0.024407464831490741 0 0.0031400148652156465 0.021089799811356578 0 0.0018194539944384027 0.022536153794816643 0 0.003089744288292561 0.024407464831490741 0 0.0018194539944384027 0.022536153794816643 0 0.00091455627140957934 0.024810252172376156 0 -0.00017961361380458351 0.022481141400084118 0 0.00091455627140957934 0.024810252172376156 0 0.003089744288292561 0.024407464831490741 0 0.0013345723345055643 0.026990631598270441 0 0.003089744288292561 0.024407464831490741 0 0.0025411455226701934 0.028100455029061049 0 0.0013345723345055643 0.026990631598270441 0 0.0029611196785577203 0.025682168119274207 0 0.0029843242020034444 0.024337590099906339 0 0.0020844735799988704 0.024988547595482798 0 0.0029843242020034444 0.024337590099906339 0 0.0026521004874632951 0.022872199022053355 0 0.0020844735799988704 0.024988547595482798 0 0.0028519400411497033 0.023641437979362596 0 0.002298848138318607 0.02653309522525658 0 0.0025411455226701934 0.028100455029061049 0 0.0013345723345055643 0.026990631598270441 0 0.0020289039235500818 0.028620545725876471 0 0.0024869756022594925 0.028859996500003909 0 -0.0011899315770547059 0.027115452637860943 0 0.00091455627140957934 0.024810252172376156 0 0.0013345723345055643 0.026990631598270441 0 -0.00029380170506088592 0.026678747918983683 0 0.0010105546871886641 0.028816611718857708 0 0.0020289039235500818 0.028620545725876471 0 0.00061028360748841437 0.02839014471422395 0 0.0013345723345055643 0.026990631598270441 0 0.0020289039235500818 0.028620545725876471 0 -0.00029380170506088592 0.026678747918983683 0 0.0010105546871886641 0.028816611718857708 0 0.0012760168605895027 0.02904422188240038 0 0.0020289039235500818 0.028620545725876471 0 0.0010105546871886641 0.028816611718857708 0 0.0012760168605895027 0.02904422188240038 0 0.00080976990383367089 0.029195505007283476 0 0.0012760168605895027 0.02904422188240038 0 0.00080976990383367089 0.029195505007283476 0 0.001314680558752565 0.029642114955588553 0 0.0012760168605895027 0.02904422188240038 0 0.0020289039235500818 0.028620545725876471 0 0.001314680558752565 0.029642114955588553 0 0.0029611196785577203 0.025682168119274207 0 0.0020844735799988704 0.024988547595482798 0 0.0014497906366538974 0.027646076274287317 0 0.0025411455226701934 0.028100455029061049 0 0.0020289039235500818 0.028620545725876471 0 0.0018154558709247602 0.030358589028276872 0 0.002298848138318607 0.02653309522525658 0 0.0016616846681940702 0.029012332726243647 0 -1.6394698841207162e-05 0.028902310991587594 0 -0.00033073702003000896 0.029073275415467621 0 0.00014737226418835142 0.029199093644960823 0 -0.00033073702003000896 0.029073275415467621 0 -0.0003354884496430403 0.029450530562187639 0 0.00014737226418835142 0.029199093644960823 0 -0.00033073702003000896 0.029073275415467621 0 -0.00066057903955251632 0.02899688276247038 0 -0.00062469407021022475 0.029293963080702232 0 -0.00033073702003000896 0.029073275415467621 0 -0.0003354884496430403 0.029450530562187639 0 -0.00062469407021022475 0.029293963080702232 0 -0.0003354884496430403 0.029450530562187639 0 -0.0006262659023831273 0.029592981424638645 0 -0.00062469407021022475 0.029293963080702232 0 -0.0003354884496430403 0.029450530562187639 0 0.00014737226418835142 0.029199093644960823 0 7.094687715070703e-05 0.029879722606419416 0 0.00041162192202754354 0.029527313698117216 0 0.00014737226418835142 0.029199093644960823 0 7.094687715070703e-05 0.029879722606419416 0 0.00041162192202754354 0.029527313698117216 0 0.00080976990383367089 0.029195505007283476 0 0.00014737226418835142 0.029199093644960823 0 0.00041162192202754354 0.029527313698117216 0 0.00080976990383367089 0.029195505007283476 0 0.00063581483757694157 0.029904953713346966 0 0.00080976990383367089 0.029195505007283476 0 0.00046288365022899324 0.028822083236605206 0 0.00014737226418835142 0.029199093644960823 0 0.0010105546871886641 0.028816611718857708 0 0.00080976990383367089 0.029195505007283476 0 0.00046288365022899324 0.028822083236605206 0 -1.6394698841207162e-05 0.028902310991587594 0 0.00046288365022899324 0.028822083236605206 0 0.00014737226418835142 0.029199093644960823 0 -1.6394698841207162e-05 0.028902310991587594 0 0.00046288365022899324 0.028822083236605206 0 0.00012923028988948477 0.028596949929212603 0 0.00046288365022899324 0.028822083236605206 0 0.00012923028988948477 0.028596949929212603 0 0.00061028360748841437 0.02839014471422395 0 0.00012923028988948477 0.028596949929212603 0 0.00061028360748841437 0.02839014471422395 0 -0.00022775829151772922 0.027875947609491126 0 0.0010105546871886641 0.028816611718857708 0 0.00046288365022899324 0.028822083236605206 0 0.00061028360748841437 0.02839014471422395 0 0.00012923028988948477 0.028596949929212603 0 -0.00030343301372396032 0.028697337587433466 0 -0.00040460942487346345 0.028361944135203196 0 -9.6541805215847879e-05 0.028520690266998747 0 0.0006951153628645772 0.027788342547542498 0 -1.6394698841207162e-05 0.028902310991587594 0 0.00012923028988948477 0.028596949929212603 0 -0.00030343301372396032 0.028697337587433466 0 -1.6394698841207162e-05 0.028902310991587594 0 -0.00033073702003000896 0.029073275415467621 0 -0.00030343301372396032 0.028697337587433466 0 -0.00033073702003000896 0.029073275415467621 0 -0.00030343301372396032 0.028697337587433466 0 -0.00066057903955251632 0.02899688276247038 0 -0.00030343301372396032 0.028697337587433466 0 -0.00048542715669225707 0.028664884735356732 0 -0.00066057903955251632 0.02899688276247038 0 -0.00030343301372396032 0.028697337587433466 0 -0.00040460942487346345 0.028361944135203196 0 -0.00048542715669225707 0.028664884735356732 0 0.0006951153628645772 0.027788342547542498 0 -5.3628363922265162e-05 0.028389175116250033 0 0.00012923028988948477 0.028596949929212603 0 -0.00038013197999697037 0.02803049358076562 0 -0.00022775829151772922 0.027875947609491126 0 -0.00040460942487346345 0.028361944135203196 0 -0.00051556615942202491 0.028505554676079764 0 -0.00048542715669225707 0.028664884735356732 0 0.0006951153628645772 0.027788342547542498 0 0.0058977645484664639 0.026648796730227652 0 0.00091455627140957934 0.024810252172376156 0 -0.00029380170506088592 0.026678747918983683 0 -0.00058783058410587176 0.024741674656292869 0 -0.0011899315770547059 0.027115452637860943 0 0.0058977645484664639 0.026648796730227652 0 -0.00029380170506088592 0.026678747918983683 0 -0.0024876775423466448 0.024876400142679302 0 -0.00058783058410587176 0.024741674656292869 0 -0.0024876775423466448 0.024876400142679302 0 -0.00058783058410587176 0.024741674656292869 0 -0.00017961361380458351 0.022481141400084118 0 0.00091455627140957934 0.024810252172376156 0 -0.00058783058410587176 0.024741674656292869 0 -0.00017961361380458351 0.022481141400084118 0 0.0058977645484664639 0.026648796730227652 0 0.008830315841722924 0.0248009485131373 0 0.016281167252060975 0.028337992722955039 0 0.016608787334121543 0.027236924403188225 0 0.016001059975163181 0.02733896183465153 0 0.016281167252060975 0.028337992722955039 0 0.017431590013942233 0.027229076339728941 0 0.016608787334121543 0.027236924403188225 0 0.016281167252060975 0.028337992722955039 0 0.016001059975163181 0.02733896183465153 0 0.015187111777360675 0.027480505177721548 0 0.0058977645484664639 0.026648796730227652 0 0.0051763221523419365 0.032736064413190671 0 0.016001059975163181 0.02733896183465153 0 0.015187111777360675 0.027480505177721548 0 0.015762701942964644 0.026777043180494946 0 3.5942241403427368e-05 0.035088811947953824 0 9.880352553232066e-05 0.035052321856705301 0 0.00019175846402342051 0.035092526345154106 0 3.2639158572162132e-05 0.035075574911462723 0 7.4008779234437379e-05 0.03503499660007612 0 5.1058673016618426e-05 0.035002655100986102 0 3.5942241403427368e-05 0.035088811947953824 0 3.2639158572162132e-05 0.035075574911462723 0 9.880352553232066e-05 0.035052321856705301 0 0.0031535803828845166 0.034286711265381783 0 0.0051763221523419365 0.032736064413190671 0 3.2639158572162132e-05 0.035075574911462723 0 7.4008779234437379e-05 0.03503499660007612 0 9.880352553232066e-05 0.035052321856705301 0 7.4008779234437379e-05 0.03503499660007612 0 9.880352553232066e-05 0.035052321856705301 0 9.7730009193041972e-05 0.03501692896022375 0 3.2639158572162132e-05 0.035075574911462723 0 5.1058673016618426e-05 0.035002655100986102 0 2.1016644219060167e-05 0.034974207822885794 0 0.0051763221523419365 0.032736064413190671 0 -0.00099554102143235867 0.031379350744210929 0 7.4008779234437379e-05 0.03503499660007612 0 5.1058673016618426e-05 0.035002655100986102 0 9.7730009193041972e-05 0.03501692896022375 0 5.1058673016618426e-05 0.035002655100986102 0 3.0627789502402002e-05 0.034986503343598166 0 2.1016644219060167e-05 0.034974207822885794 0 5.1058673016618426e-05 0.035002655100986102 0 4.8362082117045648e-05 0.034996301683870419 0 9.7730009193041972e-05 0.03501692896022375 0 5.1058673016618426e-05 0.035002655100986102 0 3.0627789502402002e-05 0.034986503343598166 0 4.8362082117045648e-05 0.034996301683870419 0 0.0006951153628645772 0.027788342547542498 0 0.0051763221523419365 0.032736064413190671 0 -0.0009452635237863124 0.027817962377184657 0 -0.0010490921857930224 0.028345733086170725 0 -0.00073049019906272462 0.028367121925152675 0 -0.00039960830890897178 0.028355677704883592 0 -0.0009452635237863124 0.027817962377184657 0 -0.00073049019906272462 0.028367121925152675 0 0.0025847292590713438 0.027897199699255599 0 0.0019253305218285026 0.028555970809223018 0 0.0060828792109203847 0.031430725647315055 0 -0.0010490921857930224 0.028345733086170725 0 -0.00073049019906272462 0.028367121925152675 0 -0.00081446814039995376 0.028816062138249353 0 -0.00039960830890897178 0.028355677704883592 0 -0.00073049019906272462 0.028367121925152675 0 -0.00051556615942202491 0.028505554676079764 0 -0.00073049019906272462 0.028367121925152675 0 -0.00051556615942202491 0.028505554676079764 0 -0.00063269947259636202 0.028703339204610462 0 -0.00066057903955251632 0.02899688276247038 0 -0.00081446814039995376 0.028816062138249353 0 -0.001002521376774274 0.029401393882216832 0 -0.00063269947259636202 0.028703339204610462 0 -0.00048542715669225707 0.028664884735356732 0 -0.00066057903955251632 0.02899688276247038 0 -0.00081901433098156612 0.028930150312721524 0 -0.00071893080351749354 0.030409944411458889 0 -0.00063269947259636202 0.028703339204610462 0 -0.00066057903955251632 0.02899688276247038 0 -0.00081446814039995376 0.028816062138249353 0 -0.00099554102143235867 0.031379350744210929 0 -0.00043732910433299534 0.032871207406562158 0 -0.00051556615942202491 0.028505554676079764 0 -0.00063269947259636202 0.028703339204610462 0 -0.00048542715669225707 0.028664884735356732 0 -0.0010490921857930224 0.028345733086170725 0 -0.00081446814039995376 0.028816062138249353 0 -0.00093255819025359846 0.030644191824550533 0 -0.00073049019906272462 0.028367121925152675 0 -0.00063269947259636202 0.028703339204610462 0 -0.00081446814039995376 0.028816062138249353 0 3.0627789502402002e-05 0.034986503343598166 0 2.1016644219060167e-05 0.034974207822885794 0 3.635240348174226e-06 0.034983558143406097 0 2.1016644219060167e-05 0.034974207822885794 0 3.635240348174226e-06 0.034983558143406097 0 -3.8787589125146534e-05 0.034978410474880255 0 4.8362082117045648e-05 0.034996301683870419 0 3.635240348174226e-06 0.034983558143406097 0 3.0966938753885392e-05 0.034995769662700328 0 3.0627789502402002e-05 0.034986503343598166 0 4.8362082117045648e-05 0.034996301683870419 0 3.635240348174226e-06 0.034983558143406097 0 3.635240348174226e-06 0.034983558143406097 0 -1.0586824606765305e-05 0.03498539953061397 0 3.0966938753885392e-05 0.034995769662700328 0 3.635240348174226e-06 0.034983558143406097 0 -1.0586824606765305e-05 0.03498539953061397 0 -3.8787589125146534e-05 0.034978410474880255 0 -1.0586824606765305e-05 0.03498539953061397 0 -2.3046884992620517e-05 0.03497323713709477 0 -6.1479331901647196e-05 0.034971386153851605 0 -1.0586824606765305e-05 0.03498539953061397 0 -3.8787589125146534e-05 0.034978410474880255 0 -6.1479331901647196e-05 0.034971386153851605 0 -0.00043478950723050449 0.03140035989889662 0 -0.00093255819025359846 0.030644191824550533 0 -0.00064356678715569884 0.033034589161703931 0 -0.00081446814039995376 0.028816062138249353 0 -0.00043478950723050449 0.03140035989889662 0 -0.00093255819025359846 0.030644191824550533 0 -0.001002521376774274 0.029401393882216832 0 -0.0006262659023831273 0.029592981424638645 0 -0.00062469407021022475 0.029293963080702232 0 -0.00066057903955251632 0.02899688276247038 0 -0.001002521376774274 0.029401393882216832 0 -0.00062469407021022475 0.029293963080702232 0 6.7717648634437193e-06 0.034995974973446836 0 -2.4984912804754739e-07 0.035000847704124843 0 8.6789926084742848e-08 0.034999751982719735 0 -1.0586824606765305e-05 0.03498539953061397 0 6.7717648634437193e-06 0.034995974973446836 0 -2.3046884992620517e-05 0.03497323713709477 0 -1.0586824606765305e-05 0.03498539953061397 0 6.7717648634437193e-06 0.034995974973446836 0 3.0966938753885392e-05 0.034995769662700328 0 4.8362082117045648e-05 0.034996301683870419 0 3.0966938753885392e-05 0.034995769662700328 0 7.1979813595847997e-05 0.035013824193496322 0 6.7717648634437193e-06 0.034995974973446836 0 3.0966938753885392e-05 0.034995769662700328 0 -2.4984912804754739e-07 0.035000847704124843 0 3.0966938753885392e-05 0.034995769662700328 0 -2.4984912804754739e-07 0.035000847704124843 0 7.1979813595847997e-05 0.035013824193496322 0 -2.4984912804754739e-07 0.035000847704124843 0 7.1979813595847997e-05 0.035013824193496322 0 1.1834439582481273e-06 0.034996985812865498 0 7.1979813595847997e-05 0.035013824193496322 0 0.0001490426732100601 0.035023078892036034 0 1.1834439582481273e-06 0.034996985812865498 0 4.8362082117045648e-05 0.034996301683870419 0 7.1979813595847997e-05 0.035013824193496322 0 9.7730009193041972e-05 0.03501692896022375 0 7.1979813595847997e-05 0.035013824193496322 0 9.7730009193041972e-05 0.03501692896022375 0 0.0001490426732100601 0.035023078892036034 0 0.0001490426732100601 0.035023078892036034 0 0.00019175846402342051 0.035092526345154106 0 0.00034760760269398889 0.035156680759582802 0 9.880352553232066e-05 0.035052321856705301 0 9.7730009193041972e-05 0.03501692896022375 0 0.00014099301680145154 0.035041522582830359 0 9.880352553232066e-05 0.035052321856705301 0 0.00014099301680145154 0.035041522582830359 0 0.00019175846402342051 0.035092526345154106 0 9.7730009193041972e-05 0.03501692896022375 0 0.00014099301680145154 0.035041522582830359 0 0.0001490426732100601 0.035023078892036034 0 0.00014099301680145154 0.035041522582830359 0 0.0001490426732100601 0.035023078892036034 0 0.00019175846402342051 0.035092526345154106 0 0.0001490426732100601 0.035023078892036034 0 1.1834439582481273e-06 0.034996985812865498 0 0.00034760760269398889 0.035156680759582802 0 1.1834439582481273e-06 0.034996985812865498 0 0.00034760760269398889 0.035156680759582802 0 -2.7337844763922504e-06 0.035012660295712865 0 0.00034760760269398889 0.035156680759582802 0 0.00066444380325530702 0.035328758630650575 0 -2.7337844763922504e-06 0.035012660295712865 0 0.00034760760269398889 0.035156680759582802 0 0.00066444380325530702 0.035328758630650575 0 0.00035953030403048519 0.03521770523444083 0 -2.7337844763922504e-06 0.035012660295712865 0 0.0015089391761521414 0.03622374109941455 0 1.8319972387104039e-05 0.034963928043403647 0 0.00066444380325530702 0.035328758630650575 0 -2.7337844763922504e-06 0.035012660295712865 0 0.0015089391761521414 0.03622374109941455 0 0.00066444380325530702 0.035328758630650575 0 0.0015089391761521414 0.03622374109941455 0 0.00035953030403048519 0.03521770523444083 0 0.0015089391761521414 0.03622374109941455 0 0.0053462990038518786 0.036778214938770995 0 0.0051252767006590445 0.039674501345078321 0 0.0014109147303744956 0.036181513765975913 0 0.0025556999031851831 0.037796577144519922 0 0.0015089391761521414 0.03622374109941455 0 -0.0003793000664824664 0.035153193702877977 0 0.00035953030403048519 0.03521770523444083 0 -0.0016345696641880615 0.033982764231064132 0 -0.0003793000664824664 0.035153193702877977 0 0.00035953030403048519 0.03521770523444083 0 0.0031535803828845166 0.034286711265381783 0 -0.0011872590823787867 0.034976506883472369 0 3.5942241403427368e-05 0.035088811947953824 0 0.00019175846402342051 0.035092526345154106 0 0.00035953030403048519 0.03521770523444083 0 0.00019175846402342051 0.035092526345154106 0 0.00034760760269398889 0.035156680759582802 0 0.00035953030403048519 0.03521770523444083 0 0.0073780938327062473 0.041680150805141321 0 0.0075732226740941886 0.041878408593641891 0 0.0074714909763825155 0.038359129843797357 0 0.0031535803828845166 0.034286711265381783 0 0.0025556999031851831 0.037796577144519922 0 0.0051763221523419365 0.032736064413190671 0 0.01204767474110688 0.032799136568705409 0 0.0073780938327062473 0.041680150805141321 0 0.0051252767006590445 0.039674501345078321 0 0.0074714909763825155 0.038359129843797357 0 0.015187111777360675 0.027480505177721548 0 0.015762701942964644 0.026777043180494946 0 0.015283171954626152 0.026296506117382615 0 0.016269733246113062 0.026763337684028426 0 0.016001059975163181 0.02733896183465153 0 0.015762701942964644 0.026777043180494946 0 0.016269733246113062 0.026763337684028426 0 0.015762701942964644 0.026777043180494946 0 0.016083584980892622 0.02603540566480458 0 0.015762701942964644 0.026777043180494946 0 0.016083584980892622 0.02603540566480458 0 0.015283171954626152 0.026296506117382615 0 0.016083584980892622 0.02603540566480458 0 0.015283171954626152 0.026296506117382615 0 0.015445803746055198 0.025153554456556503 0 0.0053462990038518786 0.036778214938770995 0 0.0051252767006590445 0.039674501345078321 0 0.0074714909763825155 0.038359129843797357 0 0.01204767474110688 0.032799136568705409 0 0.011800488582946401 0.030125261312927667 0 0.0053462990038518786 0.036778214938770995 0 0.0074714909763825155 0.038359129843797357 0 0.0080405366729217921 0.035430644897208881 0 0.015445803746055198 0.025153554456556503 0 0.016343967709198465 0.025264036657058585 0 0.016249216072597546 0.024710064669535518 0 0.016083584980892622 0.02603540566480458 0 0.015445803746055198 0.025153554456556503 0 0.016343967709198465 0.025264036657058585 0 0.015632756917667582 0.024236981489087935 0 0.016782433723820784 0.024054348354449962 0 0.016249216072597546 0.024710064669535518 0 0.0135290855830677 0.028140472744115654 0 0.011800488582946401 0.030125261312927667 0 0.015632756917667582 0.024236981489087935 0 0.015445803746055198 0.025153554456556503 0 0.016249216072597546 0.024710064669535518 0 0.01129778681188633 0.032741898622137604 0 0.0080405366729217921 0.035430644897208881 0 0.0049225011787435921 0.03532169713725139 0 0.0051754219328163445 0.034113843162464387 0 0.01129778681188633 0.032741898622137604 0 0.0049225011787435921 0.03532169713725139 0 -5.3712973262259112e-05 0.035136796744819405 0 0.0051754219328163445 0.034113843162464387 0 1.8319972387104039e-05 0.034963928043403647 0 0.0051754219328163445 0.034113843162464387 0 1.8319972387104039e-05 0.034963928043403647 0 0.0049225011787435921 0.03532169713725139 0 0.0015089391761521414 0.03622374109941455 0 1.8319972387104039e-05 0.034963928043403647 0 0.0049225011787435921 0.03532169713725139 0 0.0053462990038518786 0.036778214938770995 0 0.0080405366729217921 0.035430644897208881 0 0.0049225011787435921 0.03532169713725139 0 0.0015089391761521414 0.03622374109941455 0 0.0053462990038518786 0.036778214938770995 0 0.0049225011787435921 0.03532169713725139 0 0.0013764692238130358 -0.0021319115435927934 0 0.0023188753217512942 -0.0022116577571329216 0 0.0017642044406440086 -0.0011234216488922165 0 0.0013764692238130358 -0.0021319115435927934 0 0.0023188753217512942 -0.0022116577571329216 0 0.0017027770555451142 -0.0027940341044670036 0 0.0023188753217512942 -0.0022116577571329216 0 0.0021686221342729073 -0.0032955528627994107 0 0.0017027770555451142 -0.0027940341044670036 0 0.0023188753217512942 -0.0022116577571329216 0 0.0021686221342729073 -0.0032955528627994107 0 0.0027929555710786095 -0.0037763612642511915 0 0.0021686221342729073 -0.0032955528627994107 0 0.0017027770555451142 -0.0027940341044670036 0 0.001680542003100432 -0.0034369519705183802 0 0.0013764692238130358 -0.0021319115435927934 0 0.0017027770555451142 -0.0027940341044670036 0 0.0010891738251664345 -0.0027854150183658994 0 0.0017027770555451142 -0.0027940341044670036 0 0.0010891738251664345 -0.0027854150183658994 0 0.001680542003100432 -0.0034369519705183802 0 0.0010891738251664345 -0.0027854150183658994 0 0.00062126208993641251 -0.002145499119955993 0 0.00042188282393110915 -0.0028190937288302626 0 0.0013764692238130358 -0.0021319115435927934 0 0.0010891738251664345 -0.0027854150183658994 0 0.00062126208993641251 -0.002145499119955993 0 0.00042188282393110915 -0.0028190937288302626 0 -0.00016144364691170906 -0.0027840685450294064 0 3.8679912845791958e-05 -0.0022417186058702747 0 0.00062126208993641251 -0.002145499119955993 0 0.00042188282393110915 -0.0028190937288302626 0 3.8679912845791958e-05 -0.0022417186058702747 0 0.00062126208993641251 -0.002145499119955993 0 0.00079034701547423122 -0.0016254929620851755 0 0.00018023240607133585 -0.0014288506521485942 0 0.00062126208993641251 -0.002145499119955993 0 0.00018023240607133585 -0.0014288506521485942 0 3.8679912845791958e-05 -0.0022417186058702747 0 0.0013764692238130358 -0.0021319115435927934 0 0.00062126208993641251 -0.002145499119955993 0 0.00079034701547423122 -0.0016254929620851755 0 0.0013764692238130358 -0.0021319115435927934 0 0.00079034701547423122 -0.0016254929620851755 0 0.0012022352117046827 -0.0014380210017576028 0 0.0012022352117046827 -0.0014380210017576028 0 0.001147414529155018 -0.00087183667920241151 0 0.0017642044406440086 -0.0011234216488922165 0 0.00079034701547423122 -0.0016254929620851755 0 0.0012022352117046827 -0.0014380210017576028 0 0.00075915563557635421 -0.0010957127994458791 0 0.0012022352117046827 -0.0014380210017576028 0 0.001147414529155018 -0.00087183667920241151 0 0.00075915563557635421 -0.0010957127994458791 0 0.00075915563557635421 -0.0010957127994458791 0 0.00033889494725464762 -0.00076363732379385702 0 0.00018023240607133585 -0.0014288506521485942 0 0.00079034701547423122 -0.0016254929620851755 0 0.00075915563557635421 -0.0010957127994458791 0 0.00018023240607133585 -0.0014288506521485942 0 0.00033889494725464762 -0.00076363732379385702 0 0.00078700543844091217 -0.00049466296501192843 0 0.00041890912137769698 -0.00013792694141057755 0 0.00075915563557635421 -0.0010957127994458791 0 0.00033889494725464762 -0.00076363732379385702 0 0.00078700543844091217 -0.00049466296501192843 0 0.00078700543844091217 -0.00049466296501192843 0 0.00041890912137769698 -0.00013792694141057755 0 0.0007519137029326794 2.4188906784950702e-05 0 0.001147414529155018 -0.00087183667920241151 0 0.00078700543844091217 -0.00049466296501192843 0 0.001240540074809827 -0.00019824476064581528 0 0.001147414529155018 -0.00087183667920241151 0 0.0017642044406440086 -0.0011234216488922165 0 0.001240540074809827 -0.00019824476064581528 0 0.001147414529155018 -0.00087183667920241151 0 0.00075915563557635421 -0.0010957127994458791 0 0.00078700543844091217 -0.00049466296501192843 0 0.00078700543844091217 -0.00049466296501192843 0 0.001240540074809827 -0.00019824476064581528 0 0.0007519137029326794 2.4188906784950702e-05 0 0.0029393502884364352 -0.0037091976030376441 0 0.0029152513770428472 -0.0035592678402590699 0 0.0030459458830106173 -0.0037367093934447004 0 0.0023405311536889308 -0.0023429996775622209 0 0.0020865487776937676 -0.0019489691285960336 0 0.0029686659700244996 -0.003737455678574521 0 0.0029393502884364352 -0.0037091976030376441 0 0.0030459458830106173 -0.0037367093934447004 0 0.0059192642611087384 -0.010386913375347431 0 0.0059221061699058922 -0.01036965880535049 0 0.0058583826862427654 -0.010334459270334488 0 0.0044541467846654888 -0.0070266270407565758 0 0.0044920477367960832 -0.0071508062406677383 0 0.0029686659700244996 -0.003737455678574521 0 0.0029393502884364352 -0.0037091976030376441 0 0.0029908975994089502 -0.0037671370503848042 0 0.0059464107592175708 -0.010366861993808018 0 0.005957200607325003 -0.010362949967109226 0 0.005953750981726208 -0.010361733607846001 0 0.0059464107592175708 -0.010366861993808018 0 0.0059416142237003807 -0.010362624274777734 0 0.005953750981726208 -0.010361733607846001 0 0.0059464107592175708 -0.010366861993808018 0 0.0059303535399910052 -0.01036647335907224 0 0.0059416142237003807 -0.010362624274777734 0 0.0059464107592175708 -0.010366861993808018 0 0.0059365855223089733 -0.010372001263917942 0 0.0059483976045024301 -0.010363015205152998 0 0.0059192642611087384 -0.010386913375347431 0 0.0059365855223089733 -0.010372001263917942 0 0.0059303535399910052 -0.01036647335907224 0 0.0059464107592175708 -0.010366861993808018 0 0.0059365855223089733 -0.010372001263917942 0 0.0059303535399910052 -0.01036647335907224 0 0.0059192642611087384 -0.010386913375347431 0 0.0059303535399910052 -0.01036647335907224 0 0.0059221061699058922 -0.01036965880535049 0 0.0059192642611087384 -0.010386913375347431 0 0.0059365855223089733 -0.010372001263917942 0 0.0059483976045024301 -0.010363015205152998 0 0.0059464107592175708 -0.010366861993808018 0 0.0059483976045024301 -0.010363015205152998 0 0.0059564475453454278 -0.010361610378998956 0 0.0029393502884364352 -0.0037091976030376441 0 0.0029152513770428472 -0.0035592678402590699 0 0.0028080424008385123 -0.0035263775154305258 0 0.0013764692238130358 -0.0021319115435927934 0 0.0012022352117046827 -0.0014380210017576028 0 0.0017642044406440086 -0.0011234216488922165 0 0.0044294850613471916 -0.0070955583700905373 0 0.0044617688929552988 -0.0068650475358787008 0 0.0044572013320801802 -0.0068841668700144673 0 0.0025334415996584423 -0.0028842098443315699 0 0.0023405311536889308 -0.0023429996775622209 0 0.0027879089167886732 -0.0035139707309251762 0 0.0029152513770428472 -0.0035592678402590699 0 0.0028080424008385123 -0.0035263775154305258 0 0.006020290211040941 -0.010280714676955934 0 0.0059974733732009169 -0.010301680003894189 0 0.0059830467352636335 -0.010325998950058951 0 0.006020290211040941 -0.010280714676955934 0 0.0060054682823031487 -0.010282473542245438 0 0.0060104340839162032 -0.010237596584384575 0 0.0060054682823031487 -0.010282473542245438 0 0.0059974733732009169 -0.010301680003894189 0 0.0059867407745998512 -0.010299106410561941 0 0.006020290211040941 -0.010280714676955934 0 0.0060054682823031487 -0.010282473542245438 0 0.0059974733732009169 -0.010301680003894189 0 0.0059974733732009169 -0.010301680003894189 0 0.005976579718897636 -0.010329103554324048 0 0.0059867407745998512 -0.010299106410561941 0 0.0059192642611087384 -0.010386913375347431 0 0.0059483976045024301 -0.010363015205152998 0 0.006020290211040941 -0.010280714676955934 0 0.0044541467846654888 -0.0070266270407565758 0 0.0056225136297365407 -0.0091877206197486811 0 0.0059483976045024301 -0.010363015205152998 0 0.006020290211040941 -0.010280714676955934 0 0.0059830467352636335 -0.010325998950058951 0 0.0044541467846654888 -0.0070266270407565758 0 0.0032242557103440406 -0.0045682651023154566 0 0.005976579718897636 -0.010329103554324048 0 0.005949664757165499 -0.010368897377999285 0 0.0059306655339035471 -0.010355222046614897 0 0.0059974733732009169 -0.010301680003894189 0 0.005976579718897636 -0.010329103554324048 0 0.0059830467352636335 -0.010325998950058951 0 0.005976579718897636 -0.010329103554324048 0 0.0059692034802705076 -0.01034645392310646 0 0.005949664757165499 -0.010368897377999285 0 0.005976579718897636 -0.010329103554324048 0 0.0059830467352636335 -0.010325998950058951 0 0.0059692034802705076 -0.01034645392310646 0 0.0059483976045024301 -0.010363015205152998 0 0.0059830467352636335 -0.010325998950058951 0 0.005962472361956561 -0.010353218017331793 0 0.0059830467352636335 -0.010325998950058951 0 0.0059692034802705076 -0.01034645392310646 0 0.005962472361956561 -0.010353218017331793 0 0.0059483976045024301 -0.010363015205152998 0 0.0059564475453454278 -0.010361610378998956 0 0.005962472361956561 -0.010353218017331793 0 0.0059564475453454278 -0.010361610378998956 0 0.005962472361956561 -0.010353218017331793 0 0.005962033257778678 -0.010361387750019321 0 0.0059692034802705076 -0.01034645392310646 0 0.005962033257778678 -0.010361387750019321 0 0.005949664757165499 -0.010368897377999285 0 0.0059692034802705076 -0.01034645392310646 0 0.005962472361956561 -0.010353218017331793 0 0.005962033257778678 -0.010361387750019321 0 0.005962033257778678 -0.010361387750019321 0 0.005949664757165499 -0.010368897377999285 0 0.0059625383957831552 -0.010366440933986688 0 0.005962033257778678 -0.010361387750019321 0 0.005957200607325003 -0.010362949967109226 0 0.0059625383957831552 -0.010366440933986688 0 0.0059564475453454278 -0.010361610378998956 0 0.005962033257778678 -0.010361387750019321 0 0.005957200607325003 -0.010362949967109226 0 0.0059464107592175708 -0.010366861993808018 0 0.0059564475453454278 -0.010361610378998956 0 0.005957200607325003 -0.010362949967109226 0 0.0059306655339035471 -0.010355222046614897 0 0.0058622111139154274 -0.010407922497985814 0 0.0057859329292121054 -0.01053396539773298 0 0.005949664757165499 -0.010368897377999285 0 0.0059306655339035471 -0.010355222046614897 0 0.0057859329292121054 -0.01053396539773298 0 0.005976579718897636 -0.010329103554324048 0 0.0059306655339035471 -0.010355222046614897 0 0.0059867407745998512 -0.010299106410561941 0 0.0059306655339035471 -0.010355222046614897 0 0.0059719720074099345 -0.010288459053363598 0 0.0059463689044961911 -0.010289452792048076 0 0.0059306655339035471 -0.010355222046614897 0 0.0059867407745998512 -0.010299106410561941 0 0.0059719720074099345 -0.010288459053363598 0 0.0059306655339035471 -0.010355222046614897 0 0.0058622111139154274 -0.010407922497985814 0 0.0059463689044961911 -0.010289452792048076 0 0.005812355559075188 -0.010500670056015281 0 0.0058622111139154274 -0.010407922497985814 0 0.0057859329292121054 -0.01053396539773298 0 0.005812355559075188 -0.010500670056015281 0 0.0058389775200774156 -0.010367871982631565 0 0.0058622111139154274 -0.010407922497985814 0 0.005812355559075188 -0.010500670056015281 0 0.0058389775200774156 -0.010367871982631565 0 0.0057600009083998236 -0.010382978919357905 0 0.0058389775200774156 -0.010367871982631565 0 0.0058622111139154274 -0.010407922497985814 0 0.0059137550115222854 -0.010260079838190148 0 0.0058622111139154274 -0.010407922497985814 0 0.0059137550115222854 -0.010260079838190148 0 0.0059463689044961911 -0.010289452792048076 0 0.0059137550115222854 -0.010260079838190148 0 0.0058356208864491742 -0.010240771160528418 0 0.0059161481302884185 -0.010148580358215883 0 0.0058389775200774156 -0.010367871982631565 0 0.0059137550115222854 -0.010260079838190148 0 0.0058356208864491742 -0.010240771160528418 0 0.0058389775200774156 -0.010367871982631565 0 0.0058356208864491742 -0.010240771160528418 0 0.0057600009083998236 -0.010382978919357905 0 0.0058356208864491742 -0.010240771160528418 0 0.0059161481302884185 -0.010148580358215883 0 0.0058806693853632923 -0.010042935298105973 0 0.0058356208864491742 -0.010240771160528418 0 0.0057714143455565746 -0.010133795872208178 0 0.0058806693853632923 -0.010042935298105973 0 0.0059137550115222854 -0.010260079838190148 0 0.0059607724475258519 -0.010148336370689116 0 0.0059161481302884185 -0.010148580358215883 0 0.0059137550115222854 -0.010260079838190148 0 0.0059607724475258519 -0.010148336370689116 0 0.0059787206360867552 -0.010186408841660369 0 0.0059161481302884185 -0.010148580358215883 0 0.0059673693376977163 -0.01005915179623622 0 0.0058806693853632923 -0.010042935298105973 0 0.0059607724475258519 -0.010148336370689116 0 0.0059161481302884185 -0.010148580358215883 0 0.0059673693376977163 -0.01005915179623622 0 0.0059607724475258519 -0.010148336370689116 0 0.0060015205808931814 -0.010089073545456894 0 0.0059673693376977163 -0.01005915179623622 0 0.006020290211040941 -0.010280714676955934 0 0.0060274440964361584 -0.010119638639128108 0 0.0060866618995829803 -0.0098833982785683575 0 0.0044617688929552988 -0.0068650475358787008 0 0.0044572013320801802 -0.0068841668700144673 0 0.004491800847740598 -0.0066666959078250237 0 0.0059607724475258519 -0.010148336370689116 0 0.0060015205808931814 -0.010089073545456894 0 0.0059787206360867552 -0.010186408841660369 0 0.0060015205808931814 -0.010089073545456894 0 0.0059787206360867552 -0.010186408841660369 0 0.0060274440964361584 -0.010119638639128108 0 0.0059787206360867552 -0.010186408841660369 0 0.0060274440964361584 -0.010119638639128108 0 0.0059978136278976317 -0.010218855216865056 0 0.006020290211040941 -0.010280714676955934 0 0.0060274440964361584 -0.010119638639128108 0 0.0060104340839162032 -0.010237596584384575 0 0.0060274440964361584 -0.010119638639128108 0 0.0059978136278976317 -0.010218855216865056 0 0.0060104340839162032 -0.010237596584384575 0 0.0059978136278976317 -0.010218855216865056 0 0.0059971588747487837 -0.010269683958466006 0 0.0059719720074099345 -0.010288459053363598 0 0.0059978136278976317 -0.010218855216865056 0 0.0060104340839162032 -0.010237596584384575 0 0.0059971588747487837 -0.010269683958466006 0 0.0060054682823031487 -0.010282473542245438 0 0.0060104340839162032 -0.010237596584384575 0 0.0059971588747487837 -0.010269683958466006 0 0.0059971588747487837 -0.010269683958466006 0 0.0059867407745998512 -0.010299106410561941 0 0.0059719720074099345 -0.010288459053363598 0 0.0060054682823031487 -0.010282473542245438 0 0.0059971588747487837 -0.010269683958466006 0 0.0059867407745998512 -0.010299106410561941 0 0.0059978136278976317 -0.010218855216865056 0 0.0059719720074099345 -0.010288459053363598 0 0.0059463689044961911 -0.010289452792048076 0 0.0059137550115222854 -0.010260079838190148 0 0.0059787206360867552 -0.010186408841660369 0 0.0059463689044961911 -0.010289452792048076 0 0.0059787206360867552 -0.010186408841660369 0 0.0059978136278976317 -0.010218855216865056 0 0.0059463689044961911 -0.010289452792048076 0 0.0050880404259710304 -0.010450052652367755 0 0.0051970432820656713 -0.010695965572402459 0 0.0053496356420662033 -0.010502050577342204 0 0.0051970432820656713 -0.010695965572402459 0 0.0053496356420662033 -0.010502050577342204 0 0.0055081134953781164 -0.010637163187213382 0 0.0051594102478805456 -0.01092993693535828 0 0.0051970432820656713 -0.010695965572402459 0 0.0055081134953781164 -0.010637163187213382 0 0.0053496356420662033 -0.010502050577342204 0 0.0056437459047251779 -0.0104833555322694 0 0.0055084652832999501 -0.010361155578245186 0 0.0053496356420662033 -0.010502050577342204 0 0.0055081134953781164 -0.010637163187213382 0 0.0056437459047251779 -0.0104833555322694 0 0.0055081134953781164 -0.010637163187213382 0 0.0056437459047251779 -0.0104833555322694 0 0.0057396076849680769 -0.010581335811644067 0 0.005812355559075188 -0.010500670056015281 0 0.0056437459047251779 -0.0104833555322694 0 0.0057396076849680769 -0.010581335811644067 0 0.005812355559075188 -0.010500670056015281 0 0.0056437459047251779 -0.0104833555322694 0 0.0057600009083998236 -0.010382978919357905 0 0.0056437459047251779 -0.0104833555322694 0 0.0057600009083998236 -0.010382978919357905 0 0.0056688886561440006 -0.010259951281788951 0 0.0058356208864491742 -0.010240771160528418 0 0.0057600009083998236 -0.010382978919357905 0 0.0056688886561440006 -0.010259951281788951 0 0.0056688886561440006 -0.010259951281788951 0 0.0057714143455565746 -0.010133795872208178 0 0.0056909298078437311 -0.009975643310306934 0 0.0058356208864491742 -0.010240771160528418 0 0.0056688886561440006 -0.010259951281788951 0 0.0057714143455565746 -0.010133795872208178 0 0.0056688886561440006 -0.010259951281788951 0 0.0053556147074800883 -0.010187537973209934 0 0.0056909298078437311 -0.009975643310306934 0 0.0056688886561440006 -0.010259951281788951 0 0.0055084652832999501 -0.010361155578245186 0 0.0053556147074800883 -0.010187537973209934 0 0.0056437459047251779 -0.0104833555322694 0 0.0056688886561440006 -0.010259951281788951 0 0.0055084652832999501 -0.010361155578245186 0 0.0053496356420662033 -0.010502050577342204 0 0.0055084652832999501 -0.010361155578245186 0 0.0053556147074800883 -0.010187537973209934 0 0.0049550665622139839 -0.010216994081282202 0 0.0050880404259710304 -0.010450052652367755 0 0.0053556147074800883 -0.010187537973209934 0 0.0050880404259710304 -0.010450052652367755 0 0.0053496356420662033 -0.010502050577342204 0 0.0053556147074800883 -0.010187537973209934 0 0.0049897966122789943 -0.0097960217492204116 0 0.0053556147074800883 -0.010187537973209934 0 0.0054630379576970627 -0.0096626333084003611 0 0.0049550665622139839 -0.010216994081282202 0 0.0049897966122789943 -0.0097960217492204116 0 0.0053556147074800883 -0.010187537973209934 0 0.0053556147074800883 -0.010187537973209934 0 0.0054630379576970627 -0.0096626333084003611 0 0.0056909298078437311 -0.009975643310306934 0 0.0054630379576970627 -0.0096626333084003611 0 0.0056909298078437311 -0.009975643310306934 0 0.0058696339409983495 -0.0095074621234673834 0 0.0056909298078437311 -0.009975643310306934 0 0.0058806693853632923 -0.010042935298105973 0 0.0058902743297205651 -0.0098565285448692971 0 0.0057714143455565746 -0.010133795872208178 0 0.0056909298078437311 -0.009975643310306934 0 0.0058806693853632923 -0.010042935298105973 0 0.0056909298078437311 -0.009975643310306934 0 0.0058696339409983495 -0.0095074621234673834 0 0.0058902743297205651 -0.0098565285448692971 0 0.0054630379576970627 -0.0096626333084003611 0 0.0058696339409983495 -0.0095074621234673834 0 0.0058940489261163622 -0.0088289627116221077 0 0.0054630379576970627 -0.0096626333084003611 0 0.0049226752895579293 -0.0090228374927017602 0 0.0058940489261163622 -0.0088289627116221077 0 0.0049897966122789943 -0.0097960217492204116 0 0.0054630379576970627 -0.0096626333084003611 0 0.0049226752895579293 -0.0090228374927017602 0 0.0027879089167886732 -0.0035139707309251762 0 0.0029586497463408236 -0.0035080181478648284 0 0.0029901408198340774 -0.0035178755528810068 0 0.0032242557103440406 -0.0045682651023154566 0 0.0045267651621393352 -0.0067291835738675643 0 0.0056225136297365407 -0.0091877206197486811 0 0.0045267651621393352 -0.0067291835738675643 0 0.0027879089167886732 -0.0035139707309251762 0 0.0028080424008385123 -0.0035263775154305258 0 0.0029586497463408236 -0.0035080181478648284 0 0.0060015205808931814 -0.010089073545456894 0 0.0060274440964361584 -0.010119638639128108 0 0.006027873508497413 -0.0099891712757541138 0 0.0060274440964361584 -0.010119638639128108 0 0.0060866618995829803 -0.0098833982785683575 0 0.006027873508497413 -0.0099891712757541138 0 0.0060015205808931814 -0.010089073545456894 0 0.0059673693376977163 -0.01005915179623622 0 0.006027873508497413 -0.0099891712757541138 0 0.0059673693376977163 -0.01005915179623622 0 0.0059787501586062563 -0.009921589467545202 0 0.006027873508497413 -0.0099891712757541138 0 0.0059787501586062563 -0.009921589467545202 0 0.006027873508497413 -0.0099891712757541138 0 0.0060458410072006356 -0.0098798663633493308 0 0.0059673693376977163 -0.01005915179623622 0 0.0059787501586062563 -0.009921589467545202 0 0.0058806693853632923 -0.010042935298105973 0 0.0059787501586062563 -0.009921589467545202 0 0.0058806693853632923 -0.010042935298105973 0 0.0058902743297205651 -0.0098565285448692971 0 0.0058696339409983495 -0.0095074621234673834 0 0.0059895453964180752 -0.009796967256450597 0 0.0061117223984013353 -0.0097858016825786674 0 0.0058696339409983495 -0.0095074621234673834 0 0.0058902743297205651 -0.0098565285448692971 0 0.0059895453964180752 -0.009796967256450597 0 0.0059787501586062563 -0.009921589467545202 0 0.0058902743297205651 -0.0098565285448692971 0 0.0059895453964180752 -0.009796967256450597 0 0.0060866618995829803 -0.0098833982785683575 0 0.006027873508497413 -0.0099891712757541138 0 0.0060458410072006356 -0.0098798663633493308 0 0.0060866618995829803 -0.0098833982785683575 0 0.0060458410072006356 -0.0098798663633493308 0 0.0061117223984013353 -0.0097858016825786674 0 0.0059895453964180752 -0.009796967256450597 0 0.0060458410072006356 -0.0098798663633493308 0 0.0061117223984013353 -0.0097858016825786674 0 0.0059787501586062563 -0.009921589467545202 0 0.0059895453964180752 -0.009796967256450597 0 0.0060458410072006356 -0.0098798663633493308 0 0.0045267651621393352 -0.0067291835738675643 0 0.0045359547575581326 -0.0066595048143735566 0 0.0029901408198340774 -0.0035178755528810068 0 0.0027929555710786095 -0.0037763612642511915 0 0.0037272570724691764 -0.0045484703563880837 0 0.0045359547575581326 -0.0066595048143735566 0 0.004731578904133533 -0.006691908365319018 0 0.0058696339409983495 -0.0095074621234673834 0 0.0061117223984013353 -0.0097858016825786674 0 0.0058940489261163622 -0.0088289627116221077 0 0.0027879089167886732 -0.0035139707309251762 0 0.0029901408198340774 -0.0035178755528810068 0 0.0027929555710786095 -0.0037763612642511915 0 0.0025334415996584423 -0.0028842098443315699 0 0.0028043693598993752 -0.003667413533241095 0 0.0027929555710786095 -0.0037763612642511915 0 0.0028657718679936648 -0.0051968530895776409 0 0.0022743638530975008 -0.0042216681397586045 0 0.0021686221342729073 -0.0032955528627994107 0 0.0027929555710786095 -0.0037763612642511915 0 0.0022743638530975008 -0.0042216681397586045 0 0.0027929555710786095 -0.0037763612642511915 0 0.0028657718679936648 -0.0051968530895776409 0 0.0037272570724691764 -0.0045484703563880837 0 0.0028657718679936648 -0.0051968530895776409 0 0.0021850452910361054 -0.0049340740315077704 0 0.0022743638530975008 -0.0042216681397586045 0 0.0049226752895579293 -0.0090228374927017602 0 0.0058940489261163622 -0.0088289627116221077 0 0.0045240569926739667 -0.0070994898111321437 0 0.004731578904133533 -0.006691908365319018 0 0.0045365726013881554 -0.0069861229941757174 0 0.0037272570724691764 -0.0045484703563880837 0 0.0036641295018056386 -0.0063057417564051808 0 0.0045240569926739667 -0.0070994898111321437 0 0.0028657718679936648 -0.0051968530895776409 0 0.0037272570724691764 -0.0045484703563880837 0 0.0036641295018056386 -0.0063057417564051808 0 0.0036641295018056386 -0.0063057417564051808 0 0.0045240569926739667 -0.0070994898111321437 0 0.0036196984679470125 -0.0070421235346707304 0 0.0036641295018056386 -0.0063057417564051808 0 0.0036196984679470125 -0.0070421235346707304 0 0.0032007875671000571 -0.0062241525862103322 0 0.0029055647846436433 -0.0065123866423942873 0 0.0036196984679470125 -0.0070421235346707304 0 0.0032007875671000571 -0.0062241525862103322 0 0.0028657718679936648 -0.0051968530895776409 0 0.0025492730165363252 -0.0057395153095776748 0 0.0021850452910361054 -0.0049340740315077704 0 0.0028657718679936648 -0.0051968530895776409 0 0.0032007875671000571 -0.0062241525862103322 0 0.0025492730165363252 -0.0057395153095776748 0 0.0028657718679936648 -0.0051968530895776409 0 0.0036641295018056386 -0.0063057417564051808 0 0.0032007875671000571 -0.0062241525862103322 0 0.0029055647846436433 -0.0065123866423942873 0 0.0032007875671000571 -0.0062241525862103322 0 0.0025492730165363252 -0.0057395153095776748 0 0.0022575321054765151 -0.0060521353127529695 0 0.0029055647846436433 -0.0065123866423942873 0 0.0025492730165363252 -0.0057395153095776748 0 0.0022575321054765151 -0.0060521353127529695 0 0.0025492730165363252 -0.0057395153095776748 0 0.0018931705942515458 -0.0053754056882001243 0 0.0018931705942515458 -0.0053754056882001243 0 0.0015428421698695453 -0.0047124615837464759 0 0.0011632919615848418 -0.0048919378741734687 0 0.0015428421698695453 -0.0047124615837464759 0 0.00087626542634090517 -0.0041533616317640165 0 0.0011632919615848418 -0.0048919378741734687 0 0.0015428421698695453 -0.0047124615837464759 0 0.0015825749579653041 -0.0041641390993617999 0 0.00087626542634090517 -0.0041533616317640165 0 0.0015428421698695453 -0.0047124615837464759 0 0.0021850452910361054 -0.0049340740315077704 0 0.0015825749579653041 -0.0041641390993617999 0 0.0018931705942515458 -0.0053754056882001243 0 0.0015428421698695453 -0.0047124615837464759 0 0.0021850452910361054 -0.0049340740315077704 0 0.0025492730165363252 -0.0057395153095776748 0 0.0018931705942515458 -0.0053754056882001243 0 0.0021850452910361054 -0.0049340740315077704 0 0.0021850452910361054 -0.0049340740315077704 0 0.0015825749579653041 -0.0041641390993617999 0 0.0022743638530975008 -0.0042216681397586045 0 0.0010891738251664345 -0.0027854150183658994 0 0.001680542003100432 -0.0034369519705183802 0 0.00096699858625516133 -0.0034996627751593084 0 0.0015825749579653041 -0.0041641390993617999 0 0.001680542003100432 -0.0034369519705183802 0 0.00096699858625516133 -0.0034996627751593084 0 0.0021686221342729073 -0.0032955528627994107 0 0.001680542003100432 -0.0034369519705183802 0 0.0022743638530975008 -0.0042216681397586045 0 0.0015825749579653041 -0.0041641390993617999 0 0.001680542003100432 -0.0034369519705183802 0 0.0022743638530975008 -0.0042216681397586045 0 0.00042188282393110915 -0.0028190937288302626 0 7.6376191787309817e-05 -0.0033532085178541939 0 -0.00016144364691170906 -0.0027840685450294064 0 0.00042188282393110915 -0.0028190937288302626 0 0.00096699858625516133 -0.0034996627751593084 0 7.6376191787309817e-05 -0.0033532085178541939 0 0.0010891738251664345 -0.0027854150183658994 0 0.00042188282393110915 -0.0028190937288302626 0 0.00096699858625516133 -0.0034996627751593084 0 0.00096699858625516133 -0.0034996627751593084 0 7.6376191787309817e-05 -0.0033532085178541939 0 0.00087626542634090517 -0.0041533616317640165 0 0.0015825749579653041 -0.0041641390993617999 0 0.00096699858625516133 -0.0034996627751593084 0 0.00087626542634090517 -0.0041533616317640165 0 0.00015824470639408901 -0.0039186722637710066 0 0.00087626542634090517 -0.0041533616317640165 0 0.00055546942118015581 -0.0044498089057276929 0 7.6376191787309817e-05 -0.0033532085178541939 0 0.00015824470639408901 -0.0039186722637710066 0 0.00087626542634090517 -0.0041533616317640165 0 0.00087626542634090517 -0.0041533616317640165 0 0.0011632919615848418 -0.0048919378741734687 0 0.00055546942118015581 -0.0044498089057276929 0 0.00049516671157876977 -0.0049116281499045943 0 0.0011632919615848418 -0.0048919378741734687 0 0.00055546942118015581 -0.0044498089057276929 0 0.00049516671157876977 -0.0049116281499045943 0 0.00055546942118015581 -0.0044498089057276929 0 -0.000279993667932425 -0.0040825998636588321 0 0.00015824470639408901 -0.0039186722637710066 0 0.00055546942118015581 -0.0044498089057276929 0 -0.000279993667932425 -0.0040825998636588321 0 0.00015824470639408901 -0.0039186722637710066 0 -0.000279993667932425 -0.0040825998636588321 0 -0.00061902947795681692 -0.0034617182114739893 0 7.6376191787309817e-05 -0.0033532085178541939 0 0.00015824470639408901 -0.0039186722637710066 0 -0.00061902947795681692 -0.0034617182114739893 0 -0.00061902947795681692 -0.0034617182114739893 0 -0.0010191839095513694 -0.0035396481867143188 0 -0.0015877697710771513 -0.0031256187297914878 0 -0.00061902947795681692 -0.0034617182114739893 0 -0.0015877697710771513 -0.0031256187297914878 0 -0.0008779847013910654 -0.002992410870121736 0 -0.0014176000898077699 -0.003461244937731174 0 -0.000279993667932425 -0.0040825998636588321 0 -0.0010191839095513694 -0.0035396481867143188 0 -0.000279993667932425 -0.0040825998636588321 0 -0.00061902947795681692 -0.0034617182114739893 0 -0.0010191839095513694 -0.0035396481867143188 0 -0.0014176000898077699 -0.003461244937731174 0 -0.0010191839095513694 -0.0035396481867143188 0 -0.0015877697710771513 -0.0031256187297914878 0 -0.0026788230525511153 -0.0024162392459979678 0 -0.0014176000898077699 -0.003461244937731174 0 -0.0015877697710771513 -0.0031256187297914878 0 -0.0026788230525511153 -0.0024162392459979678 0 -0.0018791008257054037 -0.0030086671181536935 0 -0.0015877697710771513 -0.0031256187297914878 0 -0.0018791008257054037 -0.0030086671181536935 0 -0.0015877697710771513 -0.0031256187297914878 0 -0.0016848634105610277 -0.0027992374147921464 0 -0.0015877697710771513 -0.0031256187297914878 0 -0.0016848634105610277 -0.0027992374147921464 0 -0.0008779847013910654 -0.002992410870121736 0 -0.0016848634105610277 -0.0027992374147921464 0 -0.0013955336004463786 -0.0024269077222471959 0 -0.0008779847013910654 -0.002992410870121736 0 -0.0017088066884682843 -0.0024518291961110896 0 -0.0013955336004463786 -0.0024269077222471959 0 -0.0017099190093354253 -0.0021788056976110985 0 -0.0016848634105610277 -0.0027992374147921464 0 -0.0017088066884682843 -0.0024518291961110896 0 -0.0013955336004463786 -0.0024269077222471959 0 -0.0016848634105610277 -0.0027992374147921464 0 -0.0017088066884682843 -0.0024518291961110896 0 -0.0018980263187869891 -0.0025508274928753684 0 -0.0012847054013989199 -0.0025199148959199114 0 -0.00089633759171461717 -0.0029569496782339503 0 -0.001178765225111632 -0.002589797764595904 0 -0.00064440826420131758 -0.0025326735541701621 0 -0.0008779847013910654 -0.002992410870121736 0 -0.00064440826420131758 -0.0025326735541701621 0 -0.00016144364691170906 -0.0027840685450294064 0 -0.0008779847013910654 -0.002992410870121736 0 7.6376191787309817e-05 -0.0033532085178541939 0 -0.00016144364691170906 -0.0027840685450294064 0 -0.0008779847013910654 -0.002992410870121736 0 7.6376191787309817e-05 -0.0033532085178541939 0 -0.00061902947795681692 -0.0034617182114739893 0 -0.0008779847013910654 -0.002992410870121736 0 0.0055882552045240109 0.00039248701687283712 0 0.0038759055116433304 -0.0056961619453102189 0 0.00031036794289938317 -0.0040293942670972735 0 0.00097325487908794372 -0.0010790894016393072 0 0.0057285579562293782 -0.0020521048997474635 0 0.0039331863881281407 -0.0049594191197409347 0 0.0050357322242899401 -0.005710167280325194 0 0.0039331863881281407 -0.0049594191197409347 0 0.0023877488933545794 -0.0047164118760371354 0 0.0050357322242899401 -0.005710167280325194 0 0.0044191337518545174 2.8139809816811126e-05 0 0.0058681219738666414 -0.0023108038149145457 0 0.0033621197189688773 -0.0024596137868383786 0 0.0058681219738666414 -0.0023108038149145457 0 0.0039331863881281407 -0.0049594191197409347 0 0.0033621197189688773 -0.0024596137868383786 0 0.0018260812390403758 0.00075283249858994585 0 0.0033621197189688773 -0.0024596137868383786 0 0.0013401196429661448 -0.0024431362290387002 0 0.0033621197189688773 -0.0024596137868383786 0 0.0013401196429661448 -0.0024431362290387002 0 0.0023877488933545794 -0.0047164118760371354 0 0.0039331863881281407 -0.0049594191197409347 0 0.0033621197189688773 -0.0024596137868383786 0 0.0023877488933545794 -0.0047164118760371354 0 -0.0021699355502683981 -0.0027628501484477305 0 -0.0019824212344997745 -0.0028857308942206112 0 -0.0020476227205163231 -0.0027259450378154964 0 0.00031036794289938317 -0.0040293942670972735 0 -0.0010561659457955226 -0.0032779949044228424 0 0.0013401196429661448 -0.0024431362290387002 0 0.0023877488933545794 -0.0047164118760371354 0 -2.9595417265045711e-05 -0.00372765729205605 0 -0.0019824212344997745 -0.0028857308942206112 0 -0.0019056071641779442 -0.0027761943767749702 0 -0.0020476227205163231 -0.0027259450378154964 0 -0.00051638821111189164 -0.0017875307295488199 0 0.0013401196429661448 -0.0024431362290387002 0 -2.9595417265045711e-05 -0.00372765729205605 0 -0.00051638821111189164 -0.0017875307295488199 0 -0.0026788230525511153 -0.0024162392459979678 0 -0.0018791008257054037 -0.0030086671181536935 0 -0.00051638821111189164 -0.0017875307295488199 0 -0.0018791008257054037 -0.0030086671181536935 0 -2.9595417265045711e-05 -0.00372765729205605 0 -0.0018791008257054037 -0.0030086671181536935 0 -0.0016848634105610277 -0.0027992374147921464 0 -0.0019056071641779442 -0.0027761943767749702 0 -0.0017866199315705394 -0.0030377902442743241 0 -0.0010561659457955226 -0.0032779949044228424 0 -0.0018791008257054037 -0.0030086671181536935 0 -0.0019824212344997745 -0.0028857308942206112 0 -0.0019056071641779442 -0.0027761943767749702 0 -0.0019056071641779442 -0.0027761943767749702 0 -0.0018980263187869891 -0.0025508274928753684 0 -0.0020232229450339589 -0.0025923483654894794 0 -0.0016848634105610277 -0.0027992374147921464 0 -0.0019056071641779442 -0.0027761943767749702 0 -0.0018980263187869891 -0.0025508274928753684 0 -0.0017088066884682843 -0.0024518291961110896 0 -0.0018980263187869891 -0.0025508274928753684 0 -0.0018861583510506985 -0.0023275489573740303 0 -0.0018980263187869891 -0.0025508274928753684 0 -0.0020123161689472886 -0.0024276548163068832 0 -0.0018861583510506985 -0.0023275489573740303 0 -0.0018980263187869891 -0.0025508274928753684 0 -0.0020123161689472886 -0.0024276548163068832 0 -0.0020232229450339589 -0.0025923483654894794 0 -0.0020123161689472886 -0.0024276548163068832 0 -0.0021129410115914831 -0.0023426492331833832 0 -0.0021215877125224441 -0.0024546887314240953 0 -0.0020123161689472886 -0.0024276548163068832 0 -0.0021129410115914831 -0.0023426492331833832 0 -0.002024918900501986 -0.0022683150065262118 0 -0.0020123161689472886 -0.0024276548163068832 0 -0.0020232229450339589 -0.0025923483654894794 0 -0.0021215877125224441 -0.0024546887314240953 0 -0.0020232229450339589 -0.0025923483654894794 0 -0.0021540589470170866 -0.0025800986784908046 0 -0.0021215877125224441 -0.0024546887314240953 0 -0.0020232229450339589 -0.0025923483654894794 0 -0.0020476227205163231 -0.0027259450378154964 0 -0.0021540589470170866 -0.0025800986784908046 0 -0.0019056071641779442 -0.0027761943767749702 0 -0.0020232229450339589 -0.0025923483654894794 0 -0.0020476227205163231 -0.0027259450378154964 0 -0.0021699355502683981 -0.0027628501484477305 0 -0.0020476227205163231 -0.0027259450378154964 0 -0.0021540589470170866 -0.0025800986784908046 0 -0.0021699355502683981 -0.0027628501484477305 0 -0.0022518394093127762 -0.0026191519302940494 0 -0.0021540589470170866 -0.0025800986784908046 0 -0.0021540589470170866 -0.0025800986784908046 0 -0.0022164678041055037 -0.002427215129124259 0 -0.0022647013247249284 -0.0025034590056056192 0 -0.0022518394093127762 -0.0026191519302940494 0 -0.0021540589470170866 -0.0025800986784908046 0 -0.0022647013247249284 -0.0025034590056056192 0 -0.0021215877125224441 -0.0024546887314240953 0 -0.0021992987993861282 -0.0023638053476236183 0 -0.0022164678041055037 -0.002427215129124259 0 -0.0021540589470170866 -0.0025800986784908046 0 -0.0021215877125224441 -0.0024546887314240953 0 -0.0022164678041055037 -0.002427215129124259 0 -0.0021129410115914831 -0.0023426492331833832 0 -0.0021215877125224441 -0.0024546887314240953 0 -0.0021992987993861282 -0.0023638053476236183 0 -0.0021129410115914831 -0.0023426492331833832 0 -0.0021992987993861282 -0.0023638053476236183 0 -0.0022191977468913261 -0.0022880385639311327 0 -0.0021992987993861282 -0.0023638053476236183 0 -0.0022733416765109765 -0.002322317919933948 0 -0.0022164678041055037 -0.002427215129124259 0 -0.0021992987993861282 -0.0023638053476236183 0 -0.0022733416765109765 -0.002322317919933948 0 -0.0022191977468913261 -0.0022880385639311327 0 -0.0022733416765109765 -0.002322317919933948 0 -0.0022164678041055037 -0.002427215129124259 0 -0.0022811771644844258 -0.0023489778581448489 0 -0.0029810972859539405 -0.0021424309031917283 0 0.00097325487908794372 -0.0010790894016393072 0 -0.002281010122876796 -0.0021673159242842459 0 -0.0016089898721363181 -0.0016011802699790877 0 -0.0017727260744285511 0.00081580180947905746 0 -0.0022164678041055037 -0.002427215129124259 0 -0.0022811771644844258 -0.0023489778581448489 0 -0.0022647013247249284 -0.0025034590056056192 0 -0.0022811771644844258 -0.0023489778581448489 0 -0.002281010122876796 -0.0021673159242842459 0 -0.0024552166627373694 -0.0026453385642479176 0 -0.0022811771644844258 -0.0023489778581448489 0 -0.0023193026307566033 -0.0022784827384069988 0 -0.002281010122876796 -0.0021673159242842459 0 -0.0022733416765109765 -0.002322317919933948 0 -0.0022811771644844258 -0.0023489778581448489 0 -0.0023193026307566033 -0.0022784827384069988 0 -0.0023193026307566033 -0.0022784827384069988 0 -0.002281010122876796 -0.0021673159242842459 0 -0.0023619946378045484 -0.0024036826603524215 0 -0.0022733416765109765 -0.002322317919933948 0 -0.0023193026307566033 -0.0022784827384069988 0 -0.0023068853180973131 -0.002315007250139384 0 -0.002281010122876796 -0.0021673159242842459 0 -0.0016089898721363181 -0.0016011802699790877 0 -0.0018595610954166169 -0.0024567755984490065 0 -0.0012053003656602795 -0.0020451610625796869 0 -0.0016089898721363181 -0.0016011802699790877 0 -0.0018595610954166169 -0.0024567755984490065 0 -0.0022811771644844258 -0.0023489778581448489 0 -0.0022647013247249284 -0.0025034590056056192 0 -0.0024552166627373694 -0.0026453385642479176 0 -0.0021699355502683981 -0.0027628501484477305 0 -0.0022518394093127762 -0.0026191519302940494 0 -0.0024552166627373694 -0.0026453385642479176 0 -0.0022518394093127762 -0.0026191519302940494 0 -0.0022647013247249284 -0.0025034590056056192 0 -0.0024552166627373694 -0.0026453385642479176 0 -0.0025170755071399066 -0.0018264111557957324 0 -0.0023335675735675324 -0.0019376636645875955 0 -0.0023742018016641728 -0.0020347667137050394 0 -0.0033001075969582559 -0.00054158382746999345 0 -0.0021615091381020982 -0.002372963662442629 0 -0.003007041106318119 0.00084306350204484679 0 -0.0018935804149477508 0.00036654578126332906 0 -0.0028410673761506034 -0.0012247875855769174 0 -0.0023742018016641728 -0.0020347667137050394 0 -0.0024801181216696877 -0.0021425484173154485 0 -0.0028410673761506034 -0.0012247875855769174 0 -0.0024801181216696877 -0.0021425484173154485 0 -0.002587962976330621 -0.0022331560879632934 0 -0.0023335675735675324 -0.0019376636645875955 0 -0.0023742018016641728 -0.0020347667137050394 0 -0.0023087644042540552 -0.0020220903017814699 0 -0.0023742018016641728 -0.0020347667137050394 0 -0.0022936753682045166 -0.0020750543046071197 0 -0.0023087644042540552 -0.0020220903017814699 0 -0.0023742018016641728 -0.0020347667137050394 0 -0.0023467837472882411 -0.002159800514954634 0 -0.0022936753682045166 -0.0020750543046071197 0 -0.0023742018016641728 -0.0020347667137050394 0 -0.0024801181216696877 -0.0021425484173154485 0 -0.0023467837472882411 -0.002159800514954634 0 -0.0018935804149477508 0.00036654578126332906 0 -0.0017643391552604715 -0.0027836428880362802 0 -0.0024801181216696877 -0.0021425484173154485 0 -0.0025167990922049933 -0.0021665555535558254 0 -0.0024296512047290606 -0.0021841200268440048 0 -0.0023383125261717398 -0.00022351371042962913 0 -0.0018935804149477508 0.00036654578126332906 0 -0.0020322156726806885 -0.0035161007036195878 0 -0.0018595610954166169 -0.0024567755984490065 0 -0.0023619946378045484 -0.0024036826603524215 0 -0.002281010122876796 -0.0021673159242842459 0 -0.0018595610954166169 -0.0024567755984490065 0 -0.0023619946378045484 -0.0024036826603524215 0 -0.0023193026307566033 -0.0022784827384069988 0 -0.0023068853180973131 -0.002315007250139384 0 -0.0023619946378045484 -0.0024036826603524215 0 -0.0023068853180973131 -0.002315007250139384 0 -0.0023619946378045484 -0.0024036826603524215 0 -0.0023676935179457867 -0.0022726673610390827 0 -0.0023068853180973131 -0.002315007250139384 0 -0.0023676935179457867 -0.0022726673610390827 0 -0.0022778607843618433 -0.0022297137504659276 0 -0.0023676935179457867 -0.0022726673610390827 0 -0.0023467837472882411 -0.002159800514954634 0 -0.0022778607843618433 -0.0022297137504659276 0 -0.0025167990922049933 -0.0021665555535558254 0 -0.0023619946378045484 -0.0024036826603524215 0 -0.0023676935179457867 -0.0022726673610390827 0 -0.0025167990922049933 -0.0021665555535558254 0 -0.0023676935179457867 -0.0022726673610390827 0 -0.0024296512047290606 -0.0021841200268440048 0 -0.0023676935179457867 -0.0022726673610390827 0 -0.0024296512047290606 -0.0021841200268440048 0 -0.0023467837472882411 -0.002159800514954634 0 -0.0024801181216696877 -0.0021425484173154485 0 -0.0024296512047290606 -0.0021841200268440048 0 -0.0023467837472882411 -0.002159800514954634 0 -0.0022778607843618433 -0.0022297137504659276 0 -0.0022191977468913261 -0.0022880385639311327 0 -0.0022007749321762892 -0.0021798069563357461 0 -0.0023467837472882411 -0.002159800514954634 0 -0.0022617497066438836 -0.0021432807147455605 0 -0.0022778607843618433 -0.0022297137504659276 0 -0.0023467837472882411 -0.002159800514954634 0 -0.0022617497066438836 -0.0021432807147455605 0 -0.0022936753682045166 -0.0020750543046071197 0 -0.0022617497066438836 -0.0021432807147455605 0 -0.0022778607843618433 -0.0022297137504659276 0 -0.0022007749321762892 -0.0021798069563357461 0 -0.0022733416765109765 -0.002322317919933948 0 -0.0023068853180973131 -0.002315007250139384 0 -0.0022191977468913261 -0.0022880385639311327 0 -0.0023068853180973131 -0.002315007250139384 0 -0.0022778607843618433 -0.0022297137504659276 0 -0.0022191977468913261 -0.0022880385639311327 0 -0.0021129410115914831 -0.0023426492331833832 0 -0.0022191977468913261 -0.0022880385639311327 0 -0.0021217322865943276 -0.0022203966018936958 0 -0.0022191977468913261 -0.0022880385639311327 0 -0.0021217322865943276 -0.0022203966018936958 0 -0.0022007749321762892 -0.0021798069563357461 0 -0.0021217322865943276 -0.0022203966018936958 0 -0.0022007749321762892 -0.0021798069563357461 0 -0.0021376344581808633 -0.0021215233051601013 0 -0.0022007749321762892 -0.0021798069563357461 0 -0.0021376344581808633 -0.0021215233051601013 0 -0.0022328594029068136 -0.002042809612842437 0 -0.0021376344581808633 -0.0021215233051601013 0 -0.0022328594029068136 -0.002042809612842437 0 -0.0020862731413950298 -0.0020295203679978444 0 -0.0022617497066438836 -0.0021432807147455605 0 -0.0022007749321762892 -0.0021798069563357461 0 -0.0022328594029068136 -0.002042809612842437 0 -0.0022617497066438836 -0.0021432807147455605 0 -0.0022936753682045166 -0.0020750543046071197 0 -0.0022328594029068136 -0.002042809612842437 0 -0.0022936753682045166 -0.0020750543046071197 0 -0.0023087644042540552 -0.0020220903017814699 0 -0.0022328594029068136 -0.002042809612842437 0 -0.0023335675735675324 -0.0019376636645875955 0 -0.0022328594029068136 -0.002042809612842437 0 -0.002221040055985475 -0.0018908082856001962 0 -0.0023335675735675324 -0.0019376636645875955 0 -0.0023087644042540552 -0.0020220903017814699 0 -0.0022328594029068136 -0.002042809612842437 0 -0.0022328594029068136 -0.002042809612842437 0 -0.0020862731413950298 -0.0020295203679978444 0 -0.002221040055985475 -0.0018908082856001962 0 -0.0020862731413950298 -0.0020295203679978444 0 -0.0019249118379541543 -0.0019617052566386563 0 -0.002221040055985475 -0.0018908082856001962 0 -0.0021584238980063516 -0.0015148605148896657 0 -0.0028647489430585539 -0.0015324782316971024 0 -0.0024886575500341485 -0.0011035945185326021 0 -0.0023963634514201832 -0.0012192862334516508 0 -0.0024139017265418328 -0.0011312041511896509 0 -0.0022719902210424072 -0.0013936310915440826 0 -0.0021584238980063516 -0.0015148605148896657 0 -0.0020862731413950298 -0.0020295203679978444 0 -0.0019506790477970548 -0.0021411938130240357 0 -0.0019249118379541543 -0.0019617052566386563 0 -0.0021376344581808633 -0.0021215233051601013 0 -0.0020862731413950298 -0.0020295203679978444 0 -0.0020567650396239533 -0.0021490692151425756 0 -0.0020862731413950298 -0.0020295203679978444 0 -0.0020567650396239533 -0.0021490692151425756 0 -0.0019506790477970548 -0.0021411938130240357 0 -0.0021217322865943276 -0.0022203966018936958 0 -0.0021376344581808633 -0.0021215233051601013 0 -0.0020567650396239533 -0.0021490692151425756 0 -0.0021217322865943276 -0.0022203966018936958 0 -0.0020567650396239533 -0.0021490692151425756 0 -0.002024918900501986 -0.0022683150065262118 0 -0.0021129410115914831 -0.0023426492331833832 0 -0.0021217322865943276 -0.0022203966018936958 0 -0.002024918900501986 -0.0022683150065262118 0 -0.0020123161689472886 -0.0024276548163068832 0 -0.002024918900501986 -0.0022683150065262118 0 -0.0018861583510506985 -0.0023275489573740303 0 -0.002024918900501986 -0.0022683150065262118 0 -0.0019506790477970548 -0.0021411938130240357 0 -0.0018861583510506985 -0.0023275489573740303 0 -0.0020567650396239533 -0.0021490692151425756 0 -0.002024918900501986 -0.0022683150065262118 0 -0.0019506790477970548 -0.0021411938130240357 0 -0.0017088066884682843 -0.0024518291961110896 0 -0.0018861583510506985 -0.0023275489573740303 0 -0.0017099190093354253 -0.0021788056976110985 0 -0.0019506790477970548 -0.0021411938130240357 0 -0.0018861583510506985 -0.0023275489573740303 0 -0.0017099190093354253 -0.0021788056976110985 0 -0.0019506790477970548 -0.0021411938130240357 0 -0.0019249118379541543 -0.0019617052566386563 0 -0.0017099190093354253 -0.0021788056976110985 0 -0.0021584238980063516 -0.0015148605148896657 0 -0.0017203546608315445 -0.0020795874803741566 0 -0.0023963634514201832 -0.0012192862334516508 0 -0.0020219441663803192 -0.001241401208452679 0 -0.0017480627549550857 -0.001958885883806862 0 -0.0023963634514201832 -0.0012192862334516508 0 -0.0022529288750452836 -0.0011419775988972545 0 -0.0020219441663803192 -0.001241401208452679 0 -0.0023963634514201832 -0.0012192862334516508 0 -0.0023464291995863424 -0.0011506997599341107 0 -0.0022529288750452836 -0.0011419775988972545 0 -0.0023464291995863424 -0.0011506997599341107 0 -0.0022529288750452836 -0.0011419775988972545 0 -0.0023233480094390136 -0.0010731980988903107 0 -0.0023464291995863424 -0.0011506997599341107 0 -0.0024139017265418328 -0.0011312041511896509 0 -0.0023233480094390136 -0.0010731980988903107 0 -0.0023963634514201832 -0.0012192862334516508 0 -0.0023464291995863424 -0.0011506997599341107 0 -0.0024139017265418328 -0.0011312041511896509 0 -0.0022529288750452836 -0.0011419775988972545 0 -0.0020219441663803192 -0.001241401208452679 0 -0.0022080243311829928 -0.001016812189151905 0 -0.0020219441663803192 -0.001241401208452679 0 -0.0018591766275873106 -0.0009287581318785799 0 -0.0016899356961670019 -0.0014205964236881654 0 -0.0020521348122457461 -0.0009635943847100336 0 -0.0018591766275873106 -0.0009287581318785799 0 -0.0020974128097776454 -0.00072838034910030741 0 -0.0020219441663803192 -0.001241401208452679 0 -0.0020521348122457461 -0.0009635943847100336 0 -0.0022080243311829928 -0.001016812189151905 0 -0.0020219441663803192 -0.001241401208452679 0 -0.0020521348122457461 -0.0009635943847100336 0 -0.0018591766275873106 -0.0009287581318785799 0 -0.0022529288750452836 -0.0011419775988972545 0 -0.0022080243311829928 -0.001016812189151905 0 -0.0023233480094390136 -0.0010731980988903107 0 -0.0024081213234189883 -0.0010310304037898491 0 -0.0023220866137572344 -0.00092570985330479828 0 -0.0024907545701541704 -0.00091939920475578806 0 -0.0024139017265418328 -0.0011312041511896509 0 -0.0024081213234189883 -0.0010310304037898491 0 -0.0023233480094390136 -0.0010731980988903107 0 -0.0022080243311829928 -0.001016812189151905 0 -0.0023233480094390136 -0.0010731980988903107 0 -0.0023220866137572344 -0.00092570985330479828 0 -0.0024081213234189883 -0.0010310304037898491 0 -0.0023233480094390136 -0.0010731980988903107 0 -0.0023220866137572344 -0.00092570985330479828 0 -0.0023220866137572344 -0.00092570985330479828 0 -0.0023454629079525998 -0.00073618561365229682 0 -0.0024907545701541704 -0.00091939920475578806 0 -0.0023220866137572344 -0.00092570985330479828 0 -0.0021981986337161522 -0.00086594085711432553 0 -0.0023454629079525998 -0.00073618561365229682 0 -0.0020521348122457461 -0.0009635943847100336 0 -0.0022080243311829928 -0.001016812189151905 0 -0.0021981986337161522 -0.00086594085711432553 0 -0.0020521348122457461 -0.0009635943847100336 0 -0.0021981986337161522 -0.00086594085711432553 0 -0.0020974128097776454 -0.00072838034910030741 0 -0.0022080243311829928 -0.001016812189151905 0 -0.0023220866137572344 -0.00092570985330479828 0 -0.0021981986337161522 -0.00086594085711432553 0 -0.0023454629079525998 -0.00073618561365229682 0 -0.0022309488269866089 -0.000518279841461099 0 -0.0020974128097776454 -0.00072838034910030741 0 -0.0021981986337161522 -0.00086594085711432553 0 -0.0023454629079525998 -0.00073618561365229682 0 -0.0020974128097776454 -0.00072838034910030741 0 -0.0023454629079525998 -0.00073618561365229682 0 -0.0022309488269866089 -0.000518279841461099 0 -0.0025168018498311785 -0.00048143215409101079 0 -0.0022309488269866089 -0.000518279841461099 0 -0.0019476473454511343 -0.00056079217734383456 0 -0.0020974128097776454 -0.00072838034910030741 0 -0.0018591766275873106 -0.0009287581318785799 0 -0.0019476473454511343 -0.00056079217734383456 0 -0.0016953829701384419 -0.00068861748735996194 0 -0.0018591766275873106 -0.0009287581318785799 0 -0.0019476473454511343 -0.00056079217734383456 0 -0.0020974128097776454 -0.00072838034910030741 0 -0.0019476473454511343 -0.00056079217734383456 0 -0.0016953829701384419 -0.00068861748735996194 0 -0.0017527357549852174 -0.00034252540628375771 0 -0.0019476473454511343 -0.00056079217734383456 0 -0.0020760454525539625 -0.00027225427242183139 0 -0.0017527357549852174 -0.00034252540628375771 0 -0.0020760454525539625 -0.00027225427242183139 0 -0.001854194840060726 -6.3376765373939993e-06 0 -0.0017527357549852174 -0.00034252540628375771 0 -0.0022309488269866089 -0.000518279841461099 0 -0.0019476473454511343 -0.00056079217734383456 0 -0.0020760454525539625 -0.00027225427242183139 0 -0.001854194840060726 -6.3376765373939993e-06 0 -0.0022032314970130279 0.00022012709667393982 0 -0.0017550422046563447 0.0004343678234176861 0 -0.0020760454525539625 -0.00027225427242183139 0 -0.001854194840060726 -6.3376765373939993e-06 0 -0.0022032314970130279 0.00022012709667393982 0 -0.0020760454525539625 -0.00027225427242183139 0 -0.0022032314970130279 0.00022012709667393982 0 -0.0024173768055403126 -0.00019331675678464912 0 -0.0022309488269866089 -0.000518279841461099 0 -0.0020760454525539625 -0.00027225427242183139 0 -0.0024173768055403126 -0.00019331675678464912 0 -0.0022309488269866089 -0.000518279841461099 0 -0.0024173768055403126 -0.00019331675678464912 0 -0.0025168018498311785 -0.00048143215409101079 0 -0.0024173768055403126 -0.00019331675678464912 0 -0.0028835171619971808 -0.00021013847789487592 0 -0.0025168018498311785 -0.00048143215409101079 0 -0.0024173768055403126 -0.00019331675678464912 0 -0.0027586312602469673 0.00025023530940716674 0 -0.0028835171619971808 -0.00021013847789487592 0 -0.0022032314970130279 0.00022012709667393982 0 -0.0024173768055403126 -0.00019331675678464912 0 -0.0027586312602469673 0.00025023530940716674 0 -0.0027586312602469673 0.00025023530940716674 0 -0.0028835171619971808 -0.00021013847789487592 0 -0.0032776701191350333 0.00019169344325134239 0 -0.0028835171619971808 -0.00021013847789487592 0 -0.0029536450543150654 -0.00061171693569290152 0 -0.0025168018498311785 -0.00048143215409101079 0 -0.0023831788997123629 -0.0012107806085428082 0 -0.002771488994402431 -0.00095381105651420612 0 -0.0034307392272743412 -0.0010046161147264884 0 -0.0029536450543150654 -0.00061171693569290152 0 -0.0025168018498311785 -0.00048143215409101079 0 -0.0026090252220746951 -0.00075908937796242959 0 -0.0023454629079525998 -0.00073618561365229682 0 -0.0025168018498311785 -0.00048143215409101079 0 -0.0026090252220746951 -0.00075908937796242959 0 -0.0024886575500341485 -0.0011035945185326021 0 -0.0023831788997123629 -0.0012107806085428082 0 -0.002771488994402431 -0.00095381105651420612 0 -0.0026090252220746951 -0.00075908937796242959 0 -0.0024907545701541704 -0.00091939920475578806 0 -0.002771488994402431 -0.00095381105651420612 0 -0.0023454629079525998 -0.00073618561365229682 0 -0.0026090252220746951 -0.00075908937796242959 0 -0.0024907545701541704 -0.00091939920475578806 0 -0.0024886575500341485 -0.0011035945185326021 0 -0.0024907545701541704 -0.00091939920475578806 0 -0.002771488994402431 -0.00095381105651420612 0 -0.0024886575500341485 -0.0011035945185326021 0 -0.0024081213234189883 -0.0010310304037898491 0 -0.0024907545701541704 -0.00091939920475578806 0 -0.0024886575500341485 -0.0011035945185326021 0 -0.0024139017265418328 -0.0011312041511896509 0 -0.0024081213234189883 -0.0010310304037898491 0 -0.0029536450543150654 -0.00061171693569290152 0 -0.0026090252220746951 -0.00075908937796242959 0 -0.002771488994402431 -0.00095381105651420612 0 -0.0029536450543150654 -0.00061171693569290152 0 -0.002771488994402431 -0.00095381105651420612 0 -0.0034307392272743412 -0.0010046161147264884 0 -0.0028835171619971808 -0.00021013847789487592 0 -0.0029536450543150654 -0.00061171693569290152 0 -0.0035753870759674517 -0.00027067960364733867 0 -0.0029536450543150654 -0.00061171693569290152 0 -0.0034307392272743412 -0.0010046161147264884 0 -0.0035753870759674517 -0.00027067960364733867 0 -0.0028835171619971808 -0.00021013847789487592 0 -0.0032776701191350333 0.00019169344325134239 0 -0.0035753870759674517 -0.00027067960364733867 0 -0.0032776701191350333 0.00019169344325134239 0 -0.0035753870759674517 -0.00027067960364733867 0 -0.0039901832178642896 0.00043013451932561922 0 -0.0035753870759674517 -0.00027067960364733867 0 -0.0039901832178642896 0.00043013451932561922 0 -0.0044616266093936083 -0.00014770475613580717 0 -0.0048729194521404638 0.00075181191148874929 0 -0.0041722448963649886 0.00024314648950263829 0 -0.005082320788484973 -4.5973246513458242e-05 0 -0.0039901832178642896 0.00043013451932561922 0 -0.0044616266093936083 -0.00014770475613580717 0 -0.0033001075969582559 -0.00054158382746999345 0 -0.0028647489430585539 -0.0015324782316971024 0 -0.0045958555814418272 -0.00080497850168484084 0 -0.0034307392272743412 -0.0010046161147264884 0 -0.0035753870759674517 -0.00027067960364733867 0 -0.0045958555814418272 -0.00080497850168484084 0 -0.0035753870759674517 -0.00027067960364733867 0 -0.0044616266093936083 -0.00014770475613580717 0 -0.0025170755071399066 -0.0018264111557957324 0 -0.0023335675735675324 -0.0019376636645875955 0 -0.002221040055985475 -0.0018908082856001962 0 -0.00039208064004461605 -0.0018745364118537876 0 -0.0010364895456657357 -0.0018867243383258274 0 -0.00051079288139380076 -0.0012382091184677962 0 -0.00039208064004461605 -0.0018745364118537876 0 0.00018023240607133585 -0.0014288506521485942 0 -0.00051079288139380076 -0.0012382091184677962 0 -0.00039208064004461605 -0.0018745364118537876 0 0.00018023240607133585 -0.0014288506521485942 0 3.8679912845791958e-05 -0.0022417186058702747 0 -0.00064440826420131758 -0.0025326735541701621 0 -0.00039208064004461605 -0.0018745364118537876 0 3.8679912845791958e-05 -0.0022417186058702747 0 -0.00064440826420131758 -0.0025326735541701621 0 -0.00016144364691170906 -0.0027840685450294064 0 3.8679912845791958e-05 -0.0022417186058702747 0 -0.00064440826420131758 -0.0025326735541701621 0 -0.00039208064004461605 -0.0018745364118537876 0 -0.0010364895456657357 -0.0018867243383258274 0 -0.001178765225111632 -0.002589797764595904 0 -0.00064440826420131758 -0.0025326735541701621 0 -0.0010364895456657357 -0.0018867243383258274 0 -0.0012847054013989199 -0.0025199148959199114 0 -0.0017203546608315445 -0.0020795874803741566 0 -0.001178765225111632 -0.002589797764595904 0 -0.0010364895456657357 -0.0018867243383258274 0 -0.0017480627549550857 -0.001958885883806862 0 -0.0010364895456657357 -0.0018867243383258274 0 -0.0017480627549550857 -0.001958885883806862 0 -0.0013007574631906009 -0.0014665521875224692 0 -0.0020219441663803192 -0.001241401208452679 0 -0.0017480627549550857 -0.001958885883806862 0 -0.0016899356961670019 -0.0014205964236881654 0 -0.0017480627549550857 -0.001958885883806862 0 -0.0013007574631906009 -0.0014665521875224692 0 -0.0016899356961670019 -0.0014205964236881654 0 -0.0013007574631906009 -0.0014665521875224692 0 -0.0016899356961670019 -0.0014205964236881654 0 -0.0014799829177378771 -0.00096744465236251907 0 -0.0010364895456657357 -0.0018867243383258274 0 -0.0013007574631906009 -0.0014665521875224692 0 -0.0010190286844874185 -0.0010431640853218022 0 -0.0010364895456657357 -0.0018867243383258274 0 -0.0010190286844874185 -0.0010431640853218022 0 -0.00051079288139380076 -0.0012382091184677962 0 -0.0010190286844874185 -0.0010431640853218022 0 -0.00070384401931872286 -0.00074140247092737387 0 -0.00051079288139380076 -0.0012382091184677962 0 -0.0010190286844874185 -0.0010431640853218022 0 -0.0011484729862763774 -0.00064758402710024564 0 -0.0014799829177378771 -0.00096744465236251907 0 -0.0010190286844874185 -0.0010431640853218022 0 -0.0011484729862763774 -0.00064758402710024564 0 -0.00070384401931872286 -0.00074140247092737387 0 -0.0018591766275873106 -0.0009287581318785799 0 -0.0014799829177378771 -0.00096744465236251907 0 -0.0016953829701384419 -0.00068861748735996194 0 -0.0018591766275873106 -0.0009287581318785799 0 -0.0016899356961670019 -0.0014205964236881654 0 -0.0014799829177378771 -0.00096744465236251907 0 -0.0013007574631906009 -0.0014665521875224692 0 -0.0010190286844874185 -0.0010431640853218022 0 -0.0014799829177378771 -0.00096744465236251907 0 -0.0011484729862763774 -0.00064758402710024564 0 -0.0014799829177378771 -0.00096744465236251907 0 -0.0014633774073486928 -0.00049383627344715272 0 -0.0016953829701384419 -0.00068861748735996194 0 -0.0017527357549852174 -0.00034252540628375771 0 -0.0014633774073486928 -0.00049383627344715272 0 -0.0014799829177378771 -0.00096744465236251907 0 -0.0016953829701384419 -0.00068861748735996194 0 -0.0014633774073486928 -0.00049383627344715272 0 -0.0017527357549852174 -0.00034252540628375771 0 -0.0014633774073486928 -0.00049383627344715272 0 -0.0014927794371015143 -2.2578463904825334e-05 0 -0.0011484729862763774 -0.00064758402710024564 0 -0.0014633774073486928 -0.00049383627344715272 0 -0.0012167109884722335 -0.00025941580099193872 0 -0.0014633774073486928 -0.00049383627344715272 0 -0.0012167109884722335 -0.00025941580099193872 0 -0.0014927794371015143 -2.2578463904825334e-05 0 -0.0012167109884722335 -0.00025941580099193872 0 -0.0014927794371015143 -2.2578463904825334e-05 0 -0.0010622006012762988 0.00013061300328815994 0 -0.001854194840060726 -6.3376765373939993e-06 0 -0.0014927794371015143 -2.2578463904825334e-05 0 -0.0017550422046563447 0.0004343678234176861 0 -0.001854194840060726 -6.3376765373939993e-06 0 -0.0017527357549852174 -0.00034252540628375771 0 -0.0014927794371015143 -2.2578463904825334e-05 0 -0.00070384401931872286 -0.00074140247092737387 0 -0.00085486008010370572 -0.00027926286358022595 0 -0.00046976579984114061 -0.00031346264299366572 0 -0.0011484729862763774 -0.00064758402710024564 0 -0.00070384401931872286 -0.00074140247092737387 0 -0.00085486008010370572 -0.00027926286358022595 0 -0.0011484729862763774 -0.00064758402710024564 0 -0.0012167109884722335 -0.00025941580099193872 0 -0.00085486008010370572 -0.00027926286358022595 0 -0.0012167109884722335 -0.00025941580099193872 0 -0.00085486008010370572 -0.00027926286358022595 0 -0.0010622006012762988 0.00013061300328815994 0 -0.00085486008010370572 -0.00027926286358022595 0 -0.00057727362601417312 0.00020180946319154085 0 -0.0010622006012762988 0.00013061300328815994 0 -0.00085486008010370572 -0.00027926286358022595 0 -0.00046976579984114061 -0.00031346264299366572 0 -0.00057727362601417312 0.00020180946319154085 0 -0.00046976579984114061 -0.00031346264299366572 0 -0.00015471934904792294 -0.00070466101453847782 0 -7.5702416094001486e-05 -4.8976127042669482e-05 0 -0.00070384401931872286 -0.00074140247092737387 0 -0.00046976579984114061 -0.00031346264299366572 0 -0.00015471934904792294 -0.00070466101453847782 0 -0.00046976579984114061 -0.00031346264299366572 0 -7.5702416094001486e-05 -4.8976127042669482e-05 0 -0.00057727362601417312 0.00020180946319154085 0 -0.00070384401931872286 -0.00074140247092737387 0 -0.00051079288139380076 -0.0012382091184677962 0 -0.00015471934904792294 -0.00070466101453847782 0 0.00033889494725464762 -0.00076363732379385702 0 0.00018023240607133585 -0.0014288506521485942 0 -0.00015471934904792294 -0.00070466101453847782 0 0.00018023240607133585 -0.0014288506521485942 0 -0.00051079288139380076 -0.0012382091184677962 0 -0.00015471934904792294 -0.00070466101453847782 0 0.00033889494725464762 -0.00076363732379385702 0 0.00041890912137769698 -0.00013792694141057755 0 0.00013653385511298808 -0.00040819998073618788 0 0.00041890912137769698 -0.00013792694141057755 0 0.00013653385511298808 -0.00040819998073618788 0 -7.5702416094001486e-05 -4.8976127042669482e-05 0 0.00033889494725464762 -0.00076363732379385702 0 -0.00015471934904792294 -0.00070466101453847782 0 0.00013653385511298808 -0.00040819998073618788 0 -0.00015471934904792294 -0.00070466101453847782 0 0.00013653385511298808 -0.00040819998073618788 0 -7.5702416094001486e-05 -4.8976127042669482e-05 0 0.00041890912137769698 -0.00013792694141057755 0 -7.5702416094001486e-05 -4.8976127042669482e-05 0 0.00023838881093164551 0.00042922095090626271 0 -7.5702416094001486e-05 -4.8976127042669482e-05 0 0.00023838881093164551 0.00042922095090626271 0 -0.00018901590196630425 0.00049913343313088881 0 0.0011854866756026948 0.0010560476884313471 0 0.0020906536351305571 0.001716816607230323 0 0.0029378205469972603 0.0005967364096067018 0 0.0003921680887922551 0.0013166279741381004 0 0.0022651525217752123 -0.0016010313365958909 0 0.00023838881093164551 0.00042922095090626271 0 -5.1356216247901206e-05 0.00095041651018169999 0 0.00073198772582944312 0.00061155622929487342 0 0.00023838881093164551 0.00042922095090626271 0 -5.1356216247901206e-05 0.00095041651018169999 0 -0.00018901590196630425 0.00049913343313088881 0 -5.1356216247901206e-05 0.00095041651018169999 0 -0.00046160628487229159 0.00081797857684328171 0 -0.00061961169352809926 0.0015554734031804659 0 0.0003921680887922551 0.0013166279741381004 0 -0.00050613245547559936 0.0014176702466067684 0 -5.1356216247901206e-05 0.00095041651018169999 0 -0.00046160628487229159 0.00081797857684328171 0 -0.00018901590196630425 0.00049913343313088881 0 -7.5702416094001486e-05 -4.8976127042669482e-05 0 -0.00018901590196630425 0.00049913343313088881 0 -0.00057727362601417312 0.00020180946319154085 0 -0.00046160628487229159 0.00081797857684328171 0 -0.00018901590196630425 0.00049913343313088881 0 -0.00057727362601417312 0.00020180946319154085 0 -0.00057727362601417312 0.00020180946319154085 0 -0.0010622006012762988 0.00013061300328815994 0 -0.00091270258331562686 0.00068496139190449181 0 -0.00046160628487229159 0.00081797857684328171 0 -0.00057727362601417312 0.00020180946319154085 0 -0.00091270258331562686 0.00068496139190449181 0 -0.0014927794371015143 -2.2578463904825334e-05 0 -0.0013432725456493909 0.00043815280667424875 0 -0.0017550422046563447 0.0004343678234176861 0 -0.0010622006012762988 0.00013061300328815994 0 -0.00091270258331562686 0.00068496139190449181 0 -0.0013432725456493909 0.00043815280667424875 0 -0.0014927794371015143 -2.2578463904825334e-05 0 -0.0010622006012762988 0.00013061300328815994 0 -0.0013432725456493909 0.00043815280667424875 0 -0.00091270258331562686 0.00068496139190449181 0 -0.0013432725456493909 0.00043815280667424875 0 -0.0014672358092108252 0.00092362695946548914 0 -0.0013432725456493909 0.00043815280667424875 0 -0.0014672358092108252 0.00092362695946548914 0 -0.0017550422046563447 0.0004343678234176861 0 -0.0014672358092108252 0.00092362695946548914 0 -0.00061961169352809926 0.0015554734031804659 0 -0.0017285520852616495 0.0016643649361444499 0 -0.00091270258331562686 0.00068496139190449181 0 -0.0014672358092108252 0.00092362695946548914 0 -0.00061961169352809926 0.0015554734031804659 0 -0.00046160628487229159 0.00081797857684328171 0 -0.00091270258331562686 0.00068496139190449181 0 -0.00061961169352809926 0.0015554734031804659 0 -0.00061961169352809926 0.0015554734031804659 0 -0.00013734550766690979 0.0024515975440206014 0 -0.0011807126825382967 0.0022745248924981379 0 -0.00061961169352809926 0.0015554734031804659 0 -0.00013734550766690979 0.0024515975440206014 0 0.00025660116076150856 0.0019521420333807522 0 -0.00061961169352809926 0.0015554734031804659 0 -0.0011807126825382967 0.0022745248924981379 0 -0.0017285520852616495 0.0016643649361444499 0 -0.0011807126825382967 0.0022745248924981379 0 -0.0017285520852616495 0.0016643649361444499 0 -0.0018127997203190192 0.0023671893931433417 0 -0.0011807126825382967 0.0022745248924981379 0 -0.0014435305533173173 0.0028930832049801308 0 -0.0018127997203190192 0.0023671893931433417 0 -0.0014435305533173173 0.0028930832049801308 0 -0.00091078745786418453 0.0034060415744274976 0 -0.0017500682856427389 0.003486938649808295 0 -0.0011807126825382967 0.0022745248924981379 0 -0.0014435305533173173 0.0028930832049801308 0 -0.00081292797317908372 0.0028996231864753222 0 -0.0014435305533173173 0.0028930832049801308 0 -0.00081292797317908372 0.0028996231864753222 0 -0.00091078745786418453 0.0034060415744274976 0 -0.00013734550766690979 0.0024515975440206014 0 -0.0011807126825382967 0.0022745248924981379 0 -0.00081292797317908372 0.0028996231864753222 0 -0.00013734550766690979 0.0024515975440206014 0 -0.0002429353603426637 0.0030467873845774164 0 0.00037678658166796758 0.002830700095291763 0 -0.00013734550766690979 0.0024515975440206014 0 -0.00081292797317908372 0.0028996231864753222 0 -0.0002429353603426637 0.0030467873845774164 0 -0.00081292797317908372 0.0028996231864753222 0 -0.00091078745786418453 0.0034060415744274976 0 -0.0002429353603426637 0.0030467873845774164 0 -0.00091078745786418453 0.0034060415744274976 0 -0.0002429353603426637 0.0030467873845774164 0 -0.00013530873398815902 0.003523203981281062 0 -0.0002429353603426637 0.0030467873845774164 0 0.00014942958738883481 0.0031767678674373 0 -0.00013530873398815902 0.003523203981281062 0 0.00014942958738883481 0.0031767678674373 0 0.00036984958437722587 0.0034138804820789802 0 -0.00013530873398815902 0.003523203981281062 0 -0.0002429353603426637 0.0030467873845774164 0 0.00014942958738883481 0.0031767678674373 0 0.00037678658166796758 0.002830700095291763 0 0.00014942958738883481 0.0031767678674373 0 0.00040311631871198581 0.0030984049045445603 0 0.00036984958437722587 0.0034138804820789802 0 0.0013539448166769493 0.0026026121605332905 0 0.00057994957727490134 0.00363611674213491 0 0.00036984958437722587 0.0034138804820789802 0 0.00040311631871198581 0.0030984049045445603 0 0.00072123431287316971 0.0029721265559492561 0 0.00036984958437722587 0.0034138804820789802 0 0.00040311631871198581 0.0030984049045445603 0 0.00037678658166796758 0.002830700095291763 0 0.00072123431287316971 0.0029721265559492561 0 0.00014942958738883481 0.0031767678674373 0 0.00040311631871198581 0.0030984049045445603 0 0.00037678658166796758 0.002830700095291763 0 -0.00013734550766690979 0.0024515975440206014 0 0.00037678658166796758 0.002830700095291763 0 0.00060670004921515566 0.0024350980381745435 0 0.00037678658166796758 0.002830700095291763 0 0.00070118138912338168 0.0027204979443405915 0 0.00072123431287316971 0.0029721265559492561 0 0.00037678658166796758 0.002830700095291763 0 0.00070118138912338168 0.0027204979443405915 0 0.00060670004921515566 0.0024350980381745435 0 0.00087408028710813887 0.0027964906570088258 0 0.00072123431287316971 0.0029721265559492561 0 0.00116181009858048 0.002770960796975341 0 0.00095789471484990208 0.0026530426643354634 0 0.00116181009858048 0.002770960796975341 0 0.0010341660333498884 0.0023940391201765642 0 0.0011266910384931193 0.00091560741633488945 0 0.0013950986413814477 0.0021075355480535602 0 0.00095789471484990208 0.0026530426643354634 0 0.00070118138912338168 0.0027204979443405915 0 0.00060670004921515566 0.0024350980381745435 0 0.00095789471484990208 0.0026530426643354634 0 0.00060670004921515566 0.0024350980381745435 0 0.0010341660333498884 0.0023940391201765642 0 0.00095789471484990208 0.0026530426643354634 0 0.00087408028710813887 0.0027964906570088258 0 0.00070118138912338168 0.0027204979443405915 0 0.00087408028710813887 0.0027964906570088258 0 0.00070118138912338168 0.0027204979443405915 0 0.00072123431287316971 0.0029721265559492561 0 0.00095789471484990208 0.0026530426643354634 0 0.00087408028710813887 0.0027964906570088258 0 0.00116181009858048 0.002770960796975341 0 0.0011266910384931193 0.00091560741633488945 0 0.00045800388236785084 0.0039152746868734078 0 0.0011266910384931193 0.00091560741633488945 0 0.00022241953632571595 0.0036102877379430346 0 0.0013191375880938188 0.0030380500549021371 0 0.0011340755576103041 0.0032137774965920215 0 0.0014048653121520394 0.0025450467482395632 0 0.00072123431287316971 0.0029721265559492561 0 0.00116181009858048 0.002770960796975341 0 0.00036984958437722587 0.0034138804820789802 0 0.0011340755576103041 0.0032137774965920215 0 0.0014048653121520394 0.0025450467482395632 0 0.00057994957727490134 0.00363611674213491 0 0.0013191375880938188 0.0030380500549021371 0 0.0013306677135135449 0.0032231668070134886 0 0.0014336777435221431 0.0030875623315599165 0 0.0011340755576103041 0.0032137774965920215 0 0.0013306677135135449 0.0032231668070134886 0 0.0012724845459345794 0.003358112648508898 0 0.0013191375880938188 0.0030380500549021371 0 0.0011340755576103041 0.0032137774965920215 0 0.0013306677135135449 0.0032231668070134886 0 0.0014336777435221431 0.0030875623315599165 0 0.0014048653121520394 0.0025450467482395632 0 0.0016602312225041116 0.0036217444606708657 0 0.0013191375880938188 0.0030380500549021371 0 0.0014336777435221431 0.0030875623315599165 0 0.0014048653121520394 0.0025450467482395632 0 0.0020615914396693051 -0.0030607799373886485 0 0.0010248134983829225 -0.0035046101077923562 0 0.0020736790035185276 -0.001131101977140301 0 0.0013306677135135449 0.0032231668070134886 0 0.0014336777435221431 0.0030875623315599165 0 0.0014567768656431261 0.003384101109641019 0 0.0020615914396693051 -0.0030607799373886485 0 0.0023063300159991093 -0.0038073488473375741 0 0.002991048165311423 -0.0036494255631335107 0 0.0020615914396693051 -0.0030607799373886485 0 0.0023063300159991093 -0.0038073488473375741 0 0.0010248134983829225 -0.0035046101077923562 0 0.0011266910384931193 0.00091560741633488945 0 0.0025587989493435809 -0.0035651590354070996 0 0.0023063300159991093 -0.0038073488473375741 0 0.0010248134983829225 -0.0035046101077923562 0 0.002724105100478959 -0.0047197798395192565 0 0.0012292691140990369 0.0028161885745624816 0 0.0012712808108629192 0.0019777905899780665 0 0.0020906536351305571 0.001716816607230323 0 5.9221749545210141e-05 -0.0002726007709873225 0 0.0015866054013415612 -0.0022808539821223988 0 0.0021935157343486926 -0.0018400353740569096 0 0.0011266910384931193 0.00091560741633488945 0 0.0018609132762888263 -0.00029119053495312556 0 0.0011854866756026948 0.0010560476884313471 0 0.0012712808108629192 0.0019777905899780665 0 0.0020906536351305571 0.001716816607230323 0 0.0011854866756026948 0.0010560476884313471 0 -0.00061961169352809926 0.0015554734031804659 0 0.00025660116076150856 0.0019521420333807522 0 0.0011854866756026948 0.0010560476884313471 0 0.0012712808108629192 0.0019777905899780665 0 0.0008545138887611621 0.0019484388664206482 0 0.0011854866756026948 0.0010560476884313471 0 0.0008545138887611621 0.0019484388664206482 0 0.00025660116076150856 0.0019521420333807522 0 -0.00013734550766690979 0.0024515975440206014 0 0.00025660116076150856 0.0019521420333807522 0 0.00060670004921515566 0.0024350980381745435 0 0.0008545138887611621 0.0019484388664206482 0 0.00025660116076150856 0.0019521420333807522 0 0.00060670004921515566 0.0024350980381745435 0 0.0008545138887611621 0.0019484388664206482 0 0.00060670004921515566 0.0024350980381745435 0 0.0010341660333498884 0.0023940391201765642 0 0.0012292691140990369 0.0028161885745624816 0 0.0012712808108629192 0.0019777905899780665 0 0.0010341660333498884 0.0023940391201765642 0 0.0012712808108629192 0.0019777905899780665 0 0.0008545138887611621 0.0019484388664206482 0 0.0010341660333498884 0.0023940391201765642 0 -0.0043020531248827761 0.0018232400976807329 0 -0.0036940635738897808 0.0014382265663357343 0 -0.0039120788519238919 0.0023378244571399471 0 -0.0043020531248827761 0.0018232400976807329 0 -0.0044195035827316268 0.0012311032003563844 0 -0.0036940635738897808 0.0014382265663357343 0 -0.0047155632399678857 0.0015711490834783761 0 -0.0043020531248827761 0.0018232400976807329 0 -0.0044195035827316268 0.0012311032003563844 0 -0.0039901832178642896 0.00043013451932561922 0 -0.0044195035827316268 0.0012311032003563844 0 -0.0036940635738897808 0.0014382265663357343 0 -0.0048819033595964862 0.00084259751290444249 0 -0.0039901832178642896 0.00043013451932561922 0 -0.0044195035827316268 0.0012311032003563844 0 -0.0039901832178642896 0.00043013451932561922 0 -0.0032082019115109144 0.0007658489518882237 0 -0.0036940635738897808 0.0014382265663357343 0 -0.0032776701191350333 0.00019169344325134239 0 -0.0039901832178642896 0.00043013451932561922 0 -0.0032082019115109144 0.0007658489518882237 0 -0.0027586312602469673 0.00025023530940716674 0 -0.0032776701191350333 0.00019169344325134239 0 -0.0032082019115109144 0.0007658489518882237 0 -0.0032082019115109144 0.0007658489518882237 0 -0.0036940635738897808 0.0014382265663357343 0 -0.0030245316259291046 0.001298685554079202 0 -0.0036940635738897808 0.0014382265663357343 0 -0.0030245316259291046 0.001298685554079202 0 -0.0031476794721543677 0.0021409235906955548 0 -0.0036940635738897808 0.0014382265663357343 0 -0.0031476794721543677 0.0021409235906955548 0 -0.0039120788519238919 0.0023378244571399471 0 -0.0025116174922199829 0.0015056661405799636 0 -0.0030245316259291046 0.001298685554079202 0 -0.0031476794721543677 0.0021409235906955548 0 -0.0025116174922199829 0.0015056661405799636 0 -0.0026241168569696 0.00081477023089200011 0 -0.002061841992791661 0.00088298891987227787 0 -0.0025116174922199829 0.0015056661405799636 0 -0.0030245316259291046 0.001298685554079202 0 -0.0026241168569696 0.00081477023089200011 0 -0.0032082019115109144 0.0007658489518882237 0 -0.0030245316259291046 0.001298685554079202 0 -0.0026241168569696 0.00081477023089200011 0 -0.0027586312602469673 0.00025023530940716674 0 -0.0032082019115109144 0.0007658489518882237 0 -0.0026241168569696 0.00081477023089200011 0 -0.0022032314970130279 0.00022012709667393982 0 -0.0027586312602469673 0.00025023530940716674 0 -0.0026241168569696 0.00081477023089200011 0 -0.0022032314970130279 0.00022012709667393982 0 -0.0026241168569696 0.00081477023089200011 0 -0.002061841992791661 0.00088298891987227787 0 -0.0022032314970130279 0.00022012709667393982 0 -0.002061841992791661 0.00088298891987227787 0 -0.0017550422046563447 0.0004343678234176861 0 -0.0014672358092108252 0.00092362695946548914 0 -0.002061841992791661 0.00088298891987227787 0 -0.0017550422046563447 0.0004343678234176861 0 -0.0014672358092108252 0.00092362695946548914 0 -0.002061841992791661 0.00088298891987227787 0 -0.0017285520852616495 0.0016643649361444499 0 -0.0025116174922199829 0.0015056661405799636 0 -0.0017285520852616495 0.0016643649361444499 0 -0.0023718786498257288 0.0022245686071554341 0 -0.0025116174922199829 0.0015056661405799636 0 -0.002061841992791661 0.00088298891987227787 0 -0.0017285520852616495 0.0016643649361444499 0 -0.0017285520852616495 0.0016643649361444499 0 -0.0018127997203190192 0.0023671893931433417 0 -0.0023718786498257288 0.0022245686071554341 0 -0.0018127997203190192 0.0023671893931433417 0 -0.002117749131371176 0.0028836292936367468 0 -0.0023718786498257288 0.0022245686071554341 0 -0.0014435305533173173 0.0028930832049801308 0 -0.0018127997203190192 0.0023671893931433417 0 -0.002117749131371176 0.0028836292936367468 0 -0.0014435305533173173 0.0028930832049801308 0 -0.0017500682856427389 0.003486938649808295 0 -0.002117749131371176 0.0028836292936367468 0 -0.0017500682856427389 0.003486938649808295 0 -0.002117749131371176 0.0028836292936367468 0 -0.0024764052396489549 0.0034836097433533723 0 -0.002117749131371176 0.0028836292936367468 0 -0.0024764052396489549 0.0034836097433533723 0 -0.0028093435527261281 0.002880924613627934 0 -0.0024764052396489549 0.0034836097433533723 0 -0.0028093435527261281 0.002880924613627934 0 -0.003067976471256994 0.0034839899046696823 0 -0.0025116174922199829 0.0015056661405799636 0 -0.0023718786498257288 0.0022245686071554341 0 -0.0031476794721543677 0.0021409235906955548 0 -0.0028093435527261281 0.002880924613627934 0 -0.0023718786498257288 0.0022245686071554341 0 -0.0031476794721543677 0.0021409235906955548 0 -0.002117749131371176 0.0028836292936367468 0 -0.0028093435527261281 0.002880924613627934 0 -0.0023718786498257288 0.0022245686071554341 0 -0.0031476794721543677 0.0021409235906955548 0 -0.0035651358037766699 0.0030635700927383173 0 -0.0039120788519238919 0.0023378244571399471 0 -0.0028093435527261281 0.002880924613627934 0 -0.0031476794721543677 0.0021409235906955548 0 -0.0035651358037766699 0.0030635700927383173 0 -0.0035651358037766699 0.0030635700927383173 0 -0.003067976471256994 0.0034839899046696823 0 -0.0035522053874302755 0.0038865354794302021 0 -0.0035651358037766699 0.0030635700927383173 0 -0.0041697784823438739 0.0037243968501371946 0 -0.0035522053874302755 0.0038865354794302021 0 -0.0028093435527261281 0.002880924613627934 0 -0.0035651358037766699 0.0030635700927383173 0 -0.003067976471256994 0.0034839899046696823 0 -0.0035651358037766699 0.0030635700927383173 0 -0.0041697784823438739 0.0037243968501371946 0 -0.004432043077047889 0.0030227249523864415 0 -0.0048050962259042086 0.0038870052956984477 0 -0.0041697784823438739 0.0037243968501371946 0 -0.004432043077047889 0.0030227249523864415 0 -0.004432043077047889 0.0030227249523864415 0 -0.0039120788519238919 0.0023378244571399471 0 -0.0044712772873226015 0.0023711919368736862 0 -0.0035651358037766699 0.0030635700927383173 0 -0.004432043077047889 0.0030227249523864415 0 -0.0039120788519238919 0.0023378244571399471 0 -0.0043020531248827761 0.0018232400976807329 0 -0.0039120788519238919 0.0023378244571399471 0 -0.0044712772873226015 0.0023711919368736862 0 -0.0046805210511430767 0.0045371092632136853 0 -0.0049072300779084569 0.0051350415961609669 0 -0.0040447094270170602 0.0052192759092798057 0 -0.0040447094270170602 0.0052192759092798057 0 -0.0039890705468344197 0.0044223167524549975 0 -0.0034095919766902001 0.0047330929578194413 0 -0.0046805210511430767 0.0045371092632136853 0 -0.0040447094270170602 0.0052192759092798057 0 -0.0039890705468344197 0.0044223167524549975 0 -0.0046805210511430767 0.0045371092632136853 0 -0.0041697784823438739 0.0037243968501371946 0 -0.0039890705468344197 0.0044223167524549975 0 -0.0041697784823438739 0.0037243968501371946 0 -0.0039890705468344197 0.0044223167524549975 0 -0.0035522053874302755 0.0038865354794302021 0 -0.0035522053874302755 0.0038865354794302021 0 -0.0034095919766902001 0.0047330929578194413 0 -0.002917829761404477 0.0041211676891752241 0 -0.0039890705468344197 0.0044223167524549975 0 -0.0035522053874302755 0.0038865354794302021 0 -0.0034095919766902001 0.0047330929578194413 0 -0.003067976471256994 0.0034839899046696823 0 -0.0035522053874302755 0.0038865354794302021 0 -0.002917829761404477 0.0041211676891752241 0 -0.0034095919766902001 0.0047330929578194413 0 -0.0026263554315057933 0.0049366523000074483 0 -0.0032254412787407994 0.0055585048103882319 0 -0.0040447094270170602 0.0052192759092798057 0 -0.0034095919766902001 0.0047330929578194413 0 -0.0032254412787407994 0.0055585048103882319 0 -0.0034095919766902001 0.0047330929578194413 0 -0.0026263554315057933 0.0049366523000074483 0 -0.002917829761404477 0.0041211676891752241 0 -0.0024764052396489549 0.0034836097433533723 0 -0.003067976471256994 0.0034839899046696823 0 -0.002917829761404477 0.0041211676891752241 0 -0.0024764052396489549 0.0034836097433533723 0 -0.002917829761404477 0.0041211676891752241 0 -0.0021572004358281849 0.0041373880435173222 0 -0.0026263554315057933 0.0049366523000074483 0 -0.002917829761404477 0.0041211676891752241 0 -0.0021572004358281849 0.0041373880435173222 0 -0.0017500682856427389 0.003486938649808295 0 -0.0024764052396489549 0.0034836097433533723 0 -0.0021572004358281849 0.0041373880435173222 0 -0.0017500682856427389 0.003486938649808295 0 -0.0021572004358281849 0.0041373880435173222 0 -0.0013548528580916333 0.0040757900689940441 0 -0.0021572004358281849 0.0041373880435173222 0 -0.0019244846609557601 0.0048208110732801896 0 -0.0013548528580916333 0.0040757900689940441 0 -0.0026263554315057933 0.0049366523000074483 0 -0.0019244846609557601 0.0048208110732801896 0 -0.0019323552249549043 0.0060765402522750742 0 -0.0026263554315057933 0.0049366523000074483 0 -0.0021572004358281849 0.0041373880435173222 0 -0.0019244846609557601 0.0048208110732801896 0 -0.0019244846609557601 0.0048208110732801896 0 -0.0019323552249549043 0.0060765402522750742 0 -0.0013339339264063876 0.0052757238608658079 0 -0.0015243299340613847 0.006387264624860169 0 -0.00242071115537398 0.0077145147602675664 0 -0.0011972547392511031 0.0076457228153980318 0 -0.0015243299340613847 0.006387264624860169 0 -0.00292152786206132 0.0067561607309630243 0 -0.00242071115537398 0.0077145147602675664 0 -0.0015243299340613847 0.006387264624860169 0 -0.0032254412787407994 0.0055585048103882319 0 -0.00292152786206132 0.0067561607309630243 0 -0.0017490856675841883 0.0062271538248198392 0 -0.0031676428149636938 0.0055929366727557432 0 -0.0026263554315057933 0.0049366523000074483 0 -0.0019323552249549043 0.0060765402522750742 0 -0.0032254412787407994 0.0055585048103882319 0 -0.0040447094270170602 0.0052192759092798057 0 -0.0032254412787407994 0.0055585048103882319 0 -0.0038530550742959086 0.0065392924116049181 0 -0.0032254412787407994 0.0055585048103882319 0 -0.00292152786206132 0.0067561607309630243 0 -0.0038530550742959086 0.0065392924116049181 0 -0.00292152786206132 0.0067561607309630243 0 -0.0038530550742959086 0.0065392924116049181 0 -0.0035334203537717192 0.0074989340979508172 0 -0.00292152786206132 0.0067561607309630243 0 -0.0035334203537717192 0.0074989340979508172 0 -0.00242071115537398 0.0077145147602675664 0 -0.0050396151641148171 0.006376482325745083 0 -0.0038392661387414884 0.0065675289591429634 0 -0.004290456268824544 0.0070182761396312748 0 -0.0043663332794766571 0.0075503872947421018 0 -0.0035334203537717192 0.0074989340979508172 0 -0.0038530550742959086 0.0065392924116049181 0 -0.004290456268824544 0.0070182761396312748 0 -0.0035334203537717192 0.0074989340979508172 0 -0.0047195975310852841 0.0066948559820722191 0 -0.0038530550742959086 0.0065392924116049181 0 -0.004290456268824544 0.0070182761396312748 0 -0.0049072300779084569 0.0051350415961609669 0 -0.0050147034660066592 0.0062228817828513545 0 -0.0040447094270170602 0.0052192759092798057 0 -0.0050147034660066592 0.0062228817828513545 0 -0.0040447094270170602 0.0052192759092798057 0 -0.0038530550742959086 0.0065392924116049181 0 0.0011265306568733317 0.004468328416286629 0 0.0007254861602455484 0.0046545680036479938 0 0.0012147063150210013 0.0049531508568958944 0 0.0011265306568733317 0.004468328416286629 0 0.0012147063150210013 0.0049531508568958944 0 0.0015645119178271491 0.0044728355344452742 0 0.0011265306568733317 0.004468328416286629 0 0.0015645119178271491 0.0044728355344452742 0 0.0012873347042815944 0.0041287547634973921 0 0.0011265306568733317 0.004468328416286629 0 0.0007254861602455484 0.0046545680036479938 0 0.00089552348268938733 0.0041873400555984394 0 0.0007254861602455484 0.0046545680036479938 0 0.00048030484421222414 0.0041125323320396253 0 0.00020366549497943335 0.0044110730214802565 0 0.0007254861602455484 0.0046545680036479938 0 0.0012147063150210013 0.0049531508568958944 0 0.00054305668051979632 0.0054510300935155147 0 0.0007254861602455484 0.0046545680036479938 0 -5.1985098800892433e-05 0.0049258992528198025 0 0.00054305668051979632 0.0054510300935155147 0 0.001782669034640595 0.0049947051120569101 0 0.0021164670834136097 0.0045227462204893753 0 0.002167833326415933 0.0059706180221046718 0 0.0012147063150210013 0.0049531508568958944 0 0.001782669034640595 0.0049947051120569101 0 0.0015645119178271491 0.0044728355344452742 0 0.0017669038288481507 0.0013074438996632171 0 0.001507592441519792 0.0032754014352830113 0 0.0016076485361768249 -0.00089312973251207063 0 0.0017353333258220732 -0.001066869924622996 0 0.0022380727369940845 5.6761618072480702e-05 0 0.0012147063150210013 0.0049531508568958944 0 0.001782669034640595 0.0049947051120569101 0 0.0014924362391345743 0.0056705692066251695 0 0.0010060199679129385 0.0042419200006686853 0 0.0017669038288481507 0.0013074438996632171 0 0.0020847482650985807 0.0045561325145096138 0 0.00181698561330337 0.0042422078403775579 0 0.0020864140578726745 0.0040960138752866035 0 0.0022712642018441255 -0.00091028284420247019 0 0.0021931893452113746 -0.00080139098990599129 0 0.0022852845035279063 -0.00061299999250263523 0 0.0017669038288481507 0.0013074438996632171 0 0.0023205263170235691 -5.6852105548362643e-05 0 0.0017669038288481507 0.0013074438996632171 0 0.0024399415846574801 -0.0027072538078152224 0 0.001782669034640595 0.0049947051120569101 0 0.0020847482650985807 0.0045561325145096138 0 0.0015645119178271491 0.0044728355344452742 0 0.0020847482650985807 0.0045561325145096138 0 0.0015645119178271491 0.0044728355344452742 0 0.00181698561330337 0.0042422078403775579 0 0.0020494255826633383 -0.0032942510534883008 0 0.0023205263170235691 -5.6852105548362643e-05 0 0.0011266910384931193 0.00091560741633488945 0 0.0023205263170235691 -5.6852105548362643e-05 0 0.0015645119178271491 0.0044728355344452742 0 0.0016204143325727199 0.0040410355400887403 0 0.0012873347042815944 0.0041287547634973921 0 0.0014048653121520394 0.0025450467482395632 0 0.0020864140578726745 0.0040960138752866035 0 0.0016602312225041116 0.0036217444606708657 0 0.0015645119178271491 0.0044728355344452742 0 0.00181698561330337 0.0042422078403775579 0 0.0016204143325727199 0.0040410355400887403 0 0.00181698561330337 0.0042422078403775579 0 0.0018154202176747492 0.0040162572039962189 0 0.0016204143325727199 0.0040410355400887403 0 0.0018154202176747492 0.0040162572039962189 0 0.0020864140578726745 0.0040960138752866035 0 0.0016602312225041116 0.0036217444606708657 0 0.0018154202176747492 0.0040162572039962189 0 0.0016204143325727199 0.0040410355400887403 0 0.0016602312225041116 0.0036217444606708657 0 0.0016204143325727199 0.0040410355400887403 0 0.0014318893964638776 0.0037848425798481166 0 0.0012873347042815944 0.0041287547634973921 0 0.0016204143325727199 0.0040410355400887403 0 0.0014318893964638776 0.0037848425798481166 0 0.0016602312225041116 0.0036217444606708657 0 0.0024399415846574801 -0.0027072538078152224 0 0.0023205263170235691 -5.6852105548362643e-05 0 0.00181698561330337 0.0042422078403775579 0 0.0018154202176747492 0.0040162572039962189 0 0.0020864140578726745 0.0040960138752866035 0 0.0014336777435221431 0.0030875623315599165 0 0.0016602312225041116 0.0036217444606708657 0 0.0014567768656431261 0.003384101109641019 0 0.0014318893964638776 0.0037848425798481166 0 0.0016602312225041116 0.0036217444606708657 0 0.0014326015826806441 0.0035372973892075239 0 0.0016602312225041116 0.0036217444606708657 0 0.0014326015826806441 0.0035372973892075239 0 0.0014567768656431261 0.003384101109641019 0 0.0014326015826806441 0.0035372973892075239 0 0.0014567768656431261 0.003384101109641019 0 0.0012724845459345794 0.003358112648508898 0 0.0013306677135135449 0.0032231668070134886 0 0.0014567768656431261 0.003384101109641019 0 0.0012724845459345794 0.003358112648508898 0 0.0011340755576103041 0.0032137774965920215 0 0.0010078718077595218 0.0034890929842901481 0 0.00057994957727490134 0.00363611674213491 0 0.0011340755576103041 0.0032137774965920215 0 0.0012724845459345794 0.003358112648508898 0 0.0010078718077595218 0.0034890929842901481 0 0.0012724845459345794 0.003358112648508898 0 0.0010078718077595218 0.0034890929842901481 0 0.0011817668900872965 0.0036170831786349212 0 0.0014326015826806441 0.0035372973892075239 0 0.0012724845459345794 0.003358112648508898 0 0.0011817668900872965 0.0036170831786349212 0 0.00090606845319728851 0.0037032588555496906 0 0.0010686316180698362 0.0038580800370894676 0 0.00069529059626144538 0.0038881908206485705 0 0.0010078718077595218 0.0034890929842901481 0 0.00090606845319728851 0.0037032588555496906 0 0.00057994957727490134 0.00363611674213491 0 0.0010078718077595218 0.0034890929842901481 0 0.00090606845319728851 0.0037032588555496906 0 0.0011817668900872965 0.0036170831786349212 0 0.00090606845319728851 0.0037032588555496906 0 0.0011817668900872965 0.0036170831786349212 0 0.0010686316180698362 0.0038580800370894676 0 0.0014318893964638776 0.0037848425798481166 0 0.0011817668900872965 0.0036170831786349212 0 0.0010686316180698362 0.0038580800370894676 0 0.0014318893964638776 0.0037848425798481166 0 0.0014326015826806441 0.0035372973892075239 0 0.0011817668900872965 0.0036170831786349212 0 0.0014318893964638776 0.0037848425798481166 0 0.0010686316180698362 0.0038580800370894676 0 0.0012873347042815944 0.0041287547634973921 0 0.0010686316180698362 0.0038580800370894676 0 0.00089552348268938733 0.0041873400555984394 0 0.0012873347042815944 0.0041287547634973921 0 0.0010686316180698362 0.0038580800370894676 0 0.00089552348268938733 0.0041873400555984394 0 0.00069529059626144538 0.0038881908206485705 0 0.0011265306568733317 0.004468328416286629 0 0.00089552348268938733 0.0041873400555984394 0 0.0012873347042815944 0.0041287547634973921 0 0.0007254861602455484 0.0046545680036479938 0 0.00089552348268938733 0.0041873400555984394 0 0.00048030484421222414 0.0041125323320396253 0 0.00089552348268938733 0.0041873400555984394 0 0.00048030484421222414 0.0041125323320396253 0 0.00069529059626144538 0.0038881908206485705 0 0.00048030484421222414 0.0041125323320396253 0 0.00069529059626144538 0.0038881908206485705 0 0.0003311699044893406 0.0037506145371879098 0 0.00069529059626144538 0.0038881908206485705 0 0.0003311699044893406 0.0037506145371879098 0 0.00057994957727490134 0.00363611674213491 0 0.0003311699044893406 0.0037506145371879098 0 0.00057994957727490134 0.00363611674213491 0 0.00036984958437722587 0.0034138804820789802 0 0.00090606845319728851 0.0037032588555496906 0 0.00069529059626144538 0.0038881908206485705 0 0.00057994957727490134 0.00363611674213491 0 0.0003311699044893406 0.0037506145371879098 0 0.00036984958437722587 0.0034138804820789802 0 -0.00013530873398815902 0.003523203981281062 0 0.0003311699044893406 0.0037506145371879098 0 -0.00013530873398815902 0.003523203981281062 0 2.7268482913785265e-05 0.003941295834713263 0 -0.00013530873398815902 0.003523203981281062 0 -0.00054327229649845342 0.003930625359743793 0 2.7268482913785265e-05 0.003941295834713263 0 -0.00091078745786418453 0.0034060415744274976 0 -0.00013530873398815902 0.003523203981281062 0 -0.00054327229649845342 0.003930625359743793 0 -0.00054327229649845342 0.003930625359743793 0 -0.00077014167800688654 0.0046121704872910422 0 -0.0002291537770865132 0.0043634114013877323 0 -0.00054327229649845342 0.003930625359743793 0 2.7268482913785265e-05 0.003941295834713263 0 -0.0002291537770865132 0.0043634114013877323 0 0.00048030484421222414 0.0041125323320396253 0 2.7268482913785265e-05 0.003941295834713263 0 0.00020366549497943335 0.0044110730214802565 0 2.7268482913785265e-05 0.003941295834713263 0 0.00020366549497943335 0.0044110730214802565 0 -0.0002291537770865132 0.0043634114013877323 0 0.00048030484421222414 0.0041125323320396253 0 0.0003311699044893406 0.0037506145371879098 0 2.7268482913785265e-05 0.003941295834713263 0 -0.00091078745786418453 0.0034060415744274976 0 -0.0017500682856427389 0.003486938649808295 0 -0.0013548528580916333 0.0040757900689940441 0 -0.00091078745786418453 0.0034060415744274976 0 -0.00054327229649845342 0.003930625359743793 0 -0.0013548528580916333 0.0040757900689940441 0 -0.00054327229649845342 0.003930625359743793 0 -0.0013548528580916333 0.0040757900689940441 0 -0.00077014167800688654 0.0046121704872910422 0 -0.0019244846609557601 0.0048208110732801896 0 -0.0013339339264063876 0.0052757238608658079 0 -0.00077014167800688654 0.0046121704872910422 0 -0.0013339339264063876 0.0052757238608658079 0 -0.00077014167800688654 0.0046121704872910422 0 -0.00057068732413537485 0.0057116859824407748 0 -0.0019244846609557601 0.0048208110732801896 0 -0.0013548528580916333 0.0040757900689940441 0 -0.00077014167800688654 0.0046121704872910422 0 -0.00077014167800688654 0.0046121704872910422 0 -5.1985098800892433e-05 0.0049258992528198025 0 -0.00057068732413537485 0.0057116859824407748 0 0.0007254861602455484 0.0046545680036479938 0 0.00020366549497943335 0.0044110730214802565 0 -5.1985098800892433e-05 0.0049258992528198025 0 0.00020366549497943335 0.0044110730214802565 0 -0.0002291537770865132 0.0043634114013877323 0 -5.1985098800892433e-05 0.0049258992528198025 0 -0.00077014167800688654 0.0046121704872910422 0 -0.0002291537770865132 0.0043634114013877323 0 -5.1985098800892433e-05 0.0049258992528198025 0 -0.00057068732413537485 0.0057116859824407748 0 0.00050319581570949508 0.0063422126134203803 0 0.00054305668051979632 0.0054510300935155147 0 -5.1985098800892433e-05 0.0049258992528198025 0 -0.00057068732413537485 0.0057116859824407748 0 0.00054305668051979632 0.0054510300935155147 0 -0.0019323552249549043 0.0060765402522750742 0 -0.0013339339264063876 0.0052757238608658079 0 -0.00057068732413537485 0.0057116859824407748 0 -0.0019323552249549043 0.0060765402522750742 0 -0.00057068732413537485 0.0057116859824407748 0 -0.0003584496287044076 0.0068811004369534225 0 -0.0017490856675841883 0.0062271538248198392 0 -8.4109590361737243e-05 0.0070290604891833702 0 -0.0015243299340613847 0.006387264624860169 0 0.00012934970398986012 0.0071560120047091964 0 -0.0011972547392511031 0.0076457228153980318 0 -0.00057068732413537485 0.0057116859824407748 0 -0.0003584496287044076 0.0068811004369534225 0 0.00050319581570949508 0.0063422126134203803 0 -0.0003584496287044076 0.0068811004369534225 0 0.00050319581570949508 0.0063422126134203803 0 0.0016916910756476508 0.0078361383345030722 0 -8.4109590361737243e-05 0.0070290604891833702 0 0.0016144980440315601 0.0077901951629270032 0 0.0014336417528543724 0.0065725103887015234 0 0.00050319581570949508 0.0063422126134203803 0 0.0016916910756476508 0.0078361383345030722 0 0.00050319581570949508 0.0063422126134203803 0 0.00054305668051979632 0.0054510300935155147 0 0.0014924362391345743 0.0056705692066251695 0 0.0014336417528543724 0.0065725103887015234 0 0.00050319581570949508 0.0063422126134203803 0 0.0014924362391345743 0.0056705692066251695 0 0.0012147063150210013 0.0049531508568958944 0 0.00054305668051979632 0.0054510300935155147 0 0.0014924362391345743 0.0056705692066251695 0 0.0016076485361768249 -0.00089312973251207063 0 0.0016107076251964249 0.00049778691581600512 0 0.0022380727369940845 5.6761618072480702e-05 0 0.001782669034640595 0.0049947051120569101 0 0.0014924362391345743 0.0056705692066251695 0 0.002167833326415933 0.0059706180221046718 0 0.0014336417528543724 0.0065725103887015234 0 0.0014924362391345743 0.0056705692066251695 0 0.002167833326415933 0.0059706180221046718 0 0.0012407119021883998 0.0064704031714933217 0 0.001507592441519792 0.0032754014352830113 0 0.0014336417528543724 0.0065725103887015234 0 0.0024958269071576919 0.0071924934832161133 0 0.0016916910756476508 0.0078361383345030722 0 0.0014336417528543724 0.0065725103887015234 0 0.0024809351724700583 0.0058241489903596089 0 0.0024958269071576919 0.0071924934832161133 0 0.001507592441519792 0.0032754014352830113 0 0.0013290512690046869 0.0044184417690698247 0 0.00014713737024724829 0.00021964070290239401 0 0.00016639983510718706 0.0022047170884293278 0 0.0022203484728179554 0.0013516956106362592 0 0.00016639983510718706 0.0022047170884293278 0 0.0022203484728179554 0.0013516956106362592 0 0.0014206586886968196 0.0027645907516976051 0 0.0022203484728179554 0.0013516956106362592 0 0.0031032886157363886 0.0033076240850311829 0 0.0014206586886968196 0.0027645907516976051 0 0.00117233489606771 -0.0021976802278356033 0 0.0022032195004548626 0.0011920245249614672 0 0.0016239066971472232 -0.0050086350748186721 0 0.0028059043185585399 -0.0042524253368590292 0 0.0010692560503413639 -0.003706346058375597 0 0.00040124579598602254 -0.0051890413903660235 0 0.0016239066971472232 -0.0050086350748186721 0 0.0010692560503413639 -0.003706346058375597 0 0.00040124579598602254 -0.0051890413903660235 0 0.0016239066971472232 -0.0050086350748186721 0 0.0011668993065877791 -0.0062575391183069366 0 0.0011668993065877791 -0.0062575391183069366 0 0.0024330503839104312 -0.0061776402796106774 0 0.00168953668358001 -0.0080470207074637701 0 0.0011668993065877791 -0.0062575391183069366 0 -0.00025833517697475457 -0.0066555648231397813 0 0.00168953668358001 -0.0080470207074637701 0 0.0016239066971472232 -0.0050086350748186721 0 0.0011668993065877791 -0.0062575391183069366 0 0.0024330503839104312 -0.0061776402796106774 0 0.00040124579598602254 -0.0051890413903660235 0 0.0011668993065877791 -0.0062575391183069366 0 -0.00025833517697475457 -0.0066555648231397813 0 0.00117233489606771 -0.0021976802278356033 0 0.0017632660190193478 -0.003668738412410773 0 0.00014713737024724829 0.00021964070290239401 0 0.0022203484728179554 0.0013516956106362592 0 0.0013397646782231942 -0.00061172718697273109 0 0.001507592441519792 0.0032754014352830113 0 0.0017632660190193478 -0.003668738412410773 0 0.0045310059246962487 -0.004783383755360705 0 0.0036301918868373688 -0.0056560592353559497 0 0.0052196171937063367 -0.005760547747216984 0 0.0043707118401052226 -0.0046941461609683538 0 0.0028296270832993109 -0.0045263512317725825 0 0.0045310059246962487 -0.004783383755360705 0 0.0036301918868373688 -0.0056560592353559497 0 0.0028059043185585399 -0.0042524253368590292 0 0.0036301918868373688 -0.0056560592353559497 0 0.0024330503839104312 -0.0061776402796106774 0 0.0028059043185585399 -0.0042524253368590292 0 0.0016239066971472232 -0.0050086350748186721 0 0.0024330503839104312 -0.0061776402796106774 0 0.0028059043185585399 -0.0042524253368590292 0 0.0036301918868373688 -0.0056560592353559497 0 0.0024330503839104312 -0.0061776402796106774 0 0.0032530166478585989 -0.0075421311978153896 0 0.0036301918868373688 -0.0056560592353559497 0 0.0044432353853599239 -0.0066417105822813944 0 0.0052196171937063367 -0.005760547747216984 0 0.0036301918868373688 -0.0056560592353559497 0 0.0044432353853599239 -0.0066417105822813944 0 0.0032530166478585989 -0.0075421311978153896 0 0.0044432353853599239 -0.0066417105822813944 0 0.0044208929508993714 -0.0085274787171206404 0 0.0052115781195298458 -0.0076002936804507185 0 0.0044432353853599239 -0.0066417105822813944 0 0.0032530166478585989 -0.0075421311978153896 0 0.0044208929508993714 -0.0085274787171206404 0 0.0032530166478585989 -0.0075421311978153896 0 0.0036498791364906313 -0.0094736200407330353 0 0.00168953668358001 -0.0080470207074637701 0 0.0024330503839104312 -0.0061776402796106774 0 0.0032530166478585989 -0.0075421311978153896 0 0.00168953668358001 -0.0080470207074637701 0 0.0049029849847212394 -0.0084680755311446303 0 0.0038855627154947931 -0.0075597751410752118 0 0.0038135331795211319 -0.0083846658045260355 0 0.0042874892754471237 -0.0089480024970690596 0 0.0028063375179665142 -0.0082364330272658246 0 0.0049029849847212394 -0.0084680755311446303 0 0.0038135331795211319 -0.0083846658045260355 0 0.0041847846383304245 -0.0089696717568235225 0 0.0036498791364906313 -0.0094736200407330353 0 0.0044208929508993714 -0.0085274787171206404 0 0.0054942755793793195 -0.0095219927375987598 0 0.0032530166478585989 -0.0075421311978153896 0 0.0036498791364906313 -0.0094736200407330353 0 0.0044208929508993714 -0.0085274787171206404 0 0.0024399415846574801 -0.0027072538078152224 0 0.0017632660190193478 -0.003668738412410773 0 0.0022622561484819149 -0.007653763709918192 0 0.0027041453515711193 -0.0066619741345825979 0 0.0031445785590037902 -0.0079044968546534578 0 0.0017632660190193478 -0.003668738412410773 0 0.0028063375179665142 -0.0082364330272658246 0 0.0027041453515711193 -0.0066619741345825979 0 0.0038855627154947931 -0.0075597751410752118 0 0.0031445785590037902 -0.0079044968546534578 0 0.0038135331795211319 -0.0083846658045260355 0 0.0031445785590037902 -0.0079044968546534578 0 0.0031885699114034671 -0.0088481690186567926 0 0.0038855627154947931 -0.0075597751410752118 0 0.0038135331795211319 -0.0083846658045260355 0 0.0031445785590037902 -0.0079044968546534578 0 0.0024399415846574801 -0.0027072538078152224 0 0.003573822041480555 -0.006220346887979903 0 0.0022882127818644286 -0.00088798305168293827 0 0.0020864015665686981 -0.0013305268394555839 0 0.0038660739921999626 -0.0030114594216969119 0 0.0022622561484819149 -0.007653763709918192 0 0.0031445785590037902 -0.0079044968546534578 0 0.0031885699114034671 -0.0088481690186567926 0 0.0020615914396693051 -0.0030607799373886485 0 0.0020864015665686981 -0.0013305268394555839 0 0.0038660739921999626 -0.0030114594216969119 0 0.0020615914396693051 -0.0030607799373886485 0 0.0038660739921999626 -0.0030114594216969119 0 0.002991048165311423 -0.0036494255631335107 0 0.0038660739921999626 -0.0030114594216969119 0 0.0034396292365930672 -0.0043363029648215154 0 0.0042062274149367819 -0.0045584796330204657 0 0.0038660739921999626 -0.0030114594216969119 0 0.002991048165311423 -0.0036494255631335107 0 0.0034396292365930672 -0.0043363029648215154 0 0.0023063300159991093 -0.0038073488473375741 0 0.002991048165311423 -0.0036494255631335107 0 0.002865594272123012 -0.0041283805410194351 0 0.0034396292365930672 -0.0043363029648215154 0 0.0042062274149367819 -0.0045584796330204657 0 0.0043632456312739385 -0.0059797617139884908 0 0.0021935157343486926 -0.0018400353740569096 0 0.0029879779331985442 -0.0031216595581277269 0 0.0043489578298466823 -0.0034671079755003013 0 0.0025587989493435809 -0.0035651590354070996 0 0.0042769916931168772 -0.0045706053647086445 0 0.002724105100478959 -0.0047197798395192565 0 0.0034396292365930672 -0.0043363029648215154 0 0.0043632456312739385 -0.0059797617139884908 0 0.0023063300159991093 -0.0038073488473375741 0 0.002865594272123012 -0.0041283805410194351 0 0.002724105100478959 -0.0047197798395192565 0 0.002865594272123012 -0.0041283805410194351 0 0.002724105100478959 -0.0047197798395192565 0 0.0034396292365930672 -0.0043363029648215154 0 0.002991048165311423 -0.0036494255631335107 0 0.002865594272123012 -0.0041283805410194351 0 0.0034396292365930672 -0.0043363029648215154 0 0.0015866054013415612 -0.0022808539821223988 0 0.0021935157343486926 -0.0018400353740569096 0 0.0029879779331985442 -0.0031216595581277269 0 0.0038660739921999626 -0.0030114594216969119 0 0.0054730079224796953 -0.0052017558819450211 0 0.0042062274149367819 -0.0045584796330204657 0 0.003573822041480555 -0.006220346887979903 0 0.0047382195221060816 -0.0074377643230340339 0 0.0054730079224796953 -0.0052017558819450211 0 0.0042062274149367819 -0.0045584796330204657 0 0.0043632456312739385 -0.0059797617139884908 0 0.0038135331795211319 -0.0083846658045260355 0 0.0031885699114034671 -0.0088481690186567926 0 0.0041847846383304245 -0.0089696717568235225 0 0.0031885699114034671 -0.0088481690186567926 0 0.0040707982649883668 -0.0098365268935275592 0 0.0041847846383304245 -0.0089696717568235225 0 0.0049029849847212394 -0.0084680755311446303 0 0.0041847846383304245 -0.0089696717568235225 0 0.0047338763864150984 -0.0093309218668436132 0 0.0042874892754471237 -0.0089480024970690596 0 0.0055105054647318248 -0.0098581752405938194 0 0.0049029849847212394 -0.0084680755311446303 0 0.0047338763864150984 -0.0093309218668436132 0 0.0056642364678973654 -0.009290617973721698 0 0.0047338763864150984 -0.0093309218668436132 0 0.0050556865790679891 -0.0098073372469558249 0 0.0056642364678973654 -0.009290617973721698 0 0.0050556865790679891 -0.0098073372469558249 0 0.0047174720403169532 -0.0098698444473400981 0 0.0049635085396643411 -0.010151418096209029 0 0.0047338763864150984 -0.0093309218668436132 0 0.0050556865790679891 -0.0098073372469558249 0 0.0047174720403169532 -0.0098698444473400981 0 0.0040707982649883668 -0.0098365268935275592 0 0.0047338763864150984 -0.0093309218668436132 0 0.0047174720403169532 -0.0098698444473400981 0 0.0040707982649883668 -0.0098365268935275592 0 0.0041847846383304245 -0.0089696717568235225 0 0.0047338763864150984 -0.0093309218668436132 0 0.0054730079224796953 -0.0052017558819450211 0 0.0070723968817762214 -0.0074037652246060747 0 0.0060243306697406037 -0.0071976236869926123 0 0.0040707982649883668 -0.0098365268935275592 0 0.0047272246841711888 -0.010179769801323421 0 0.0048421816589876007 -0.010591961516834152 0 0.0047382195221060816 -0.0074377643230340339 0 0.0059851590807759253 -0.0090690640644388656 0 0.0040707982649883668 -0.0098365268935275592 0 0.0047174720403169532 -0.0098698444473400981 0 0.0047272246841711888 -0.010179769801323421 0 0.0050556865790679891 -0.0098073372469558249 0 0.0051994815060836088 -0.010140725687045434 0 0.0049635085396643411 -0.010151418096209029 0 0.0050556865790679891 -0.0098073372469558249 0 0.0051994815060836088 -0.010140725687045434 0 0.0053831709356190393 -0.010009729868120279 0 0.0051994815060836088 -0.010140725687045434 0 0.005445567364237563 -0.010295914886829738 0 0.0053831709356190393 -0.010009729868120279 0 0.0047174720403169532 -0.0098698444473400981 0 0.0047272246841711888 -0.010179769801323421 0 0.0049635085396643411 -0.010151418096209029 0 0.0051994815060836088 -0.010140725687045434 0 0.0049635085396643411 -0.010151418096209029 0 0.0051264569409856424 -0.010418700724651475 0 0.0047272246841711888 -0.010179769801323421 0 0.0051264569409856424 -0.010418700724651475 0 0.0048421816589876007 -0.010591961516834152 0 0.0047272246841711888 -0.010179769801323421 0 0.0049635085396643411 -0.010151418096209029 0 0.0051264569409856424 -0.010418700724651475 0 0.0051994815060836088 -0.010140725687045434 0 0.0051264569409856424 -0.010418700724651475 0 0.005445567364237563 -0.010295914886829738 0 0.0051264569409856424 -0.010418700724651475 0 0.0048421816589876007 -0.010591961516834152 0 0.0057859329292121054 -0.01053396539773298 0 0.005981983219540252 -0.010326806794701165 0 0.0059625383957831552 -0.010366440933986688 0 0.0057859329292121054 -0.01053396539773298 0 0.005949664757165499 -0.010368897377999285 0 0.0059625383957831552 -0.010366440933986688 0 0.0057859329292121054 -0.01053396539773298 0 0.0059851590807759253 -0.0090690640644388656 0 0.0055690585853237348 -0.010829557962841045 0 0.005981983219540252 -0.010326806794701165 0 0.0059625383957831552 -0.010366440933986688 0 0.0059605622127523288 -0.010339797511008332 0 0.0059625383957831552 -0.010366440933986688 0 0.0059605622127523288 -0.010339797511008332 0 0.0059555736720274472 -0.010349634580832755 0 0.0059625383957831552 -0.010366440933986688 0 0.0059509962951182884 -0.01035603963401204 0 0.005953750981726208 -0.010361733607846001 0 0.0059625383957831552 -0.010366440933986688 0 0.0059555736720274472 -0.010349634580832755 0 0.0059509962951182884 -0.01035603963401204 0 0.005957200607325003 -0.010362949967109226 0 0.0059625383957831552 -0.010366440933986688 0 0.005953750981726208 -0.010361733607846001 0 0.0058477321360773053 -0.010251572274152227 0 0.0058126610865192486 -0.010205883446433132 0 0.0059300400984597205 -0.0103044207711261 0 0.005981983219540252 -0.010326806794701165 0 0.0058547865480142736 -0.010210467391080528 0 0.0058126610865192486 -0.010205883446433132 0 0.0058477321360773053 -0.010251572274152227 0 0.0058863326047088119 -0.010275471608368138 0 0.0059102761033358884 -0.010281970622230508 0 0.0058477321360773053 -0.010251572274152227 0 0.005870461066285285 -0.010291242125550932 0 0.0058424556754109423 -0.010265623846874163 0 0.0058477321360773053 -0.010251572274152227 0 0.0058863326047088119 -0.010275471608368138 0 0.005870461066285285 -0.010291242125550932 0 0.0058863326047088119 -0.010275471608368138 0 0.005870461066285285 -0.010291242125550932 0 0.0059046400935384045 -0.010312263047840633 0 0.005870461066285285 -0.010291242125550932 0 0.0058425192335338529 -0.010285614662862765 0 0.0058440520491563445 -0.010308905100969381 0 0.005870461066285285 -0.010291242125550932 0 0.0058425192335338529 -0.010285614662862765 0 0.0058424556754109423 -0.010265623846874163 0 0.0058425192335338529 -0.010285614662862765 0 0.0058159197233378854 -0.010286730889331481 0 0.0058209863315709168 -0.010260716457008431 0 0.0058425192335338529 -0.010285614662862765 0 0.0058424556754109423 -0.010265623846874163 0 0.0058209863315709168 -0.010260716457008431 0 0.0058159197233378854 -0.010286730889331481 0 0.0057933109362306046 -0.010231388157431099 0 0.0057886390521971597 -0.010260944734981851 0 0.0058209863315709168 -0.010260716457008431 0 0.0058255233937641333 -0.01024091886378785 0 0.0057933109362306046 -0.010231388157431099 0 0.0058159197233378854 -0.010286730889331481 0 0.0058209863315709168 -0.010260716457008431 0 0.0057933109362306046 -0.010231388157431099 0 0.0058424556754109423 -0.010265623846874163 0 0.0058209863315709168 -0.010260716457008431 0 0.0058255233937641333 -0.01024091886378785 0 0.0058477321360773053 -0.010251572274152227 0 0.0058424556754109423 -0.010265623846874163 0 0.0058255233937641333 -0.01024091886378785 0 0.0058477321360773053 -0.010251572274152227 0 0.0058255233937641333 -0.01024091886378785 0 0.0058126610865192486 -0.010205883446433132 0 0.0058255233937641333 -0.01024091886378785 0 0.0057933109362306046 -0.010231388157431099 0 0.0058126610865192486 -0.010205883446433132 0 0.0057933109362306046 -0.010231388157431099 0 0.0058126610865192486 -0.010205883446433132 0 0.0057653675939458911 -0.01020543878952679 0 0.0059851590807759253 -0.0090690640644388656 0 0.0061843428795204094 -0.0072864353586863991 0 0.005981983219540252 -0.010326806794701165 0 0.0058126610865192486 -0.010205883446433132 0 0.0059300400984597205 -0.0103044207711261 0 0.005981983219540252 -0.010326806794701165 0 0.0059529344277092127 -0.010321971970423397 0 0.0059605622127523288 -0.010339797511008332 0 0.005981983219540252 -0.010326806794701165 0 0.0059529344277092127 -0.010321971970423397 0 0.0059300400984597205 -0.0103044207711261 0 0.0059529344277092127 -0.010321971970423397 0 0.0059494937358474144 -0.01033177064202998 0 0.0059300400984597205 -0.0103044207711261 0 0.0059494937358474144 -0.01033177064202998 0 0.0059297325669856278 -0.010316018182990449 0 0.00593110362522376 -0.010328018523672697 0 0.0059494937358474144 -0.01033177064202998 0 0.0059300400984597205 -0.0103044207711261 0 0.0059297325669856278 -0.010316018182990449 0 0.0059529344277092127 -0.010321971970423397 0 0.0059494937358474144 -0.01033177064202998 0 0.0059605622127523288 -0.010339797511008332 0 0.0058477321360773053 -0.010251572274152227 0 0.0059102761033358884 -0.010281970622230508 0 0.0059300400984597205 -0.0103044207711261 0 0.0058863326047088119 -0.010275471608368138 0 0.0059040859355865135 -0.010297491677077207 0 0.0059300400984597205 -0.0103044207711261 0 0.0058863326047088119 -0.010275471608368138 0 0.0059102761033358884 -0.010281970622230508 0 0.0059300400984597205 -0.0103044207711261 0 0.0059300400984597205 -0.0103044207711261 0 0.0059297325669856278 -0.010316018182990449 0 0.0059046400935384045 -0.010312263047840633 0 0.0059297325669856278 -0.010316018182990449 0 0.0059046400935384045 -0.010312263047840633 0 0.00593110362522376 -0.010328018523672697 0 0.0059040859355865135 -0.010297491677077207 0 0.0059300400984597205 -0.0103044207711261 0 0.0059046400935384045 -0.010312263047840633 0 0.0058863326047088119 -0.010275471608368138 0 0.0059040859355865135 -0.010297491677077207 0 0.0059046400935384045 -0.010312263047840633 0 0.0059046400935384045 -0.010312263047840633 0 0.0059308257345932021 -0.010339569379542063 0 0.0059109382448719223 -0.010328034940517648 0 0.0059046400935384045 -0.010312263047840633 0 0.0059109382448719223 -0.010328034940517648 0 0.005889089218433988 -0.010330266157970284 0 0.0059046400935384045 -0.010312263047840633 0 0.00593110362522376 -0.010328018523672697 0 0.0059308257345932021 -0.010339569379542063 0 0.0059109382448719223 -0.010328034940517648 0 0.0059143159123824455 -0.01034179500984366 0 0.005889089218433988 -0.010330266157970284 0 0.0059308257345932021 -0.010339569379542063 0 0.0059109382448719223 -0.010328034940517648 0 0.0059143159123824455 -0.01034179500984366 0 0.0059494937358474144 -0.01033177064202998 0 0.0059605622127523288 -0.010339797511008332 0 0.0059555736720274472 -0.010349634580832755 0 0.0059494937358474144 -0.01033177064202998 0 0.00593110362522376 -0.010328018523672697 0 0.0059308257345932021 -0.010339569379542063 0 0.0059494937358474144 -0.01033177064202998 0 0.0059437382131222816 -0.010341368982428253 0 0.0059555736720274472 -0.010349634580832755 0 0.0059494937358474144 -0.01033177064202998 0 0.0059308257345932021 -0.010339569379542063 0 0.0059437382131222816 -0.010341368982428253 0 0.005941519032642637 -0.010347379904924816 0 0.0059437382131222816 -0.010341368982428253 0 0.0059555736720274472 -0.010349634580832755 0 0.0059308257345932021 -0.010339569379542063 0 0.005941519032642637 -0.010347379904924816 0 0.0059437382131222816 -0.010341368982428253 0 0.005941519032642637 -0.010347379904924816 0 0.0059555736720274472 -0.010349634580832755 0 0.0059509962951182884 -0.01035603963401204 0 0.005941519032642637 -0.010347379904924816 0 0.0059509962951182884 -0.01035603963401204 0 0.0059355957030256161 -0.010352867768203863 0 0.0059509962951182884 -0.01035603963401204 0 0.0059416142237003807 -0.010362624274777734 0 0.0059355957030256161 -0.010352867768203863 0 0.0059509962951182884 -0.01035603963401204 0 0.0059416142237003807 -0.010362624274777734 0 0.005953750981726208 -0.010361733607846001 0 0.0059143159123824455 -0.01034179500984366 0 0.0059190169719591972 -0.01035473923684334 0 0.0058951069657436992 -0.010345918985508362 0 0.0059308257345932021 -0.010339569379542063 0 0.0059143159123824455 -0.01034179500984366 0 0.0059355957030256161 -0.010352867768203863 0 0.0059143159123824455 -0.01034179500984366 0 0.0059355957030256161 -0.010352867768203863 0 0.0059190169719591972 -0.01035473923684334 0 0.0059308257345932021 -0.010339569379542063 0 0.005941519032642637 -0.010347379904924816 0 0.0059355957030256161 -0.010352867768203863 0 0.0059416142237003807 -0.010362624274777734 0 0.0059355957030256161 -0.010352867768203863 0 0.0059190169719591972 -0.01035473923684334 0 0.0059303535399910052 -0.01036647335907224 0 0.0059416142237003807 -0.010362624274777734 0 0.0059190169719591972 -0.01035473923684334 0 0.0059221061699058922 -0.01036965880535049 0 0.0059190169719591972 -0.01035473923684334 0 0.0058951069657436992 -0.010345918985508362 0 0.0059303535399910052 -0.01036647335907224 0 0.0059221061699058922 -0.01036965880535049 0 0.0059190169719591972 -0.01035473923684334 0 0.0059192642611087384 -0.010386913375347431 0 0.0058583826862427654 -0.010334459270334488 0 0.0058205398565567288 -0.010311732582997899 0 0.0059192642611087384 -0.010386913375347431 0 0.0058205398565567288 -0.010311732582997899 0 0.0058244868560391096 -0.010344761944886861 0 0.0059221061699058922 -0.01036965880535049 0 0.0058583826862427654 -0.010334459270334488 0 0.0058951069657436992 -0.010345918985508362 0 0.0059143159123824455 -0.01034179500984366 0 0.0058951069657436992 -0.010345918985508362 0 0.005889089218433988 -0.010330266157970284 0 0.0058583826862427654 -0.010334459270334488 0 0.0058951069657436992 -0.010345918985508362 0 0.005889089218433988 -0.010330266157970284 0 0.005889089218433988 -0.010330266157970284 0 0.0058704091613502856 -0.010324996577484317 0 0.0058731623160755688 -0.010312992372278723 0 0.0058583826862427654 -0.010334459270334488 0 0.0058704091613502856 -0.010324996577484317 0 0.0058440520491563445 -0.010308905100969381 0 0.0058583826862427654 -0.010334459270334488 0 0.005889089218433988 -0.010330266157970284 0 0.0058704091613502856 -0.010324996577484317 0 0.005870461066285285 -0.010291242125550932 0 0.0058731623160755688 -0.010312992372278723 0 0.0058440520491563445 -0.010308905100969381 0 0.0058704091613502856 -0.010324996577484317 0 0.0058731623160755688 -0.010312992372278723 0 0.0058440520491563445 -0.010308905100969381 0 0.005870461066285285 -0.010291242125550932 0 0.0059046400935384045 -0.010312263047840633 0 0.0058731623160755688 -0.010312992372278723 0 0.0059046400935384045 -0.010312263047840633 0 0.005889089218433988 -0.010330266157970284 0 0.0058731623160755688 -0.010312992372278723 0 0.0058159197233378854 -0.010286730889331481 0 0.0058205398565567288 -0.010311732582997899 0 0.0057886390521971597 -0.010260944734981851 0 0.0058425192335338529 -0.010285614662862765 0 0.0058159197233378854 -0.010286730889331481 0 0.0058440520491563445 -0.010308905100969381 0 0.0058159197233378854 -0.010286730889331481 0 0.0058205398565567288 -0.010311732582997899 0 0.0058440520491563445 -0.010308905100969381 0 0.0058583826862427654 -0.010334459270334488 0 0.0058205398565567288 -0.010311732582997899 0 0.0058440520491563445 -0.010308905100969381 0 0.0029908975994089502 -0.0037671370503848042 0 0.0030459458830106173 -0.0037367093934447004 0 0.0030543772520366832 -0.0037998677336238918 0 0.0029686659700244996 -0.003737455678574521 0 0.0029908975994089502 -0.0037671370503848042 0 0.0030459458830106173 -0.0037367093934447004 0 0.0020865487776937676 -0.0019489691285960336 0 0.0022651525217752123 -0.0016010313365958909 0 0.0030459458830106173 -0.0037367093934447004 0 0.0030543772520366832 -0.0037998677336238918 0 0.0031237461493848653 -0.0038526188870596271 0 0.0029908975994089502 -0.0037671370503848042 0 0.0030543772520366832 -0.0037998677336238918 0 0.0030706139611415117 -0.0038442963353584746 0 0.0058547865480142736 -0.010210467391080528 0 0.0058126610865192486 -0.010205883446433132 0 0.0056310971406669944 -0.010120594653387455 0 0.0058205398565567288 -0.010311732582997899 0 0.0058244868560391096 -0.010344761944886861 0 0.0056310971406669944 -0.010120594653387455 0 0.0058126610865192486 -0.010205883446433132 0 0.0057653675939458911 -0.01020543878952679 0 0.0056310971406669944 -0.010120594653387455 0 0.0057886390521971597 -0.010260944734981851 0 0.0057653675939458911 -0.01020543878952679 0 0.0056310971406669944 -0.010120594653387455 0 0.0058205398565567288 -0.010311732582997899 0 0.0057886390521971597 -0.010260944734981851 0 0.0056310971406669944 -0.010120594653387455 0 0.0044920477367960832 -0.0071508062406677383 0 0.0043277889336730928 -0.0062020266993321645 0 0.0057933109362306046 -0.010231388157431099 0 0.0057886390521971597 -0.010260944734981851 0 0.0057653675939458911 -0.01020543878952679 0 0.001240540074809827 -0.00019824476064581528 0 0.0007519137029326794 2.4188906784950702e-05 0 0.00073198772582944312 0.00061155622929487342 0 0.00041890912137769698 -0.00013792694141057755 0 0.0007519137029326794 2.4188906784950702e-05 0 0.00054683114643393834 0.00029306391180072372 0 0.00023838881093164551 0.00042922095090626271 0 0.00054683114643393834 0.00029306391180072372 0 0.00073198772582944312 0.00061155622929487342 0 0.00041890912137769698 -0.00013792694141057755 0 0.00023838881093164551 0.00042922095090626271 0 0.00054683114643393834 0.00029306391180072372 0 0.0007519137029326794 2.4188906784950702e-05 0 0.00054683114643393834 0.00029306391180072372 0 0.00073198772582944312 0.00061155622929487342 0 0.0031345498844217953 -0.0043132363956503153 0 0.0038153183831784064 -0.0039985402637113679 0 0.0045541241370642997 -0.0046856270006262555 0 0.0015866054013415612 -0.0022808539821223988 0 0.0031345498844217953 -0.0043132363956503153 0 0.0029879779331985442 -0.0031216595581277269 0 0.0022651525217752123 -0.0016010313365958909 0 0.0043277889336730928 -0.0062020266993321645 0 0.0018609132762888263 -0.00029119053495312556 0 0.0022651525217752123 -0.0016010313365958909 0 0.0031345498844217953 -0.0043132363956503153 0 0.0038153183831784064 -0.0039985402637113679 0 0.0029879779331985442 -0.0031216595581277269 0 0.0038153183831784064 -0.0039985402637113679 0 0.0029879779331985442 -0.0031216595581277269 0 0.0043489578298466823 -0.0034671079755003013 0 0.0061843428795204094 -0.0072864353586863991 0 0.0042769916931168772 -0.0045706053647086445 0 0.0065634233127477128 -0.005085708581118605 0 0.0043489578298466823 -0.0034671079755003013 0 0.0045541241370642997 -0.0046856270006262555 0 0.0054730079224796953 -0.0052017558819450211 0 0.0060243306697406037 -0.0071976236869926123 0 0.0043632456312739385 -0.0059797617139884908 0 0.0061843428795204094 -0.0072864353586863991 0 0.0043277889336730928 -0.0062020266993321645 0 0.0038153183831784064 -0.0039985402637113679 0 0.0043489578298466823 -0.0034671079755003013 0 0.0045541241370642997 -0.0046856270006262555 0 0.0030543772520366832 -0.0037998677336238918 0 0.0031237461493848653 -0.0038526188870596271 0 0.0030706139611415117 -0.0038442963353584746 0 0.0058240468199834581 -0.010522825307059183 0 0.0059240656188919976 -0.010442176739774389 0 0.005932987860386563 -0.010579743854208531 0 0.0078089615545530741 -0.013619773537324513 0 0.0074921551883437793 -0.012734494933092418 0 0.0058240468199834581 -0.010522825307059183 0 0.0057385729572478859 -0.010672613176978251 0 0.0059240656188919976 -0.010442176739774389 0 0.0062203935393982199 -0.0097740643419287013 0 0.0074921551883437793 -0.012734494933092418 0 0.0060549849931038988 -0.010662412305737314 0 0.0058240468199834581 -0.010522825307059183 0 0.0057385729572478859 -0.010672613176978251 0 0.0076324109617852166 -0.013377427598304662 0 0.0078089615545530741 -0.013619773537324513 0 0.008865977281202829 -0.015839157735428797 0 0.0095624721316651777 -0.016500089421862638 0 0.0090752773961985979 -0.016696092060949963 0 0.0051594102478805456 -0.01092993693535828 0 0.0055081134953781164 -0.010637163187213382 0 0.0057385729572478859 -0.010672613176978251 0 0.0054295171000611599 -0.010773114433879802 0 0.0057544111419636293 -0.010740525607011183 0 0.0060549849931038988 -0.010662412305737314 0 0.006024841979805351 -0.01078876865564994 0 0.0057385729572478859 -0.010672613176978251 0 0.0055081134953781164 -0.010637163187213382 0 0.0057396076849680769 -0.010581335811644067 0 0.0057385729572478859 -0.010672613176978251 0 0.0057385729572478859 -0.010672613176978251 0 0.0058374206682227578 -0.010536298855781483 0 0.0059240656188919976 -0.010442176739774389 0 0.0057396076849680769 -0.010581335811644067 0 0.0057385729572478859 -0.010672613176978251 0 0.0058374206682227578 -0.010536298855781483 0 0.005812355559075188 -0.010500670056015281 0 0.0057396076849680769 -0.010581335811644067 0 0.0058374206682227578 -0.010536298855781483 0 0.005812355559075188 -0.010500670056015281 0 0.0058374206682227578 -0.010536298855781483 0 0.0057859329292121054 -0.01053396539773298 0 0.0058374206682227578 -0.010536298855781483 0 0.0057859329292121054 -0.01053396539773298 0 0.0057907069708984515 -0.010379311585990722 0 0.0057859329292121054 -0.01053396539773298 0 0.005445567364237563 -0.010295914886829738 0 0.0057907069708984515 -0.010379311585990722 0 0.0051264569409856424 -0.010418700724651475 0 0.0057859329292121054 -0.01053396539773298 0 0.005445567364237563 -0.010295914886829738 0 0.005445567364237563 -0.010295914886829738 0 0.0056552098550858151 -0.0100408433594347 0 0.0057907069708984515 -0.010379311585990722 0 0.005445567364237563 -0.010295914886829738 0 0.0056552098550858151 -0.0100408433594347 0 0.0053831709356190393 -0.010009729868120279 0 0.0058374206682227578 -0.010536298855781483 0 0.0059240656188919976 -0.010442176739774389 0 0.0057907069708984515 -0.010379311585990722 0 0.0056552098550858151 -0.0100408433594347 0 0.0057907069708984515 -0.010379311585990722 0 0.0058826717072503623 -0.010110094330181342 0 0.0059240656188919976 -0.010442176739774389 0 0.0058826717072503623 -0.010110094330181342 0 0.0061678007256782156 -0.0099556304516182654 0 0.0059240656188919976 -0.010442176739774389 0 0.0057907069708984515 -0.010379311585990722 0 0.0058826717072503623 -0.010110094330181342 0 0.0058826717072503623 -0.010110094330181342 0 0.0056642364678973654 -0.009290617973721698 0 0.0061678007256782156 -0.0099556304516182654 0 0.0055105054647318248 -0.0098581752405938194 0 0.0074921551883437793 -0.012734494933092418 0 0.0056552098550858151 -0.0100408433594347 0 0.0058826717072503623 -0.010110094330181342 0 0.0056642364678973654 -0.009290617973721698 0 0.0056552098550858151 -0.0100408433594347 0 0.0053831709356190393 -0.010009729868120279 0 0.0056642364678973654 -0.009290617973721698 0 0.0050556865790679891 -0.0098073372469558249 0 0.0053831709356190393 -0.010009729868120279 0 0.0056642364678973654 -0.009290617973721698 0 0.0036498791364906313 -0.0094736200407330353 0 0.0057096197414720816 -0.010955722624123152 0 0.0054942755793793195 -0.0095219927375987598 0 0.0057096197414720816 -0.010955722624123152 0 0.0079974023341765014 -0.010289769349742676 0 0.0054942755793793195 -0.0095219927375987598 0 0.0057096197414720816 -0.010955722624123152 0 0.0079974023341765014 -0.010289769349742676 0 0.0077851572739502705 -0.012400333278200368 0 0.010019624124725077 -0.017891091077387011 0 0.0094295787378290766 -0.017849120239655264 0 0.009612197008303295 -0.018229459094713841 0 0.0091830538401017747 -0.014813334144352971 0 0.0074921551883437793 -0.012734494933092418 0 0.010019624124725077 -0.017891091077387011 0 0.0095751577599735224 -0.017212968545722931 0 0.0094295787378290766 -0.017849120239655264 0 0.010019624124725077 -0.017891091077387011 0 0.010176827800107001 -0.017011130066586895 0 0.0095751577599735224 -0.017212968545722931 0 0.0095624721316651777 -0.016500089421862638 0 0.010176827800107001 -0.017011130066586895 0 0.0095751577599735224 -0.017212968545722931 0 0.0095624721316651777 -0.016500089421862638 0 0.0090752773961985979 -0.016696092060949963 0 0.0095751577599735224 -0.017212968545722931 0 0.0090752773961985979 -0.016696092060949963 0 0.0095751577599735224 -0.017212968545722931 0 0.0090576022752132425 -0.017316499745578206 0 0.0095751577599735224 -0.017212968545722931 0 0.0090576022752132425 -0.017316499745578206 0 0.0094295787378290766 -0.017849120239655264 0 0.0089177486391563907 -0.017865707784019084 0 0.0090576022752132425 -0.017316499745578206 0 0.0094295787378290766 -0.017849120239655264 0 0.0089177486391563907 -0.017865707784019084 0 0.0094295787378290766 -0.017849120239655264 0 0.0092612287627174602 -0.018216295178361 0 0.0088603446435240787 -0.017730481582331759 0 0.0095072066999186862 -0.018989917960777376 0 0.0092612287627174602 -0.018216295178361 0 0.009612197008303295 -0.018229459094713841 0 0.0094935526720266311 -0.0185948066191154 0 0.0095072066999186862 -0.018989917960777376 0 0.0069800844684409719 -0.015805550636131149 0 0.0094295787378290766 -0.017849120239655264 0 0.0092612287627174602 -0.018216295178361 0 0.009612197008303295 -0.018229459094713841 0 0.010019624124725077 -0.017891091077387011 0 0.009612197008303295 -0.018229459094713841 0 0.0098654293946348736 -0.018544317668511254 0 0.0091830538401017747 -0.014813334144352971 0 0.0078820928711184693 -0.011499207178173933 0 0.0078820928711184693 -0.011499207178173933 0 0.0069800844684409719 -0.015805550636131149 0 0.0079522460932322913 -0.0081116024215385808 0 0.0071777873427532474 -0.0071015682024470842 0 0.0081456594484122756 -0.0061527842503051175 0 0.0078820928711184693 -0.011499207178173933 0 0.0062019007095147618 -0.0086274002214745543 0 0.006113549857236885 -0.01317610509412892 0 0.0081335147692875084 -0.012954345392903341 0 0.0064604192954928613 -0.0096639058892609812 0 0.009612197008303295 -0.018229459094713841 0 0.0098654293946348736 -0.018544317668511254 0 0.0094935526720266311 -0.0185948066191154 0 0.0042477214067957016 -0.013999984884511148 0 0.0028803950406217881 -0.014124687974242817 0 0.0033845349020091252 -0.013185836552957401 0 0.0083210271994223015 -0.019414575237970341 0 0.009210463201755793 -0.018625694696177083 0 0.009512530146942021 -0.019251643935385733 0 0.0044208929508993714 -0.0085274787171206404 0 0.0054942755793793195 -0.0095219927375987598 0 0.006319787665631983 -0.0083744225060362679 0 0.0079974023341765014 -0.010289769349742676 0 0.0054942755793793195 -0.0095219927375987598 0 0.006319787665631983 -0.0083744225060362679 0 0.0079974023341765014 -0.010289769349742676 0 0.0082001383533117176 -0.0082019372689464097 0 0.006319787665631983 -0.0083744225060362679 0 0.006185745110646069 -0.0082964955930896443 0 0.006177716990926143 -0.006599737500075792 0 0.0071777873427532474 -0.0071015682024470842 0 0.0079522460932322913 -0.0081116024215385808 0 0.006185745110646069 -0.0082964955930896443 0 0.0071777873427532474 -0.0071015682024470842 0 0.0078820928711184693 -0.011499207178173933 0 0.0063139735948812324 -0.008152653445639358 0 0.0045347870443367766 -0.0085377146467753105 0 0.0063139735948812324 -0.008152653445639358 0 0.006185745110646069 -0.0082964955930896443 0 0.0052115781195298458 -0.0076002936804507185 0 0.006177716990926143 -0.006599737500075792 0 0.0044208929508993714 -0.0085274787171206404 0 0.006185745110646069 -0.0082964955930896443 0 0.0052115781195298458 -0.0076002936804507185 0 0.0052196171937063367 -0.005760547747216984 0 0.006177716990926143 -0.006599737500075792 0 0.0061458883831151364 -0.0050430288584027965 0 0.0044432353853599239 -0.0066417105822813944 0 0.0052115781195298458 -0.0076002936804507185 0 0.0052196171937063367 -0.005760547747216984 0 0.0052115781195298458 -0.0076002936804507185 0 0.0052196171937063367 -0.005760547747216984 0 0.006177716990926143 -0.006599737500075792 0 0.006177716990926143 -0.006599737500075792 0 0.0071070194981264732 -0.0059233646496781884 0 0.0061458883831151364 -0.0050430288584027965 0 0.006177716990926143 -0.006599737500075792 0 0.0071777873427532474 -0.0071015682024470842 0 0.0071070194981264732 -0.0059233646496781884 0 0.0061458883831151364 -0.0050430288584027965 0 0.0075242344595558737 -0.0049368112268519592 0 0.006893572995571997 -0.0037553202641972894 0 0.0071070194981264732 -0.0059233646496781884 0 0.0061458883831151364 -0.0050430288584027965 0 0.0075242344595558737 -0.0049368112268519592 0 0.0045310059246962487 -0.004783383755360705 0 0.0061458883831151364 -0.0050430288584027965 0 0.0055166952112004368 -0.0036067401764902905 0 0.0045310059246962487 -0.004783383755360705 0 0.0052196171937063367 -0.005760547747216984 0 0.0061458883831151364 -0.0050430288584027965 0 0.0028803950406217881 -0.014124687974242817 0 0.0033845349020091252 -0.013185836552957401 0 0.0023053182565592467 -0.012995469820175878 0 0.0033845349020091252 -0.013185836552957401 0 0.0023053182565592467 -0.012995469820175878 0 0.0030411352054529094 -0.012422362414568126 0 0.0069800844684409719 -0.015805550636131149 0 0.0062019007095147618 -0.0086274002214745543 0 0.0071777873427532474 -0.0071015682024470842 0 0.0071070194981264732 -0.0059233646496781884 0 0.0081456594484122756 -0.0061527842503051175 0 0.0062019007095147618 -0.0086274002214745543 0 0.0053952961966662362 -0.0081864107135136231 0 0.0023053182565592467 -0.012995469820175878 0 0.0023890482615537287 -0.011918152663000749 0 0.0030411352054529094 -0.012422362414568126 0 0.0081256960575379015 -0.0064027488154217117 0 0.0074757909970189235 -0.0050683145155645372 0 0.0083112583766999336 -0.0044794339467840614 0 0.0071070194981264732 -0.0059233646496781884 0 0.0081456594484122756 -0.0061527842503051175 0 0.0075242344595558737 -0.0049368112268519592 0 0.0062019007095147618 -0.0086274002214745543 0 0.0073046110877511006 -0.0048691205794664872 0 0.0038703657304376944 -0.012391218821865691 0 0.0033845349020091252 -0.013185836552957401 0 0.0030411352054529094 -0.012422362414568126 0 0.0023890482615537287 -0.011918152663000749 0 0.0030411352054529094 -0.012422362414568126 0 0.0032218767403648803 -0.011603181509804413 0 0.0038703657304376944 -0.012391218821865691 0 0.0030411352054529094 -0.012422362414568126 0 0.0032218767403648803 -0.011603181509804413 0 0.0023890482615537287 -0.011918152663000749 0 0.0032218767403648803 -0.011603181509804413 0 0.0024950339472156208 -0.010791980439041114 0 0.0031428251993199101 -0.011833976790362877 0 0.0035326355879903557 -0.0078168217924006207 0 0.0074757909970189235 -0.0050683145155645372 0 0.0083112583766999336 -0.0044794339467840614 0 0.006893572995571997 -0.0037553202641972894 0 0.0053952961966662362 -0.0081864107135136231 0 0.0035326355879903557 -0.0078168217924006207 0 0.0083112583766999336 -0.0044794339467840614 0 0.0084632239048664012 -0.0026885039920637312 0 0.006893572995571997 -0.0037553202641972894 0 0.0035326355879903557 -0.0078168217924006207 0 0.0046227927100426208 -0.003419698207864644 0 0.0029269587798543772 -0.011623570347854967 0 0.0017692422261446521 -0.010589279982518808 0 0.0034315388008149023 -0.010505392646242895 0 0.0017692422261446521 -0.010589279982518808 0 0.0026344182008650268 -0.0093577471607979197 0 0.0034315388008149023 -0.010505392646242895 0 0.0061458883831151364 -0.0050430288584027965 0 0.0055166952112004368 -0.0036067401764902905 0 0.006893572995571997 -0.0037553202641972894 0 0.0055166952112004368 -0.0036067401764902905 0 0.006893572995571997 -0.0037553202641972894 0 0.0064128493760989844 -0.0025482463002478991 0 0.0073046110877511006 -0.0048691205794664872 0 0.0069949968302098165 -0.003997648714833919 0 0.0064128493760989844 -0.0025482463002478991 0 0.0048633145387051687 -0.0023429263098886746 0 0.0068966511305644978 -0.0010365198932032163 0 0.0084632239048664012 -0.0026885039920637312 0 0.0064128493760989844 -0.0025482463002478991 0 0.0068966511305644978 -0.0010365198932032163 0 0.0084632239048664012 -0.0026885039920637312 0 0.006893572995571997 -0.0037553202641972894 0 0.0064128493760989844 -0.0025482463002478991 0 0.0055166952112004368 -0.0036067401764902905 0 0.0064128493760989844 -0.0025482463002478991 0 0.0048633145387051687 -0.0023429263098886746 0 0.0068966511305644978 -0.0010365198932032163 0 0.005346520588477008 0.00059666704651763376 0 0.0043090400643536562 -0.00071955941157973171 0 0.0048633145387051687 -0.0023429263098886746 0 0.0068966511305644978 -0.0010365198932032163 0 0.0043090400643536562 -0.00071955941157973171 0 0.0046227927100426208 -0.003419698207864644 0 0.003155473379553163 -0.0033158630459273635 0 0.0020484947080519609 -0.0067170765683981313 0 0.0018951931398786712 -0.0058085397998738977 0 0.002563352531113886 -0.0060992846715217037 0 0.0020484947080519609 -0.0067170765683981313 0 0.0018951931398786712 -0.0058085397998738977 0 0.0010791211545831637 -0.0059897375119634701 0 0.0026344182008650268 -0.0093577471607979197 0 0.0019813341337429303 -0.0082216359703845728 0 0.0036401265986644748 -0.0078253744623887969 0 0.0026344182008650268 -0.0093577471607979197 0 0.0034315388008149023 -0.010505392646242895 0 0.0036401265986644748 -0.0078253744623887969 0 0.0017692422261446521 -0.010589279982518808 0 0.0026344182008650268 -0.0093577471607979197 0 0.0019813341337429303 -0.0082216359703845728 0 0.0035326355879903557 -0.0078168217924006207 0 0.0022014935994954408 -0.0075974885643269067 0 0.0026678520111041628 -0.0073264656295202483 0 0.0020484947080519609 -0.0067170765683981313 0 0.002728944304448748 -0.0063939509124655881 0 0.002728944304448748 -0.0063939509124655881 0 0.002563352531113886 -0.0060992846715217037 0 0.0025863880799000152 -0.0061229470756601328 0 0.0020484947080519609 -0.0067170765683981313 0 0.002728944304448748 -0.0063939509124655881 0 0.002563352531113886 -0.0060992846715217037 0 0.0022014935994954408 -0.0075974885643269067 0 0.0025970236099678327 -0.0060974851919661649 0 0.0019813341337429303 -0.0082216359703845728 0 0.0029903026527442512 -0.0069144717851681711 0 0.0036401265986644748 -0.0078253744623887969 0 0.0019813341337429303 -0.0082216359703845728 0 0.0029903026527442512 -0.0069144717851681711 0 0.0025863880799000152 -0.0061229470756601328 0 0.0029903026527442512 -0.0069144717851681711 0 0.0029375167596554668 -0.0062073348372346654 0 0.003317971550789286 -0.0059917986153652045 0 0.0029903026527442512 -0.0069144717851681711 0 0.0025863880799000152 -0.0061229470756601328 0 0.0029375167596554668 -0.0062073348372346654 0 0.0025863880799000152 -0.0061229470756601328 0 0.0029375167596554668 -0.0062073348372346654 0 0.0028932451627321646 -0.0059243280583093092 0 0.0029375167596554668 -0.0062073348372346654 0 0.0028932451627321646 -0.0059243280583093092 0 0.003317971550789286 -0.0059917986153652045 0 0.0025863880799000152 -0.0061229470756601328 0 0.0028932451627321646 -0.0059243280583093092 0 0.0026543698817753274 -0.0057738009153448016 0 0.0028932451627321646 -0.0059243280583093092 0 0.0029774101482341769 -0.0056989388324636151 0 0.003317971550789286 -0.0059917986153652045 0 0.0028932451627321646 -0.0059243280583093092 0 0.0026543698817753274 -0.0057738009153448016 0 0.0029774101482341769 -0.0056989388324636151 0 0.0025863880799000152 -0.0061229470756601328 0 0.0026543698817753274 -0.0057738009153448016 0 0.0024033102386880919 -0.0059996338483078396 0 0.0026543698817753274 -0.0057738009153448016 0 0.0024033102386880919 -0.0059996338483078396 0 0.0024470490655548963 -0.0056016409024627631 0 0.0025991810914786045 -0.0060874000993702427 0 0.0021862776449608099 -0.0051958182321351354 0 0.002563352531113886 -0.0060992846715217037 0 0.0025863880799000152 -0.0061229470756601328 0 0.0024033102386880919 -0.0059996338483078396 0 0.0018951931398786712 -0.0058085397998738977 0 0.002563352531113886 -0.0060992846715217037 0 0.0022400194189409837 -0.0048609800086178391 0 0.0018951931398786712 -0.0058085397998738977 0 0.0022400194189409837 -0.0048609800086178391 0 0.0011954100918541908 -0.0047932380376711041 0 0.0018951931398786712 -0.0058085397998738977 0 0.0010791211545831637 -0.0059897375119634701 0 0.0011954100918541908 -0.0047932380376711041 0 0.0010791211545831637 -0.0059897375119634701 0 0.0011954100918541908 -0.0047932380376711041 0 -0.00015106944157923047 -0.0047731545341505579 0 0.0011954100918541908 -0.0047932380376711041 0 0.0016560830336872022 -0.0035596615675655562 0 0.00034285932938468228 -0.00354608055620556 0 0.0021862776449608099 -0.0051958182321351354 0 0.002378754713773034 -0.0058030816692371655 0 0.0022400194189409837 -0.0048609800086178391 0 0.0011954100918541908 -0.0047932380376711041 0 0.0016560830336872022 -0.0035596615675655562 0 0.0024033102386880919 -0.0059996338483078396 0 0.0022361725499054474 -0.0056621493374937725 0 0.0024470490655548963 -0.0056016409024627631 0 0.0022361725499054474 -0.0056621493374937725 0 0.0024470490655548963 -0.0056016409024627631 0 0.0022870440577141163 -0.0054413494611398683 0 0.0022870440577141163 -0.0054413494611398683 0 0.0022286559676804375 -0.0052570739679100066 0 0.0023487637173981919 -0.0053119149526541717 0 0.0022870440577141163 -0.0054413494611398683 0 0.0024127102243052378 -0.0054255761930365309 0 0.0023487637173981919 -0.0053119149526541717 0 0.0024470490655548963 -0.0056016409024627631 0 0.0024127102243052378 -0.0054255761930365309 0 0.0025160433613516157 -0.0053967509093719281 0 0.0024470490655548963 -0.0056016409024627631 0 0.0022870440577141163 -0.0054413494611398683 0 0.0024127102243052378 -0.0054255761930365309 0 0.0022361725499054474 -0.0056621493374937725 0 0.0022870440577141163 -0.0054413494611398683 0 0.0019899515035879723 -0.0052547992163393727 0 0.0016560830336872022 -0.0035596615675655562 0 0.00091247061786948471 -0.0021952975110458906 0 0.00034285932938468228 -0.00354608055620556 0 0.0019003274318677582 0.0040095072306339094 0 0.0015591745264449176 0.0038888651118403833 0 0.002378754713773034 -0.0058030816692371655 0 0.0019003274318677582 0.0040095072306339094 0 0.0022870440577141163 -0.0054413494611398683 0 0.0019899515035879723 -0.0052547992163393727 0 0.0022286559676804375 -0.0052570739679100066 0 0.0020367955360186254 0.011038936517326249 0 0.0016593061894402902 0.010550339645314957 0 0.0024635036756338125 0.010346868970332901 0 0.0019899515035879723 -0.0052547992163393727 0 0.0022286559676804375 -0.0052570739679100066 0 0.0021890927055960292 -0.0046148930893083386 0 0.0023745228818773151 -0.0065118542675662956 0 0.0022602332713639738 -9.1921684050045059e-05 0 0.0019003274318677582 0.0040095072306339094 0 0.0022602332713639738 -9.1921684050045059e-05 0 0.0022286559676804375 -0.0052570739679100066 0 0.0023233666083951748 -0.0052311383453271529 0 0.0023365642621034064 -0.0051668161966649286 0 0.0024127102243052378 -0.0054255761930365309 0 0.0024472359397513109 -0.0053065633472559257 0 0.0025160433613516157 -0.0053967509093719281 0 0.0024472359397513109 -0.0053065633472559257 0 0.0023487637173981919 -0.0053119149526541717 0 0.0023932215836369327 -0.0052418333422670294 0 0.0024127102243052378 -0.0054255761930365309 0 0.0024472359397513109 -0.0053065633472559257 0 0.0023487637173981919 -0.0053119149526541717 0 0.0022286559676804375 -0.0052570739679100066 0 0.0023487637173981919 -0.0053119149526541717 0 0.0023233666083951748 -0.0052311383453271529 0 0.0023487637173981919 -0.0053119149526541717 0 0.0023233666083951748 -0.0052311383453271529 0 0.0023932215836369327 -0.0052418333422670294 0 0.0023674088370598317 -0.005188690618083849 0 0.0023932215836369327 -0.0052418333422670294 0 0.0024121558373132097 -0.0051800624786261708 0 0.0023233666083951748 -0.0052311383453271529 0 0.0023674088370598317 -0.005188690618083849 0 0.0023932215836369327 -0.0052418333422670294 0 0.0023233666083951748 -0.0052311383453271529 0 0.0023674088370598317 -0.005188690618083849 0 0.0023365642621034064 -0.0051668161966649286 0 0.0024472359397513109 -0.0053065633472559257 0 0.0024593190075154706 -0.0052254577552999851 0 0.0023932215836369327 -0.0052418333422670294 0 0.0024593190075154706 -0.0052254577552999851 0 0.0023932215836369327 -0.0052418333422670294 0 0.0024121558373132097 -0.0051800624786261708 0 0.0025215057935890272 -0.0052784650168796318 0 0.0025749147776314217 -0.0052474660602742969 0 0.0025140939361283708 -0.0052116159455904707 0 0.0024593190075154706 -0.0052254577552999851 0 0.0025215057935890272 -0.0052784650168796318 0 0.0025140939361283708 -0.0052116159455904707 0 0.0024472359397513109 -0.0053065633472559257 0 0.0024593190075154706 -0.0052254577552999851 0 0.0025215057935890272 -0.0052784650168796318 0 0.0025215057935890272 -0.0052784650168796318 0 0.0025948216179346498 -0.0053261430294267607 0 0.0025160433613516157 -0.0053967509093719281 0 0.0024472359397513109 -0.0053065633472559257 0 0.0025215057935890272 -0.0052784650168796318 0 0.0025160433613516157 -0.0053967509093719281 0 0.0025948216179346498 -0.0053261430294267607 0 0.0026891172205389369 -0.0053549718366113696 0 0.002607380695869486 -0.0055083218976427041 0 0.0025215057935890272 -0.0052784650168796318 0 0.0025948216179346498 -0.0053261430294267607 0 0.0025749147776314217 -0.0052474660602742969 0 0.0025948216179346498 -0.0053261430294267607 0 0.0025749147776314217 -0.0052474660602742969 0 0.0026384679946180579 -0.0052775234260749055 0 0.0026384679946180579 -0.0052775234260749055 0 0.0026998913572062588 -0.0052902281444876052 0 0.0026163018263560527 -0.0052294134145567592 0 0.0026998913572062588 -0.0052902281444876052 0 0.0026163018263560527 -0.0052294134145567592 0 0.0026707877861329109 -0.0052746298939728084 0 0.0026998913572062588 -0.0052902281444876052 0 0.0027227688312621541 -0.0053039497381674088 0 0.0026707877861329109 -0.0052746298939728084 0 0.0027227688312621541 -0.0053039497381674088 0 0.0027896533671637911 -0.0053364772785532378 0 0.0027138881171729461 -0.0053047458704760355 0 0.0026998913572062588 -0.0052902281444876052 0 0.0027896533671637911 -0.0053364772785532378 0 0.0026891172205389369 -0.0053549718366113696 0 0.0026998913572062588 -0.0052902281444876052 0 0.0027227688312621541 -0.0053039497381674088 0 0.0027896533671637911 -0.0053364772785532378 0 0.0026384679946180579 -0.0052775234260749055 0 0.0026998913572062588 -0.0052902281444876052 0 0.0026891172205389369 -0.0053549718366113696 0 0.0025948216179346498 -0.0053261430294267607 0 0.0026384679946180579 -0.0052775234260749055 0 0.0026891172205389369 -0.0053549718366113696 0 0.0027896533671637911 -0.0053364772785532378 0 0.0026891172205389369 -0.0053549718366113696 0 0.0027610970392166114 -0.005506460145701662 0 0.0026891172205389369 -0.0053549718366113696 0 0.0027610970392166114 -0.005506460145701662 0 0.002607380695869486 -0.0055083218976427041 0 0.0027896533671637911 -0.0053364772785532378 0 0.0029774101482341769 -0.0056989388324636151 0 0.0029854022796551786 -0.0053410349628280566 0 0.0027896533671637911 -0.0053364772785532378 0 0.0027610970392166114 -0.005506460145701662 0 0.0029774101482341769 -0.0056989388324636151 0 0.0026543698817753274 -0.0057738009153448016 0 0.0027610970392166114 -0.005506460145701662 0 0.0029774101482341769 -0.0056989388324636151 0 0.0026543698817753274 -0.0057738009153448016 0 0.0027610970392166114 -0.005506460145701662 0 0.002607380695869486 -0.0055083218976427041 0 0.0026543698817753274 -0.0057738009153448016 0 0.0024470490655548963 -0.0056016409024627631 0 0.002607380695869486 -0.0055083218976427041 0 0.0024470490655548963 -0.0056016409024627631 0 0.0025160433613516157 -0.0053967509093719281 0 0.002607380695869486 -0.0055083218976427041 0 0.0025948216179346498 -0.0053261430294267607 0 0.0025160433613516157 -0.0053967509093719281 0 0.002607380695869486 -0.0055083218976427041 0 0.0027474018596300399 0.011594655365978269 0 0.003114841249058442 0.011394393195697176 0 0.0029370065180559703 0.011314278214889967 0 0.0027474018596300399 0.011594655365978269 0 0.0023457053133616561 0.011700271626945117 0 0.0025527892959364348 0.0122956297039486 0 0.0027474018596300399 0.011594655365978269 0 0.0023457053133616561 0.011700271626945117 0 0.0026007737750046189 0.011270978452479085 0 0.0023457053133616561 0.011700271626945117 0 0.0025527892959364348 0.0122956297039486 0 0.0021370242582163875 0.012073998548444868 0 0.0025527892959364348 0.0122956297039486 0 0.0021370242582163875 0.012073998548444868 0 0.0021510523096176875 0.01239712947303543 0 0.0027474018596300399 0.011594655365978269 0 0.0025527892959364348 0.0122956297039486 0 0.003114841249058442 0.011394393195697176 0 0.0032082820361490991 0.011452200268813396 0 0.0030609277973415601 0.01147647114615997 0 0.0037723918879262806 0.010829224925263921 0 0.003114841249058442 0.011394393195697176 0 0.0034157565251524682 0.010757238284264522 0 0.0029038216599591824 0.010981057093858569 0 0.003114841249058442 0.011394393195697176 0 0.003122622382705908 0.010585185527288678 0 0.003114841249058442 0.011394393195697176 0 0.003122622382705908 0.010585185527288678 0 0.0034157565251524682 0.010757238284264522 0 0.0029038216599591824 0.010981057093858569 0 0.0028907553265298479 0.011241471983320978 0 0.003114841249058442 0.011394393195697176 0 0.0019003274318677582 0.0040095072306339094 0 0.0023999890505400005 0.013121922844107802 0 0.0026153423536097943 0.011155547006939491 0 0.0029038216599591824 0.010981057093858569 0 0.0027758380484618314 0.010370344813766258 0 0.0026153423536097943 0.011155547006939491 0 0.0029038216599591824 0.010981057093858569 0 0.0028907553265298479 0.011241471983320978 0 0.0028907553265298479 0.011241471983320978 0 0.003114841249058442 0.011394393195697176 0 0.0030386063483722513 0.01128947574599704 0 0.0028907553265298479 0.011241471983320978 0 0.0029603852122881864 0.011286628533044454 0 0.0030386063483722513 0.01128947574599704 0 0.0026153423536097943 0.011155547006939491 0 0.0028907553265298479 0.011241471983320978 0 0.0029603852122881864 0.011286628533044454 0 0.003114841249058442 0.011394393195697176 0 0.0029370065180559703 0.011314278214889967 0 0.0030386063483722513 0.01128947574599704 0 0.0029370065180559703 0.011314278214889967 0 0.0030101751464296938 0.011113871850557311 0 0.0029078225680783756 0.010947424213327813 0 0.0029370065180559703 0.011314278214889967 0 0.0030386063483722513 0.01128947574599704 0 0.0030101751464296938 0.011113871850557311 0 0.0030386063483722513 0.01128947574599704 0 0.0031872194149269637 0.011060754305878343 0 0.0030101751464296938 0.011113871850557311 0 0.0015591745264449176 0.0038888651118403833 0 0.0033571891442957286 0.002696580796200877 0 0.0011954100918541908 -0.0047932380376711041 0 0.00034285932938468228 -0.00354608055620556 0 -0.00015106944157923047 -0.0047731545341505579 0 0.0029603852122881864 0.011286628533044454 0 0.0030386063483722513 0.01128947574599704 0 0.0031872194149269637 0.011060754305878343 0 0.003155473379553163 -0.0033158630459273635 0 0.0033571891442957286 0.002696580796200877 0 0.0031872194149269637 0.011060754305878343 0 0.0030101751464296938 0.011113871850557311 0 0.0029078225680783756 0.010947424213327813 0 0.0033571891442957286 0.002696580796200877 0 0.0032027004620801933 0.0060901200335491869 0 0.0031872194149269637 0.011060754305878343 0 0.0029078225680783756 0.010947424213327813 0 0.0031771012004914102 0.010476260383785511 0 0.0029078225680783756 0.010947424213327813 0 0.0025996170291389211 0.010917776574828826 0 0.0026248534443975933 0.010492106338007661 0 0.0029078225680783756 0.010947424213327813 0 0.0025996170291389211 0.010917776574828826 0 0.0026007737750046189 0.011270978452479085 0 0.0027474018596300399 0.011594655365978269 0 0.0029370065180559703 0.011314278214889967 0 0.0026007737750046189 0.011270978452479085 0 0.0029370065180559703 0.011314278214889967 0 0.0029078225680783756 0.010947424213327813 0 0.0026007737750046189 0.011270978452479085 0 0.0023457053133616561 0.011700271626945117 0 0.0026007737750046189 0.011270978452479085 0 0.0021795640005601372 0.011380534959656742 0 0.0025996170291389211 0.010917776574828826 0 0.0026007737750046189 0.011270978452479085 0 0.0022549992318001721 0.010920285032903612 0 0.0026007737750046189 0.011270978452479085 0 0.0021795640005601372 0.011380534959656742 0 0.0022549992318001721 0.010920285032903612 0 0.0022549992318001721 0.010920285032903612 0 0.0026248534443975933 0.010492106338007661 0 0.002065903951889199 0.010454204831005422 0 0.0025996170291389211 0.010917776574828826 0 0.0022549992318001721 0.010920285032903612 0 0.0026248534443975933 0.010492106338007661 0 0.0029078225680783756 0.010947424213327813 0 0.0026248534443975933 0.010492106338007661 0 0.0031771012004914102 0.010476260383785511 0 0.0026248534443975933 0.010492106338007661 0 0.0031771012004914102 0.010476260383785511 0 0.0030017908213411304 0.009745229931299117 0 0.0026248534443975933 0.010492106338007661 0 0.0024088668137532206 0.010021736055517625 0 0.0030017908213411304 0.009745229931299117 0 0.0024088668137532206 0.010021736055517625 0 0.002065903951889199 0.010454204831005422 0 0.0019394632800439544 0.0098392972958807768 0 0.0026248534443975933 0.010492106338007661 0 0.0024088668137532206 0.010021736055517625 0 0.002065903951889199 0.010454204831005422 0 0.005346520588477008 0.00059666704651763376 0 0.0029142114983862761 0.00025388637901425297 0 0.0043090400643536562 -0.00071955941157973171 0 0.005346520588477008 0.00059666704651763376 0 0.0037995598309895936 0.0022164613633547368 0 0.0029142114983862761 0.00025388637901425297 0 0.0032027004620801933 0.0060901200335491869 0 0.0024802500134757871 0.0041259005099435276 0 0.0029142114983862761 0.00025388637901425297 0 0.0043090400643536562 -0.00071955941157973171 0 0.0020266005272946584 -0.0017149108656047537 0 0.0055166952112004368 -0.0036067401764902905 0 0.0048633145387051687 -0.0023429263098886746 0 0.0034155964367641946 -0.0028101610852275766 0 0.0048633145387051687 -0.0023429263098886746 0 0.0043090400643536562 -0.00071955941157973171 0 0.0034155964367641946 -0.0028101610852275766 0 0.0034155964367641946 -0.0028101610852275766 0 0.0020266005272946584 -0.0017149108656047537 0 0.0011358858827010122 -0.0036786847872866939 0 0.0043090400643536562 -0.00071955941157973171 0 0.0034155964367641946 -0.0028101610852275766 0 0.0020266005272946584 -0.0017149108656047537 0 0.0034155964367641946 -0.0028101610852275766 0 0.002825833216563876 -0.0042261963905087284 0 0.0011358858827010122 -0.0036786847872866939 0 0.0045310059246962487 -0.004783383755360705 0 0.0034155964367641946 -0.0028101610852275766 0 0.002825833216563876 -0.0042261963905087284 0 0.0045310059246962487 -0.004783383755360705 0 0.0055166952112004368 -0.0036067401764902905 0 0.0034155964367641946 -0.0028101610852275766 0 0.0024277217501035273 0.0095127315674527393 0 0.00189354348615006 0.0092023774195998786 0 0.0019394632800439544 0.0098392972958807768 0 0.0024088668137532206 0.010021736055517625 0 0.0024277217501035273 0.0095127315674527393 0 0.0019394632800439544 0.0098392972958807768 0 0.0024277217501035273 0.0095127315674527393 0 0.0030017908213411304 0.009745229931299117 0 0.0027135933039134988 0.0089223407585992173 0 0.0024802500134757871 0.0041259005099435276 0 0.0022032195004548626 0.0011920245249614672 0 0.0024088668137532206 0.010021736055517625 0 0.0024277217501035273 0.0095127315674527393 0 0.0030017908213411304 0.009745229931299117 0 0.0028296270832993109 -0.0045263512317725825 0 0.0022032195004548626 0.0011920245249614672 0 0.0022032195004548626 0.0011920245249614672 0 0.0013161536565535182 0.0077645211540292251 0 0.0031032886157363886 0.0033076240850311829 0 0.0014206586886968196 0.0027645907516976051 0 0.00019060670603628129 0.0041945263472326607 0 0.0024277217501035273 0.0095127315674527393 0 0.0027135933039134988 0.0089223407585992173 0 0.00189354348615006 0.0092023774195998786 0 0.0013290512690046869 0.0044184417690698247 0 0.0013161536565535182 0.0077645211540292251 0 0.0024958269071576919 0.0071924934832161133 0 0.0016916910756476508 0.0078361383345030722 0 0.0024959908111240742 0.0084353009849280382 0 0.00016639983510718706 0.0022047170884293278 0 0.0014206586886968196 0.0027645907516976051 0 0.00019060670603628129 0.0041945263472326607 0 0.0013161536565535182 0.0077645211540292251 0 0.0019590802518081865 0.0081937304329843755 0 0.0016916910756476508 0.0078361383345030722 0 0.0024959908111240742 0.0084353009849280382 0 0.0018145319738456613 0.008626446261961981 0 0.0023833581712443958 0.008478082173129356 0 0.0018182803136916849 0.0093056815283278482 0 0.002316969655527227 0.0096082414724424827 0 0.0013161536565535182 0.0077645211540292251 0 0.0021350384485829378 0.009911524427405654 0 0.0023833581712443958 0.008478082173129356 0 0.0018145319738456613 0.008626446261961981 0 0.0018182803136916849 0.0093056815283278482 0 0.0018182803136916849 0.0093056815283278482 0 0.0012014809595701117 0.0093048547614745947 0 0.001693506882845177 0.010066622045944646 0 0.0018145319738456613 0.008626446261961981 0 0.0018182803136916849 0.0093056815283278482 0 0.0012014809595701117 0.0093048547614745947 0 0.0018145319738456613 0.008626446261961981 0 0.0012014809595701117 0.0093048547614745947 0 0.0010471484615399212 0.0082734011868930563 0 0.0012014809595701117 0.0093048547614745947 0 0.0010471484615399212 0.0082734011868930563 0 0.00046105762798611554 0.0085227856768639622 0 0.00012934970398986012 0.0071560120047091964 0 0.0016916910756476508 0.0078361383345030722 0 0.0010471484615399212 0.0082734011868930563 0 0.0016916910756476508 0.0078361383345030722 0 0.0018145319738456613 0.008626446261961981 0 0.0010471484615399212 0.0082734011868930563 0 0.00012934970398986012 0.0071560120047091964 0 -0.00043865997788891713 0.0084656402505479036 0 0.00046105762798611554 0.0085227856768639622 0 0.00012934970398986012 0.0071560120047091964 0 0.0010471484615399212 0.0082734011868930563 0 0.00046105762798611554 0.0085227856768639622 0 0.00012934970398986012 0.0071560120047091964 0 -0.00043865997788891713 0.0084656402505479036 0 -0.0011972547392511031 0.0076457228153980318 0 -0.00043865997788891713 0.0084656402505479036 0 -0.00088108347739697434 0.0098557971887354677 0 -0.0016865736770120567 0.0087304576702802363 0 -0.00043865997788891713 0.0084656402505479036 0 0.00028229344697708911 0.0092914615111406307 0 -0.00088108347739697434 0.0098557971887354677 0 0.0012014809595701117 0.0093048547614745947 0 0.00046105762798611554 0.0085227856768639622 0 0.00028229344697708911 0.0092914615111406307 0 -0.00043865997788891713 0.0084656402505479036 0 0.00046105762798611554 0.0085227856768639622 0 0.00028229344697708911 0.0092914615111406307 0 -0.0001678406232547027 0.010278701071438469 0 0.00099256331978679374 0.010421145142370846 0 0.00028229344697708911 0.0092914615111406307 0 -0.00088108347739697434 0.0098557971887354677 0 0.0010276587726736469 0.010398992801346735 0 0.0012014809595701117 0.0093048547614745947 0 0.00028229344697708911 0.0092914615111406307 0 0.0010276587726736469 0.010398992801346735 0 0.00049327212963755146 0.01072094419315368 0 0.00055371644467929696 0.011102537696180517 0 0.0010276587726736469 0.010398992801346735 0 0.00055371644467929696 0.011102537696180517 0 0.0010276587726736469 0.010398992801346735 0 0.0010622196417642055 0.011313085154598265 0 0.001619877898897089 0.010811008498334067 0 0.0010276587726736469 0.010398992801346735 0 0.001693506882845177 0.010066622045944646 0 0.001619877898897089 0.010811008498334067 0 0.0010276587726736469 0.010398992801346735 0 0.0010622196417642055 0.011313085154598265 0 0.0022549992318001721 0.010920285032903612 0 0.001619877898897089 0.010811008498334067 0 0.002065903951889199 0.010454204831005422 0 0.001619877898897089 0.010811008498334067 0 0.002065903951889199 0.010454204831005422 0 0.001693506882845177 0.010066622045944646 0 0.002065903951889199 0.010454204831005422 0 0.002316969655527227 0.0096082414724424827 0 0.001693506882845177 0.010066622045944646 0 0.0020857256688897657 0.010279332201702903 0 0.0021350384485829378 0.009911524427405654 0 0.0018182803136916849 0.0093056815283278482 0 0.002316969655527227 0.0096082414724424827 0 0.001693506882845177 0.010066622045944646 0 0.0012014809595701117 0.0093048547614745947 0 0.0010276587726736469 0.010398992801346735 0 0.001693506882845177 0.010066622045944646 0 -0.0025160526415735347 0.0096894231364652115 0 -0.0010959540065864028 0.010506285097589368 0 -0.00096975608293127979 0.010539774621991115 0 -0.001242578159505794 0.010792324502115494 0 -0.0015771465890125418 0.010618981672497944 0 -0.00096975608293127979 0.010539774621991115 0 -0.00088667762482516751 0.010905121057592762 0 -0.001242578159505794 0.010792324502115494 0 -0.004007812496455385 0.0085602897060824013 0 -0.0039797896379100296 0.007947871028597963 0 -0.0035085589924434678 0.0081134301039615837 0 -0.004007812496455385 0.0085602897060824013 0 -0.0044446602654679831 0.0079971520870540658 0 -0.0039797896379100296 0.007947871028597963 0 -0.0043663332794766571 0.0075503872947421018 0 -0.0039797896379100296 0.007947871028597963 0 -0.0035334203537717192 0.0074989340979508172 0 -0.0044446602654679831 0.0079971520870540658 0 -0.0043663332794766571 0.0075503872947421018 0 -0.0039797896379100296 0.007947871028597963 0 -0.0035334203537717192 0.0074989340979508172 0 -0.0030692358938396178 0.0079937671687361819 0 -0.00242071115537398 0.0077145147602675664 0 -0.0035085589924434678 0.0081134301039615837 0 -0.0035334203537717192 0.0074989340979508172 0 -0.0030692358938396178 0.0079937671687361819 0 -0.0039797896379100296 0.007947871028597963 0 -0.0035085589924434678 0.0081134301039615837 0 -0.0035334203537717192 0.0074989340979508172 0 -0.0025160526415735347 0.0096894231364652115 0 -0.0030739301637003379 0.0087064305657860181 0 -0.0025160526415735347 0.0096894231364652115 0 -0.0012289061216799609 0.010094872521718146 0 -0.0037168524614799021 0.009083531414474549 0 -0.0027554935562174648 0.0089511900801240926 0 -0.0024196915308788264 0.0094114550343601475 0 -0.00096975608293127979 0.010539774621991115 0 -0.00012331260410606757 0.010740238598598623 0 -0.00053579709560117245 0.010908086612064783 0 -0.004007812496455385 0.0085602897060824013 0 -0.0035085589924434678 0.0081134301039615837 0 -0.002912360736387491 0.0085371424405691117 0 -0.0035085589924434678 0.0081134301039615837 0 -0.0030692358938396178 0.0079937671687361819 0 -0.002912360736387491 0.0085371424405691117 0 -0.0027554935562174648 0.0089511900801240926 0 -0.0024196915308788264 0.0094114550343601475 0 -0.0016865736770120567 0.0087304576702802363 0 -0.0030739301637003379 0.0087064305657860181 0 -0.0016029666994537297 0.0086034061281732091 0 -0.0030692358938396178 0.0079937671687361819 0 -0.002912360736387491 0.0085371424405691117 0 -0.00242071115537398 0.0077145147602675664 0 -0.002912360736387491 0.0085371424405691117 0 -0.00242071115537398 0.0077145147602675664 0 -0.0016950074637062454 0.0084897965608310162 0 -0.00242071115537398 0.0077145147602675664 0 -0.0011972547392511031 0.0076457228153980318 0 -0.0016950074637062454 0.0084897965608310162 0 -0.00043865997788891713 0.0084656402505479036 0 -0.0011972547392511031 0.0076457228153980318 0 -0.0016950074637062454 0.0084897965608310162 0 -0.00088108347739697434 0.0098557971887354677 0 -0.0024196915308788264 0.0094114550343601475 0 -0.0016865736770120567 0.0087304576702802363 0 -0.00054994438421478186 0.0084727607189160007 0 -0.0016029666994537297 0.0086034061281732091 0 -0.0001678406232547027 0.010278701071438469 0 -0.0012289061216799609 0.010094872521718146 0 0.00049327212963755146 0.01072094419315368 0 -0.00012331260410606757 0.010740238598598623 0 0.00013173234878173653 0.011057963610742872 0 0.00049327212963755146 0.01072094419315368 0 0.00055371644467929696 0.011102537696180517 0 0.00013173234878173653 0.011057963610742872 0 0.00055371644467929696 0.011102537696180517 0 0.00013173234878173653 0.011057963610742872 0 0.00020871843460536655 0.011401533936835693 0 0.00013173234878173653 0.011057963610742872 0 0.00020871843460536655 0.011401533936835693 0 -0.00013670927245329825 0.011609374951514003 0 -0.00022495830381816738 0.011136107245522347 0 -0.00053980947119967285 0.011753746700295185 0 -0.00013670927245329825 0.011609374951514003 0 0.00013173234878173653 0.011057963610742872 0 -0.00022495830381816738 0.011136107245522347 0 -0.00013670927245329825 0.011609374951514003 0 -0.00012331260410606757 0.010740238598598623 0 0.00013173234878173653 0.011057963610742872 0 -0.00022495830381816738 0.011136107245522347 0 -0.00012331260410606757 0.010740238598598623 0 -0.00022495830381816738 0.011136107245522347 0 -0.00053579709560117245 0.010908086612064783 0 -0.00022495830381816738 0.011136107245522347 0 -0.00053579709560117245 0.010908086612064783 0 -0.00068016487678283115 0.01125085517757066 0 -0.00053579709560117245 0.010908086612064783 0 -0.00068016487678283115 0.01125085517757066 0 -0.00088667762482516751 0.010905121057592762 0 -0.00022495830381816738 0.011136107245522347 0 -0.00068016487678283115 0.01125085517757066 0 -0.00053980947119967285 0.011753746700295185 0 -0.00068016487678283115 0.01125085517757066 0 -0.00053980947119967285 0.011753746700295185 0 -0.001017611659360468 0.011603394928994593 0 -0.00053980947119967285 0.011753746700295185 0 -0.001017611659360468 0.011603394928994593 0 -0.00094748422825680664 0.012291538005899359 0 -0.001017611659360468 0.011603394928994593 0 -0.0011485456902273969 0.011097396880291141 0 -0.0017028721949302154 0.011092533535437644 0 -0.00068016487678283115 0.01125085517757066 0 -0.0011485456902273969 0.011097396880291141 0 -0.00088667762482516751 0.010905121057592762 0 -0.00068016487678283115 0.01125085517757066 0 -0.001017611659360468 0.011603394928994593 0 -0.0011485456902273969 0.011097396880291141 0 -0.00096975608293127979 0.010539774621991115 0 -0.00053579709560117245 0.010908086612064783 0 -0.00088667762482516751 0.010905121057592762 0 -0.0011485456902273969 0.011097396880291141 0 -0.00088667762482516751 0.010905121057592762 0 -0.001242578159505794 0.010792324502115494 0 -0.00075798416221098896 0.012595269686648319 0 -0.00094748422825680664 0.012291538005899359 0 -0.00043256574098141424 0.012176356973955303 0 -0.00075798416221098896 0.012595269686648319 0 -0.00094748422825680664 0.012291538005899359 0 -0.00096608906525697815 0.012653497507314763 0 -0.00053980947119967285 0.011753746700295185 0 -0.00094748422825680664 0.012291538005899359 0 -0.00043256574098141424 0.012176356973955303 0 -0.00053980947119967285 0.011753746700295185 0 -0.00043256574098141424 0.012176356973955303 0 -0.00013670927245329825 0.011609374951514003 0 -0.00075798416221098896 0.012595269686648319 0 -0.00043256574098141424 0.012176356973955303 0 -0.00011439747490448409 0.0125128730527501 0 -0.00043256574098141424 0.012176356973955303 0 4.2579705299559777e-05 0.011873715264973963 0 -0.00011439747490448409 0.0125128730527501 0 -0.00043256574098141424 0.012176356973955303 0 -0.00013670927245329825 0.011609374951514003 0 4.2579705299559777e-05 0.011873715264973963 0 0.00020871843460536655 0.011401533936835693 0 -0.00013670927245329825 0.011609374951514003 0 4.2579705299559777e-05 0.011873715264973963 0 0.00020871843460536655 0.011401533936835693 0 4.2579705299559777e-05 0.011873715264973963 0 0.0005614201497833567 0.011680570266398054 0 0.00030293141463548522 0.012166274261593892 0 -2.541454256964281e-05 0.011966501715747639 0 0.0005614201497833567 0.011680570266398054 0 4.2579705299559777e-05 0.011873715264973963 0 -0.00011439747490448409 0.0125128730527501 0 0.0005614201497833567 0.011680570266398054 0 -0.0001279137569569441 0.012201846591560334 0 0.00054372514210589867 0.011739621211183382 0 0.00030293141463548522 0.012166274261593892 0 0.00037810186092922292 0.012553323264970724 0 7.6930702561780261e-05 0.012852137603759091 0 0.00030293141463548522 0.012166274261593892 0 -0.00047668875808631428 0.012724701374078204 0 7.6930702561780261e-05 0.012852137603759091 0 7.7111227411504193e-05 0.01184790633541092 0 0.00047167741811658567 0.013812045440634862 0 0.00030293141463548522 0.012166274261593892 0 -0.00012540490331639084 0.012527400920019674 0 -2.541454256964281e-05 0.011966501715747639 0 -0.00012540490331639084 0.012527400920019674 0 -2.541454256964281e-05 0.011966501715747639 0 -0.00052135548527073986 0.012262720727449458 0 -0.0001279137569569441 0.012201846591560334 0 -0.00032098251057725651 0.012770822147038235 0 -0.00075798416221098896 0.012595269686648319 0 -0.00011439747490448409 0.0125128730527501 0 -0.00067917438893370951 0.012879114306593886 0 0.00047167741811658567 0.013812045440634862 0 -0.00032098251057725651 0.012770822147038235 0 0.00096638782868850158 0.013640127833529374 0 0.00034380074998126097 0.013215877717688991 0 0.000494394982566798 0.014026668471600754 0 0.00034380074998126097 0.013215877717688991 0 6.0964390744699781e-05 0.013722793291654666 0 -0.00037055268645649854 0.013647203027370745 0 -0.00032098251057725651 0.012770822147038235 0 -0.00048070753577513062 0.013525816300210896 0 0.00034380074998126097 0.013215877717688991 0 6.0964390744699781e-05 0.013722793291654666 0 0.000494394982566798 0.014026668471600754 0 -0.00032098251057725651 0.012770822147038235 0 -0.00089613921824291789 0.012856858118265778 0 -0.00075798416221098896 0.012595269686648319 0 -0.00067917438893370951 0.012879114306593886 0 -0.00084459458113559586 0.012805833616303539 0 0.0017187420980709035 0.011346092784751629 0 0.0010622196417642055 0.011313085154598265 0 0.0013544941909014684 0.011829227694540935 0 0.0017187420980709035 0.011346092784751629 0 0.0013544941909014684 0.011829227694540935 0 0.0018983518666461467 0.01174946821429312 0 0.0021795640005601372 0.011380534959656742 0 0.0017187420980709035 0.011346092784751629 0 0.0018983518666461467 0.01174946821429312 0 0.0023457053133616561 0.011700271626945117 0 0.0021795640005601372 0.011380534959656742 0 0.0018983518666461467 0.01174946821429312 0 0.0021795640005601372 0.011380534959656742 0 0.0022549992318001721 0.010920285032903612 0 0.0017187420980709035 0.011346092784751629 0 0.0022549992318001721 0.010920285032903612 0 0.001619877898897089 0.010811008498334067 0 0.0017187420980709035 0.011346092784751629 0 0.001619877898897089 0.010811008498334067 0 0.0017187420980709035 0.011346092784751629 0 0.0010622196417642055 0.011313085154598265 0 0.00055371644467929696 0.011102537696180517 0 0.0010622196417642055 0.011313085154598265 0 0.0005614201497833567 0.011680570266398054 0 0.00055371644467929696 0.011102537696180517 0 0.00020871843460536655 0.011401533936835693 0 0.0005614201497833567 0.011680570266398054 0 0.00030293141463548522 0.012166274261593892 0 0.0005614201497833567 0.011680570266398054 0 0.00091069757076756995 0.011785911566249828 0 0.0010622196417642055 0.011313085154598265 0 0.0005614201497833567 0.011680570266398054 0 0.00091069757076756995 0.011785911566249828 0 0.0010622196417642055 0.011313085154598265 0 0.00091069757076756995 0.011785911566249828 0 0.0013544941909014684 0.011829227694540935 0 0.00082405318463095868 0.012268218288729741 0 0.0012722018063072195 0.012340908700230654 0 0.0013544941909014684 0.011829227694540935 0 0.00091069757076756995 0.011785911566249828 0 0.00082405318463095868 0.012268218288729741 0 0.0013544941909014684 0.011829227694540935 0 0.00030293141463548522 0.012166274261593892 0 0.00091069757076756995 0.011785911566249828 0 0.00082405318463095868 0.012268218288729741 0 0.00030293141463548522 0.012166274261593892 0 0.00082405318463095868 0.012268218288729741 0 0.00037810186092922292 0.012553323264970724 0 0.00082405318463095868 0.012268218288729741 0 0.00067057207219996273 0.012611478998308775 0 0.00097118956366269043 0.012764887119524582 0 0.00082405318463095868 0.012268218288729741 0 0.00067057207219996273 0.012611478998308775 0 0.00037810186092922292 0.012553323264970724 0 0.00067057207219996273 0.012611478998308775 0 0.00037810186092922292 0.012553323264970724 0 0.00051602232354809748 0.012876166642136824 0 0.0012722018063072195 0.012340908700230654 0 0.0014970374337305984 0.012679908003286432 0 0.00097118956366269043 0.012764887119524582 0 0.00082405318463095868 0.012268218288729741 0 0.0012722018063072195 0.012340908700230654 0 0.00097118956366269043 0.012764887119524582 0 0.0017024957757153295 0.012228785797799919 0 0.0018266679651768574 0.012566180565944832 0 0.0014970374337305984 0.012679908003286432 0 0.0012722018063072195 0.012340908700230654 0 0.0017024957757153295 0.012228785797799919 0 0.0014970374337305984 0.012679908003286432 0 0.0017024957757153295 0.012228785797799919 0 0.0013544941909014684 0.011829227694540935 0 0.0018983518666461467 0.01174946821429312 0 0.0012722018063072195 0.012340908700230654 0 0.0017024957757153295 0.012228785797799919 0 0.0013544941909014684 0.011829227694540935 0 0.0023457053133616561 0.011700271626945117 0 0.0018983518666461467 0.01174946821429312 0 0.0021370242582163875 0.012073998548444868 0 0.0017024957757153295 0.012228785797799919 0 0.0018983518666461467 0.01174946821429312 0 0.0021370242582163875 0.012073998548444868 0 0.0017024957757153295 0.012228785797799919 0 0.0021370242582163875 0.012073998548444868 0 0.0021510523096176875 0.01239712947303543 0 0.0017024957757153295 0.012228785797799919 0 0.0018266679651768574 0.012566180565944832 0 0.0021510523096176875 0.01239712947303543 0 0.0019852048447236035 0.012740403728715542 0 0.0026495298009729536 0.012201079610607374 0 0.0025527892959364348 0.0122956297039486 0 0.0021510523096176875 0.01239712947303543 0 0.0019469562694211112 0.012779055373748693 0 0.0039061127776006043 0.010457222005946235 0 0.0038636447019419536 0.010522006609889912 0 0.0038081961461722052 0.010613357900852808 0 0.0018266679651768574 0.012566180565944832 0 0.0021510523096176875 0.01239712947303543 0 0.0019628260706237325 0.012998489325255819 0 0.0039061127776006043 0.010457222005946235 0 0.0038636447019419536 0.010522006609889912 0 0.0038670126836715104 0.010530870291994406 0 0.0038636447019419536 0.010522006609889912 0 0.0038670126836715104 0.010530870291994406 0 0.0038352491394810099 0.010495160980617398 0 0.0038670126836715104 0.010530870291994406 0 0.0038425371970282427 0.01051310941830608 0 0.0038352491394810099 0.010495160980617398 0 0.0038670126836715104 0.010530870291994406 0 0.0038425371970282427 0.01051310941830608 0 0.0037915747871317147 0.010639816562857755 0 0.0039061127776006043 0.010457222005946235 0 0.0038670126836715104 0.010530870291994406 0 0.0037915747871317147 0.010639816562857755 0 0.0038315863697079362 0.010473371955942336 0 0.0038425371970282427 0.01051310941830608 0 0.0037915747871317147 0.010639816562857755 0 0.0038315863697079362 0.010473371955942336 0 0.0037915747871317147 0.010639816562857755 0 0.0038381947458629847 0.010380172136451619 0 0.0038315863697079362 0.010473371955942336 0 0.0038425371970282427 0.01051310941830608 0 0.0038143397556596862 0.010448437187369548 0 0.0038425371970282427 0.01051310941830608 0 0.0038352491394810099 0.010495160980617398 0 0.0038143397556596862 0.010448437187369548 0 0.0039061127776006043 0.010457222005946235 0 0.0037915747871317147 0.010639816562857755 0 0.0035057745458302743 0.010790037814787899 0 0.0023793428032657083 0.012960725623324853 0 0.0018289586924130545 0.013839102197511419 0 0.0015196348382800549 0.013438838842205984 0 0.0026495298009729536 0.012201079610607374 0 0.0027119798612790279 0.012268157209568833 0 0.0018289586924130545 0.013839102197511419 0 0.0015196348382800549 0.013438838842205984 0 0.0012884007310851847 0.014011263373843674 0 0.0037915747871317147 0.010639816562857755 0 0.0035057745458302743 0.010790037814787899 0 0.0037535419112197737 0.011189041259946629 0 0.0026495298009729536 0.012201079610607374 0 0.0013192839702809737 0.013555163979375829 0 0.0019628260706237325 0.012998489325255819 0 0.0014087206997643595 0.013032870074750182 0 0.0014970374337305984 0.012679908003286432 0 0.0019628260706237325 0.012998489325255819 0 0.0015196348382800549 0.013438838842205984 0 0.0014087206997643595 0.013032870074750182 0 0.0018266679651768574 0.012566180565944832 0 0.0019628260706237325 0.012998489325255819 0 0.0014970374337305984 0.012679908003286432 0 0.0014087206997643595 0.013032870074750182 0 0.0014970374337305984 0.012679908003286432 0 0.00097118956366269043 0.012764887119524582 0 0.0014087206997643595 0.013032870074750182 0 0.00097118956366269043 0.012764887119524582 0 0.0010246385003587939 0.013285267825976449 0 0.00097118956366269043 0.012764887119524582 0 0.0010246385003587939 0.013285267825976449 0 0.00072005464920511678 0.013134099867710117 0 0.0015196348382800549 0.013438838842205984 0 0.0014087206997643595 0.013032870074750182 0 0.0010246385003587939 0.013285267825976449 0 0.00037810186092922292 0.012553323264970724 0 0.00051602232354809748 0.012876166642136824 0 0.0002192011384453706 0.012962412029722927 0 0.00067057207219996273 0.012611478998308775 0 0.00097118956366269043 0.012764887119524582 0 0.00051602232354809748 0.012876166642136824 0 0.00097118956366269043 0.012764887119524582 0 0.00051602232354809748 0.012876166642136824 0 0.00072005464920511678 0.013134099867710117 0 0.00051602232354809748 0.012876166642136824 0 0.00072005464920511678 0.013134099867710117 0 0.00036146847269774752 0.013220014992888321 0 0.00051602232354809748 0.012876166642136824 0 0.00036146847269774752 0.013220014992888321 0 0.0002192011384453706 0.012962412029722927 0 0.00072005464920511678 0.013134099867710117 0 0.00036146847269774752 0.013220014992888321 0 0.00063088527628258283 0.01359388199960386 0 0.00063088527628258283 0.01359388199960386 0 0.00076732024504145191 0.014244828827495034 0 -0.00028507959341561741 0.014040079841677794 0 0.00036146847269774752 0.013220014992888321 0 0.00063088527628258283 0.01359388199960386 0 -0.00028507959341561741 0.014040079841677794 0 0.0010246385003587939 0.013285267825976449 0 0.00072005464920511678 0.013134099867710117 0 0.00063088527628258283 0.01359388199960386 0 0.0010246385003587939 0.013285267825976449 0 0.00063088527628258283 0.01359388199960386 0 0.00094452106098361999 0.01377184805281725 0 0.00063088527628258283 0.01359388199960386 0 0.00094452106098361999 0.01377184805281725 0 0.00076732024504145191 0.014244828827495034 0 0.0015196348382800549 0.013438838842205984 0 0.0010246385003587939 0.013285267825976449 0 0.00094452106098361999 0.01377184805281725 0 0.0015196348382800549 0.013438838842205984 0 0.00094452106098361999 0.01377184805281725 0 0.0012884007310851847 0.014011263373843674 0 0.00094452106098361999 0.01377184805281725 0 0.0012884007310851847 0.014011263373843674 0 0.00076732024504145191 0.014244828827495034 0 0.0012884007310851847 0.014011263373843674 0 0.0013900052196959718 0.014544673832223763 0 0.00076732024504145191 0.014244828827495034 0 0.00076732024504145191 0.014244828827495034 0 0.00038185054265857106 0.015178245532477737 0 -0.00028507959341561741 0.014040079841677794 0 0.00076732024504145191 0.014244828827495034 0 0.00038185054265857106 0.015178245532477737 0 0.001474279258884 0.016338817354881883 0 0.00038185054265857106 0.015178245532477737 0 0.00065827120489431884 0.016152640377136096 0 -0.00049184665083164129 0.015430139081621783 0 0.00077664451131293725 0.014400421531793366 0 0.0013664106047476343 0.015508421492187932 0 0.00038185054265857106 0.015178245532477737 0 0.00065827120489431884 0.016152640377136096 0 0.001474279258884 0.016338817354881883 0 0.002093428719950296 0.013069585237184015 0 0.0013664106047476343 0.015508421492187932 0 0.0013900052196959718 0.014544673832223763 0 0.00076732024504145191 0.014244828827495034 0 0.001039975179343748 0.015117304904368764 0 0.0026320817896707837 0.011971136668715406 0 0.0026613204336337635 0.013001888194479835 0 0.0018190075378590532 0.013260754126699853 0 0.0026613204336337635 0.013001888194479835 0 0.0035232508080222848 0.012909763922075849 0 0.0030007863168135642 0.013421844420746218 0 0.0026613204336337635 0.013001888194479835 0 0.0032176574743529849 0.012293820254084709 0 0.0035232508080222848 0.012909763922075849 0 0.0026320817896707837 0.011971136668715406 0 0.0026613204336337635 0.013001888194479835 0 0.0032176574743529849 0.012293820254084709 0 0.0032176574743529849 0.012293820254084709 0 0.0037277647337893346 0.012063728717716698 0 0.0035232508080222848 0.012909763922075849 0 0.0037277647337893346 0.012063728717716698 0 0.0035232508080222848 0.012909763922075849 0 0.0042020912178208436 0.012107633783495286 0 0.0037014602867234182 0.013155095323385864 0 0.004848679378298356 0.010707517798087388 0 0.0035232508080222848 0.012909763922075849 0 0.0042020912178208436 0.012107633783495286 0 0.0051488165866629861 0.011746997289598705 0 0.0035232508080222848 0.012909763922075849 0 0.0045544709064950844 0.012762580875095294 0 0.0054735229156239792 0.01164534251622756 0 0.0044914811172390703 0.012140022111804224 0 0.004848679378298356 0.010707517798087388 0 0.0037277647337893346 0.012063728717716698 0 0.0041319610050839567 0.011812822428428819 0 0.0038253982914039212 0.011614546163180148 0 0.0037915747871317147 0.010639816562857755 0 0.004387679474258617 0.011466891250907753 0 0.0049624069798169263 0.011573376721684946 0 0.0037915747871317147 0.010639816562857755 0 0.0038381947458629847 0.010380172136451619 0 0.0038505270128290814 0.010322007971542755 0 0.003817360990234768 0.010663318629952664 0 0.0045572405568896617 0.010786132455290925 0 0.0037277647337893346 0.012063728717716698 0 0.0042020912178208436 0.012107633783495286 0 0.0041319610050839567 0.011812822428428819 0 0.0041319610050839567 0.011812822428428819 0 0.0045077252224211342 0.011839562781470331 0 0.0043813758065785243 0.011706690477533884 0 0.0042020912178208436 0.012107633783495286 0 0.0041319610050839567 0.011812822428428819 0 0.0045077252224211342 0.011839562781470331 0 0.0041319610050839567 0.011812822428428819 0 0.0043813758065785243 0.011706690477533884 0 0.0041581040143045239 0.011449531154512294 0 0.0043813758065785243 0.011706690477533884 0 0.004387679474258617 0.011466891250907753 0 0.0041581040143045239 0.011449531154512294 0 0.0041319610050839567 0.011812822428428819 0 0.0041581040143045239 0.011449531154512294 0 0.0038253982914039212 0.011614546163180148 0 0.004387679474258617 0.011466891250907753 0 0.0051488165866629861 0.011746997289598705 0 0.0049624069798169263 0.011573376721684946 0 0.0042020912178208436 0.012107633783495286 0 0.0045077252224211342 0.011839562781470331 0 0.0051488165866629861 0.011746997289598705 0 0.0045077252224211342 0.011839562781470331 0 0.004387679474258617 0.011466891250907753 0 0.0051488165866629861 0.011746997289598705 0 0.0045077252224211342 0.011839562781470331 0 0.0043813758065785243 0.011706690477533884 0 0.004387679474258617 0.011466891250907753 0 0.0038315863697079362 0.010473371955942336 0 0.0038381947458629847 0.010380172136451619 0 0.003810442326166852 0.010398366856770718 0 0.0037915747871317147 0.010639816562857755 0 0.0041581040143045239 0.011449531154512294 0 0.0037535419112197737 0.011189041259946629 0 0.0037915747871317147 0.010639816562857755 0 0.004387679474258617 0.011466891250907753 0 0.0041581040143045239 0.011449531154512294 0 0.0041581040143045239 0.011449531154512294 0 0.0037535419112197737 0.011189041259946629 0 0.0038253982914039212 0.011614546163180148 0 0.0035057745458302743 0.010790037814787899 0 0.0037535419112197737 0.011189041259946629 0 0.0034174658494651971 0.011599078206808991 0 0.0027119798612790279 0.012268157209568833 0 0.002093428719950296 0.013069585237184015 0 0.0018289586924130545 0.013839102197511419 0 0.0012884007310851847 0.014011263373843674 0 0.0013900052196959718 0.014544673832223763 0 0.0035057745458302743 0.010790037814787899 0 0.0026320817896707837 0.011971136668715406 0 0.0034174658494651971 0.011599078206808991 0 0.0037535419112197737 0.011189041259946629 0 0.0038253982914039212 0.011614546163180148 0 0.0034174658494651971 0.011599078206808991 0 0.0026320817896707837 0.011971136668715406 0 0.0032176574743529849 0.012293820254084709 0 0.0034174658494651971 0.011599078206808991 0 0.0032176574743529849 0.012293820254084709 0 0.0037277647337893346 0.012063728717716698 0 0.0034174658494651971 0.011599078206808991 0 0.0037277647337893346 0.012063728717716698 0 0.0038253982914039212 0.011614546163180148 0 0.0034174658494651971 0.011599078206808991 0 3.0534966234943536e-06 0.014531541533924811 0 0.000494394982566798 0.014026668471600754 0 -0.00019410175916033954 0.014005234101440523 0 -0.0034219517089292464 0.020561975722955289 0 -0.00075282691310129114 0.02128267527976014 0 -0.0022566890737197149 0.022149745919426221 0 -0.001927312332771407 0.017590801351361679 0 -0.00028430598467602924 0.016455824258251581 0 -0.0034219517089292464 0.020561975722955289 0 -0.0011233750582168342 0.018678696854910921 0 -0.00075282691310129114 0.02128267527976014 0 6.0964390744699781e-05 0.013722793291654666 0 0.000494394982566798 0.014026668471600754 0 -0.00019410175916033954 0.014005234101440523 0 0.00047167741811658567 0.013812045440634862 0 -0.00028430598467602924 0.016455824258251581 0 0.0011904294592653107 0.016807343661940529 0 -0.0011233750582168342 0.018678696854910921 0 0.0013526297061038361 0.019886938389726997 0 -0.0011233750582168342 0.018678696854910921 0 -0.00075282691310129114 0.02128267527976014 0 0.0013526297061038361 0.019886938389726997 0 -0.00075282691310129114 0.02128267527976014 0 0.0013526297061038361 0.019886938389726997 0 0.0012983724703506641 0.022559638905058098 0 0.0013526297061038361 0.019886938389726997 0 0.0037391788757446761 0.021455164413532457 0 0.0012983724703506641 0.022559638905058098 0 0.00047167741811658567 0.013812045440634862 0 0.001428776313523258 0.015399876072121026 0 0.0011904294592653107 0.016807343661940529 0 0.0013526297061038361 0.019886938389726997 0 0.0037669862782474979 0.018543674976078714 0 -0.00047668875808631428 0.012724701374078204 0 7.8257856012858815e-05 0.013102321685247616 0 7.6930702561780261e-05 0.012852137603759091 0 0.001428776313523258 0.015399876072121026 0 0.00084151759394891648 0.013119779503910547 0 -2.3237510026649147e-05 0.013123717436424081 0 7.6930702561780261e-05 0.012852137603759091 0 0.0002192011384453706 0.012962412029722927 0 0.00037810186092922292 0.012553323264970724 0 7.6930702561780261e-05 0.012852137603759091 0 0.0002192011384453706 0.012962412029722927 0 0.00036146847269774752 0.013220014992888321 0 0.0002192011384453706 0.012962412029722927 0 2.172502490891598e-05 0.013176580607323742 0 -2.3237510026649147e-05 0.013123717436424081 0 0.0002192011384453706 0.012962412029722927 0 2.172502490891598e-05 0.013176580607323742 0 0.001428776313523258 0.015399876072121026 0 0.00099360757360349183 0.015021283819890489 0 0.00036146847269774752 0.013220014992888321 0 2.172502490891598e-05 0.013176580607323742 0 -0.00028507959341561741 0.014040079841677794 0 0.0013526297061038361 0.019886938389726997 0 0.0037669862782474979 0.018543674976078714 0 0.0037391788757446761 0.021455164413532457 0 -6.6101557524635463e-05 0.013112026583800706 0 2.172502490891598e-05 0.013176580607323742 0 -0.00028507959341561741 0.014040079841677794 0 0.001428776313523258 0.015399876072121026 0 0.0017440544592955635 0.017924162255948253 0 0.00038185054265857106 0.015178245532477737 0 -0.00028507959341561741 0.014040079841677794 0 -0.00049184665083164129 0.015430139081621783 0 0.0037391788757446761 0.021455164413532457 0 0.0037043183236555488 0.024379144759672754 0 0.0012983724703506641 0.022559638905058098 0 0.0017440544592955635 0.017924162255948253 0 0.0016775117719474532 0.01953361861325964 0 0.0037043183236555488 0.024379144759672754 0 0.0016572419474434662 0.025635092384383062 0 0.0036822891101528695 0.027334396936839027 0 0.0016775117719474532 0.01953361861325964 0 0.00037128321113233864 0.024071218460226376 0 0.00065827120489431884 0.016152640377136096 0 -0.00049184665083164129 0.015430139081621783 0 -4.3818442333783425e-05 0.016619795933321403 0 0.0037043183236555488 0.024379144759672754 0 0.0016572419474434662 0.025635092384383062 0 0.00099780401547186807 0.024378029406771515 0 0.0037043183236555488 0.024379144759672754 0 0.00099780401547186807 0.024378029406771515 0 0.0012983724703506641 0.022559638905058098 0 0.0016572419474434662 0.025635092384383062 0 0.00099780401547186807 0.024378029406771515 0 -0.00034847519833478181 0.025551411730055193 0 0.0016572419474434662 0.025635092384383062 0 -0.00034847519833478181 0.025551411730055193 0 0.0010997624199165328 0.026501730514797275 0 -0.00075282691310129114 0.02128267527976014 0 0.0012983724703506641 0.022559638905058098 0 -0.0012861854525330597 0.023775994230195996 0 -0.00075282691310129114 0.02128267527976014 0 -0.0012861854525330597 0.023775994230195996 0 -0.0022566890737197149 0.022149745919426221 0 0.00099780401547186807 0.024378029406771515 0 0.0012983724703506641 0.022559638905058098 0 -0.0012861854525330597 0.023775994230195996 0 0.00099780401547186807 0.024378029406771515 0 -0.0012861854525330597 0.023775994230195996 0 -0.00034847519833478181 0.025551411730055193 0 -0.0012861854525330597 0.023775994230195996 0 -0.00034847519833478181 0.025551411730055193 0 -0.0021475463618454743 0.025650740591075253 0 -0.00034847519833478181 0.025551411730055193 0 -0.0021475463618454743 0.025650740591075253 0 -0.0016594288314361863 0.026803556635826564 0 -0.0012861854525330597 0.023775994230195996 0 -0.0021475463618454743 0.025650740591075253 0 -0.0034663521099686572 0.024685347568627131 0 -0.0021475463618454743 0.025650740591075253 0 -0.0034663521099686572 0.024685347568627131 0 -0.0043047746823097147 0.02731044301482052 0 -0.0034219517089292464 0.020561975722955289 0 -0.0022566890737197149 0.022149745919426221 0 -0.0035645491400398445 0.022972097944356975 0 -0.0012861854525330597 0.023775994230195996 0 -0.0034663521099686572 0.024685347568627131 0 -0.0035645491400398445 0.022972097944356975 0 -0.0012861854525330597 0.023775994230195996 0 -0.0022566890737197149 0.022149745919426221 0 -0.0035645491400398445 0.022972097944356975 0 -0.0017871623020990709 0.028962771632672697 0 -0.0013254939663054476 0.028667998819889639 0 -0.0020536179506660261 0.028305491000183668 0 -0.0013254939663054476 0.028667998819889639 0 -0.0010770266865511306 0.027948435457362152 0 -0.0020536179506660261 0.028305491000183668 0 -0.0010277365355812825 0.028043999248020198 0 -0.003544317034863232 0.027584233012316751 0 -0.0021475463618454743 0.025650740591075253 0 -0.0016594288314361863 0.026803556635826564 0 -0.0043047746823097147 0.02731044301482052 0 -0.0016594288314361863 0.026803556635826564 0 -0.0010770266865511306 0.027948435457362152 0 -0.0043047746823097147 0.02731044301482052 0 -0.0016594288314361863 0.026803556635826564 0 -0.0010770266865511306 0.027948435457362152 0 -0.00056411543190873741 0.027496931914631113 0 -0.00034847519833478181 0.025551411730055193 0 -0.0016594288314361863 0.026803556635826564 0 -0.00056411543190873741 0.027496931914631113 0 -0.00034847519833478181 0.025551411730055193 0 -0.00056411543190873741 0.027496931914631113 0 0.0010997624199165328 0.026501730514797275 0 -0.0013254939663054476 0.028667998819889639 0 -0.0010770266865511306 0.027948435457362152 0 -0.00070526101947009936 0.028888347153994597 0 -0.0010770266865511306 0.027948435457362152 0 -0.00056411543190873741 0.027496931914631113 0 -0.00070526101947009936 0.028888347153994597 0 -0.00056411543190873741 0.027496931914631113 0 -0.00070526101947009936 0.028888347153994597 0 -0.00010951927054838661 0.027362020492479183 0 -0.00018781692535073743 0.02739065154760047 0 -3.9886107766239824e-05 0.027315171891766361 0 3.5242355628503085e-05 0.027417873476288941 0 -0.00047595430742638166 0.028117154848432975 0 -0.00012571328376082929 0.027472823836297892 0 -0.00018781692535073743 0.02739065154760047 0 -3.9886107766239824e-05 0.027315171891766361 0 -0.00010951927054838661 0.027362020492479183 0 -3.9886107766239824e-05 0.027315171891766361 0 -0.00010951927054838661 0.027362020492479183 0 8.73840428786178e-05 0.027142628055000492 0 0.00024299860862111165 0.028309927713588368 0 0.00037128321113233864 0.024071218460226376 0 -0.00056411543190873741 0.027496931914631113 0 -0.00010951927054838661 0.027362020492479183 0 0.00022435192887376181 0.02709690908579572 0 -0.00056411543190873741 0.027496931914631113 0 0.0010997624199165328 0.026501730514797275 0 0.0036822891101528695 0.027334396936839027 0 0.0016572419474434662 0.025635092384383062 0 0.0010997624199165328 0.026501730514797275 0 0.0036822891101528695 0.027334396936839027 0 -0.00010951927054838661 0.027362020492479183 0 0.00022435192887376181 0.02709690908579572 0 8.73840428786178e-05 0.027142628055000492 0 -0.00049184665083164129 0.015430139081621783 0 -0.00058542918640849253 0.017050579921002364 0 -4.3818442333783425e-05 0.016619795933321403 0 0.00037128321113233864 0.024071218460226376 0 0.0002530053893472755 0.026731810358593237 0 0.00012059434176517977 0.027022909294185493 0 8.73840428786178e-05 0.027142628055000492 0 6.2217761136331565e-05 0.026853657665275709 0 0.00015553001958120186 0.026169303541144003 0 0.00052642423409333049 0.025965601860304409 0 6.2217761136331565e-05 0.026853657665275709 0 0.00024728721681289636 0.02669625885869888 0 5.0530450618449156e-05 0.026876667611645203 0 8.73840428786178e-05 0.027142628055000492 0 3.5242355628503085e-05 0.027417873476288941 0 6.2217761136331565e-05 0.026853657665275709 0 -3.9886107766239824e-05 0.027315171891766361 0 8.73840428786178e-05 0.027142628055000492 0 3.5242355628503085e-05 0.027417873476288941 0 0.0002254265423333957 0.025730399259005721 0 0.00044945250003783675 0.0255259746262812 0 0.00052642423409333049 0.025965601860304409 0 0.00015553001958120186 0.026169303541144003 0 0.0002254265423333957 0.025730399259005721 0 0.00052642423409333049 0.025965601860304409 0 0.0002254265423333957 0.025730399259005721 0 0.00044945250003783675 0.0255259746262812 0 0.00022234033871794685 0.025300778478335981 0 0.00044945250003783675 0.0255259746262812 0 0.00049981580271175148 0.025301431275731884 0 0.00022234033871794685 0.025300778478335981 0 0.00044945250003783675 0.0255259746262812 0 0.0005809499893556035 0.025426417905120392 0 0.00049981580271175148 0.025301431275731884 0 -0.00018781692535073743 0.02739065154760047 0 3.5242355628503085e-05 0.027417873476288941 0 -0.00016563223994617738 0.027621628017265344 0 0.00024728721681289636 0.02669625885869888 0 0.00018168738513137147 0.026559280895203336 0 0.00044945250003783675 0.0255259746262812 0 0.00052642423409333049 0.025965601860304409 0 0.0005809499893556035 0.025426417905120392 0 -0.00018781692535073743 0.02739065154760047 0 -0.00016563223994617738 0.027621628017265344 0 -0.00039185403730443907 0.02760122576594352 0 -0.00047595430742638166 0.028117154848432975 0 -0.00096335923271669997 0.028675510964345893 0 -0.0013254939663054476 0.028667998819889639 0 -0.00070526101947009936 0.028888347153994597 0 -0.0015566349715725497 0.029785227762106289 0 0.00018168738513137147 0.026559280895203336 0 -3.5021545079457437e-05 0.026514109203562949 0 0.0005809499893556035 0.025426417905120392 0 0.00045845131616544492 0.025323730130653074 0 0.00049981580271175148 0.025301431275731884 0 0.0005809499893556035 0.025426417905120392 0 0.00029198949574925966 0.025286225000422519 0 0.00045845131616544492 0.025323730130653074 0 -0.00096335923271669997 0.028675510964345893 0 -0.0013975324286216622 0.029020131872576859 0 -0.00016563223994617738 0.027621628017265344 0 -0.00039185403730443907 0.02760122576594352 0 -0.00045016802356055501 0.027900796647956565 0 -0.0015566349715725497 0.029785227762106289 0 -0.0021438043945040883 0.029823290313822151 0 -0.0021540250267624949 0.030174355779394882 0 -0.00039185403730443907 0.02760122576594352 0 -0.0006225077152836085 0.027863219489400608 0 -0.00045016802356055501 0.027900796647956565 0 -0.0017871623020990709 0.028962771632672697 0 -0.0015566349715725497 0.029785227762106289 0 -0.002107380594480865 0.029457784728877882 0 -0.0017871623020990709 0.028962771632672697 0 -0.0013254939663054476 0.028667998819889639 0 -0.0015566349715725497 0.029785227762106289 0 -0.0015566349715725497 0.029785227762106289 0 -0.002107380594480865 0.029457784728877882 0 -0.0021438043945040883 0.029823290313822151 0 0.0046403672569325996 0.02038770049957633 0 0.0040753903194298167 0.019419339962867238 0 0.0027873398970804986 0.020662439083734566 0 0.0036284062787262342 0.01714007789903366 0 0.0018333129676444038 0.023124320691164036 0 0.0046403672569325996 0.02038770049957633 0 0.0048421570604095902 0.01979024084863671 0 0.0040753903194298167 0.019419339962867238 0 0.0046403672569325996 0.02038770049957633 0 0.0049192853935601322 0.020213749908788489 0 0.0048421570604095902 0.01979024084863671 0 0.0039494069055875467 0.014686985008115111 0 0.0052416241201915402 0.01187855361006666 0 0.004240353076759947 0.011702326688170755 0 0.0034065824335985755 0.012705075196880985 0 0.0055063122733618628 0.012654041016502707 0 0.004605464843252925 0.014804626747777109 0 0.0041688070883443163 0.014629080774814077 0 0.0051114653785346142 0.014578926728160416 0 0.0048713290170631892 0.017217472729725146 0 0.0036284062787262342 0.01714007789903366 0 0.0044914811172390703 0.012140022111804224 0 0.0039494069055875467 0.014686985008115111 0 0.0036284062787262342 0.01714007789903366 0 0.0021889210662783794 0.017389224486801892 0 0.004605464843252925 0.014804626747777109 0 0.0041688070883443163 0.014629080774814077 0 0.0040832245098697487 0.014734829492544562 0 0.0036192307854462842 0.016318187887121471 0 0.003450854042470496 0.0165207469238694 0 0.0023940003142326883 0.016360269081233968 0 0.0036982408514073168 0.013789885681242146 0 0.0030007863168135642 0.013421844420746218 0 0.0023230119607902076 0.013824657965756505 0 0.0039494069055875467 0.014686985008115111 0 0.0021889210662783794 0.017389224486801892 0 0.0035232508080222848 0.012909763922075849 0 0.0045544709064950844 0.012762580875095294 0 0.0036982408514073168 0.013789885681242146 0 0.0035232508080222848 0.012909763922075849 0 0.0036982408514073168 0.013789885681242146 0 0.0030007863168135642 0.013421844420746218 0 0.0039494069055875467 0.014686985008115111 0 0.0036284062787262342 0.01714007789903366 0 0.0026613204336337635 0.013001888194479835 0 0.0030007863168135642 0.013421844420746218 0 0.0022575915895677069 0.013434818409748391 0 0.0030007863168135642 0.013421844420746218 0 0.0022575915895677069 0.013434818409748391 0 0.0023230119607902076 0.013824657965756505 0 0.0026613204336337635 0.013001888194479835 0 0.0022575915895677069 0.013434818409748391 0 0.0018190075378590532 0.013260754126699853 0 0.0013664106047476343 0.015508421492187932 0 0.0013034023941592748 0.019739343827312496 0 0.0011739350503896511 0.017473536489187213 0 0.001471509445785468 0.018583630262764599 0 0.00065803338732967705 0.018314662069779674 0 0.0013664106047476343 0.015508421492187932 0 0.00093925949874987746 0.018802075729410363 0 0.0022575915895677069 0.013434818409748391 0 0.0019718771542957814 0.013838754262704128 0 0.0023230119607902076 0.013824657965756505 0 0.0022575915895677069 0.013434818409748391 0 0.0018190075378590532 0.013260754126699853 0 0.0019718771542957814 0.013838754262704128 0 0.0013034023941592748 0.019739343827312496 0 0.0021889210662783794 0.017389224486801892 0 0.0013034023941592748 0.019739343827312496 0 0.00093925949874987746 0.018802075729410363 0 0.0013034023941592748 0.019739343827312496 0 0.0003291865248767197 0.021454815077441982 0 -0.00058542918640849253 0.017050579921002364 0 -4.3818442333783425e-05 0.016619795933321403 0 0.0012154510891583855 0.017062104960871443 0 8.5116435313231116e-05 0.016659157997174035 0 0.00093925949874987746 0.018802075729410363 0 0.00012059434176517977 0.027022909294185493 0 -3.858915284365055e-05 0.026816752395570999 0 6.2217761136331565e-05 0.026853657665275709 0 0.00037128321113233864 0.024071218460226376 0 0.0003291865248767197 0.021454815077441982 0 -4.3818442333783425e-05 0.016619795933321403 0 0.0013134606756252667 0.016904635321028559 0 0.0012154510891583855 0.017062104960871443 0 -4.3818442333783425e-05 0.016619795933321403 0 0.00097732136254036358 0.016404467177417972 0 0.0011977929081907455 0.016783635760229492 0 0.00065827120489431884 0.016152640377136096 0 -4.3818442333783425e-05 0.016619795933321403 0 0.00097732136254036358 0.016404467177417972 0 0.00065827120489431884 0.016152640377136096 0 0.001474279258884 0.016338817354881883 0 0.00097732136254036358 0.016404467177417972 0 0.001474279258884 0.016338817354881883 0 0.00097732136254036358 0.016404467177417972 0 0.0011977929081907455 0.016783635760229492 0 -3.858915284365055e-05 0.026816752395570999 0 -7.4478104614013986e-05 0.026775075439057005 0 6.2217761136331565e-05 0.026853657665275709 0 -0.00043624736560526417 0.026891708420942139 0 -0.00017613311413826937 0.026906767668350123 0 -7.4478104614013986e-05 0.026775075439057005 0 0.00070305240941426921 0.020246192737813747 0 0.001523823081323936 0.020519459827430728 0 0.0016987352376555864 0.020236886301040861 0 0.00093925949874987746 0.018802075729410363 0 0.0003291865248767197 0.021454815077441982 0 0.0003291865248767197 0.021454815077441982 0 -0.00073351379558364842 0.024200402441865537 0 -0.00043624736560526417 0.026891708420942139 0 -7.4478104614013986e-05 0.026775075439057005 0 -0.00025906690025954878 0.026294699677991005 0 -7.4478104614013986e-05 0.026775075439057005 0 6.2217761136331565e-05 0.026853657665275709 0 -2.8328268843231904e-05 0.026409916450616449 0 0.00015553001958120186 0.026169303541144003 0 6.2217761136331565e-05 0.026853657665275709 0 -2.8328268843231904e-05 0.026409916450616449 0 -7.4478104614013986e-05 0.026775075439057005 0 -2.8328268843231904e-05 0.026409916450616449 0 -0.00025906690025954878 0.026294699677991005 0 -2.8328268843231904e-05 0.026409916450616449 0 -0.00025906690025954878 0.026294699677991005 0 -7.9617543121594116e-06 0.026040944371419943 0 0.00015553001958120186 0.026169303541144003 0 -2.8328268843231904e-05 0.026409916450616449 0 -7.9617543121594116e-06 0.026040944371419943 0 -0.00043624736560526417 0.026891708420942139 0 -0.00025906690025954878 0.026294699677991005 0 -0.00063478768576524889 0.026147608652306854 0 0.0013034023941592748 0.019739343827312496 0 0.0018333129676444038 0.023124320691164036 0 0.004038953613925666 0.019128347636057592 0 0.0017140380068506797 0.018738554198777315 0 0.001832383655195175 0.021759586236088303 0 0.0010220735134977409 0.018750867559901869 0 0.0017140380068506797 0.018738554198777315 0 0.001832383655195175 0.021759586236088303 0 0.0018333129676444038 0.023124320691164036 0 0.00069343665561648511 0.024194621492474096 0 -0.00025906690025954878 0.026294699677991005 0 -0.00063478768576524889 0.026147608652306854 0 -0.00015624029654823744 0.025630897544057108 0 0.0027876770041350266 0.021249194724817153 0 0.0017875689275585283 0.022467941008063194 0 0.0031815080082229392 0.022534546929161629 0 0.0018333129676444038 0.023124320691164036 0 0.0031166753452871302 0.021709724180176741 0 -0.00025906690025954878 0.026294699677991005 0 -7.9617543121594116e-06 0.026040944371419943 0 -0.00015624029654823744 0.025630897544057108 0 0.00015553001958120186 0.026169303541144003 0 0.0002254265423333957 0.025730399259005721 0 -7.9617543121594116e-06 0.026040944371419943 0 0.0002254265423333957 0.025730399259005721 0 -7.9617543121594116e-06 0.026040944371419943 0 -0.00015624029654823744 0.025630897544057108 0 0.0002254265423333957 0.025730399259005721 0 -0.00015624029654823744 0.025630897544057108 0 0.00022234033871794685 0.025300778478335981 0 0.00069343665561648511 0.024194621492474096 0 0.00063425836927161596 0.024555723321609092 0 0.0017875689275585283 0.022467941008063194 0 0.0017595307569912035 0.02365613751388378 0 0.00094317602979510334 0.02386844636944294 0 0.0017875689275585283 0.022467941008063194 0 0.0017595307569912035 0.02365613751388378 0 0.0024030432793096467 0.023157423924750443 0 0.0017875689275585283 0.022467941008063194 0 0.0031815080082229392 0.022534546929161629 0 0.0024030432793096467 0.023157423924750443 0 0.0017595307569912035 0.02365613751388378 0 0.0024030432793096467 0.023157423924750443 0 0.0023794295763899312 0.02374609756248405 0 0.0024030432793096467 0.023157423924750443 0 0.0029756344489732722 0.023479710232646906 0 0.0023794295763899312 0.02374609756248405 0 0.0031815080082229392 0.022534546929161629 0 0.0024030432793096467 0.023157423924750443 0 0.0029756344489732722 0.023479710232646906 0 0.0031815080082229392 0.022534546929161629 0 0.0029756344489732722 0.023479710232646906 0 0.0038713216545030668 0.023387350172691876 0 0.0029756344489732722 0.023479710232646906 0 0.0038713216545030668 0.023387350172691876 0 0.0033165979227493259 0.023984264561034849 0 0.0038713216545030668 0.023387350172691876 0 0.0041623523494180806 0.022534602988758427 0 0.005275358289236305 0.023681191353369772 0 0.0031815080082229392 0.022534546929161629 0 0.0038713216545030668 0.023387350172691876 0 0.0041623523494180806 0.022534602988758427 0 0.0046403672569325996 0.02038770049957633 0 0.0027873398970804986 0.020662439083734566 0 0.0039469021930160046 0.021544197754545812 0 0.0046403672569325996 0.02038770049957633 0 0.0039469021930160046 0.021544197754545812 0 0.0050319904583563443 0.022127969550789075 0 0.0027873398970804986 0.020662439083734566 0 0.0031815080082229392 0.022534546929161629 0 0.0039469021930160046 0.021544197754545812 0 0.0031815080082229392 0.022534546929161629 0 0.0041623523494180806 0.022534602988758427 0 0.0039469021930160046 0.021544197754545812 0 0.0041623523494180806 0.022534602988758427 0 0.0039469021930160046 0.021544197754545812 0 0.0050319904583563443 0.022127969550789075 0 0.0046470628409107191 0.020226013871404717 0 0.0050207537092218811 0.021989193023814874 0 0.0049192853935601322 0.020213749908788489 0 0.0047869989200763942 0.020431059681344246 0 0.0050103811607815525 0.020328344760635355 0 0.0046403672569325996 0.02038770049957633 0 0.0049192853935601322 0.020213749908788489 0 0.0047869989200763942 0.020431059681344246 0 0.0050207537092218811 0.021989193023814874 0 0.0042206296641022767 0.018086195304565809 0 0.0041623523494180806 0.022534602988758427 0 0.0050319904583563443 0.022127969550789075 0 0.005275358289236305 0.023681191353369772 0 0.0047869989200763942 0.020431059681344246 0 0.0048881766704898999 0.020427282781325596 0 0.0048446597513952649 0.020462850771665569 0 0.0030608939522571346 0.012681860463151262 0 0.0046486353393452497 0.01572445299769671 0 0.0040161641102779205 0.0090499976012967578 0 0.0038207786188959743 0.0094285125364907494 0 0.0040941753993609447 0.0097805440765704656 0 0.0048881766704898999 0.020427282781325596 0 0.0049371448266086098 0.020428022411595886 0 0.0048446597513952649 0.020462850771665569 0 0.0048881766704898999 0.020427282781325596 0 0.0049371448266086098 0.020428022411595886 0 0.0050103811607815525 0.020328344760635355 0 0.0030608939522571346 0.012681860463151262 0 0.0042206296641022767 0.018086195304565809 0 0.0040161641102779205 0.0090499976012967578 0 0.0033945047484905374 0.0090739310708951946 0 0.0036783970942025437 0.0091387685486535915 0 0.0022240515654127491 0.0078125540004948899 0 0.0019296324653814687 0.007811767168041394 0 0.0020822384100379868 0.0077248201051359437 0 0.0030608939522571346 0.012681860463151262 0 0.0027049167554992933 0.0084149309450781765 0 0.0033945047484905374 0.0090739310708951946 0 0.0036783970942025437 0.0091387685486535915 0 0.0032160580556587857 0.0091825682203848236 0 0.0036423414148737117 0.009119219697409961 0 0.0030816646245400937 0.0091057280053061847 0 0.0040161641102779205 0.0090499976012967578 0 0.0036783970942025437 0.0091387685486535915 0 0.0038207786188959743 0.0094285125364907494 0 0.0036783970942025437 0.0091387685486535915 0 0.0038207786188959743 0.0094285125364907494 0 0.0035518605152366945 0.0095497839247623683 0 0.0036783970942025437 0.0091387685486535915 0 0.0034274723238840268 0.0093754606127825994 0 0.0035518605152366945 0.0095497839247623683 0 0.0036783970942025437 0.0091387685486535915 0 0.0034274723238840268 0.0093754606127825994 0 0.0032075202340095177 0.0092722361728466464 0 0.0034274723238840268 0.0093754606127825994 0 0.0035518605152366945 0.0095497839247623683 0 0.0032791622096975119 0.0095352040684955376 0 0.0035518605152366945 0.0095497839247623683 0 0.0034147069510917704 0.0099178698220737695 0 0.0032791622096975119 0.0095352040684955376 0 0.0035518605152366945 0.0095497839247623683 0 0.0037649088180406812 0.0096336768554787303 0 0.0034147069510917704 0.0099178698220737695 0 0.0038207786188959743 0.0094285125364907494 0 0.0035518605152366945 0.0095497839247623683 0 0.0037649088180406812 0.0096336768554787303 0 0.0038207786188959743 0.0094285125364907494 0 0.0037649088180406812 0.0096336768554787303 0 0.0040941753993609447 0.0097805440765704656 0 0.0033278901889699556 0.010023166225585084 0 0.0039139955122650862 0.0098266742344437653 0 0.0038673386489118233 0.010242089361636781 0 0.0037649088180406812 0.0096336768554787303 0 0.0034147069510917704 0.0099178698220737695 0 0.0039139955122650862 0.0098266742344437653 0 0.0031537867131420255 0.0099292616625022874 0 0.003898493412065706 0.0098088234300745189 0 0.0047869989200763942 0.020431059681344246 0 0.0048881766704898999 0.020427282781325596 0 0.0050103811607815525 0.020328344760635355 0 0.0037649088180406812 0.0096336768554787303 0 0.0040941753993609447 0.0097805440765704656 0 0.0039139955122650862 0.0098266742344437653 0 0.0040941753993609447 0.0097805440765704656 0 0.0039139955122650862 0.0098266742344437653 0 0.0038673386489118233 0.010242089361636781 0 0.0049192853935601322 0.020213749908788489 0 0.0050103811607815525 0.020328344760635355 0 0.0051266041577947364 0.019967582503392606 0 0.0049192853935601322 0.020213749908788489 0 0.0048421570604095902 0.01979024084863671 0 0.0051266041577947364 0.019967582503392606 0 0.0046486353393452497 0.01572445299769671 0 0.0050487357819611134 0.013937027907344322 0 0.0040941753993609447 0.0097805440765704656 0 0.0041709399365881953 0.010676805333774658 0 0.0038673386489118233 0.010242089361636781 0 0.0033278901889699556 0.010023166225585084 0 0.0038673386489118233 0.010242089361636781 0 0.003537704908247865 0.010536090609728554 0 0.0041709399365881953 0.010676805333774658 0 0.0038673386489118233 0.010242089361636781 0 0.003537704908247865 0.010536090609728554 0 0.0050487357819611134 0.013937027907344322 0 0.003891466158985227 0.0098901406776901804 0 0.0050788067264154139 0.0093474371701010583 0 0.0045277999375023534 0.0092241567966300942 0 0.0048558467648641681 0.0096522567875233691 0 0.0045277999375023534 0.0092241567966300942 0 0.0045644266328906972 0.0097623630262812754 0 0.0039593767990601181 0.0091077280898150589 0 0.0045277999375023534 0.0092241567966300942 0 0.0048558467648641681 0.0096522567875233691 0 0.0045644266328906972 0.0097623630262812754 0 0.0048713290170631892 0.017217472729725146 0 0.0050487357819611134 0.013937027907344322 0 0.0048558467648641681 0.0096522567875233691 0 0.0050773067018451898 0.0096525088709908599 0 0.0051203796114898644 0.010341929889901139 0 0.004605464843252925 0.014804626747777109 0 0.0051262829115585658 0.014875664226976292 0 0.0051114653785346142 0.014578926728160416 0 0.0050487357819611134 0.013937027907344322 0 0.0052416241201915402 0.01187855361006666 0 0.0050788067264154139 0.0093474371701010583 0 0.0048558467648641681 0.0096522567875233691 0 0.0050952923511619584 0.00965992446652255 0 0.0050063452261927049 0.011115474068815813 0 0.0052416241201915402 0.01187855361006666 0 0.0034305829603107859 0.0039891619437440826 0 0.0027573419136191074 0.0046668277635906934 0 0.0036921184152951089 0.0048025481566776676 0 0.0034305829603107859 0.0039891619437440826 0 0.0025050361324458234 0.0040328681915216234 0 0.0027573419136191074 0.0046668277635906934 0 0.0025050361324458234 0.0040328681915216234 0 0.0027573419136191074 0.0046668277635906934 0 0.0021410579938526868 0.0046843087091108628 0 0.0027573419136191074 0.0046668277635906934 0 0.0021410579938526868 0.0046843087091108628 0 0.0023330923576756844 0.0051291568133697389 0 0.0027573419136191074 0.0046668277635906934 0 0.0023330923576756844 0.0051291568133697389 0 0.0026895320082626264 0.0053538029207464595 0 0.0027573419136191074 0.0046668277635906934 0 0.0032294509787250693 0.0052997189550569581 0 0.0026895320082626264 0.0053538029207464595 0 0.0027573419136191074 0.0046668277635906934 0 0.0036921184152951089 0.0048025481566776676 0 0.0032294509787250693 0.0052997189550569581 0 0.0036921184152951089 0.0048025481566776676 0 0.0045473361147632101 0.0051396390914780063 0 0.0043702646972014168 0.0043465096281732757 0 0.0036921184152951089 0.0048025481566776676 0 0.0045473361147632101 0.0051396390914780063 0 0.0038519284801787497 0.0057447735458113847 0 0.0058865472625344376 0.0048820537820068498 0 0.0043702646972014168 0.0043465096281732757 0 0.0044069286756899207 0.0032424647187742728 0 0.0053112893878047599 0.0071042788223555711 0 0.0037752244168315751 0.006914748522813585 0 0.0058865472625344376 0.0048820537820068498 0 0.0045473361147632101 0.0051396390914780063 0 0.0043702646972014168 0.0043465096281732757 0 0.0034305829603107859 0.0039891619437440826 0 0.0036921184152951089 0.0048025481566776676 0 0.0043702646972014168 0.0043465096281732757 0 0.0034305829603107859 0.0039891619437440826 0 0.0043702646972014168 0.0043465096281732757 0 0.0044069286756899207 0.0032424647187742728 0 0.003891466158985227 0.0098901406776901804 0 0.0037752244168315751 0.006914748522813585 0 0.0033278901889699556 0.010023166225585084 0 0.003537704908247865 0.010536090609728554 0 0.0029363003419088899 0.010400108682873558 0 0.0031537867131420255 0.0099292616625022874 0 0.0031256685501640713 0.0067271587755191311 0 0.0033278901889699556 0.010023166225585084 0 0.0029363003419088899 0.010400108682873558 0 0.0027561520077908274 0.010195015276871371 0 0.0037762375111403011 0.0054667202468025866 0 0.0034417091723057108 0.0050978954339984429 0 0.0028403711638898431 0.0052907759566023114 0 0.0037752244168315751 0.006914748522813585 0 0.0031256685501640713 0.0067271587755191311 0 0.0031256685501640713 0.0067271587755191311 0 0.0029056896626268145 0.0032065543873067634 0 0.003030986795316582 0.0027707037324882617 0 0.0026905316062627175 0.0028699809769908891 0 0.0026345877366472552 0.0024642139975867817 0 0.0037752244168315751 0.006914748522813585 0 0.0029056896626268145 0.0032065543873067634 0 0.0034305829603107859 0.0039891619437440826 0 0.0044069286756899207 0.0032424647187742728 0 0.0032063655680979902 0.0030205011694003285 0 0.0025050361324458234 0.0040328681915216234 0 0.0032063655680979902 0.0030205011694003285 0 0.0018462705169026532 0.0034582979581168159 0 0.0034305829603107859 0.0039891619437440826 0 0.0025050361324458234 0.0040328681915216234 0 0.0032063655680979902 0.0030205011694003285 0 0.0029056896626268145 0.0032065543873067634 0 0.0016902497715899146 0.0020969935967031822 0 0.0026905316062627175 0.0028699809769908891 0 0.0026345877366472552 0.0024642139975867817 0 0.0021658312485282011 0.0024434492951920699 0 0.0024306232645001989 0.0023213374643133349 0 0.0026345877366472552 0.0024642139975867817 0 0.0021658312485282011 0.0024434492951920699 0 0.0024306232645001989 0.0023213374643133349 0 0.0026345877366472552 0.0024642139975867817 0 0.0026606088784005034 0.0023516616946110958 0 0.0029327577149628166 0.0046787978997211745 0 0.0028222450884282926 0.0054320529454776161 0 0.0029609561155626869 0.010027526101727174 0 0.0029053595271598307 0.0098010684810477759 0 0.0026832699037241878 0.0097149681405712448 0 0.003030986795316582 0.0027707037324882617 0 0.0026345877366472552 0.0024642139975867817 0 0.0026608277831826669 0.0023569864296378367 0 0.0031256685501640713 0.0067271587755191311 0 0.0028222450884282926 0.0054320529454776161 0 0.0029053595271598307 0.0098010684810477759 0 0.0026832699037241878 0.0097149681405712448 0 0.0028877867901067385 0.0096027782083448025 0 0.0026832699037241878 0.0097149681405712448 0 0.0028877867901067385 0.0096027782083448025 0 0.0027639101843320939 0.0093759153271337561 0 0.0028877867901067385 0.0096027782083448025 0 0.0030412522392412266 0.009499425235361068 0 0.0027639101843320939 0.0093759153271337561 0 0.0028222450884282926 0.0054320529454776161 0 0.0025686237437646314 0.0057992187220105261 0 0.0024306232645001989 0.0023213374643133349 0 0.0026606088784005034 0.0023516616946110958 0 0.0023454782943691127 0.0020088805470816901 0 0.0028222450884282926 0.0054320529454776161 0 0.0016784473252899085 0.0017637008141097846 0 0.0025521650061857137 0.0045551816435942111 0 0.0022037478333183781 0.0041715612262904116 0 0.0026689458741037137 0.0040522201224380185 0 0.0034147069510917704 0.0099178698220737695 0 0.0030720531615245081 0.009711356609181954 0 0.0032791622096975119 0.0095352040684955376 0 0.0034147069510917704 0.0099178698220737695 0 0.0029609561155626869 0.010027526101727174 0 0.0030720531615245081 0.009711356609181954 0 0.0029609561155626869 0.010027526101727174 0 0.0029053595271598307 0.0098010684810477759 0 0.0030720531615245081 0.009711356609181954 0 0.0029053595271598307 0.0098010684810477759 0 0.0028877867901067385 0.0096027782083448025 0 0.0030720531615245081 0.009711356609181954 0 0.0028877867901067385 0.0096027782083448025 0 0.0030720531615245081 0.009711356609181954 0 0.0030412522392412266 0.009499425235361068 0 0.0030720531615245081 0.009711356609181954 0 0.0030412522392412266 0.009499425235361068 0 0.0032791622096975119 0.0095352040684955376 0 0.0033945047484905374 0.0090739310708951946 0 0.0032160580556587857 0.0091825682203848236 0 0.0028343585623922096 0.0090762393387913368 0 0.0019296324653814687 0.007811767168041394 0 0.0016496804366235569 0.007819075935119376 0 0.0018125699665253151 0.0076837767996211287 0 0.0027049167554992933 0.0084149309450781765 0 0.0021278957801480736 0.0048140039607267602 0 0.0034274723238840268 0.0093754606127825994 0 0.0032791622096975119 0.0095352040684955376 0 0.0032075202340095177 0.0092722361728466464 0 0.0030412522392412266 0.009499425235361068 0 0.0032791622096975119 0.0095352040684955376 0 0.0032075202340095177 0.0092722361728466464 0 0.0030816646245400937 0.0091057280053061847 0 0.0025686237437646314 0.0057992187220105261 0 0.0032160580556587857 0.0091825682203848236 0 0.0027938895256156512 0.0092367859308761218 0 0.0028343585623922096 0.0090762393387913368 0 0.0030412522392412266 0.009499425235361068 0 0.0032075202340095177 0.0092722361728466464 0 0.0027639101843320939 0.0093759153271337561 0 0.0016784473252899085 0.0017637008141097846 0 0.0025686237437646314 0.0057992187220105261 0 0.0011304194073842556 -0.00068945005556231157 0 0.0011003467199070282 -0.0008391522469071511 0 0.0009252882071684828 -0.00070501796300520114 0 0.0010344980528251304 -0.00055818932530808955 0 0.0011304194073842556 -0.00068945005556231157 0 0.0009252882071684828 -0.00070501796300520114 0 0.0011304194073842556 -0.00068945005556231157 0 0.0013164615369061726 -0.00075464331932386839 0 0.0011003467199070282 -0.0008391522469071511 0 0.0010344980528251304 -0.00055818932530808955 0 0.0011304194073842556 -0.00068945005556231157 0 0.0012843136175112336 -0.00060828812060253318 0 0.0011304194073842556 -0.00068945005556231157 0 0.0012843136175112336 -0.00060828812060253318 0 0.0013164615369061726 -0.00075464331932386839 0 0.0025686237437646314 0.0057992187220105261 0 0.0021278957801480736 0.0048140039607267602 0 0.0013164615369061726 -0.00075464331932386839 0 0.0011003467199070282 -0.0008391522469071511 0 0.0012368374806694614 -0.0010326058389912977 0 0.0011003467199070282 -0.0008391522469071511 0 0.0010894796164276873 -0.00099316840136920177 0 0.0012368374806694614 -0.0010326058389912977 0 0.0011003467199070282 -0.0008391522469071511 0 0.00092226975239929454 -0.00090200140747217551 0 0.0010894796164276873 -0.00099316840136920177 0 0.0011003467199070282 -0.0008391522469071511 0 0.00092226975239929454 -0.00090200140747217551 0 0.0009252882071684828 -0.00070501796300520114 0 0.00092226975239929454 -0.00090200140747217551 0 0.0009252882071684828 -0.00070501796300520114 0 0.00081912221291793711 -0.0007866636757854989 0 0.0010056428401256708 -0.00061181064066219057 0 0.0009252882071684828 -0.00070501796300520114 0 0.00072504001710221606 -0.00070764496097688011 0 0.0016784473252899085 0.0017637008141097846 0 0.00069493117229010675 0.00011330838953504019 0 0.0009252882071684828 -0.00070501796300520114 0 0.00072504001710221606 -0.00070764496097688011 0 0.00081912221291793711 -0.0007866636757854989 0 0.00072504001710221606 -0.00070764496097688011 0 0.00081912221291793711 -0.0007866636757854989 0 0.00076436906712875979 -0.00090284459763382619 0 0.00092226975239929454 -0.00090200140747217551 0 0.00076436906712875979 -0.00090284459763382619 0 0.00081789471960442856 -0.0010311797067617554 0 0.00092226975239929454 -0.00090200140747217551 0 0.00081912221291793711 -0.0007866636757854989 0 0.00076436906712875979 -0.00090284459763382619 0 0.00072504001710221606 -0.00070764496097688011 0 0.00048132553823056868 -0.00090988340325406328 0 0.00064021616896066803 -0.00095452382655583071 0 0.00048132553823056868 -0.00090988340325406328 0 0.00062195280833503373 -0.00056364655514870847 0 0.00028822272425330222 -0.00076872512036657017 0 0.00072504001710221606 -0.00070764496097688011 0 0.00048132553823056868 -0.00090988340325406328 0 0.00062195280833503373 -0.00056364655514870847 0 0.00072504001710221606 -0.00070764496097688011 0 0.00076436906712875979 -0.00090284459763382619 0 0.00064021616896066803 -0.00095452382655583071 0 0.0012974326628814041 -0.0016822950577040795 0 0.0015589045289374651 0.0016878083853035335 0 0.001517878883241281 0.0022120343641027717 0 0.00074012580542570064 0.0023622110292660578 0 0.0016879846429532694 0.0026308041430484698 0 0.001517878883241281 0.0022120343641027717 0 0.0019289465376051153 0.0023247727540098178 0 0.0016879846429532694 0.0026308041430484698 0 0.0016784473252899085 0.0017637008141097846 0 0.00087501078223512396 0.00098049427907525503 0 0.0010056428401256708 -0.00061181064066219057 0 0.00072504001710221606 -0.00070764496097688011 0 0.00062195280833503373 -0.00056364655514870847 0 0.0023454782943691127 0.0020088805470816901 0 0.001517878883241281 0.0022120343641027717 0 0.0019289465376051153 0.0023247727540098178 0 0.0019289465376051153 0.0023247727540098178 0 0.0021658312485282011 0.0024434492951920699 0 0.0016879846429532694 0.0026308041430484698 0 0.0023454782943691127 0.0020088805470816901 0 0.0019289465376051153 0.0023247727540098178 0 0.0021658312485282011 0.0024434492951920699 0 0.0024306232645001989 0.0023213374643133349 0 0.0023454782943691127 0.0020088805470816901 0 0.0021658312485282011 0.0024434492951920699 0 6.1824661591240054e-05 -0.00073312401471177676 0 0.00024343032431549782 -0.0010051384474243637 0 -0.00015020249045027709 -0.00094065384097406334 0 6.1824661591240054e-05 -0.00073312401471177676 0 0.00028822272425330222 -0.00076872512036657017 0 0.00024343032431549782 -0.0010051384474243637 0 0.00048132553823056868 -0.00090988340325406328 0 0.00028822272425330222 -0.00076872512036657017 0 0.00024343032431549782 -0.0010051384474243637 0 0.00087501078223512396 0.00098049427907525503 0 0.0012974326628814041 -0.0016822950577040795 0 0.00062195280833503373 -0.00056364655514870847 0 0.00028822272425330222 -0.00076872512036657017 0 0.00028764317282375669 -0.00050811377273194259 0 0.0012974326628814041 -0.0016822950577040795 0 0.0022458089955841782 -0.0025500720189379519 0 0.0012974326628814041 -0.0016822950577040795 0 0.0020262937448230533 -0.0026615849942882787 0 0.0025033579224311752 -0.005281130128671342 0 0.002499589608678222 -0.0052898504534626646 0 0.0025007535563691995 -0.005288943715741551 0 0.0024804692147582935 -0.0052637723523576889 0 0.0025027035939350433 -0.005294486076907157 0 0.002499589608678222 -0.0052898504534626646 0 6.1824661591240054e-05 -0.00073312401471177676 0 0.00028822272425330222 -0.00076872512036657017 0 0.00028764317282375669 -0.00050811377273194259 0 0.0012135814320735393 -0.0032385590954316442 0 0.0012974326628814041 -0.0016822950577040795 0 0.0025027035939350433 -0.005294486076907157 0 0.0024864182345958217 -0.0053222452706349101 0 0.0024979845543880112 -0.0052985499663661638 0 0.0024833450826122834 -0.0053589057766744511 0 0.0025171683869497107 -0.0052811799443097133 0 0.0025027035939350433 -0.005294486076907157 0 0.0025027035939350433 -0.005294486076907157 0 0.002499589608678222 -0.0052898504534626646 0 0.0024979845543880112 -0.0052985499663661638 0 0.0024864182345958217 -0.0053222452706349101 0 0.0024919453240381975 -0.0053038220720148764 0 0.0024979845543880112 -0.0052985499663661638 0 0.0024864182345958217 -0.0053222452706349101 0 0.0024919453240381975 -0.0053038220720148764 0 0.0024627878165209421 -0.0053418039033234204 0 0.0024833450826122834 -0.0053589057766744511 0 0.0024864182345958217 -0.0053222452706349101 0 0.0024627878165209421 -0.0053418039033234204 0 0.0024833450826122834 -0.0053589057766744511 0 0.0025027035939350433 -0.005294486076907157 0 0.0024864182345958217 -0.0053222452706349101 0 0.0024919453240381975 -0.0053038220720148764 0 0.0025005366143576566 -0.0052863370911697249 0 0.0024808282210972842 -0.0053081787458288841 0 0.0024919453240381975 -0.0053038220720148764 0 0.0025007535563691995 -0.005288943715741551 0 0.0025005366143576566 -0.0052863370911697249 0 0.0024919453240381975 -0.0053038220720148764 0 0.0024979845543880112 -0.0052985499663661638 0 0.0025007535563691995 -0.005288943715741551 0 0.002499589608678222 -0.0052898504534626646 0 0.0024979845543880112 -0.0052985499663661638 0 0.0025007535563691995 -0.005288943715741551 0 0.0025007535563691995 -0.005288943715741551 0 0.0025005366143576566 -0.0052863370911697249 0 0.0025038616548039199 -0.0052770945163392955 0 0.0025033579224311752 -0.005281130128671342 0 0.0025038616548039199 -0.0052770945163392955 0 0.0025085662493908052 -0.0052369127023973632 0 0.0012974326628814041 -0.0016822950577040795 0 0.0018403991505032556 -0.0015638155068448264 0 0.0025033579224311752 -0.005281130128671342 0 0.0025007535563691995 -0.005288943715741551 0 0.0025038616548039199 -0.0052770945163392955 0 0.0025038616548039199 -0.0052770945163392955 0 0.0025063369868336778 -0.0052700658250176341 0 0.0025085662493908052 -0.0052369127023973632 0 0.0027807181898980063 -0.0055510282720892205 0 0.0018403991505032556 -0.0015638155068448264 0 0.0025005366143576566 -0.0052863370911697249 0 0.0024808282210972842 -0.0053081787458288841 0 0.0025041254129971077 -0.005270713062162688 0 0.0025005366143576566 -0.0052863370911697249 0 0.0025063369868336778 -0.0052700658250176341 0 0.0025041254129971077 -0.005270713062162688 0 0.0027807181898980063 -0.0055510282720892205 0 0.0023718590012979605 -0.0051690257976755817 0 0.0025005366143576566 -0.0052863370911697249 0 0.0025038616548039199 -0.0052770945163392955 0 0.0025063369868336778 -0.0052700658250176341 0 0.0025092645506406171 0.00057061222494301784 0 0.0020322306067688742 0.00070090557865470828 0 0.0016974625797820868 0.0003839556514856018 0 0.0026905316062627175 0.0028699809769908891 0 0.0021658312485282011 0.0024434492951920699 0 0.0016879846429532694 0.0026308041430484698 0 0.0029056896626268145 0.0032065543873067634 0 0.0015589045289374651 0.0016878083853035335 0 0.0016902497715899146 0.0020969935967031822 0 0.0018403991505032556 -0.0015638155068448264 0 0.0020322306067688742 0.00070090557865470828 0 0.0016974625797820868 0.0003839556514856018 0 0.0015545854598045985 0.0008412204434383371 0 0.00085761478372725793 0.00018720189558878186 0 0.0016974625797820868 0.0003839556514856018 0 0.0015545854598045985 0.0008412204434383371 0 0.0025136541334531038 -0.0051265587652305177 0 0.002463256339108814 -0.0050298798769144032 0 0.0024721194527799013 -0.0050866539991850221 0 0.002463256339108814 -0.0050298798769144032 0 0.0024345730115316981 -0.0050338830641989355 0 0.0024721194527799013 -0.0050866539991850221 0 0.0015017965671624558 0.0013257760818504597 0 0.0014517483507519289 0.003668741645083573 0 0.0018403991505032556 -0.0015638155068448264 0 0.0015017965671624558 0.0013257760818504597 0 0.00054629276163945385 0.0038767967312950792 0 0.0016327402416994072 0.0048739487397906024 0 0.0016652123744070894 0.0043740067932487624 0 0.0018462705169026532 0.0034582979581168159 0 0.00054629276163945385 0.0038767967312950792 0 0.0016652123744070894 0.0043740067932487624 0 0.0025050361324458234 0.0040328681915216234 0 0.0018462705169026532 0.0034582979581168159 0 0.0016652123744070894 0.0043740067932487624 0 0.0025050361324458234 0.0040328681915216234 0 0.0016652123744070894 0.0043740067932487624 0 0.0021410579938526868 0.0046843087091108628 0 0.0016165518276449024 0.0049334069462977775 0 0.0016652123744070894 0.0043740067932487624 0 0.0021410579938526868 0.0046843087091108628 0 0.0016165518276449024 0.0049334069462977775 0 0.0021410579938526868 0.0046843087091108628 0 0.0018975287396611623 0.0051950168221204735 0 0.0015017965671624558 0.0013257760818504597 0 0.0021987576838676066 0.0024938518400086243 0 0.0021410579938526868 0.0046843087091108628 0 0.0018975287396611623 0.0051950168221204735 0 0.0023330923576756844 0.0051291568133697389 0 0.0015017965671624558 0.0013257760818504597 0 0.0020192599729377506 0.00054393657593382642 0 0.0024345730115316981 -0.0050338830641989355 0 0.0024721194527799013 -0.0050866539991850221 0 0.0024393479926470988 -0.0050755692346610946 0 0.0018975287396611623 0.0051950168221204735 0 0.0023214192103118278 0.0058979608952284901 0 0.0014849083402931941 0.0069402177646698971 0 0.0016058175748860147 0.0049275288467742007 0 0.0018975287396611623 0.0051950168221204735 0 0.0014849083402931941 0.0069402177646698971 0 0.0018975287396611623 0.0051950168221204735 0 0.0023330923576756844 0.0051291568133697389 0 0.0023214192103118278 0.0058979608952284901 0 0.0023214192103118278 0.0058979608952284901 0 0.0014849083402931941 0.0069402177646698971 0 0.0026544906232050937 0.0069170844993321663 0 0.0024721194527799013 -0.0050866539991850221 0 0.0024393479926470988 -0.0050755692346610946 0 0.0024993858603006088 -0.0051453956533841572 0 0.0024393479926470988 -0.0050755692346610946 0 0.0024993858603006088 -0.0051453956533841572 0 0.0024713342769659319 -0.005127325179857499 0 0.0024393479926470988 -0.0050755692346610946 0 0.0024254673332902896 -0.0050983092842966319 0 0.0024713342769659319 -0.005127325179857499 0 0.0020192599729377506 0.00054393657593382642 0 0.0019000652822041262 0.0025393703808584659 0 0.0014849083402931941 0.0069402177646698971 0 0.0014398474287654955 0.0089945729715260846 0 0.0025706418605678477 0.0082594937122426864 0 0.0014849083402931941 0.0069402177646698971 0 0.0025706418605678477 0.0082594937122426864 0 0.0026544906232050937 0.0069170844993321663 0 0.0025136541334531038 -0.0051265587652305177 0 0.0025240730600898185 -0.0051974188210896716 0 0.0025041254129971077 -0.005270713062162688 0 0.0025240730600898185 -0.0051974188210896716 0 0.0025182237975576653 -0.0052802036107533999 0 0.0025041254129971077 -0.005270713062162688 0 0.0025136541334531038 -0.0051265587652305177 0 0.0025240730600898185 -0.0051974188210896716 0 0.0024993858603006088 -0.0051453956533841572 0 0.0025136541334531038 -0.0051265587652305177 0 0.0024721194527799013 -0.0050866539991850221 0 0.0024993858603006088 -0.0051453956533841572 0 0.0024993858603006088 -0.0051453956533841572 0 0.0025246875493537537 -0.0051737130380629052 0 0.0024713342769659319 -0.005127325179857499 0 0.0025240730600898185 -0.0051974188210896716 0 0.0024993858603006088 -0.0051453956533841572 0 0.0025246875493537537 -0.0051737130380629052 0 0.0025240730600898185 -0.0051974188210896716 0 0.0025246875493537537 -0.0051737130380629052 0 0.0025519053388824839 -0.0052269126182851499 0 0.0025240730600898185 -0.0051974188210896716 0 0.0025519053388824839 -0.0052269126182851499 0 0.0025182237975576653 -0.0052802036107533999 0 0.002563381997187367 -0.0051993028931659893 0 0.0026163018263560527 -0.0052294134145567592 0 0.0025896956222186424 -0.0052355214642057718 0 0.0025519053388824839 -0.0052269126182851499 0 0.002563381997187367 -0.0051993028931659893 0 0.0025896956222186424 -0.0052355214642057718 0 0.0025246875493537537 -0.0051737130380629052 0 0.0025519053388824839 -0.0052269126182851499 0 0.002563381997187367 -0.0051993028931659893 0 0.0025246875493537537 -0.0051737130380629052 0 0.0025110991294512437 -0.0051622869043277692 0 0.0024713342769659319 -0.005127325179857499 0 0.002563381997187367 -0.0051993028931659893 0 0.0025110991294512437 -0.0051622869043277692 0 0.0025521265771843702 -0.0051930109693410177 0 0.0025246875493537537 -0.0051737130380629052 0 0.002563381997187367 -0.0051993028931659893 0 0.0025110991294512437 -0.0051622869043277692 0 0.0025110991294512437 -0.0051622869043277692 0 0.0025090425615087956 -0.0051775643585418247 0 0.0025521265771843702 -0.0051930109693410177 0 0.0025110991294512437 -0.0051622869043277692 0 0.0025090425615087956 -0.0051775643585418247 0 0.0024385857250351015 -0.0051297608334080619 0 0.0025090425615087956 -0.0051775643585418247 0 0.0025140939361283708 -0.0052116159455904707 0 0.0024622374986790984 -0.0051719478288041543 0 0.0025090425615087956 -0.0051775643585418247 0 0.0025140939361283708 -0.0052116159455904707 0 0.0025559745060175377 -0.0052100036317523557 0 0.0024593190075154706 -0.0052254577552999851 0 0.0025140939361283708 -0.0052116159455904707 0 0.0024622374986790984 -0.0051719478288041543 0 0.0025749147776314217 -0.0052474660602742969 0 0.0025559745060175377 -0.0052100036317523557 0 0.0026163018263560527 -0.0052294134145567592 0 0.0025749147776314217 -0.0052474660602742969 0 0.0025140939361283708 -0.0052116159455904707 0 0.0025559745060175377 -0.0052100036317523557 0 0.0025559745060175377 -0.0052100036317523557 0 0.0025521265771843702 -0.0051930109693410177 0 0.0026163018263560527 -0.0052294134145567592 0 0.0025090425615087956 -0.0051775643585418247 0 0.0025559745060175377 -0.0052100036317523557 0 0.0025521265771843702 -0.0051930109693410177 0 0.002563381997187367 -0.0051993028931659893 0 0.0025521265771843702 -0.0051930109693410177 0 0.0026163018263560527 -0.0052294134145567592 0 0.0025749147776314217 -0.0052474660602742969 0 0.0026384679946180579 -0.0052775234260749055 0 0.0026163018263560527 -0.0052294134145567592 0 0.0026163018263560527 -0.0052294134145567592 0 0.0026707877861329109 -0.0052746298939728084 0 0.0026246504294522065 -0.0052445690475486978 0 0.0026163018263560527 -0.0052294134145567592 0 0.0025896956222186424 -0.0052355214642057718 0 0.0026246504294522065 -0.0052445690475486978 0 0.0014398474287654955 0.0089945729715260846 0 0.002147828167149742 0.0095479903148749361 0 0.0025706418605678477 0.0082594937122426864 0 0.0025110991294512437 -0.0051622869043277692 0 0.0024713342769659319 -0.005127325179857499 0 0.0024385857250351015 -0.0051297608334080619 0 0.0024254673332902896 -0.0050983092842966319 0 0.0024713342769659319 -0.005127325179857499 0 0.0024385857250351015 -0.0051297608334080619 0 0.0024254673332902896 -0.0050983092842966319 0 0.0024385857250351015 -0.0051297608334080619 0 0.0023878959475572268 -0.0051280997374904625 0 0.0024385857250351015 -0.0051297608334080619 0 0.0024237657540334611 -0.005149005047045547 0 0.0023878959475572268 -0.0051280997374904625 0 0.0024385857250351015 -0.0051297608334080619 0 0.0024237657540334611 -0.005149005047045547 0 0.0024622374986790984 -0.0051719478288041543 0 0.0025090425615087956 -0.0051775643585418247 0 0.0024385857250351015 -0.0051297608334080619 0 0.0024622374986790984 -0.0051719478288041543 0 0.0024593190075154706 -0.0052254577552999851 0 0.0024622374986790984 -0.0051719478288041543 0 0.0024121558373132097 -0.0051800624786261708 0 0.0024237657540334611 -0.005149005047045547 0 0.0024622374986790984 -0.0051719478288041543 0 0.0024121558373132097 -0.0051800624786261708 0 0.0024237657540334611 -0.005149005047045547 0 0.0024121558373132097 -0.0051800624786261708 0 0.0023878959475572268 -0.0051280997374904625 0 0.0023674088370598317 -0.005188690618083849 0 0.0024121558373132097 -0.0051800624786261708 0 0.0023878959475572268 -0.0051280997374904625 0 0.0022602332713639738 -9.1921684050045059e-05 0 0.0014783235739575526 -0.0032602909580666944 0 0.0019000652822041262 0.0025393703808584659 0 0.0022602332713639738 -9.1921684050045059e-05 0 0.0014398474287654955 0.0089945729715260846 0 0.002147828167149742 0.0095479903148749361 0 0.0016593061894402902 0.010550339645314957 0 0.0023674088370598317 -0.005188690618083849 0 0.0023365642621034064 -0.0051668161966649286 0 0.0023878959475572268 -0.0051280997374904625 0 0.0024254673332902896 -0.0050983092842966319 0 0.0023777242985974722 -0.0051242279293550099 0 0.0023878959475572268 -0.0051280997374904625 0 0.002147828167149742 0.0095479903148749361 0 0.0016593061894402902 0.010550339645314957 0 0.0024635036756338125 0.010346868970332901 0 0.0025763955822214529 0.010333351329395422 0 0.0035852377911707446 0.0098428804070020675 0 0.0024635036756338125 0.010346868970332901 0 0.0027758380484618314 0.010370344813766258 0 0.0031461623105363359 0.010321155331850927 0 0.0029038216599591824 0.010981057093858569 0 0.0027758380484618314 0.010370344813766258 0 0.003122622382705908 0.010585185527288678 0 0.0024635036756338125 0.010346868970332901 0 0.0029982493986739438 0.0091899514848132503 0 0.0041619645915838416 0.0093128744053486041 0 0.0020367955360186254 0.011038936517326249 0 0.0024635036756338125 0.010346868970332901 0 0.0027758380484618314 0.010370344813766258 0 0.002147828167149742 0.0095479903148749361 0 0.0024635036756338125 0.010346868970332901 0 0.0029982493986739438 0.0091899514848132503 0 0.002147828167149742 0.0095479903148749361 0 0.0029982493986739438 0.0091899514848132503 0 0.0025706418605678477 0.0082594937122426864 0 0.0029982493986739438 0.0091899514848132503 0 0.0036472943055775153 0.0084760790641983195 0 0.0041619645915838416 0.0093128744053486041 0 0.0029982493986739438 0.0091899514848132503 0 0.0036472943055775153 0.0084760790641983195 0 0.0025706418605678477 0.0082594937122426864 0 0.0031461623105363359 0.010321155331850927 0 0.0034284916443186363 0.010447602019685701 0 0.0035238150260930132 0.010299396938946725 0 0.0041619645915838416 0.0093128744053486041 0 0.0057737039858169279 0.0082750189034175043 0 0.004551945238886689 0.0080683224041078055 0 0.0035852377911707446 0.0098428804070020675 0 0.004745289591751003 0.0091989222344981518 0 0.0036472943055775153 0.0084760790641983195 0 0.0041619645915838416 0.0093128744053486041 0 0.004551945238886689 0.0080683224041078055 0 0.0031461623105363359 0.010321155331850927 0 0.003122622382705908 0.010585185527288678 0 0.0034284916443186363 0.010447602019685701 0 0.003122622382705908 0.010585185527288678 0 0.0034157565251524682 0.010757238284264522 0 0.0034284916443186363 0.010447602019685701 0 0.0027758380484618314 0.010370344813766258 0 0.0031461623105363359 0.010321155331850927 0 0.003122622382705908 0.010585185527288678 0 0.0037723918879262806 0.010829224925263921 0 0.0034157565251524682 0.010757238284264522 0 0.0036193575238236586 0.01065138237629505 0 0.0036193575238236586 0.01065138237629505 0 0.0034284916443186363 0.010447602019685701 0 0.0036556452403908035 0.010510111114728158 0 0.0034157565251524682 0.010757238284264522 0 0.0036193575238236586 0.01065138237629505 0 0.0034284916443186363 0.010447602019685701 0 0.0037723918879262806 0.010829224925263921 0 0.0039061127776006043 0.010457222005946235 0 0.0038081961461722052 0.010613357900852808 0 0.0032082820361490991 0.011452200268813396 0 0.0026495298009729536 0.012201079610607374 0 0.0037723918879262806 0.010829224925263921 0 0.0036193575238236586 0.01065138237629505 0 0.0038081961461722052 0.010613357900852808 0 0.0036193575238236586 0.01065138237629505 0 0.0038081961461722052 0.010613357900852808 0 0.0036556452403908035 0.010510111114728158 0 0.0038636447019419536 0.010522006609889912 0 0.0038081961461722052 0.010613357900852808 0 0.0038352491394810099 0.010495160980617398 0 0.0038081961461722052 0.010613357900852808 0 0.0038352491394810099 0.010495160980617398 0 0.0037431240679640146 0.010442360253305506 0 0.0037431240679640146 0.010442360253305506 0 0.0036556452403908035 0.010510111114728158 0 0.003622865271441917 0.010397607543873311 0 0.0038081961461722052 0.010613357900852808 0 0.0037431240679640146 0.010442360253305506 0 0.0036556452403908035 0.010510111114728158 0 0.0037431240679640146 0.010442360253305506 0 0.0037681133457675201 0.010393556802897233 0 0.003710916001983713 0.010328308509317896 0 0.0037431240679640146 0.010442360253305506 0 0.003622865271441917 0.010397607543873311 0 0.003710916001983713 0.010328308509317896 0 0.0038352491394810099 0.010495160980617398 0 0.0037431240679640146 0.010442360253305506 0 0.0038143397556596862 0.010448437187369548 0 0.0037431240679640146 0.010442360253305506 0 0.0037681133457675201 0.010393556802897233 0 0.0038143397556596862 0.010448437187369548 0 0.0037681133457675201 0.010393556802897233 0 0.0038143397556596862 0.010448437187369548 0 0.003810442326166852 0.010398366856770718 0 0.0038315863697079362 0.010473371955942336 0 0.0038143397556596862 0.010448437187369548 0 0.003810442326166852 0.010398366856770718 0 0.0034284916443186363 0.010447602019685701 0 0.0036556452403908035 0.010510111114728158 0 0.003622865271441917 0.010397607543873311 0 0.003622865271441917 0.010397607543873311 0 0.0035238150260930132 0.010299396938946725 0 0.003710916001983713 0.010328308509317896 0 0.0034284916443186363 0.010447602019685701 0 0.003622865271441917 0.010397607543873311 0 0.0035238150260930132 0.010299396938946725 0 0.004745289591751003 0.0091989222344981518 0 0.0051990294613503485 0.0093870391233757018 0 0.0057737039858169279 0.0082750189034175043 0 0.0052544469810306121 0.0076610848244045293 0 0.0060680048790992076 0.0069490577644538646 0 0.0057737039858169279 0.0082750189034175043 0 0.0060680048790992076 0.0069490577644538646 0 0.0073745066261495093 0.0072703058786595691 0 0.0052544469810306121 0.0076610848244045293 0 0.0060680048790992076 0.0069490577644538646 0 0.0048214561825679304 0.0070472871833994052 0 0.0035238150260930132 0.010299396938946725 0 0.003710916001983713 0.010328308509317896 0 0.0038084057997720779 0.010227127224283887 0 0.0038254602091396315 0.010360961388244869 0 0.003810442326166852 0.010398366856770718 0 0.0038001383290221439 0.010358195767254304 0 0.0038381947458629847 0.010380172136451619 0 0.0038254602091396315 0.010360961388244869 0 0.003810442326166852 0.010398366856770718 0 0.0038381947458629847 0.010380172136451619 0 0.0038254602091396315 0.010360961388244869 0 0.0038505270128290814 0.010322007971542755 0 0.0038254602091396315 0.010360961388244869 0 0.0038001383290221439 0.010358195767254304 0 0.003810804984641519 0.010336446907591119 0 0.0037681133457675201 0.010393556802897233 0 0.003810442326166852 0.010398366856770718 0 0.0037688949748486082 0.010355518640207053 0 0.003810442326166852 0.010398366856770718 0 0.0037688949748486082 0.010355518640207053 0 0.0038001383290221439 0.010358195767254304 0 0.0046695825904442441 0.010203811647833568 0 0.0048249170322446425 0.010111645802022793 0 0.0037688949748486082 0.010355518640207053 0 0.0037877371758046211 0.010343803567750018 0 0.0037696663442991934 0.010335821703109128 0 0.0037688949748486082 0.010355518640207053 0 0.0038001383290221439 0.010358195767254304 0 0.0037877371758046211 0.010343803567750018 0 0.0038001383290221439 0.010358195767254304 0 0.0037877371758046211 0.010343803567750018 0 0.003810804984641519 0.010336446907591119 0 0.003710916001983713 0.010328308509317896 0 0.0038067744406902904 0.010248764897300448 0 0.0038084057997720779 0.010227127224283887 0 0.0039607321899323015 0.010553123057842936 0 0.0048249170322446425 0.010111645802022793 0 0.0037688949748486082 0.010355518640207053 0 0.003710916001983713 0.010328308509317896 0 0.0037747229035137958 0.010341493652102476 0 0.0037681133457675201 0.010393556802897233 0 0.0037688949748486082 0.010355518640207053 0 0.003710916001983713 0.010328308509317896 0 0.0060680048790992076 0.0069490577644538646 0 0.0073745066261495093 0.0072703058786595691 0 0.0073411167770274502 0.0065189661821578775 0 0.0051990294613503485 0.0093870391233757018 0 0.0053221678501817159 0.0095523584845642363 0 0.0050533052121857899 0.010180803886875213 0 0.0052206625441187727 0.010076224899675947 0 0.0050317133980484893 0.0097782756045680323 0 0.0037877371758046211 0.010343803567750018 0 0.0037696663442991934 0.010335821703109128 0 0.0038159977661278485 0.010307225701596829 0 0.0048249170322446425 0.010111645802022793 0 0.004848679378298356 0.010707517798087388 0 0.0052732510109875083 0.0096835868760684566 0 0.0052876778138710367 0.009970674364022403 0 0.004736815957177557 0.010315793736381985 0 0.0037696663442991934 0.010335821703109128 0 0.0038056585584545222 0.010285867608921763 0 0.0038159977661278485 0.010307225701596829 0 0.0048249170322446425 0.010111645802022793 0 0.0051990294613503485 0.0093870391233757018 0 0.0037877371758046211 0.010343803567750018 0 0.0038159977661278485 0.010307225701596829 0 0.003810804984641519 0.010336446907591119 0 0.0051990294613503485 0.0093870391233757018 0 0.004848679378298356 0.010707517798087388 0 0.004848679378298356 0.010707517798087388 0 0.0053221678501817159 0.0095523584845642363 0 0.0038056585584545222 0.010285867608921763 0 0.0038159977661278485 0.010307225701596829 0 0.0038505270128290814 0.010322007971542755 0 0.004848679378298356 0.010707517798087388 0 0.0045572405568896617 0.010786132455290925 0 0.0038254602091396315 0.010360961388244869 0 0.003810804984641519 0.010336446907591119 0 0.0038505270128290814 0.010322007971542755 0 0.0038159977661278485 0.010307225701596829 0 0.003810804984641519 0.010336446907591119 0 0.0038505270128290814 0.010322007971542755 0 0.004240353076759947 0.011702326688170755 0 0.0051359027654800877 0.010629037499514313 0 0.0054250911389551329 0.011083627929782026 0 0.004240353076759947 0.011702326688170755 0 0.0055063122733618628 0.012654041016502707 0 0.0054250911389551329 0.011083627929782026 0 0.0052416241201915402 0.01187855361006666 0 0.0053221678501817159 0.0095523584845642363 0 0.0053112893878047599 0.0071042788223555711 0 0.0053221678501817159 0.0095523584845642363 0 0.0058865472625344376 0.0048820537820068498 0 0.0060680048790992076 0.0069490577644538646 0 0.0049924587555663022 0.0060842470697498258 0 0.0048558467648641681 0.0096522567875233691 0 0.0045644266328906972 0.0097623630262812754 0 0.0051203796114898644 0.010341929889901139 0 0.0058865472625344376 0.0048820537820068498 0 0.0060680048790992076 0.0069490577644538646 0 0.0073411167770274502 0.0065189661821578775 0 0.0060680048790992076 0.0069490577644538646 0 0.0049924587555663022 0.0060842470697498258 0 0.0048214561825679304 0.0070472871833994052 0 0.0058865472625344376 0.0048820537820068498 0 0.0045473361147632101 0.0051396390914780063 0 0.0049924587555663022 0.0060842470697498258 0 0.0049924587555663022 0.0060842470697498258 0 0.0040690237632554638 0.0066126936683485165 0 0.0048214561825679304 0.0070472871833994052 0 0.0049924587555663022 0.0060842470697498258 0 0.0040690237632554638 0.0066126936683485165 0 0.0038519284801787497 0.0057447735458113847 0 0.0045473361147632101 0.0051396390914780063 0 0.0049924587555663022 0.0060842470697498258 0 0.0038519284801787497 0.0057447735458113847 0 0.0038519284801787497 0.0057447735458113847 0 0.0032294509787250693 0.0052997189550569581 0 0.0029634718670235693 0.0058847302059018601 0 0.0036921184152951089 0.0048025481566776676 0 0.0038519284801787497 0.0057447735458113847 0 0.0032294509787250693 0.0052997189550569581 0 0.0023330923576756844 0.0051291568133697389 0 0.0023214192103118278 0.0058979608952284901 0 0.0026895320082626264 0.0053538029207464595 0 0.0032294509787250693 0.0052997189550569581 0 0.0026895320082626264 0.0053538029207464595 0 0.0029634718670235693 0.0058847302059018601 0 0.0023214192103118278 0.0058979608952284901 0 0.0026895320082626264 0.0053538029207464595 0 0.0029634718670235693 0.0058847302059018601 0 0.0029634718670235693 0.0058847302059018601 0 0.0033773237039249693 0.0065265526994044238 0 0.0026544906232050937 0.0069170844993321663 0 0.0023214192103118278 0.0058979608952284901 0 0.0029634718670235693 0.0058847302059018601 0 0.0026544906232050937 0.0069170844993321663 0 0.0038519284801787497 0.0057447735458113847 0 0.0029634718670235693 0.0058847302059018601 0 0.0033773237039249693 0.0065265526994044238 0 0.0040690237632554638 0.0066126936683485165 0 0.0038519284801787497 0.0057447735458113847 0 0.0033773237039249693 0.0065265526994044238 0 0.0033773237039249693 0.0065265526994044238 0 0.003659131311018467 0.0074233852082788822 0 0.0026544906232050937 0.0069170844993321663 0 0.0040690237632554638 0.0066126936683485165 0 0.0033773237039249693 0.0065265526994044238 0 0.003659131311018467 0.0074233852082788822 0 0.0025706418605678477 0.0082594937122426864 0 0.003659131311018467 0.0074233852082788822 0 0.0026544906232050937 0.0069170844993321663 0 0.0036472943055775153 0.0084760790641983195 0 0.0025706418605678477 0.0082594937122426864 0 0.003659131311018467 0.0074233852082788822 0 0.003659131311018467 0.0074233852082788822 0 0.004551945238886689 0.0080683224041078055 0 0.0048214561825679304 0.0070472871833994052 0 0.0036472943055775153 0.0084760790641983195 0 0.003659131311018467 0.0074233852082788822 0 0.004551945238886689 0.0080683224041078055 0 0.0052544469810306121 0.0076610848244045293 0 0.004551945238886689 0.0080683224041078055 0 0.0048214561825679304 0.0070472871833994052 0 0.0057737039858169279 0.0082750189034175043 0 0.0052544469810306121 0.0076610848244045293 0 0.004551945238886689 0.0080683224041078055 0 0.0040690237632554638 0.0066126936683485165 0 0.003659131311018467 0.0074233852082788822 0 0.0048214561825679304 0.0070472871833994052 0 9.1378717309206223e-06 0.034830408117097769 0 0.00012675422630383971 0.034950682360355256 0 0.00015463165843235849 0.034406875506612478 0 9.1378717309206223e-06 0.034830408117097769 0 -3.6718009983697271e-08 0.034999824930620843 0 -3.6574879153988948e-08 0.034999576771981247 0 9.1378717309206223e-06 0.034830408117097769 0 -3.6718009983697271e-08 0.034999824930620843 0 3.0301676063387517e-05 0.035002082634736371 0 9.1378717309206223e-06 0.034830408117097769 0 0.00012675422630383971 0.034950682360355256 0 3.0301676063387517e-05 0.035002082634736371 0 0.00079919873968926707 0.033273354793886975 0 -1.9398624503614369e-05 0.033418742266563085 0 0.00015463165843235849 0.034406875506612478 0 -1.9398624503614369e-05 0.033418742266563085 0 0.00015463165843235849 0.034406875506612478 0 -0.00026693473287944753 0.034082592385505581 0 0.00060520251424885248 0.03405789546776173 0 0.00015135236675471386 0.034410496641696528 0 0.00015463165843235849 0.034406875506612478 0 -6.4608567703512525e-05 0.034385731449581465 0 2.7632995105885658e-05 0.034676751905140572 0 0.00015463165843235849 0.034406875506612478 0 -6.4608567703512525e-05 0.034385731449581465 0 -0.00026693473287944753 0.034082592385505581 0 -0.00046903031628203821 0.033989654826767683 0 -6.4608567703512525e-05 0.034385731449581465 0 -0.00026693473287944753 0.034082592385505581 0 -0.00046903031628203821 0.033989654826767683 0 -6.4608567703512525e-05 0.034385731449581465 0 -0.00013509624645189066 0.034667802144092534 0 -6.4608567703512525e-05 0.034385731449581465 0 2.7632995105885658e-05 0.034676751905140572 0 -2.0778440634433736e-05 0.034717383950173659 0 2.7632995105885658e-05 0.034676751905140572 0 9.5211604028370242e-08 0.034999625713869595 0 -2.0778440634433736e-05 0.034717383950173659 0 9.1378717309206223e-06 0.034830408117097769 0 0.00015463165843235849 0.034406875506612478 0 2.7632995105885658e-05 0.034676751905140572 0 9.1378717309206223e-06 0.034830408117097769 0 2.7632995105885658e-05 0.034676751905140572 0 -3.6574879153988948e-08 0.034999576771981247 0 2.7632995105885658e-05 0.034676751905140572 0 -3.6574879153988948e-08 0.034999576771981247 0 9.5211604028370242e-08 0.034999625713869595 0 9.5211604028370242e-08 0.034999625713869595 0 -2.0778440634433736e-05 0.034717383950173659 0 -8.6635227965866476e-06 0.034864881942874015 0 -8.6635227965866476e-06 0.034864881942874015 0 -5.3332132940649188e-05 0.034865455822464531 0 -0.00010872052863943244 0.034741734974751137 0 -2.0778440634433736e-05 0.034717383950173659 0 -8.6635227965866476e-06 0.034864881942874015 0 -0.00010872052863943244 0.034741734974751137 0 9.5211604028370242e-08 0.034999625713869595 0 -8.6635227965866476e-06 0.034864881942874015 0 -2.2846440424847685e-08 0.034999909299679187 0 -2.2846440424847685e-08 0.034999909299679187 0 -1.7328645173192318e-06 0.034953982479008598 0 8.6789926084742848e-08 0.034999751982719735 0 -8.6635227965866476e-06 0.034864881942874015 0 -2.2846440424847685e-08 0.034999909299679187 0 -1.7328645173192318e-06 0.034953982479008598 0 -5.3332132940649188e-05 0.034865455822464531 0 -1.7328645173192318e-06 0.034953982479008598 0 -6.1444364978299431e-05 0.034931438409384674 0 -8.6635227965866476e-06 0.034864881942874015 0 -5.3332132940649188e-05 0.034865455822464531 0 -1.7328645173192318e-06 0.034953982479008598 0 -1.7328645173192318e-06 0.034953982479008598 0 -2.3046884992620517e-05 0.03497323713709477 0 -6.1444364978299431e-05 0.034931438409384674 0 6.7717648634437193e-06 0.034995974973446836 0 -1.7328645173192318e-06 0.034953982479008598 0 -2.3046884992620517e-05 0.03497323713709477 0 6.7717648634437193e-06 0.034995974973446836 0 -1.7328645173192318e-06 0.034953982479008598 0 8.6789926084742848e-08 0.034999751982719735 0 -0.001002521376774274 0.029401393882216832 0 -0.00077631870849638072 0.029995048183762332 0 -0.0011529041861693577 0.030685558891197763 0 -0.00043478950723050449 0.03140035989889662 0 -0.00064356678715569884 0.033034589161703931 0 -0.00011299884149100443 0.033788160055028917 0 -0.00071893080351749354 0.030409944411458889 0 -0.00064140068155661852 0.032233248560827654 0 -0.00043732910433299534 0.032871207406562158 0 -0.00040161797745370939 0.033948728767144234 0 -0.00077631870849638072 0.029995048183762332 0 -0.0011529041861693577 0.030685558891197763 0 -0.00070268870539122864 0.030417761705756753 0 -0.001002521376774274 0.029401393882216832 0 -0.0006262659023831273 0.029592981424638645 0 -0.00077631870849638072 0.029995048183762332 0 -3.8787589125146534e-05 0.034978410474880255 0 -0.00015932156691443283 0.03494864836117053 0 -6.1479331901647196e-05 0.034971386153851605 0 -2.3046884992620517e-05 0.03497323713709477 0 -6.1479331901647196e-05 0.034971386153851605 0 -6.1444364978299431e-05 0.034931438409384674 0 -0.00015932156691443283 0.03494864836117053 0 -6.1479331901647196e-05 0.034971386153851605 0 -6.1444364978299431e-05 0.034931438409384674 0 -0.00015932156691443283 0.03494864836117053 0 -6.1444364978299431e-05 0.034931438409384674 0 -0.00012192956829672754 0.034828755024597334 0 -5.3332132940649188e-05 0.034865455822464531 0 -6.1444364978299431e-05 0.034931438409384674 0 -0.00012192956829672754 0.034828755024597334 0 -5.3332132940649188e-05 0.034865455822464531 0 -0.00012192956829672754 0.034828755024597334 0 -0.00010872052863943244 0.034741734974751137 0 -0.00040161797745370939 0.033948728767144234 0 -0.00032173923729476444 0.034569593526913696 0 -0.00015932156691443283 0.03494864836117053 0 -0.00012192956829672754 0.034828755024597334 0 -0.00030660905597195017 0.034620246820843734 0 -0.00064356678715569884 0.033034589161703931 0 -0.00011299884149100443 0.033788160055028917 0 -0.00030660905597195017 0.034620246820843734 0 -0.0011529041861693577 0.030685558891197763 0 -0.00074777427731219826 0.030852880624994059 0 -0.00070268870539122864 0.030417761705756753 0 -0.0011529041861693577 0.030685558891197763 0 -0.00071394799328046497 0.031364324953804687 0 -0.00074777427731219826 0.030852880624994059 0 -0.00030660905597195017 0.034620246820843734 0 -0.00024144095844028259 0.034855070539426984 0 -0.00013509624645189066 0.034667802144092534 0 -0.00011299884149100443 0.033788160055028917 0 -0.00030660905597195017 0.034620246820843734 0 -0.00024144095844028259 0.034855070539426984 0 -0.0011529041861693577 0.030685558891197763 0 -0.0010779695465987916 0.032172750288541052 0 -0.00071394799328046497 0.031364324953804687 0 -0.00064140068155661852 0.032233248560827654 0 -0.00062897287651000585 0.033475050376784513 0 -0.00030660905597195017 0.034620246820843734 0 -0.00010872052863943244 0.034741734974751137 0 -0.00013509624645189066 0.034667802144092534 0 -0.00012192956829672754 0.034828755024597334 0 -0.00030660905597195017 0.034620246820843734 0 -0.00010872052863943244 0.034741734974751137 0 -6.4608567703512525e-05 0.034385731449581465 0 -2.0778440634433736e-05 0.034717383950173659 0 -0.00013509624645189066 0.034667802144092534 0 -2.0778440634433736e-05 0.034717383950173659 0 -0.00010872052863943244 0.034741734974751137 0 -0.00013509624645189066 0.034667802144092534 0 -0.00046903031628203821 0.033989654826767683 0 -0.00024144095844028259 0.034855070539426984 0 -0.00013509624645189066 0.034667802144092534 0 -0.00050849981923640944 0.033942373509461582 0 -0.00062897287651000585 0.033475050376784513 0 -0.00046903031628203821 0.033989654826767683 0 -0.0010779695465987916 0.032172750288541052 0 -0.00023987649878645645 0.032114728091287674 0 -0.00046903031628203821 0.033989654826767683 0 0.00014113709223029572 0.03284409680634251 0 -0.00023987649878645645 0.032114728091287674 0 0.00014113709223029572 0.03284409680634251 0 0.0005802123732569814 0.031647878969002854 0 -0.00023987649878645645 0.032114728091287674 0 0.00014113709223029572 0.03284409680634251 0 0.0005802123732569814 0.031647878969002854 0 0.00083344992030886156 0.032722782037621301 0 0.0005802123732569814 0.031647878969002854 0 -0.00023987649878645645 0.032114728091287674 0 4.7702979505380361e-05 0.031178172157591392 0 -0.0010779695465987916 0.032172750288541052 0 -0.00023987649878645645 0.032114728091287674 0 -0.00071394799328046497 0.031364324953804687 0 -0.00023987649878645645 0.032114728091287674 0 -0.00071394799328046497 0.031364324953804687 0 4.7702979505380361e-05 0.031178172157591392 0 -0.00071394799328046497 0.031364324953804687 0 -0.00074777427731219826 0.030852880624994059 0 -0.00038402602653582414 0.0305879137690017 0 -0.00074777427731219826 0.030852880624994059 0 -0.00038402602653582414 0.0305879137690017 0 -0.00070268870539122864 0.030417761705756753 0 -0.00038402602653582414 0.0305879137690017 0 4.7702979505380361e-05 0.031178172157591392 0 0.00025766639709027341 0.030445764600159932 0 -0.00071394799328046497 0.031364324953804687 0 -0.00038402602653582414 0.0305879137690017 0 4.7702979505380361e-05 0.031178172157591392 0 0.0005802123732569814 0.031647878969002854 0 4.7702979505380361e-05 0.031178172157591392 0 0.00092445473365115557 0.030685540618995387 0 4.7702979505380361e-05 0.031178172157591392 0 0.00025766639709027341 0.030445764600159932 0 0.00092445473365115557 0.030685540618995387 0 0.00025766639709027341 0.030445764600159932 0 0.00063581483757694157 0.029904953713346966 0 7.094687715070703e-05 0.029879722606419416 0 0.00025766639709027341 0.030445764600159932 0 0.00063581483757694157 0.029904953713346966 0 0.00092445473365115557 0.030685540618995387 0 0.00041162192202754354 0.029527313698117216 0 0.00063581483757694157 0.029904953713346966 0 7.094687715070703e-05 0.029879722606419416 0 -0.0003354884496430403 0.029450530562187639 0 7.094687715070703e-05 0.029879722606419416 0 -0.00046843990476870204 0.02997560075864681 0 -0.0006262659023831273 0.029592981424638645 0 -0.00077631870849638072 0.029995048183762332 0 -0.00046843990476870204 0.02997560075864681 0 -0.0003354884496430403 0.029450530562187639 0 -0.0006262659023831273 0.029592981424638645 0 -0.00046843990476870204 0.02997560075864681 0 -0.00077631870849638072 0.029995048183762332 0 -0.00070268870539122864 0.030417761705756753 0 -0.00046843990476870204 0.02997560075864681 0 -0.00038402602653582414 0.0305879137690017 0 -0.00070268870539122864 0.030417761705756753 0 -0.00046843990476870204 0.02997560075864681 0 -0.00038402602653582414 0.0305879137690017 0 7.094687715070703e-05 0.029879722606419416 0 -0.00046843990476870204 0.02997560075864681 0 -0.00038402602653582414 0.0305879137690017 0 0.00025766639709027341 0.030445764600159932 0 7.094687715070703e-05 0.029879722606419416 0 0.0014497906366538974 0.027646076274287317 0 0.0033093254227309563 0.028344052393345386 0 0.0033742737159246391 0.026636174343774181 0 0.0029611196785577203 0.025682168119274207 0 0.0014497906366538974 0.027646076274287317 0 0.0033742737159246391 0.026636174343774181 0 0.0018154558709247602 0.030358589028276872 0 0.001314680558752565 0.029642114955588553 0 0.00092445473365115557 0.030685540618995387 0 0.00063581483757694157 0.029904953713346966 0 0.001314680558752565 0.029642114955588553 0 0.00092445473365115557 0.030685540618995387 0 0.0020289039235500818 0.028620545725876471 0 0.0018154558709247602 0.030358589028276872 0 0.001314680558752565 0.029642114955588553 0 0.00080976990383367089 0.029195505007283476 0 0.00063581483757694157 0.029904953713346966 0 0.001314680558752565 0.029642114955588553 0 0.0018154558709247602 0.030358589028276872 0 0.00092445473365115557 0.030685540618995387 0 0.0013160571458050376 0.03137864274290366 0 0.0014497906366538974 0.027646076274287317 0 0.0024128671291446186 0.029579462099236575 0 0.0033093254227309563 0.028344052393345386 0 0.0016616846681940702 0.029012332726243647 0 0.001331478727716237 0.03122628080996873 0 0.0014497906366538974 0.027646076274287317 0 0.0024128671291446186 0.029579462099236575 0 0.0013160571458050376 0.03137864274290366 0 0.0013160571458050376 0.03137864274290366 0 0.0020577788019919495 0.032883037910736497 0 0.0035442008618291683 0.030884828060778233 0 0.0024128671291446186 0.029579462099236575 0 0.0013160571458050376 0.03137864274290366 0 0.0035442008618291683 0.030884828060778233 0 0.0005802123732569814 0.031647878969002854 0 0.00092445473365115557 0.030685540618995387 0 0.0013160571458050376 0.03137864274290366 0 0.0005802123732569814 0.031647878969002854 0 0.0013160571458050376 0.03137864274290366 0 0.00083344992030886156 0.032722782037621301 0 0.0013160571458050376 0.03137864274290366 0 0.00083344992030886156 0.032722782037621301 0 0.0020577788019919495 0.032883037910736497 0 0.00034233805021851758 0.032439594614471524 0 -0.00021355995771884712 0.032922318617282002 0 -0.001412574743780816 0.032060873591958146 0 -0.0014122281641515029 0.032052058333776043 0 -0.0013099814919991619 0.032075268428489449 0 -0.0014122281641515029 0.032052058333776043 0 -0.0013099814919991619 0.032075268428489449 0 -0.0014606740087937662 0.032005504606678642 0 -0.00021355995771884712 0.032922318617282002 0 -0.00059871607039576713 0.032970525564482336 0 0.00085279150377616378 0.033860777519666471 0 5.9137038347681801e-05 0.033775695567428016 0 -0.0001284244626696585 0.03401473738591429 0 0.00083344992030886156 0.032722782037621301 0 0.00085279150377616378 0.033860777519666471 0 5.9137038347681801e-05 0.033775695567428016 0 0.00083344992030886156 0.032722782037621301 0 0.0020577788019919495 0.032883037910736497 0 0.00085279150377616378 0.033860777519666471 0 0.00014113709223029572 0.03284409680634251 0 0.00083344992030886156 0.032722782037621301 0 5.9137038347681801e-05 0.033775695567428016 0 -0.00046903031628203821 0.033989654826767683 0 0.00014113709223029572 0.03284409680634251 0 5.9137038347681801e-05 0.033775695567428016 0 -0.00046903031628203821 0.033989654826767683 0 5.9137038347681801e-05 0.033775695567428016 0 -0.00026693473287944753 0.034082592385505581 0 5.9137038347681801e-05 0.033775695567428016 0 -0.0001284244626696585 0.03401473738591429 0 -0.00026693473287944753 0.034082592385505581 0 -0.0001284244626696585 0.03401473738591429 0 -0.00026693473287944753 0.034082592385505581 0 -0.00059950864598772404 0.033414330132441356 0 -1.9398624503614369e-05 0.033418742266563085 0 -0.00026693473287944753 0.034082592385505581 0 -0.00059950864598772404 0.033414330132441356 0 -0.0011331356647713974 0.032010674280647682 0 -0.0011388032975795169 0.031881183079823752 0 -0.00087371430649756403 0.031950688694825244 0 -0.00059871607039576713 0.032970525564482336 0 -0.00069273274367569475 0.032632653004807118 0 -0.0011331356647713974 0.032010674280647682 0 -0.0011388032975795169 0.031881183079823752 0 -0.0013190846026639117 0.03195859376758118 0 -0.0013190846026639117 0.03195859376758118 0 -0.0015284493943484004 0.031827557064653171 0 -0.0013304959302778408 0.031718862438188875 0 -0.0011388032975795169 0.031881183079823752 0 -0.0013190846026639117 0.03195859376758118 0 -0.0013304959302778408 0.031718862438188875 0 -0.0013099814919991619 0.032075268428489449 0 -0.0013190846026639117 0.03195859376758118 0 -0.0014606740087937662 0.032005504606678642 0 -0.0013099814919991619 0.032075268428489449 0 -0.0011331356647713974 0.032010674280647682 0 -0.0013190846026639117 0.03195859376758118 0 -0.0016794463215277589 0.031901522148160312 0 -0.0015497236991557099 0.032005812914931646 0 -0.0014606740087937662 0.032005504606678642 0 -0.0019317547466065114 0.03019941679479143 0 -0.0021389909825779711 0.031015896440996824 0 -0.0013190846026639117 0.03195859376758118 0 -0.0015284493943484004 0.031827557064653171 0 -0.0014606740087937662 0.032005504606678642 0 -0.0016794463215277589 0.031901522148160312 0 -0.0015284493943484004 0.031827557064653171 0 -0.0014606740087937662 0.032005504606678642 0 -0.0016794463215277589 0.031901522148160312 0 -0.0015284493943484004 0.031827557064653171 0 -0.0018635885773524196 0.03160937974440195 0 -0.0019317547466065114 0.03019941679479143 0 -0.0020158347190185888 0.030786592277224956 0 -0.0022520715635723702 0.028988972280758297 0 -0.0014372833537876842 0.0295910589297801 0 -0.0016739080730697655 0.028640342132995329 0 -0.0022520715635723702 0.028988972280758297 0 -0.0014372833537876842 0.0295910589297801 0 -0.0021972988504821035 0.02991061287855664 0 -0.0014372833537876842 0.0295910589297801 0 -0.0016739080730697655 0.028640342132995329 0 -0.0010010265858943705 0.028742782707607873 0 -0.0016739080730697655 0.028640342132995329 0 -0.0014864645713046764 0.027794061176288191 0 -0.0010010265858943705 0.028742782707607873 0 -0.0022520715635723702 0.028988972280758297 0 -0.0016739080730697655 0.028640342132995329 0 -0.002249895074169042 0.027944097119326886 0 -0.0016739080730697655 0.028640342132995329 0 -0.0014864645713046764 0.027794061176288191 0 -0.002249895074169042 0.027944097119326886 0 -0.00029463089334690149 0.01308968190389056 0 -0.00075078145105560883 0.013094887565730967 0 -0.0007740692469012546 0.013002991772936547 0 -0.0012591188289581235 0.019596246158881447 0 -0.00078976512755765118 0.021051085222332462 0 -0.00029463089334690149 0.01308968190389056 0 -0.00030220870374680068 0.013332167586036182 0 -0.00075078145105560883 0.013094887565730967 0 -0.00029463089334690149 0.01308968190389056 0 -0.00030220870374680068 0.013332167586036182 0 0.00035480256339695147 0.01351801791858943 0 -0.0014864645713046764 0.027794061176288191 0 -0.002249895074169042 0.027944097119326886 0 -0.0021298760758971438 0.026766511666919738 0 -0.0021389909825779711 0.031015896440996824 0 0.00013810268799519505 0.024535298758988317 0 -0.0012591188289581235 0.019596246158881447 0 0.00013810268799519505 0.024535298758988317 0 -0.0015497236991557099 0.032005812914931646 0 -0.0014565440032318056 0.03203874798626756 0 -0.0014627360968552433 0.031999739011952508 0 -0.0015497236991557099 0.032005812914931646 0 -0.0014606740087937662 0.032005504606678642 0 -0.0014565440032318056 0.03203874798626756 0 -0.0014122281641515029 0.032052058333776043 0 -0.0014606740087937662 0.032005504606678642 0 -0.0014565440032318056 0.03203874798626756 0 -0.001412574743780816 0.032060873591958146 0 -0.0014122281641515029 0.032052058333776043 0 -0.0014565440032318056 0.03203874798626756 0 -0.001412574743780816 0.032060873591958146 0 -0.0014565440032318056 0.03203874798626756 0 -0.0014272351192712793 0.032033802955031741 0 -0.001412574743780816 0.032060873591958146 0 -0.0014272351192712793 0.032033802955031741 0 -0.0014181544003592855 0.032004164114289732 0 0.00034233805021851758 0.032439594614471524 0 0.00098186286453441391 0.031399588877675411 0 -0.0014565440032318056 0.03203874798626756 0 -0.0014272351192712793 0.032033802955031741 0 -0.0014368848261107048 0.032021085507898887 0 -0.0014272351192712793 0.032033802955031741 0 -0.0014368848261107048 0.032021085507898887 0 -0.0014190613412850535 0.032018106166572011 0 0.0049288052172873579 0.027665099004068289 0 0.0048958549231722607 0.027716419055509766 0 0.0047970397234497744 0.027486702298752053 0 -0.0014565440032318056 0.03203874798626756 0 -0.0014368848261107048 0.032021085507898887 0 -0.0014627360968552433 0.031999739011952508 0 -0.0014368848261107048 0.032021085507898887 0 -0.0014151203112280047 0.032014915711377968 0 -0.0014190613412850535 0.032018106166572011 0 0.0022754968479762089 0.030589515088228797 0 0.00013810268799519505 0.024535298758988317 0 -0.0014368848261107048 0.032021085507898887 0 -0.0014151203112280047 0.032014915711377968 0 -0.0014627360968552433 0.031999739011952508 0 0.0049288052172873579 0.027665099004068289 0 0.0049141678225258925 0.027710213326066418 0 0.0048958549231722607 0.027716419055509766 0 -0.0014151203112280047 0.032014915711377968 0 -0.0014190613412850535 0.032018106166572011 0 -0.0013967569188031309 0.031983238770522802 0 0.0022754968479762089 0.030589515088228797 0 0.0019315819533663916 0.029272590669854208 0 0.0049288052172873579 0.027665099004068289 0 0.0049141678225258925 0.027710213326066418 0 0.0049146357522047313 0.027728399297993377 0 0.0049141678225258925 0.027710213326066418 0 0.0049719372216861244 0.027683559711253469 0 0.0048958549231722607 0.027716419055509766 0 -0.0014272351192712793 0.032033802955031741 0 -0.0014190613412850535 0.032018106166572011 0 -0.0014181544003592855 0.032004164114289732 0 -0.0014190613412850535 0.032018106166572011 0 -0.0014181544003592855 0.032004164114289732 0 -0.0013967569188031309 0.031983238770522802 0 0.00098186286453441391 0.031399588877675411 0 0.0019315819533663916 0.029272590669854208 0 0.0024128671291446186 0.029579462099236575 0 0.0035442008618291683 0.030884828060778233 0 0.0033093254227309563 0.028344052393345386 0 0.0035442008618291683 0.030884828060778233 0 0.0033093254227309563 0.028344052393345386 0 0.0041168049322450068 0.029815109517899827 0 0.0033093254227309563 0.028344052393345386 0 0.0041168049322450068 0.029815109517899827 0 0.0047918827175464796 0.027773595734845995 0 0.0019315819533663916 0.029272590669854208 0 0.0049859435875460757 0.027450173006962002 0 0.0049141678225258925 0.027710213326066418 0 0.0049719372216861244 0.027683559711253469 0 0.0047918827175464796 0.027773595734845995 0 0.0049141678225258925 0.027710213326066418 0 0.0049146357522047313 0.027728399297993377 0 0.0047918827175464796 0.027773595734845995 0 0.0050511687663411875 0.02760582410660917 0 0.0047918827175464796 0.027773595734845995 0 0.0050275704860893288 0.027414822274519295 0 0.0049719372216861244 0.027683559711253469 0 0.0050511687663411875 0.02760582410660917 0 0.0047918827175464796 0.027773595734845995 0 0.0050511687663411875 0.02760582410660917 0 0.0050275704860893288 0.027414822274519295 0 0.0052299981020585088 0.02744614481949334 0 0.0047918827175464796 0.027773595734845995 0 0.0049096252433921631 0.026823626746799206 0 0.0041526714126683016 0.027182719398879878 0 0.0050275704860893288 0.027414822274519295 0 0.0049096252433921631 0.026823626746799206 0 0.0052120389984471084 0.027056469645133956 0 0.0047918827175464796 0.027773595734845995 0 0.0050275704860893288 0.027414822274519295 0 0.0049096252433921631 0.026823626746799206 0 0.0049096252433921631 0.026823626746799206 0 0.0054171462655208859 0.026611557071682682 0 0.0052120389984471084 0.027056469645133956 0 0.0047123967533182296 0.025781571390565864 0 0.0049096252433921631 0.026823626746799206 0 0.0042698733329175542 0.026417613412347479 0 0.0049096252433921631 0.026823626746799206 0 0.0042698733329175542 0.026417613412347479 0 0.0041526714126683016 0.027182719398879878 0 0.0033093254227309563 0.028344052393345386 0 0.0033742737159246391 0.026636174343774181 0 0.0041526714126683016 0.027182719398879878 0 0.0042698733329175542 0.026417613412347479 0 0.0033742737159246391 0.026636174343774181 0 0.0041526714126683016 0.027182719398879878 0 0.0033093254227309563 0.028344052393345386 0 0.0047918827175464796 0.027773595734845995 0 0.0041526714126683016 0.027182719398879878 0 0.00027890076252524092 0.01758756996981246 0 0.0032118978297597379 0.015759124424604563 0 -2.1933049059616892e-05 0.015729360782971279 0 0.0038527399266498584 0.021547593531427215 0 0.0030048215886906288 0.019920257124270615 0 0.00027890076252524092 0.01758756996981246 0 -2.1933049059616892e-05 0.015729360782971279 0 -0.0014863510122629846 0.017164601751652186 0 0.0038527399266498584 0.021547593531427215 0 0.0072953080351725978 0.026129087809900448 0 0.0065154415624776559 0.026001066112712641 0 0.0068962933202711772 0.026458418268312932 0 0.0059676322868130183 0.026385463863272368 0 0.0068536721750705517 0.026551997596720903 0 0.0059676322868130183 0.026385463863272368 0 0.0055793549178342105 0.027358282627690675 0 0.0059676322868130183 0.026385463863272368 0 0.0054171462655208859 0.026611557071682682 0 0.0055711857688155921 0.026903107499592339 0 0.0054448600086374928 0.026043915153035946 0 0.0059676322868130183 0.026385463863272368 0 0.0054171462655208859 0.026611557071682682 0 0.0054448600086374928 0.026043915153035946 0 0.0049096252433921631 0.026823626746799206 0 0.0054171462655208859 0.026611557071682682 0 0.0055711857688155921 0.026903107499592339 0 0.0054459795677992296 0.027288978537681727 0 0.0055793549178342105 0.027358282627690675 0 0.0054171462655208859 0.026611557071682682 0 0.0052120389984471084 0.027056469645133956 0 0.0055711857688155921 0.026903107499592339 0 0.0055711857688155921 0.026903107499592339 0 0.0052299981020585088 0.02744614481949334 0 0.0055161622507410692 0.027594077662404005 0 0.0048414227901649723 0.026461360266404371 0 0.004717044945312744 0.023082952561243517 0 0.0050275704860893288 0.027414822274519295 0 0.0052120389984471084 0.027056469645133956 0 0.0052299981020585088 0.02744614481949334 0 0.0052120389984471084 0.027056469645133956 0 0.0055711857688155921 0.026903107499592339 0 0.0052299981020585088 0.02744614481949334 0 0.0059676322868130183 0.026385463863272368 0 0.0055711857688155921 0.026903107499592339 0 0.0055793549178342105 0.027358282627690675 0 0.0030048215886906288 0.019920257124270615 0 -8.8626923478963345e-05 0.014290757930968718 0 0.004717044945312744 0.023082952561243517 0 0.0028449065919830007 0.019843396035834744 0 0.00072050970653840562 0.015290376436773981 0 0.00059166104184439823 0.015222033999194863 0 0.00053027508681535794 0.014162935197406738 0 0.00059166104184439823 0.015222033999194863 0 0.00029521330828902604 0.014641098607995359 0 -0.00026715654145117491 0.014631374664487546 0 0.0049719372216861244 0.027683559711253469 0 0.0052321843937817884 0.027536587173829341 0 0.0048958549231722607 0.027716419055509766 0 0.00059166104184439823 0.015222033999194863 0 0.00029521330828902604 0.014641098607995359 0 0.00053027508681535794 0.014162935197406738 0 0.0049719372216861244 0.027683559711253469 0 0.0050511687663411875 0.02760582410660917 0 0.0052321843937817884 0.027536587173829341 0 0.0050511687663411875 0.02760582410660917 0 0.0052299981020585088 0.02744614481949334 0 0.0052321843937817884 0.027536587173829341 0 0.0053131050643048846 0.023831329532512793 0 0.004717044945312744 0.023082952561243517 0 0.004717044945312744 0.023082952561243517 0 0.0030048215886906288 0.019920257124270615 0 0.00029521330828902604 0.014641098607995359 0 -0.00026715654145117491 0.014631374664487546 0 -6.2191821456836115e-07 0.014190166676421744 0 0.0032118978297597379 0.015759124424604563 0 -2.1933049059616892e-05 0.015729360782971279 0 0.00074885354054515384 0.014401588194182295 0 -2.1933049059616892e-05 0.015729360782971279 0 0.00074885354054515384 0.014401588194182295 0 -0.0017125449720711474 0.013063938322543059 0 -0.00026715654145117491 0.014631374664487546 0 -0.00039688931419810101 0.013958870590484097 0 -0.0007777834728063533 0.014123150757966867 0 -0.00026715654145117491 0.014631374664487546 0 -6.2191821456836115e-07 0.014190166676421744 0 -0.00039688931419810101 0.013958870590484097 0 -6.2191821456836115e-07 0.014190166676421744 0 -0.00039688931419810101 0.013958870590484097 0 -0.00014527543797029848 0.013698519098425437 0 -6.2191821456836115e-07 0.014190166676421744 0 0.00053027508681535794 0.014162935197406738 0 -0.00014527543797029848 0.013698519098425437 0 0.00029521330828902604 0.014641098607995359 0 -6.2191821456836115e-07 0.014190166676421744 0 0.00053027508681535794 0.014162935197406738 0 0.0028449065919830007 0.019843396035834744 0 0.00013810268799519505 0.024535298758988317 0 0.00053027508681535794 0.014162935197406738 0 0.00035480256339695147 0.01351801791858943 0 -0.00014527543797029848 0.013698519098425437 0 -0.00030220870374680068 0.013332167586036182 0 0.00035480256339695147 0.01351801791858943 0 -0.00014527543797029848 0.013698519098425437 0 -0.00014527543797029848 0.013698519098425437 0 -0.00056813407890190246 0.013393240886959179 0 -0.0004950643397212362 0.013644885675001541 0 -0.00039688931419810101 0.013958870590484097 0 -0.00014527543797029848 0.013698519098425437 0 -0.0004950643397212362 0.013644885675001541 0 -0.00030220870374680068 0.013332167586036182 0 -0.00014527543797029848 0.013698519098425437 0 -0.00056813407890190246 0.013393240886959179 0 -0.00056813407890190246 0.013393240886959179 0 -0.00078607832584813163 0.013378686391295913 0 -0.0004950643397212362 0.013644885675001541 0 -0.00078607832584813163 0.013378686391295913 0 -0.0004950643397212362 0.013644885675001541 0 -0.00072181225119001904 0.013729585361440123 0 -0.00078607832584813163 0.013378686391295913 0 -0.00090727709020023959 0.013140546707688919 0 -0.00094646367931207624 0.013430396281087074 0 -0.00078607832584813163 0.013378686391295913 0 -0.00094646367931207624 0.013430396281087074 0 -0.00072181225119001904 0.013729585361440123 0 -0.0025226025645871735 0.011346872987982785 0 -0.0031780791656502907 0.010983908794996042 0 -0.0026877062754176546 0.01077488153414986 0 -0.0018036680845542501 0.012319455604038845 0 -0.0015992134102370264 0.01291338602061062 0 -0.0025226025645871735 0.011346872987982785 0 -0.0026877062754176546 0.01077488153414986 0 -0.0022638917280746805 0.010837721684423133 0 -0.00094646367931207624 0.013430396281087074 0 -0.00072181225119001904 0.013729585361440123 0 -0.00072213571297348824 0.013849999215345994 0 -8.8626923478963345e-05 0.014290757930968718 0 -0.0015992134102370264 0.01291338602061062 0 -0.00039688931419810101 0.013958870590484097 0 -0.00072181225119001904 0.013729585361440123 0 -0.0007777834728063533 0.014123150757966867 0 -0.00039688931419810101 0.013958870590484097 0 -0.0004950643397212362 0.013644885675001541 0 -0.00072181225119001904 0.013729585361440123 0 -0.0011745219772627176 0.013809294050374251 0 -0.0015992134102370264 0.01291338602061062 0 -0.0015992134102370264 0.01291338602061062 0 -0.0030175202752345818 0.012667423986177376 0 -2.1933049059616892e-05 0.015729360782971279 0 -0.0017125449720711474 0.013063938322543059 0 -0.0014863510122629846 0.017164601751652186 0 -0.0031780791656502907 0.010983908794996042 0 -0.0029064278330582305 0.010537108221387309 0 -0.0032280622597110195 0.010131417381299889 0 -0.0026877062754176546 0.01077488153414986 0 -0.0025267658029107325 0.010256820668509576 0 -0.0022638917280746805 0.010837721684423133 0 -0.0031780791656502907 0.010983908794996042 0 -0.0026877062754176546 0.01077488153414986 0 -0.0029064278330582305 0.010537108221387309 0 -0.0026877062754176546 0.01077488153414986 0 -0.0029064278330582305 0.010537108221387309 0 -0.0025267658029107325 0.010256820668509576 0 -0.0029064278330582305 0.010537108221387309 0 -0.0025267658029107325 0.010256820668509576 0 -0.0032280622597110195 0.010131417381299889 0 -0.0055349082147564321 0.0073595513986355289 0 -0.0057335897995819934 0.00796375479600866 0 -0.0060442133704360582 0.0075702279560177794 0 -0.0045866218765214873 0.0087565569061235377 0 -0.0030175202752345818 0.012667423986177376 0 -0.0057335897995819934 0.00796375479600866 0 -0.0060442133704360582 0.0075702279560177794 0 -0.0064188829951530345 0.0078245230693123075 0 -0.0064373344954270313 0.0075261742198966305 0 -0.0060442133704360582 0.0075702279560177794 0 -0.0064188829951530345 0.0078245230693123075 0 -8.0305363671691351e-05 0.018434063443197424 0 0.0017554694531111961 0.017295015843224498 0 -0.00017128043986833688 0.01683408267138034 0 -0.00018019749867713737 0.016976385156268758 0 -0.0030175202752345818 0.012667423986177376 0 -0.00018019749867713737 0.016976385156268758 0 0.0038527399266498584 0.021547593531427215 0 0.0038527399266498584 0.021547593531427215 0 -0.0030175202752345818 0.012667423986177376 0 -0.0048322097417141923 0.0077267047761829409 0 -0.0052690167163259739 0.0077401998447387066 0 -0.0049630213790419556 0.0082084103837926792 0 -0.0044446602654679831 0.0079971520870540658 0 -0.0048322097417141923 0.0077267047761829409 0 -0.0049630213790419556 0.0082084103837926792 0 -0.0044446602654679831 0.0079971520870540658 0 -0.0043663332794766571 0.0075503872947421018 0 -0.0048322097417141923 0.0077267047761829409 0 -0.0047553156428149406 0.0071887318213716732 0 -0.0043663332794766571 0.0075503872947421018 0 -0.0048322097417141923 0.0077267047761829409 0 -0.0047553156428149406 0.0071887318213716732 0 -0.0048322097417141923 0.0077267047761829409 0 -0.0051261145852344522 0.0074241497434744987 0 -0.0048322097417141923 0.0077267047761829409 0 -0.0051261145852344522 0.0074241497434744987 0 -0.0052690167163259739 0.0077401998447387066 0 -0.0057335897995819934 0.00796375479600866 0 -0.0052690167163259739 0.0077401998447387066 0 -0.0049630213790419556 0.0082084103837926792 0 -0.0055349082147564321 0.0073595513986355289 0 -0.0051261145852344522 0.0074241497434744987 0 -0.0052690167163259739 0.0077401998447387066 0 -0.0055349082147564321 0.0073595513986355289 0 -0.0057335897995819934 0.00796375479600866 0 -0.0052690167163259739 0.0077401998447387066 0 -0.0045866218765214873 0.0087565569061235377 0 -0.0032693280217964368 0.0093365525278348207 0 -0.0025267658029107325 0.010256820668509576 0 -0.0019675218321505671 0.010636882272378313 0 -0.0017695057432886854 0.010390224702667941 0 -0.0025267658029107325 0.010256820668509576 0 -0.0019675218321505671 0.010636882272378313 0 -0.0022638917280746805 0.010837721684423133 0 -0.004007812496455385 0.0085602897060824013 0 -0.0044446602654679831 0.0079971520870540658 0 -0.0049630213790419556 0.0082084103837926792 0 -0.0019675218321505671 0.010636882272378313 0 -0.0015771465890125418 0.010618981672497944 0 -0.0017028721949302154 0.011092533535437644 0 -0.0019675218321505671 0.010636882272378313 0 -0.0017695057432886854 0.010390224702667941 0 -0.0015771465890125418 0.010618981672497944 0 -0.0025160526415735347 0.0096894231364652115 0 -0.0032693280217964368 0.0093365525278348207 0 -0.0010897049207389657 0.010542478945409295 0 -0.0017695057432886854 0.010390224702667941 0 -0.0015771465890125418 0.010618981672497944 0 -0.001242578159505794 0.010792324502115494 0 -0.0015771465890125418 0.010618981672497944 0 -0.0017028721949302154 0.011092533535437644 0 -0.0011485456902273969 0.011097396880291141 0 -0.001242578159505794 0.010792324502115494 0 -0.0017028721949302154 0.011092533535437644 0 -0.0019675218321505671 0.010636882272378313 0 -0.0017028721949302154 0.011092533535437644 0 -0.0022638917280746805 0.010837721684423133 0 -0.0025226025645871735 0.011346872987982785 0 -0.0017028721949302154 0.011092533535437644 0 -0.0022638917280746805 0.010837721684423133 0 -0.0025226025645871735 0.011346872987982785 0 -0.0017028721949302154 0.011092533535437644 0 -0.0018316013588030239 0.011750004708019996 0 -0.00090727709020023959 0.013140546707688919 0 -0.00094646367931207624 0.013430396281087074 0 -0.0010241195205337762 0.012941553750244661 0 -0.0018036680845542501 0.012319455604038845 0 -0.0013642245225495664 0.012365182542368859 0 -0.001017611659360468 0.011603394928994593 0 -0.00094748422825680664 0.012291538005899359 0 -0.0018316013588030239 0.011750004708019996 0 -0.001017611659360468 0.011603394928994593 0 -0.0017028721949302154 0.011092533535437644 0 -0.0018316013588030239 0.011750004708019996 0 -0.0010241195205337762 0.012941553750244661 0 -0.00096608906525697815 0.012653497507314763 0 -0.00093950536511696009 0.012885423407902044 0 -0.00097881645990750962 0.012345967113769432 0 -0.0013642245225495664 0.012365182542368859 0 -0.00094748422825680664 0.012291538005899359 0 -0.0010241195205337762 0.012941553750244661 0 -0.00096608906525697815 0.012653497507314763 0 -0.00096608906525697815 0.012653497507314763 0 -0.00084459458113559586 0.012805833616303539 0 -0.00093950536511696009 0.012885423407902044 0 -0.00075798416221098896 0.012595269686648319 0 -0.00096608906525697815 0.012653497507314763 0 -0.00084459458113559586 0.012805833616303539 0 -0.00084459458113559586 0.012805833616303539 0 -0.00093950536511696009 0.012885423407902044 0 -0.00091701239307425721 0.01296884123168441 0 -0.00090727709020023959 0.013140546707688919 0 -0.0010241195205337762 0.012941553750244661 0 -0.00093950536511696009 0.012885423407902044 0 -0.00090727709020023959 0.013140546707688919 0 -0.00093950536511696009 0.012885423407902044 0 -0.00075078145105560883 0.013094887565730967 0 -0.00078607832584813163 0.013378686391295913 0 -0.00090727709020023959 0.013140546707688919 0 -0.00075078145105560883 0.013094887565730967 0 -0.00056813407890190246 0.013393240886959179 0 -0.00078607832584813163 0.013378686391295913 0 -0.00075078145105560883 0.013094887565730967 0 -0.00030220870374680068 0.013332167586036182 0 -0.00056813407890190246 0.013393240886959179 0 -0.00075078145105560883 0.013094887565730967 0 -0.00075078145105560883 0.013094887565730967 0 -0.00091701239307425721 0.01296884123168441 0 -0.0007740692469012546 0.013002991772936547 0 -0.00093950536511696009 0.012885423407902044 0 -0.00075078145105560883 0.013094887565730967 0 -0.00091701239307425721 0.01296884123168441 0 -0.00091701239307425721 0.01296884123168441 0 -0.0007740692469012546 0.013002991772936547 0 -0.00094465058152624144 0.01311763167909878 0 -0.0014372833537876842 0.0295910589297801 0 -0.0010010265858943705 0.028742782707607873 0 -0.00067739947313825728 0.029508889725406617 0 -0.0007740692469012546 0.013002991772936547 0 -0.0010786040139237278 0.013310464726911985 0 -0.00094465058152624144 0.01311763167909878 0 -0.00078976512755765118 0.021051085222332462 0 -0.00088695803203674031 0.021447335856527135 0 -0.0010786040139237278 0.013310464726911985 0 -0.00094465058152624144 0.01311763167909878 0 -0.00096241649891093514 0.013356600680988826 0 -0.00094465058152624144 0.01311763167909878 0 -0.00096241649891093514 0.013356600680988826 0 -0.0008652415740366639 0.013303750672882128 0 -0.00039773498316352429 0.013061884015587855 0 -0.00066836612767517088 0.013278707606108432 0 -0.00082014360670469295 0.013054099657894853 0 -0.00039773498316352429 0.013061884015587855 0 -0.00084459458113559586 0.012805833616303539 0 -0.00082014360670469295 0.013054099657894853 0 -0.00094465058152624144 0.01311763167909878 0 -0.0008652415740366639 0.013303750672882128 0 -0.00082014360670469295 0.013054099657894853 0 -0.0008652415740366639 0.013303750672882128 0 -0.00066836612767517088 0.013278707606108432 0 -0.00082014360670469295 0.013054099657894853 0 -0.00084459458113559586 0.012805833616303539 0 -0.00091701239307425721 0.01296884123168441 0 -0.00082014360670469295 0.013054099657894853 0 -0.00091701239307425721 0.01296884123168441 0 -0.00094465058152624144 0.01311763167909878 0 -0.00082014360670469295 0.013054099657894853 0 -0.00056102745094328713 0.021733442479557521 0 -0.0019698823642554566 0.025147912956791259 0 -0.00052836807760640045 0.014249569041630441 0 -0.00094229995045507517 0.014103984628058779 0 -0.00054770570237252386 0.014849911480211591 0 -0.00052836807760640045 0.014249569041630441 0 -0.00063657181080959834 0.013939155619152049 0 -0.00094229995045507517 0.014103984628058779 0 -0.001927312332771407 0.017590801351361679 0 -0.0014645676400055067 0.019364473905228656 0 -0.00052836807760640045 0.014249569041630441 0 -0.00019410175916033954 0.014005234101440523 0 -0.00041709044089984539 0.014729804194512123 0 3.0534966234943536e-06 0.014531541533924811 0 -0.00019410175916033954 0.014005234101440523 0 -0.00077078181843007946 0.015178740430526224 0 0.00031058475597366277 0.012238260941474198 0 -0.0014645676400055067 0.019364473905228656 0 -0.00052836807760640045 0.014249569041630441 0 -0.00043142733819791093 0.01394977633990732 0 -0.00019410175916033954 0.014005234101440523 0 6.0964390744699781e-05 0.013722793291654666 0 -0.00037055268645649854 0.013647203027370745 0 -0.00019410175916033954 0.014005234101440523 0 -0.00037055268645649854 0.013647203027370745 0 -0.00043142733819791093 0.01394977633990732 0 -0.00063657181080959834 0.013939155619152049 0 -0.00037055268645649854 0.013647203027370745 0 -0.00043142733819791093 0.01394977633990732 0 -0.00019410175916033954 0.014005234101440523 0 -0.00037055268645649854 0.013647203027370745 0 -0.00063657181080959834 0.013939155619152049 0 -0.00094207925572380624 0.013841247076436693 0 -0.0008652415740366639 0.013303750672882128 0 -0.00066836612767517088 0.013278707606108432 0 -0.00094207925572380624 0.013841247076436693 0 -0.00048070753577513062 0.013525816300210896 0 -0.00096653482983973102 0.013810660048500052 0 -0.00052836807760640045 0.014249569041630441 0 -0.00043142733819791093 0.01394977633990732 0 -0.00063657181080959834 0.013939155619152049 0 -0.00063657181080959834 0.013939155619152049 0 -0.00094207925572380624 0.013841247076436693 0 -0.00094229995045507517 0.014103984628058779 0 -0.00088695803203674031 0.021447335856527135 0 -0.00056102745094328713 0.021733442479557521 0 -0.00096241649891093514 0.013356600680988826 0 -0.0008652415740366639 0.013303750672882128 0 -0.00094207925572380624 0.013841247076436693 0 -0.00067739947313825728 0.029508889725406617 0 -0.00084945640714577397 0.03014401950960701 0 -0.00045102762704030884 0.030100244363065447 0 -0.0010786040139237278 0.013310464726911985 0 -0.00094207925572380624 0.013841247076436693 0 -0.00094229995045507517 0.014103984628058779 0 -0.0010786040139237278 0.013310464726911985 0 -0.00096241649891093514 0.013356600680988826 0 -0.00094207925572380624 0.013841247076436693 0 -0.0014372833537876842 0.0295910589297801 0 -0.00067739947313825728 0.029508889725406617 0 -0.00084945640714577397 0.03014401950960701 0 -0.00084945640714577397 0.03014401950960701 0 -0.00092910402964284085 0.030603120997144784 0 -0.0013184865725216364 0.030299706579125056 0 -0.00084945640714577397 0.03014401950960701 0 -0.00053459434510700287 0.030505454888839271 0 -0.00092910402964284085 0.030603120997144784 0 -0.00084945640714577397 0.03014401950960701 0 -0.00045102762704030884 0.030100244363065447 0 -0.00053459434510700287 0.030505454888839271 0 -0.00053459434510700287 0.030505454888839271 0 -0.00092910402964284085 0.030603120997144784 0 -0.00057478273981103635 0.030869159423505033 0 -0.00092910402964284085 0.030603120997144784 0 -0.0010141571017650492 0.031091265915766546 0 -0.0014556380306905209 0.030715405637614605 0 -0.00092910402964284085 0.030603120997144784 0 -0.0010141571017650492 0.031091265915766546 0 -0.00057478273981103635 0.030869159423505033 0 -0.0010141571017650492 0.031091265915766546 0 -0.00057478273981103635 0.030869159423505033 0 -0.00041922489683992014 0.031144112171443177 0 -0.0034592339514927114 0.025294493443349171 0 -0.0033573779267668932 0.029265797389623094 0 -0.00057478273981103635 0.030869159423505033 0 -0.00020239372994062347 0.030566038710401193 0 -0.00041922489683992014 0.031144112171443177 0 -0.0059747218480026018 0.023354003476408522 0 -0.0051114848061681465 0.024590145084027518 0 -0.0073803158026776493 0.026676883414775861 0 -0.00071785924281352954 0.031840216255697329 0 -0.0019698823642554566 0.025147912956791259 0 -0.00057478273981103635 0.030869159423505033 0 -0.00020239372994062347 0.030566038710401193 0 -0.00024115414952755135 0.030508362149078611 0 -0.00053459434510700287 0.030505454888839271 0 -0.00057478273981103635 0.030869159423505033 0 -0.00019521116124394808 0.030555854956751363 0 -0.00045102762704030884 0.030100244363065447 0 -0.00053459434510700287 0.030505454888839271 0 -0.00019521116124394808 0.030555854956751363 0 -0.00052836807760640045 0.014249569041630441 0 -0.00054770570237252386 0.014849911480211591 0 -0.00041709044089984539 0.014729804194512123 0 -0.0032000431864321636 0.024507084970953857 0 -0.0040618703710737416 0.023279317509142555 0 -0.0019631308277077027 0.021617293120094624 0 -0.0034592339514927114 0.025294493443349171 0 -0.0019698823642554566 0.025147912956791259 0 -0.0019698823642554566 0.025147912956791259 0 -0.0014645676400055067 0.019364473905228656 0 -0.0034219517089292464 0.020561975722955289 0 -0.0035645491400398445 0.022972097944356975 0 -0.0057049807480391177 0.022434247168732869 0 -0.0060513739600816727 0.023248822042681409 0 -0.0057049807480391177 0.022434247168732869 0 -0.004774014234694212 0.023588301374369278 0 -0.0060513739600816727 0.023248822042681409 0 -0.004774014234694212 0.023588301374369278 0 -0.0051114848061681465 0.024590145084027518 0 -0.0034592339514927114 0.025294493443349171 0 -0.0014645676400055067 0.019364473905228656 0 -0.0034663521099686572 0.024685347568627131 0 -0.0035645491400398445 0.022972097944356975 0 -0.004774014234694212 0.023588301374369278 0 -0.0035645491400398445 0.022972097944356975 0 -0.0057049807480391177 0.022434247168732869 0 -0.004774014234694212 0.023588301374369278 0 -0.0034663521099686572 0.024685347568627131 0 -0.0051114848061681465 0.024590145084027518 0 -0.0043047746823097147 0.02731044301482052 0 -0.0034663521099686572 0.024685347568627131 0 -0.004774014234694212 0.023588301374369278 0 -0.0051114848061681465 0.024590145084027518 0 -0.0034592339514927114 0.025294493443349171 0 -0.0053662244766561505 0.023722229521365271 0 -0.0051114848061681465 0.024590145084027518 0 -0.0043047746823097147 0.02731044301482052 0 -0.0073803158026776493 0.026676883414775861 0 -0.0020536179506660261 0.028305491000183668 0 -0.0028905990279574924 0.028324304657938584 0 -0.0024054724768734423 0.029108149574940199 0 -0.003544317034863232 0.027584233012316751 0 -0.0033573779267668932 0.029265797389623094 0 -0.0028905990279574924 0.028324304657938584 0 -0.0024054724768734423 0.029108149574940199 0 -0.0031336766935090347 0.029772917388564336 0 -0.0017871623020990709 0.028962771632672697 0 -0.0020536179506660261 0.028305491000183668 0 -0.0024054724768734423 0.029108149574940199 0 -0.0017871623020990709 0.028962771632672697 0 -0.0024054724768734423 0.029108149574940199 0 -0.002107380594480865 0.029457784728877882 0 -0.0024054724768734423 0.029108149574940199 0 -0.002107380594480865 0.029457784728877882 0 -0.0025119551104144356 0.029652916593711439 0 -0.002107380594480865 0.029457784728877882 0 -0.0025119551104144356 0.029652916593711439 0 -0.0021438043945040883 0.029823290313822151 0 -0.0024054724768734423 0.029108149574940199 0 -0.0025119551104144356 0.029652916593711439 0 -0.0031336766935090347 0.029772917388564336 0 -0.0025119551104144356 0.029652916593711439 0 -0.0027842350788520208 0.029867353750899994 0 -0.0031336766935090347 0.029772917388564336 0 -0.0025119551104144356 0.029652916593711439 0 -0.0024494548696404588 0.029924379377939285 0 -0.0027842350788520208 0.029867353750899994 0 -0.0024494548696404588 0.029924379377939285 0 -0.0027842350788520208 0.029867353750899994 0 -0.0025976228192296173 0.030087183589639518 0 -0.0024494548696404588 0.029924379377939285 0 -0.0021438043945040883 0.029823290313822151 0 -0.0021540250267624949 0.030174355779394882 0 -0.0024494548696404588 0.029924379377939285 0 -0.0021540250267624949 0.030174355779394882 0 -0.0025976228192296173 0.030087183589639518 0 -0.0025119551104144356 0.029652916593711439 0 -0.0024494548696404588 0.029924379377939285 0 -0.0021438043945040883 0.029823290313822151 0 -0.0022147192372283285 0.030773407787447506 0 -0.0025632594728302312 0.030455805677611449 0 -0.0028662198889882343 0.029812960623594755 0 -0.0027495287486647203 0.029806005843523175 0 -0.0028846477399619573 0.03001507459331592 0 -0.0027842350788520208 0.029867353750899994 0 -0.0028662198889882343 0.029812960623594755 0 -0.0028846477399619573 0.03001507459331592 0 -0.0027842350788520208 0.029867353750899994 0 -0.0028846477399619573 0.03001507459331592 0 -0.0025976228192296173 0.030087183589639518 0 -0.0027842350788520208 0.029867353750899994 0 -0.0028662198889882343 0.029812960623594755 0 -0.0031336766935090347 0.029772917388564336 0 -0.0028662198889882343 0.029812960623594755 0 -0.0025847810976899819 0.029938787365970037 0 -0.0027495287486647203 0.029806005843523175 0 -0.0028662198889882343 0.029812960623594755 0 -0.0025847810976899819 0.029938787365970037 0 -0.0031336766935090347 0.029772917388564336 0 -0.0025105352388055963 0.030542332570989508 0 -0.0022147192372283285 0.030773407787447506 0 -0.0024014689860466952 0.031139810831274845 0 -0.0025640172698451133 0.030882706177615474 0 -0.0023723609426196447 0.031165342922366359 0 -0.0025847810976899819 0.029938787365970037 0 -0.0025640172698451133 0.030882706177615474 0 -0.0031336766935090347 0.029772917388564336 0 -0.0025105352388055963 0.030542332570989508 0 -0.0025887911204506278 0.030893643993967951 0 -0.0037701237369659026 0.031351560716263091 0 -0.0025640172698451133 0.030882706177615474 0 -0.0031336766935090347 0.029772917388564336 0 -0.0033573779267668932 0.029265797389623094 0 -0.0031764912493083396 0.029977489308506817 0 -0.001450533131340806 0.031629049067768797 0 -0.0033573779267668932 0.029265797389623094 0 -0.0024959375116104924 0.031559361580872282 0 -0.0037701237369659026 0.031351560716263091 0 -0.0025640172698451133 0.030882706177615474 0 -0.0024959375116104924 0.031559361580872282 0 -0.0025640172698451133 0.030882706177615474 0 -0.0023164991672239908 0.031366729946680709 0 -0.0025640172698451133 0.030882706177615474 0 -0.0023164991672239908 0.031366729946680709 0 -0.0023723609426196447 0.031165342922366359 0 -0.0022009115194585724 0.031416758128506972 0 -0.0023164991672239908 0.031366729946680709 0 -0.0021099076558259442 0.031722128323843364 0 -0.0024959375116104924 0.031559361580872282 0 -0.0023164991672239908 0.031366729946680709 0 -0.0021099076558259442 0.031722128323843364 0 -0.0022009115194585724 0.031416758128506972 0 -0.0023164991672239908 0.031366729946680709 0 -0.0023723609426196447 0.031165342922366359 0 -0.0022009115194585724 0.031416758128506972 0 -0.0020177816671596164 0.031661163714762831 0 -0.0021099076558259442 0.031722128323843364 0 -0.0021115535887665203 0.03143324406229947 0 -0.0021652221198319981 0.031154869243579845 0 -0.0019497199351784201 0.031611956477811912 0 -0.0022009115194585724 0.031416758128506972 0 -0.0021115535887665203 0.03143324406229947 0 -0.0023051456520278481 0.031198127548406392 0 -0.0022009115194585724 0.031416758128506972 0 -0.0021115535887665203 0.03143324406229947 0 -0.0020177816671596164 0.031661163714762831 0 -0.0021115535887665203 0.03143324406229947 0 -0.0023051456520278481 0.031198127548406392 0 -0.0021652221198319981 0.031154869243579845 0 -0.0022009115194585724 0.031416758128506972 0 -0.0023723609426196447 0.031165342922366359 0 -0.0023051456520278481 0.031198127548406392 0 -0.0024014689860466952 0.031139810831274845 0 -0.0023723609426196447 0.031165342922366359 0 -0.0023051456520278481 0.031198127548406392 0 -0.0023051456520278481 0.031198127548406392 0 -0.0021652221198319981 0.031154869243579845 0 -0.0023532654885648646 0.031012487007312298 0 -0.0024014689860466952 0.031139810831274845 0 -0.0023051456520278481 0.031198127548406392 0 -0.0023532654885648646 0.031012487007312298 0 -0.0019366933008558948 0.031537267823392279 0 -0.0022147192372283285 0.030773407787447506 0 -0.0018148578429125987 0.031734090162550535 0 -0.0018085744638629937 0.031787494611326406 0 -0.0017687528586993585 0.031782817766803209 0 -0.0019366933008558948 0.031537267823392279 0 -0.0019876733387270808 0.031544585911171576 0 -0.0018148578429125987 0.031734090162550535 0 -0.0018590135842493933 0.031780944421428765 0 -0.0019497199351784201 0.031611956477811912 0 -0.0018148578429125987 0.031734090162550535 0 -0.0018333907599155858 0.031774341631837774 0 -0.0018590135842493933 0.031780944421428765 0 -0.0018333907599155858 0.031774341631837774 0 -0.0018590135842493933 0.031780944421428765 0 -0.0018588242737541537 0.03179170603149948 0 -0.0018148578429125987 0.031734090162550535 0 -0.0018333907599155858 0.031774341631837774 0 -0.0018085744638629937 0.031787494611326406 0 -0.0018588242737541537 0.03179170603149948 0 -0.0018552041573320765 0.03181485309411352 0 -0.0018435093208184984 0.03182026202286186 0 -0.0017907059200483247 0.031903636910999907 0 -0.0019102214675228617 0.031499377223699949 0 -0.0018588242737541537 0.03179170603149948 0 -0.0018242096540537968 0.031819706160367611 0 -0.0018435093208184984 0.03182026202286186 0 -0.0018085744638629937 0.031787494611326406 0 -0.0018588242737541537 0.03179170603149948 0 -0.0017850781485469949 0.031824030715159581 0 -0.0018333907599155858 0.031774341631837774 0 -0.0018085744638629937 0.031787494611326406 0 -0.0018588242737541537 0.03179170603149948 0 -0.0018085744638629937 0.031787494611326406 0 -0.0017687528586993585 0.031782817766803209 0 -0.0017850781485469949 0.031824030715159581 0 -0.0022147192372283285 0.030773407787447506 0 -0.0019102214675228617 0.031499377223699949 0 -0.0018634657728155769 0.031830637109819024 0 -0.001862920423759301 0.031819100012675343 0 -0.0018579447462564844 0.031822678769903613 0 -0.0018593727612625348 0.031784066919063408 0 -0.0019084799201095415 0.031811918781021492 0 -0.0018588242737541537 0.03179170603149948 0 -0.0018634657728155769 0.031830637109819024 0 -0.001862920423759301 0.031819100012675343 0 -0.0018590135842493933 0.031780944421428765 0 -0.0018588242737541537 0.03179170603149948 0 -0.0018634657728155769 0.031830637109819024 0 -0.0018588242737541537 0.03179170603149948 0 -0.001862920423759301 0.031819100012675343 0 -0.0018552041573320765 0.03181485309411352 0 -0.0018590135842493933 0.031780944421428765 0 -0.0019492516048384579 0.031737429682508034 0 -0.0019497199351784201 0.031611956477811912 0 -0.0018590135842493933 0.031780944421428765 0 -0.0019627979781194978 0.031791665131740469 0 -0.0019492516048384579 0.031737429682508034 0 -0.0019627979781194978 0.031791665131740469 0 -0.0019492516048384579 0.031737429682508034 0 -0.0019481958929574667 0.031781851584241703 0 -0.0019627979781194978 0.031791665131740469 0 -0.0019481958929574667 0.031781851584241703 0 -0.0019138088621105612 0.031843917046372003 0 -0.0019481958929574667 0.031781851584241703 0 -0.0019446422441399638 0.03180616419195792 0 -0.0019014648550885907 0.031907207392550999 0 -0.0019492516048384579 0.031737429682508034 0 -0.0019481958929574667 0.031781851584241703 0 -0.0019497199351784201 0.031611956477811912 0 -0.0019481958929574667 0.031781851584241703 0 -0.0019497199351784201 0.031611956477811912 0 -0.0019446422441399638 0.03180616419195792 0 -0.0019497199351784201 0.031611956477811912 0 -0.0020177816671596164 0.031661163714762831 0 -0.0019446422441399638 0.03180616419195792 0 -0.0021115535887665203 0.03143324406229947 0 -0.0019497199351784201 0.031611956477811912 0 -0.0020177816671596164 0.031661163714762831 0 -0.0020177816671596164 0.031661163714762831 0 -0.0019446422441399638 0.03180616419195792 0 -0.0019655596216969881 0.031924183247218713 0 -0.0019446422441399638 0.03180616419195792 0 -0.0019655596216969881 0.031924183247218713 0 -0.0019048113785558082 0.03198392846576615 0 -0.0018076988224906205 0.030911579430048328 0 -0.0015221467724454295 0.0312781603082561 0 -0.0019278051060292573 0.030905897621630513 0 -0.0018076988224906205 0.030911579430048328 0 -0.0016291014293377455 0.031015933642029345 0 -0.0019278051060292573 0.030905897621630513 0 -0.0018543880043658367 0.031437149704417799 0 -0.0019360519850695724 0.031320103214809186 0 -0.0020177816671596164 0.031661163714762831 0 -0.0019655596216969881 0.031924183247218713 0 -0.0021099076558259442 0.031722128323843364 0 -0.0010141571017650492 0.031091265915766546 0 -0.0016291014293377455 0.031015933642029345 0 -0.0014556380306905209 0.030715405637614605 0 -0.001450533131340806 0.031629049067768797 0 -0.0019360519850695724 0.031320103214809186 0 -0.00092910402964284085 0.030603120997144784 0 -0.0014556380306905209 0.030715405637614605 0 -0.0013184865725216364 0.030299706579125056 0 -0.0016291014293377455 0.031015933642029345 0 -0.0014556380306905209 0.030715405637614605 0 -0.0019278051060292573 0.030905897621630513 0 -0.0014556380306905209 0.030715405637614605 0 -0.0016991020498511673 0.030377473223269967 0 -0.0019278051060292573 0.030905897621630513 0 -0.0014556380306905209 0.030715405637614605 0 -0.0016991020498511673 0.030377473223269967 0 -0.0013184865725216364 0.030299706579125056 0 -0.0014372833537876842 0.0295910589297801 0 -0.00084945640714577397 0.03014401950960701 0 -0.0013184865725216364 0.030299706579125056 0 -0.0014372833537876842 0.0295910589297801 0 -0.0016991020498511673 0.030377473223269967 0 -0.0013184865725216364 0.030299706579125056 0 -0.0014372833537876842 0.0295910589297801 0 -0.0016991020498511673 0.030377473223269967 0 -0.0021972988504821035 0.02991061287855664 0 -0.0015284493943484004 0.031827557064653171 0 -0.0018635885773524196 0.03160937974440195 0 -0.0015754988776871465 0.031551576901017779 0 -0.0015284493943484004 0.031827557064653171 0 -0.0015754988776871465 0.031551576901017779 0 -0.0013304959302778408 0.031718862438188875 0 -0.0015754988776871465 0.031551576901017779 0 -0.0015221467724454295 0.0312781603082561 0 -0.0019278051060292573 0.030905897621630513 0 -0.0016991020498511673 0.030377473223269967 0 -0.0021972988504821035 0.02991061287855664 0 -0.0019278051060292573 0.030905897621630513 0 -0.0018635885773524196 0.03160937974440195 0 -0.0015754988776871465 0.031551576901017779 0 -0.0019278051060292573 0.030905897621630513 0 -0.0020158347190185888 0.030786592277224956 0 -0.0019495964601080398 0.030848668893672295 0 -0.0015221467724454295 0.0312781603082561 0 -0.0010725156962496632 0.031680399248990541 0 -0.0013011229998662185 0.031112536898109642 0 -0.0015221467724454295 0.0312781603082561 0 -0.0010725156962496632 0.031680399248990541 0 -0.0013304959302778408 0.031718862438188875 0 -0.0015754988776871465 0.031551576901017779 0 -0.0015221467724454295 0.0312781603082561 0 -0.0013304959302778408 0.031718862438188875 0 -0.0011388032975795169 0.031881183079823752 0 -0.0010725156962496632 0.031680399248990541 0 -0.0013304959302778408 0.031718862438188875 0 -0.0011388032975795169 0.031881183079823752 0 -0.0010725156962496632 0.031680399248990541 0 -0.00087371430649756403 0.031950688694825244 0 -0.0010725156962496632 0.031680399248990541 0 -0.00087371430649756403 0.031950688694825244 0 -0.00050846154803007118 0.032089327502820113 0 -0.00069273274367569475 0.032632653004807118 0 -0.00048834955598538556 0.03209261128952267 0 -1.9398624503614369e-05 0.033418742266563085 0 -0.00059950864598772404 0.033414330132441356 0 -0.00050846154803007118 0.032089327502820113 0 -0.0010725156962496632 0.031680399248990541 0 -0.00050846154803007118 0.032089327502820113 0 -0.00083923737512946509 0.031430287445052413 0 -0.0017756248295591514 0.03242492291423435 0 -0.0016000637904645841 0.032464941777445341 0 -0.0015427830597389944 0.032753528366858436 0 -0.00050846154803007118 0.032089327502820113 0 -0.00083923737512946509 0.031430287445052413 0 -2.0993383729632993e-05 0.031720609968551187 0 -0.001308767607678403 0.031947993429788005 0 -0.00071098157275980829 0.032080503424773039 0 -0.0017756248295591514 0.03242492291423435 0 -0.001729508379469805 0.032286889030783493 0 -0.0016000637904645841 0.032464941777445341 0 -0.001729508379469805 0.032286889030783493 0 -0.0016541561137808152 0.032212486761066861 0 -0.0016000637904645841 0.032464941777445341 0 -0.0017756248295591514 0.03242492291423435 0 -0.001729508379469805 0.032286889030783493 0 -0.0018251598819082177 0.032109886927028701 0 -0.0017756248295591514 0.03242492291423435 0 -0.0018890379725973016 0.032158081505515357 0 -0.0018251598819082177 0.032109886927028701 0 -0.0018890379725973016 0.032158081505515357 0 -0.0019048113785558082 0.03198392846576615 0 -0.0018251598819082177 0.032109886927028701 0 -0.001308767607678403 0.031947993429788005 0 -0.001599147296758128 0.031635743052136123 0 -0.0010725156962496632 0.031680399248990541 0 -0.00083923737512946509 0.031430287445052413 0 -0.0013011229998662185 0.031112536898109642 0 -0.0018076988224906205 0.030911579430048328 0 -0.0015221467724454295 0.0312781603082561 0 -0.0013011229998662185 0.031112536898109642 0 -0.0018543880043658367 0.031437149704417799 0 -0.001599147296758128 0.031635743052136123 0 -0.0019655596216969881 0.031924183247218713 0 -0.0018890379725973016 0.032158081505515357 0 -0.0019048113785558082 0.03198392846576615 0 -0.0019446422441399638 0.03180616419195792 0 -0.0019048113785558082 0.03198392846576615 0 -0.0019014648550885907 0.031907207392550999 0 -0.0019048113785558082 0.03198392846576615 0 -0.0018251598819082177 0.032109886927028701 0 -0.0019014648550885907 0.031907207392550999 0 -0.0018251598819082177 0.032109886927028701 0 -0.0019014648550885907 0.031907207392550999 0 -0.0018196617923649427 0.031938608363467326 0 -0.0019481958929574667 0.031781851584241703 0 -0.0019014648550885907 0.031907207392550999 0 -0.0019138088621105612 0.031843917046372003 0 -0.0019138088621105612 0.031843917046372003 0 -0.0018196617923649427 0.031938608363467326 0 -0.0018749523437525217 0.031830550063892148 0 -0.0019014648550885907 0.031907207392550999 0 -0.0019138088621105612 0.031843917046372003 0 -0.0018196617923649427 0.031938608363467326 0 -0.0018196617923649427 0.031938608363467326 0 -0.0018749523437525217 0.031830550063892148 0 -0.0017368974692567288 0.031889176866535612 0 -0.0018506749745414376 0.03184781333355665 0 -0.0017472318277744581 0.031878293726081613 0 -0.0018634657728155769 0.031830637109819024 0 -0.0018277872301452351 0.031858851280885302 0 -0.0018579447462564844 0.031822678769903613 0 -0.0019627979781194978 0.031791665131740469 0 -0.0019138088621105612 0.031843917046372003 0 -0.0018749523437525217 0.031830550063892148 0 -0.0019084799201095415 0.031811918781021492 0 -0.0018506749745414376 0.03184781333355665 0 -0.0017368974692567288 0.031889176866535612 0 -0.001679324339427777 0.03199673334633206 0 -0.0015533086589760981 0.031948025939138827 0 -0.0018196617923649427 0.031938608363467326 0 -0.0017368974692567288 0.031889176866535612 0 -0.001679324339427777 0.03199673334633206 0 -0.001679324339427777 0.03199673334633206 0 -0.0017422920802656629 0.032080276456046435 0 -0.0016541561137808152 0.032212486761066861 0 -0.001679324339427777 0.03199673334633206 0 -0.0016541561137808152 0.032212486761066861 0 -0.0015718779677145595 0.032050799326742319 0 -0.0018196617923649427 0.031938608363467326 0 -0.001679324339427777 0.03199673334633206 0 -0.0017422920802656629 0.032080276456046435 0 -0.0018251598819082177 0.032109886927028701 0 -0.0018196617923649427 0.031938608363467326 0 -0.0017422920802656629 0.032080276456046435 0 -0.001729508379469805 0.032286889030783493 0 -0.0018251598819082177 0.032109886927028701 0 -0.0017422920802656629 0.032080276456046435 0 -0.001729508379469805 0.032286889030783493 0 -0.0017422920802656629 0.032080276456046435 0 -0.0016541561137808152 0.032212486761066861 0 -0.0016541561137808152 0.032212486761066861 0 -0.0015154048124040472 0.032293507498474781 0 -0.0015593661606023554 0.032172960688152188 0 -0.0016541561137808152 0.032212486761066861 0 -0.0015154048124040472 0.032293507498474781 0 -0.0016000637904645841 0.032464941777445341 0 -0.0014029841271162749 0.03235029109034717 0 -0.0012977428915278244 0.0325331219093467 0 -0.0014588096049804945 0.032484884671248028 0 -0.0015154048124040472 0.032293507498474781 0 -0.0014029841271162749 0.03235029109034717 0 -0.0014588096049804945 0.032484884671248028 0 -0.0015154048124040472 0.032293507498474781 0 -0.0014257486128556197 0.032244023145507159 0 -0.0014642779256727682 0.032135308343118126 0 -0.0015154048124040472 0.032293507498474781 0 -0.0014029841271162749 0.03235029109034717 0 -0.0014257486128556197 0.032244023145507159 0 -0.0014029841271162749 0.03235029109034717 0 -0.0014257486128556197 0.032244023145507159 0 -0.0012979335898445127 0.032199213089659985 0 -0.0014642779256727682 0.032135308343118126 0 -0.0015718779677145595 0.032050799326742319 0 -0.0014921014982110818 0.032015434951268074 0 -0.0013724673657910668 0.032403883566131456 0 -0.0010178627487601385 0.033047401943911106 0 -0.0014642779256727682 0.032135308343118126 0 -0.0014921014982110818 0.032015434951268074 0 -0.0012979335898445127 0.032199213089659985 0 -0.0014257486128556197 0.032244023145507159 0 -0.0014642779256727682 0.032135308343118126 0 -0.0012979335898445127 0.032199213089659985 0 -0.0016541561137808152 0.032212486761066861 0 -0.0015593661606023554 0.032172960688152188 0 -0.0015718779677145595 0.032050799326742319 0 -0.0015154048124040472 0.032293507498474781 0 -0.0014642779256727682 0.032135308343118126 0 -0.0015593661606023554 0.032172960688152188 0 -0.0014642779256727682 0.032135308343118126 0 -0.0015593661606023554 0.032172960688152188 0 -0.0015718779677145595 0.032050799326742319 0 -0.001679324339427777 0.03199673334633206 0 -0.0015718779677145595 0.032050799326742319 0 -0.0015533086589760981 0.031948025939138827 0 -0.0015718779677145595 0.032050799326742319 0 -0.0014921014982110818 0.032015434951268074 0 -0.0015533086589760981 0.031948025939138827 0 -0.0012691632365433943 0.032783154768249154 0 -0.00093300705575354687 0.031968350049541017 0 -0.0015533086589760981 0.031948025939138827 0 -0.0012691632365433943 0.032783154768249154 0 -0.00068965418027904749 0.032737105438543024 0 -0.00093300705575354687 0.031968350049541017 0 -0.0013724673657910668 0.032403883566131456 0 -0.0015497165778295841 0.031979333904309383 0 -7.8460705462761918e-06 0.03498943794329086 0 -3.5153352044382174e-09 0.034999988687908698 0 -2.7251283926512935e-09 0.034999989352151428 0 -0.00034002533635365834 0.033919601819832911 0 -0.00047205300704690359 0.033343685922397052 0 -7.8460705462761918e-06 0.03498943794329086 0 -1.2428782191884651e-05 0.034983702327967783 0 -2.7251283926512935e-09 0.034999989352151428 0 -0.0012691632365433943 0.032783154768249154 0 -0.00068965418027904749 0.032737105438543024 0 -0.0005942292812384152 0.033587450410531162 0 -7.8460705462761918e-06 0.03498943794329086 0 -3.5153352044382174e-09 0.034999988687908698 0 -2.399485735043776e-06 0.034997015859692948 0 -3.5153352044382174e-09 0.034999988687908698 0 -2.399485735043776e-06 0.034997015859692948 0 -2.2605873453425491e-09 0.0349999957709069 0 -2.399485735043776e-06 0.034997015859692948 0 -5.5215139585222403e-06 0.034994626240501044 0 -2.1927819661578844e-06 0.034997683148368514 0 -7.8460705462761918e-06 0.03498943794329086 0 -2.399485735043776e-06 0.034997015859692948 0 -5.5215139585222403e-06 0.034994626240501044 0 -0.00068965418027904749 0.032737105438543024 0 -0.00047534265339886964 0.033777829671404927 0 -0.0005942292812384152 0.033587450410531162 0 -0.00034002533635365834 0.033919601819832911 0 -0.00029892669989082436 0.034282598626132622 0 -0.0012691632365433943 0.032783154768249154 0 -0.0005942292812384152 0.033587450410531162 0 -0.00076782681275289991 0.033884761044660823 0 -0.00029892669989082436 0.034282598626132622 0 -0.0004954604887458413 0.033896641693728927 0 -0.000487201055158842 0.033794914445569119 0 -0.0005942292812384152 0.033587450410531162 0 -0.00076782681275289991 0.033884761044660823 0 -0.00076782681275289991 0.033884761044660823 0 -0.0001321773541383494 0.034471105225515206 0 -0.00020021955635280407 0.034832866769170204 0 -0.0014029841271162749 0.03235029109034717 0 -0.0012979335898445127 0.032199213089659985 0 -0.0012977428915278244 0.0325331219093467 0 -0.00029892669989082436 0.034282598626132622 0 -7.0572642013577908e-05 0.03474191802867297 0 -0.0010178627487601385 0.033047401943911106 0 -0.00053997155828095823 0.033767628314308094 0 -0.000487201055158842 0.033794914445569119 0 -0.00076782681275289991 0.033884761044660823 0 -0.0001321773541383494 0.034471105225515206 0 -0.0012979335898445127 0.032199213089659985 0 -0.0008398407057261403 0.032689101879778512 0 -0.0012977428915278244 0.0325331219093467 0 -2.399485735043776e-06 0.034997015859692948 0 -2.2605873453425491e-09 0.0349999957709069 0 -2.1927819661578844e-06 0.034997683148368514 0 -5.5215139585222403e-06 0.034994626240501044 0 -2.1927819661578844e-06 0.034997683148368514 0 -1.7895964160812196e-06 0.03499910670313585 0 -2.2605873453425491e-09 0.0349999957709069 0 -2.1927819661578844e-06 0.034997683148368514 0 -1.7895964160812196e-06 0.03499910670313585 0 -0.0001321773541383494 0.034471105225515206 0 -0.00020021955635280407 0.034832866769170204 0 -2.5039766838711669e-07 0.034999185893674352 0 -7.0572642013577908e-05 0.03474191802867297 0 -2.0290824985705131e-08 0.034999897260649761 0 -2.2605873453425491e-09 0.0349999957709069 0 -1.7895964160812196e-06 0.03499910670313585 0 1.5037785585989383e-10 0.035000001272244216 0 -0.0008398407057261403 0.032689101879778512 0 -0.00075350694519983965 0.034209836323980565 0 -5.3305664685706361e-07 0.034996584500903968 0 -0.00020021955635280407 0.034832866769170204 0 -2.5039766838711669e-07 0.034999185893674352 0 2.2810850313715985e-07 0.035000722967426866 0 -0.00053997155828095823 0.033767628314308094 0 -1.1476955308750739e-07 0.034999659347708476 0 -0.0013514231290785903 0.033288895076298716 0 -0.00045163177662265147 0.033593313534042858 0 -0.0008398407057261403 0.032689101879778512 0 -0.00075350694519983965 0.034209836323980565 0 -0.0013023374935731775 0.033080301808859222 0 -0.0013023374935731775 0.033080301808859222 0 -0.0013882746460364189 0.032869312029980377 0 -0.0013313569370514528 0.032960102238920319 0 -0.00075350694519983965 0.034209836323980565 0 -0.0013023374935731775 0.033080301808859222 0 -0.0016614719812631073 0.034606490934767302 0 -0.0012435590483856375 0.032752600473183659 0 -0.0012977428915278244 0.0325331219093467 0 -0.0014312107264294633 0.032727658586107662 0 -0.0013023374935731775 0.033080301808859222 0 -0.0012435590483856375 0.032752600473183659 0 -0.0014312107264294633 0.032727658586107662 0 -0.0008398407057261403 0.032689101879778512 0 -0.0013023374935731775 0.033080301808859222 0 -0.0012435590483856375 0.032752600473183659 0 -0.0008398407057261403 0.032689101879778512 0 -0.0012435590483856375 0.032752600473183659 0 -0.0012977428915278244 0.0325331219093467 0 -0.0012977428915278244 0.0325331219093467 0 -0.0014588096049804945 0.032484884671248028 0 -0.0014312107264294633 0.032727658586107662 0 -0.0014588096049804945 0.032484884671248028 0 -0.0014312107264294633 0.032727658586107662 0 -0.0016000637904645841 0.032464941777445341 0 -0.0015154048124040472 0.032293507498474781 0 -0.0014588096049804945 0.032484884671248028 0 -0.0016000637904645841 0.032464941777445341 0 -0.0014312107264294633 0.032727658586107662 0 -0.0016000637904645841 0.032464941777445341 0 -0.0015427830597389944 0.032753528366858436 0 -0.0013023374935731775 0.033080301808859222 0 -0.0014312107264294633 0.032727658586107662 0 -0.0013882746460364189 0.032869312029980377 0 -0.0014312107264294633 0.032727658586107662 0 -0.0015427830597389944 0.032753528366858436 0 -0.0013882746460364189 0.032869312029980377 0 -0.0015427830597389944 0.032753528366858436 0 -0.0013882746460364189 0.032869312029980377 0 -0.0013313569370514528 0.032960102238920319 0 -2.0993383729632993e-05 0.031720609968551187 0 0.00039378267824085629 0.032482602271063137 0 0.0011350597651471452 0.031998733055985371 0 -0.00071098157275980829 0.032080503424773039 0 -0.00045163177662265147 0.033593313534042858 0 -0.00050846154803007118 0.032089327502820113 0 -2.0993383729632993e-05 0.031720609968551187 0 0.00039378267824085629 0.032482602271063137 0 -1.9398624503614369e-05 0.033418742266563085 0 -0.00050846154803007118 0.032089327502820113 0 0.00039378267824085629 0.032482602271063137 0 0.00079919873968926707 0.033273354793886975 0 0.00039378267824085629 0.032482602271063137 0 0.0011350597651471452 0.031998733055985371 0 0.00079919873968926707 0.033273354793886975 0 -1.9398624503614369e-05 0.033418742266563085 0 0.00039378267824085629 0.032482602271063137 0 0.00060520251424885248 0.03405789546776173 0 -0.00045163177662265147 0.033593313534042858 0 0.00012675422630383971 0.034950682360355256 0 3.0301676063387517e-05 0.035002082634736371 0 5.3233038481411251e-05 0.03504003725783203 0 -3.6718009983697271e-08 0.034999824930620843 0 3.0301676063387517e-05 0.035002082634736371 0 4.4027858338156249e-08 0.035000148585593208 0 -4.0750531706446072e-07 0.035000525309153901 0 -0.00045163177662265147 0.033593313534042858 0 -0.00075350694519983965 0.034209836323980565 0 7.2632988980308627e-07 0.035002855484324059 0 -0.0016614719812631073 0.034606490934767302 0 3.0301676063387517e-05 0.035002082634736371 0 4.4027858338156249e-08 0.035000148585593208 0 5.3233038481411251e-05 0.03504003725783203 0 -0.00075350694519983965 0.034209836323980565 0 7.2632988980308627e-07 0.035002855484324059 0 -5.3305664685706361e-07 0.034996584500903968 0 -3.6730304002217096e-06 0.034714558219554638 0 7.2458899690469113e-07 0.034871020575225675 0 -1.7320898493924317e-06 0.034780012403451084 0 7.2458899690469113e-07 0.034871020575225675 0 2.4725273764294904e-08 0.034999719573962557 0 -5.8213247196066773e-10 0.03499961942560606 0 -3.6730304002217096e-06 0.034714558219554638 0 7.2458899690469113e-07 0.034871020575225675 0 2.4725273764294904e-08 0.034999719573962557 0 -3.6730304002217096e-06 0.034714558219554638 0 2.4725273764294904e-08 0.034999719573962557 0 1.9828575174552261e-06 0.034722948746856122 0 -3.6730304002217096e-06 0.034714558219554638 0 -7.8899858502150843e-05 0.034383955672829182 0 1.9828575174552261e-06 0.034722948746856122 0 -7.0627784491889513e-05 0.034318397897706028 0 -0.00014153173940180269 0.034108616533715372 0 -7.8899858502150843e-05 0.034383955672829182 0 -5.0914804849222805e-05 0.033852929094022113 0 -7.197291974631586e-05 0.034122730599318189 0 -7.8899858502150843e-05 0.034383955672829182 0 -5.531307320477152e-05 0.034640728986812495 0 -0.00020551465755691496 0.034547936473526053 0 -3.6730304002217096e-06 0.034714558219554638 0 -5.531307320477152e-05 0.034640728986812495 0 -1.7320898493924317e-06 0.034780012403451084 0 -3.6730304002217096e-06 0.034714558219554638 0 -7.8899858502150843e-05 0.034383955672829182 0 -5.531307320477152e-05 0.034640728986812495 0 -5.531307320477152e-05 0.034640728986812495 0 -8.714090229337471e-05 0.03469608620139631 0 -1.7320898493924317e-06 0.034780012403451084 0 -0.00010856805723565901 0.034785802261746317 0 -1.4259902328589311e-05 0.034860989331434472 0 -8.714090229337471e-05 0.03469608620139631 0 -0.00023955623974637418 0.03466947847003269 0 -0.00020551465755691496 0.034547936473526053 0 -5.531307320477152e-05 0.034640728986812495 0 -8.714090229337471e-05 0.03469608620139631 0 -0.00020551465755691496 0.034547936473526053 0 -0.00010856805723565901 0.034785802261746317 0 -0.00026284928471482155 0.034751877948042423 0 -0.00012596522285302105 0.034872806291156175 0 -0.00016656810937130923 0.034905201396622912 0 -0.00028244492634952592 0.034826061801132881 0 -0.00012596522285302105 0.034872806291156175 0 -0.00016656810937130923 0.034905201396622912 0 -8.2067100717608474e-05 0.034932463972989491 0 -0.00012596522285302105 0.034872806291156175 0 -8.2067100717608474e-05 0.034932463972989491 0 -3.6220750473951906e-05 0.034935961792984513 0 -8.2067100717608474e-05 0.034932463972989491 0 -3.6220750473951906e-05 0.034935961792984513 0 -2.9168061840735142e-05 0.034975667141770125 0 -3.6220750473951906e-05 0.034935961792984513 0 -1.1665252677834604e-08 0.03499993947470191 0 -6.3201458498153723e-09 0.034999960302201379 0 -1.4259902328589311e-05 0.034860989331434472 0 1.5365607440392812e-08 0.034999933695685513 0 7.2458899690469113e-07 0.034871020575225675 0 -1.7320898493924317e-06 0.034780012403451084 0 -5.8213247196066773e-10 0.03499961942560606 0 -3.6220750473951906e-05 0.034935961792984513 0 -6.3201458498153723e-09 0.034999960302201379 0 -2.9168061840735142e-05 0.034975667141770125 0 -1.234881438084285e-08 0.034999980760154516 0 -2.9168061840735142e-05 0.034975667141770125 0 -1.7856753484447636e-05 0.034999244236556232 0 -6.3201458498153723e-09 0.034999960302201379 0 -1.234881438084285e-08 0.034999980760154516 0 -2.9168061840735142e-05 0.034975667141770125 0 -8.2067100717608474e-05 0.034932463972989491 0 -2.9168061840735142e-05 0.034975667141770125 0 -8.2203321241821703e-05 0.034974864165157583 0 -2.9168061840735142e-05 0.034975667141770125 0 -4.9546627330566654e-05 0.03499544885478844 0 -1.7856753484447636e-05 0.034999244236556232 0 -2.9168061840735142e-05 0.034975667141770125 0 -4.9546627330566654e-05 0.03499544885478844 0 -8.2203321241821703e-05 0.034974864165157583 0 -4.9546627330566654e-05 0.03499544885478844 0 -3.7363785751028568e-05 0.035006262534493265 0 -1.7856753484447636e-05 0.034999244236556232 0 -3.7363785751028568e-05 0.035006262534493265 0 -1.7856753484447636e-05 0.034999244236556232 0 -2.4948885139540587e-05 0.035017367827308583 0 -3.7363785751028568e-05 0.035006262534493265 0 -2.4948885139540587e-05 0.035017367827308583 0 -4.0272722953049575e-05 0.035012496197710768 0 -3.7363785751028568e-05 0.035006262534493265 0 -5.0778651952001602e-05 0.035008787925039579 0 -4.0272722953049575e-05 0.035012496197710768 0 -5.0778651952001602e-05 0.035008787925039579 0 -4.0272722953049575e-05 0.035012496197710768 0 -6.6200203046945044e-05 0.035017618874816553 0 -4.9546627330566654e-05 0.03499544885478844 0 -5.0778651952001602e-05 0.035008787925039579 0 -6.6200203046945044e-05 0.035017618874816553 0 1.741650827562424e-05 0.034981475528579248 0 -0.00033596488688870019 0.03479610316235944 0 -4.9546627330566654e-05 0.03499544885478844 0 -3.7363785751028568e-05 0.035006262534493265 0 -5.0778651952001602e-05 0.035008787925039579 0 -1.234881438084285e-08 0.034999980760154516 0 -1.7856753484447636e-05 0.034999244236556232 0 -5.6091512515383849e-09 0.035000043673403147 0 -1.7856753484447636e-05 0.034999244236556232 0 -5.6091512515383849e-09 0.035000043673403147 0 -2.4948885139540587e-05 0.035017367827308583 0 -7.27748619322301e-09 0.034999965125787513 0 -7.1475805558333778e-06 0.034986079874884835 0 -2.7251283926512935e-09 0.034999989352151428 0 -8.5734484405235439e-08 0.035000001907876582 0 7.4530910765264888e-05 0.034983145729370613 0 -7.1475805558333778e-06 0.034986079874884835 0 -1.2428782191884651e-05 0.034983702327967783 0 -1.855412909077531e-05 0.03497485113232171 0 -2.4948885139540587e-05 0.035017367827308583 0 -4.0272722953049575e-05 0.035012496197710768 0 -9.8113442593219399e-05 0.035018672212859946 0 -0.00047205300704690359 0.033343685922397052 0 -0.00067215004318286824 0.033921579167114052 0 7.4530910765264888e-05 0.034983145729370613 0 -0.00067215004318286824 0.033921579167114052 0 -4.0272722953049575e-05 0.035012496197710768 0 -9.8113442593219399e-05 0.035018672212859946 0 -0.00010130766606235295 0.035002888558531224 0 -7.1475805558333778e-06 0.034986079874884835 0 -1.2428782191884651e-05 0.034983702327967783 0 -2.7251283926512935e-09 0.034999989352151428 0 -0.0015533086589760981 0.031948025939138827 0 -0.0012943136646621231 0.031779786808141225 0 -0.0015656967018776815 0.031660620091769516 0 -0.00093300705575354687 0.031968350049541017 0 -0.0015533086589760981 0.031948025939138827 0 -0.0012943136646621231 0.031779786808141225 0 -0.00070343999809750421 0.034781638421556231 0 -0.00074517526688648702 0.034805115086154158 0 -0.00070420537668255197 0.034777949097741546 0 -0.00067215004318286824 0.033921579167114052 0 -0.0012007731447836358 0.033138122623401968 0 -0.0012943136646621231 0.031779786808141225 0 -0.0011164390950604115 0.03155703261610155 0 -0.0015656967018776815 0.031660620091769516 0 -0.00093300705575354687 0.031968350049541017 0 -0.0012943136646621231 0.031779786808141225 0 -0.0011164390950604115 0.03155703261610155 0 -0.00067215004318286824 0.033921579167114052 0 -0.00033596488688870019 0.03479610316235944 0 -0.00074517526688648702 0.034805115086154158 0 -0.00070420537668255197 0.034777949097741546 0 -0.00074780990187073163 0.034804606252787508 0 -0.00014244222512822431 0.035012234581085315 0 -6.5104573906466667e-05 0.035064633941565705 0 -0.00022962943638114175 0.035057681299805431 0 -0.00033596488688870019 0.03479610316235944 0 -0.00049735161234571617 0.034949326085705931 0 -0.00014244222512822431 0.035012234581085315 0 -0.00020221033225975587 0.03498561316129925 0 -0.00022962943638114175 0.035057681299805431 0 -4.9546627330566654e-05 0.03499544885478844 0 -6.6200203046945044e-05 0.035017618874816553 0 -8.2203321241821703e-05 0.034974864165157583 0 -0.00033596488688870019 0.03479610316235944 0 -4.736696360790192e-05 0.035080028460414629 0 -0.00014244222512822431 0.035012234581085315 0 -6.5104573906466667e-05 0.035064633941565705 0 -8.2203321241821703e-05 0.034974864165157583 0 -0.00016656810937130923 0.034905201396622912 0 -8.2067100717608474e-05 0.034932463972989491 0 -0.00014417212425146185 0.034960828627971161 0 -0.00014244222512822431 0.035012234581085315 0 -8.2203321241821703e-05 0.034974864165157583 0 -0.00014417212425146185 0.034960828627971161 0 -8.2067100717608474e-05 0.034932463972989491 0 -8.2203321241821703e-05 0.034974864165157583 0 -0.00014417212425146185 0.034960828627971161 0 -0.00020221033225975587 0.03498561316129925 0 -0.00014417212425146185 0.034960828627971161 0 -0.00022871760537806796 0.034931906285138967 0 -0.00014244222512822431 0.035012234581085315 0 -0.00020221033225975587 0.03498561316129925 0 -0.00014417212425146185 0.034960828627971161 0 -0.00016656810937130923 0.034905201396622912 0 -0.00014417212425146185 0.034960828627971161 0 -0.00022871760537806796 0.034931906285138967 0 -0.00016656810937130923 0.034905201396622912 0 -0.00022871760537806796 0.034931906285138967 0 -0.00028244492634952592 0.034826061801132881 0 -0.00032862282109902318 0.034906465083352982 0 -0.00022871760537806796 0.034931906285138967 0 -0.00028244492634952592 0.034826061801132881 0 -0.00032862282109902318 0.034906465083352982 0 -0.00038163581789077297 0.03494665473073845 0 -0.0002798354245314498 0.0349702490271896 0 -0.00032862282109902318 0.034906465083352982 0 -0.00022871760537806796 0.034931906285138967 0 -0.0002798354245314498 0.0349702490271896 0 -0.00020221033225975587 0.03498561316129925 0 -0.00022871760537806796 0.034931906285138967 0 -0.0002798354245314498 0.0349702490271896 0 -0.00032862282109902318 0.034906465083352982 0 -0.00049446120408537671 0.034803634907670515 0 -0.00028244492634952592 0.034826061801132881 0 -0.00032862282109902318 0.034906465083352982 0 -0.00038163581789077297 0.03494665473073845 0 -0.00049446120408537671 0.034803634907670515 0 -0.00038163581789077297 0.03494665473073845 0 -0.00051031621674920466 0.034897910296823778 0 -0.00049446120408537671 0.034803634907670515 0 -0.00061366907743336469 0.034928721826985393 0 -0.00049735161234571617 0.034949326085705931 0 -0.00038163581789077297 0.03494665473073845 0 -0.00047605078614004602 0.035018774093674328 0 -0.00022962943638114175 0.035057681299805431 0 -0.00076059287871442646 0.034851311476904859 0 -0.00074780990187073163 0.034804606252787508 0 -0.00076036942442846546 0.034842039724062364 0 -0.00038163581789077297 0.03494665473073845 0 -0.00047605078614004602 0.035018774093674328 0 -0.00051031621674920466 0.034897910296823778 0 -0.00038163581789077297 0.03494665473073845 0 -0.0002798354245314498 0.0349702490271896 0 -0.00022962943638114175 0.035057681299805431 0 -0.00020221033225975587 0.03498561316129925 0 -0.0002798354245314498 0.0349702490271896 0 -0.00022962943638114175 0.035057681299805431 0 -0.0017368974692567288 0.031889176866535612 0 -0.0015656967018776815 0.031660620091769516 0 -0.0017494093384034873 0.031723398100302266 0 -0.0012007731447836358 0.033138122623401968 0 -0.0012424754389598999 0.033295725542779056 0 -0.00074517526688648702 0.034805115086154158 0 -0.00074780990187073163 0.034804606252787508 0 -0.00076036942442846546 0.034842039724062364 0 -0.0017368974692567288 0.031889176866535612 0 -0.0017494093384034873 0.031723398100302266 0 -0.0018114064682297419 0.03181539647657923 0 -0.0017368974692567288 0.031889176866535612 0 -0.0015533086589760981 0.031948025939138827 0 -0.0015656967018776815 0.031660620091769516 0 -0.0018277872301452351 0.031858851280885302 0 -0.0018114064682297419 0.03181539647657923 0 -0.0018579447462564844 0.031822678769903613 0 -0.0018277872301452351 0.031858851280885302 0 -0.0017368974692567288 0.031889176866535612 0 -0.0018114064682297419 0.03181539647657923 0 -0.0012424754389598999 0.033295725542779056 0 -0.0013086520762741699 0.03333968945520998 0 -0.0017494093384034873 0.031723398100302266 0 -0.0018114064682297419 0.03181539647657923 0 -0.001840693152818711 0.031792140635266739 0 -0.00076059287871442646 0.034851311476904859 0 -0.00076036942442846546 0.034842039724062364 0 -0.00077148396783629754 0.034894919365633964 0 -0.0018114064682297419 0.03181539647657923 0 -0.001840693152818711 0.031792140635266739 0 -0.0018579447462564844 0.031822678769903613 0 -0.00077148396783629754 0.034894919365633964 0 -0.00078265195956495612 0.034892363446223026 0 -0.00084943707291872659 0.034888491340071881 0 -0.00076059287871442646 0.034851311476904859 0 -0.00077148396783629754 0.034894919365633964 0 -0.00078265195956495612 0.034892363446223026 0 -0.00078265195956495612 0.034892363446223026 0 -0.000626561107298515 0.034898948918218403 0 -0.00073200095318553605 0.034794647821138051 0 -0.00047605078614004602 0.035018774093674328 0 -0.00078265195956495612 0.034892363446223026 0 -0.000626561107298515 0.034898948918218403 0 -0.00061366907743336469 0.034928721826985393 0 -0.00076950139338551645 0.034899571032115662 0 -0.00047605078614004602 0.035018774093674328 0 -0.000626561107298515 0.034898948918218403 0 -0.00051031621674920466 0.034897910296823778 0 -0.00047813311225468054 0.034764524010662885 0 -0.00071572236063661488 0.034799709318996973 0 -0.00051031621674920466 0.034897910296823778 0 -0.00049446120408537671 0.034803634907670515 0 -0.00073200095318553605 0.034794647821138051 0 -0.000626561107298515 0.034898948918218403 0 -0.00051031621674920466 0.034897910296823778 0 -0.00073200095318553605 0.034794647821138051 0 -0.00044421869497532118 0.034723002180693054 0 -0.00073200095318553605 0.034794647821138051 0 -0.00074796361295660575 0.034668335265433545 0 -0.00068800800904008784 0.034561837979043393 0 -0.00052749959671225932 0.034424345564119427 0 -0.00064272115976703919 0.03445366948773939 0 -0.00068413581976215269 0.034292995812156155 0 -0.00051606638825576426 0.034423253673020758 0 -0.00068413581976215269 0.034292995812156155 0 -0.00051606638825576426 0.034423253673020758 0 -0.00067116702481106463 0.034168027637403016 0 -0.00044421869497532118 0.034723002180693054 0 -0.00074796361295660575 0.034668335265433545 0 -0.00051606638825576426 0.034423253673020758 0 -0.00044421869497532118 0.034723002180693054 0 -0.00051606638825576426 0.034423253673020758 0 -0.00034814464612244899 0.034553574693298811 0 -0.00047813311225468054 0.034764524010662885 0 -0.00026284928471482155 0.034751877948042423 0 -0.00044421869497532118 0.034723002180693054 0 -0.00023955623974637418 0.03466947847003269 0 -0.00034814464612244899 0.034553574693298811 0 -0.00023955623974637418 0.03466947847003269 0 -0.00020551465755691496 0.034547936473526053 0 -0.00034814464612244899 0.034553574693298811 0 -0.00051606638825576426 0.034423253673020758 0 -0.00034814464612244899 0.034553574693298811 0 -0.00036146599889342088 0.034427725225785348 0 -0.00020551465755691496 0.034547936473526053 0 -0.00034814464612244899 0.034553574693298811 0 -0.00036146599889342088 0.034427725225785348 0 -0.00036146599889342088 0.034427725225785348 0 -0.00027102003468664409 0.034343331161898562 0 -0.00046618999826253523 0.034268807733142323 0 -0.00020551465755691496 0.034547936473526053 0 -0.00036146599889342088 0.034427725225785348 0 -0.00027102003468664409 0.034343331161898562 0 -7.8899858502150843e-05 0.034383955672829182 0 -0.00020551465755691496 0.034547936473526053 0 -0.00027102003468664409 0.034343331161898562 0 -5.0914804849222805e-05 0.033852929094022113 0 1.7627867261876801e-05 0.033528431624111669 0 -8.1964429964825137e-06 0.033731985569698981 0 -0.00014153173940180269 0.034108616533715372 0 -0.00022057812823637288 0.033901737784259728 0 1.7627867261876801e-05 0.033528431624111669 0 2.3911485433385748e-05 0.033477864536493825 0 8.7008052826354976e-06 0.033375871302701421 0 1.7627867261876801e-05 0.033528431624111669 0 2.3911485433385748e-05 0.033477864536493825 0 -8.1964429964825137e-06 0.033731985569698981 0 8.7008052826354976e-06 0.033375871302701421 0 -6.9147743349586414e-05 0.033230750304575424 0 -4.6085035334099148e-06 0.033309768504296941 0 2.3911485433385748e-05 0.033477864536493825 0 8.7008052826354976e-06 0.033375871302701421 0 -4.6085035334099148e-06 0.033309768504296941 0 -0.00022057812823637288 0.033901737784259728 0 -0.00033553192839273299 0.03378004992880855 0 -0.00051606638825576426 0.034423253673020758 0 -0.00046618999826253523 0.034268807733142323 0 -0.00067116702481106463 0.034168027637403016 0 -0.00051606638825576426 0.034423253673020758 0 -0.00036146599889342088 0.034427725225785348 0 -0.00046618999826253523 0.034268807733142323 0 -0.00026233708361899353 0.033296397963825219 0 -0.00019998928404532667 0.033435439419964165 0 -0.00013744271838257279 0.033302600823699506 0 -0.00026233708361899353 0.033296397963825219 0 -0.00019998928404532667 0.033435439419964165 0 -0.00046278135266586824 0.033275699918799972 0 -0.00026233708361899353 0.033296397963825219 0 -0.00024064247061251633 0.03315956599140784 0 -0.00046278135266586824 0.033275699918799972 0 8.7008052826354976e-06 0.033375871302701421 0 -0.00019998928404532667 0.033435439419964165 0 -0.00013744271838257279 0.033302600823699506 0 -0.00067116702481106463 0.034168027637403016 0 -0.00087854130453909646 0.034035522587780163 0 -0.00087715537844473737 0.034070585878910285 0 -0.00033553192839273299 0.03378004992880855 0 -0.00056260506757598396 0.033732155213155667 0 -0.00013744271838257279 0.033302600823699506 0 -6.9147743349586414e-05 0.033230750304575424 0 -0.00024064247061251633 0.03315956599140784 0 8.7008052826354976e-06 0.033375871302701421 0 -0.00013744271838257279 0.033302600823699506 0 -6.9147743349586414e-05 0.033230750304575424 0 -6.9147743349586414e-05 0.033230750304575424 0 -6.7502403829809306e-05 0.033129934926492056 0 -4.6085035334099148e-06 0.033309768504296941 0 -6.9147743349586414e-05 0.033230750304575424 0 -0.00024064247061251633 0.03315956599140784 0 -0.00015401706052327869 0.033024231253305225 0 -0.00024064247061251633 0.03315956599140784 0 -0.00031486713453028522 0.032942672562927072 0 -0.00015401706052327869 0.033024231253305225 0 -0.00026233708361899353 0.033296397963825219 0 -0.00013744271838257279 0.033302600823699506 0 -0.00024064247061251633 0.03315956599140784 0 -0.00024064247061251633 0.03315956599140784 0 -0.00053381057093483989 0.032960618054614012 0 -0.00046278135266586824 0.033275699918799972 0 -0.00024064247061251633 0.03315956599140784 0 -0.00031486713453028522 0.032942672562927072 0 -0.00053381057093483989 0.032960618054614012 0 -0.00053381057093483989 0.032960618054614012 0 -0.00094365366176161591 0.033132690521911472 0 -0.00046278135266586824 0.033275699918799972 0 -0.00053381057093483989 0.032960618054614012 0 -0.00094365366176161591 0.033132690521911472 0 -0.00077825844007704185 0.032600962470176888 0 -0.0012246159275954452 0.032557684195701167 0 -0.00094365366176161591 0.033132690521911472 0 -0.0014611348792214738 0.03304285131855314 0 -0.0012246159275954452 0.032557684195701167 0 -0.00094365366176161591 0.033132690521911472 0 -0.00077825844007704185 0.032600962470176888 0 -0.00094365366176161591 0.033132690521911472 0 -0.00083546255523587532 0.033667859221131996 0 -0.0013560650141289344 0.033761000531928161 0 -0.00094365366176161591 0.033132690521911472 0 -0.00046278135266586824 0.033275699918799972 0 -0.00083546255523587532 0.033667859221131996 0 -0.00056260506757598396 0.033732155213155667 0 -0.00083473468068173131 0.033696658637399922 0 -0.00019998928404532667 0.033435439419964165 0 -0.00046278135266586824 0.033275699918799972 0 -0.00083546255523587532 0.033667859221131996 0 -0.00084976895836478444 0.033836560077044997 0 -0.00094812757585134078 0.033800545941669792 0 -0.000853623143948008 0.03389283403757707 0 -0.00087854130453909646 0.034035522587780163 0 -0.00083546255523587532 0.033667859221131996 0 -0.000853623143948008 0.03389283403757707 0 -0.00083546255523587532 0.033667859221131996 0 -0.00084976895836478444 0.033836560077044997 0 -0.000853623143948008 0.03389283403757707 0 -0.00083546255523587532 0.033667859221131996 0 -0.00084976895836478444 0.033836560077044997 0 -0.0013560650141289344 0.033761000531928161 0 -0.0009471350307080561 0.033876185957148176 0 -0.00084976895836478444 0.033836560077044997 0 -0.0013560650141289344 0.033761000531928161 0 -0.0012334898645666389 0.033354442730141022 0 -0.0016875793293233601 0.033048869023209304 0 -0.0014947210269765341 0.032835843047247876 0 -0.0017048252245138403 0.033263062548445924 0 -0.0019503002919961658 0.032837886750402091 0 -0.0009471350307080561 0.033876185957148176 0 -0.00084976895836478444 0.033836560077044997 0 -0.00092311844344099758 0.033749961151864329 0 -0.00084976895836478444 0.033836560077044997 0 -0.00092311844344099758 0.033749961151864329 0 -0.00094812757585134078 0.033800545941669792 0 -0.00099633592370809384 0.034429813667246456 0 -0.00083531818732412099 0.034499646776402645 0 -0.00093333869896830156 0.03457964584721706 0 -0.00099633592370809384 0.034429813667246456 0 -0.00079491824651664535 0.03434941158869604 0 -0.00083531818732412099 0.034499646776402645 0 -0.00094812757585134078 0.033800545941669792 0 -0.00087715537844473737 0.034070585878910285 0 -0.000853623143948008 0.03389283403757707 0 -0.00099633592370809384 0.034429813667246456 0 -0.00087715537844473737 0.034070585878910285 0 -0.00079491824651664535 0.03434941158869604 0 -0.0009497595325676986 0.034059266326670654 0 -0.00089684386267039891 0.034078671116804127 0 -0.00087854130453909646 0.034035522587780163 0 -0.00087715537844473737 0.034070585878910285 0 -0.000853623143948008 0.03389283403757707 0 -0.00068413581976215269 0.034292995812156155 0 -0.00087715537844473737 0.034070585878910285 0 -0.00079491824651664535 0.03434941158869604 0 -0.00068413581976215269 0.034292995812156155 0 -0.00067116702481106463 0.034168027637403016 0 -0.00087715537844473737 0.034070585878910285 0 -0.00064272115976703919 0.03445366948773939 0 -0.00079491824651664535 0.03434941158869604 0 -0.00083531818732412099 0.034499646776402645 0 -0.00064272115976703919 0.03445366948773939 0 -0.00068413581976215269 0.034292995812156155 0 -0.00079491824651664535 0.03434941158869604 0 -0.00078265195956495612 0.034892363446223026 0 -0.00073200095318553605 0.034794647821138051 0 -0.00088010001370077086 0.034827542285226332 0 -0.00068800800904008784 0.034561837979043393 0 -0.00086371239205712449 0.034751562426247828 0 -0.00073200095318553605 0.034794647821138051 0 -0.00074796361295660575 0.034668335265433545 0 -0.00088010001370077086 0.034827542285226332 0 -0.00064272115976703919 0.03445366948773939 0 -0.00083531818732412099 0.034499646776402645 0 -0.00083484339894449098 0.034676133563375039 0 -0.00099633592370809384 0.034429813667246456 0 -0.00093333869896830156 0.03457964584721706 0 -0.0010694209301080927 0.034682560372035903 0 -0.0009497595325676986 0.034059266326670654 0 -0.0010231842890493323 0.034363599500976928 0 -0.00083484339894449098 0.034676133563375039 0 -0.00093333869896830156 0.03457964584721706 0 -0.0010694209301080927 0.034682560372035903 0 -0.00083531818732412099 0.034499646776402645 0 -0.00083484339894449098 0.034676133563375039 0 -0.00093333869896830156 0.03457964584721706 0 -0.00086371239205712449 0.034751562426247828 0 -0.0010113728635238943 0.034887089416021068 0 -0.00088010001370077086 0.034827542285226332 0 -0.00084943707291872659 0.034888491340071881 0 -0.001020618688805913 0.034889301515927847 0 -0.00083484339894449098 0.034676133563375039 0 -0.001020618688805913 0.034889301515927847 0 -0.0010694209301080927 0.034682560372035903 0 -0.00078265195956495612 0.034892363446223026 0 -0.00088010001370077086 0.034827542285226332 0 -0.00084943707291872659 0.034888491340071881 0 -0.00077148396783629754 0.034894919365633964 0 -0.00084943707291872659 0.034888491340071881 0 -0.00089547178023319598 0.03492802486002812 0 -0.0013086520762741699 0.03333968945520998 0 -0.0013771297453696524 0.03338041089258699 0 -0.001840693152818711 0.031792140635266739 0 -0.0018600449874625416 0.031830891146874651 0 -0.0018579447462564844 0.031822678769903613 0 -0.00084943707291872659 0.034888491340071881 0 -0.00089547178023319598 0.03492802486002812 0 -0.001020618688805913 0.034889301515927847 0 -0.00089547178023319598 0.03492802486002812 0 -0.001020618688805913 0.034889301515927847 0 -0.0011348799044124385 0.034909518526212088 0 -0.0018600449874625416 0.031830891146874651 0 -0.0018544737378734864 0.031826048860809093 0 -0.0018385158371937353 0.031851286610031657 0 -0.0013771297453696524 0.03338041089258699 0 -0.0014837446652470249 0.033351763721550756 0 -0.0018600449874625416 0.031830891146874651 0 -0.0018596153023808404 0.031824686698936316 0 -0.0018544737378734864 0.031826048860809093 0 -0.001862920423759301 0.031819100012675343 0 -0.0018552041573320765 0.03181485309411352 0 -0.0018544737378734864 0.031826048860809093 0 -0.001862920423759301 0.031819100012675343 0 -0.0018596153023808404 0.031824686698936316 0 -0.0018544737378734864 0.031826048860809093 0 -0.001862920423759301 0.031819100012675343 0 -0.0018596153023808404 0.031824686698936316 0 -0.0018579447462564844 0.031822678769903613 0 -0.0018600449874625416 0.031830891146874651 0 -0.0018596153023808404 0.031824686698936316 0 -0.0018579447462564844 0.031822678769903613 0 -0.0019868361019872677 0.030730825368493652 0 -0.0019835001589478419 0.03072924257664171 0 -0.0019858481647216757 0.030722808431223336 0 -0.001937065646210673 0.032190377394478976 0 -0.0018728707057543638 0.032349194566281603 0 -0.0018424798428927189 0.032268156932543764 0 -0.0019102214675228617 0.031499377223699949 0 -0.0014837446652470249 0.033351763721550756 0 -0.0019102214675228617 0.031499377223699949 0 -0.0019435578486499976 0.031463092508694827 0 -0.0018242096540537968 0.031819706160367611 0 -0.0018435093208184984 0.03182026202286186 0 -0.0018385158371937353 0.031851286610031657 0 -0.0018544737378734864 0.031826048860809093 0 -0.0018435093208184984 0.03182026202286186 0 -0.0018385158371937353 0.031851286610031657 0 -0.0018552041573320765 0.03181485309411352 0 -0.0018544737378734864 0.031826048860809093 0 -0.0018435093208184984 0.03182026202286186 0 -0.001937065646210673 0.032190377394478976 0 -0.0019989781771383693 0.032357189577573248 0 -0.0018728707057543638 0.032349194566281603 0 -0.0011803841874099565 0.034187979852021114 0 -0.0014005416507491466 0.033950884007722552 0 -0.0017850353078962787 0.034207644750151985 0 -0.0014837446652470249 0.033351763721550756 0 -0.0018683547629517281 0.033315395663032127 0 -0.0017598526423891756 0.033854742763683977 0 -0.0014005416507491466 0.033950884007722552 0 -0.0017850353078962787 0.034207644750151985 0 -0.0017598526423891756 0.033854742763683977 0 -0.0014005416507491466 0.033950884007722552 0 -0.0014818374932866456 0.033774746784581415 0 -0.0014005416507491466 0.033950884007722552 0 -0.001292368997157468 0.03373158501602401 0 -0.0011483800081757824 0.033844299584480403 0 -0.0014005416507491466 0.033950884007722552 0 -0.0014818374932866456 0.033774746784581415 0 -0.001292368997157468 0.03373158501602401 0 -0.0014818374932866456 0.033774746784581415 0 -0.001292368997157468 0.03373158501602401 0 -0.0014634740284510646 0.033629172053980048 0 -0.001292368997157468 0.03373158501602401 0 -0.0014634740284510646 0.033629172053980048 0 -0.0013323927637748961 0.033464658375316127 0 -0.0014818374932866456 0.033774746784581415 0 -0.0014634740284510646 0.033629172053980048 0 -0.0016996280995134898 0.033593675213242816 0 -0.0017598526423891756 0.033854742763683977 0 -0.0014818374932866456 0.033774746784581415 0 -0.0016996280995134898 0.033593675213242816 0 -0.0014837446652470249 0.033351763721550756 0 -0.0010231842890493323 0.034363599500976928 0 -0.001020618688805913 0.034889301515927847 0 -0.0011348799044124385 0.034909518526212088 0 -0.0010694209301080927 0.034682560372035903 0 -0.0011803841874099565 0.034187979852021114 0 -0.0011483800081757824 0.033844299584480403 0 -0.00094471342129647429 0.033582271555251217 0 -0.0011803841874099565 0.034187979852021114 0 -0.0014005416507491466 0.033950884007722552 0 -0.0011483800081757824 0.033844299584480403 0 -0.0011483800081757824 0.033844299584480403 0 -0.0010452045169574498 0.033661042297904981 0 -0.00094471342129647429 0.033582271555251217 0 -0.001292368997157468 0.03373158501602401 0 -0.0011386493571090871 0.033656576978221012 0 -0.0013323927637748961 0.033464658375316127 0 -0.001292368997157468 0.03373158501602401 0 -0.0011483800081757824 0.033844299584480403 0 -0.0011386493571090871 0.033656576978221012 0 -0.0010452045169574498 0.033661042297904981 0 -0.0011386493571090871 0.033656576978221012 0 -0.00094061784061500624 0.033584909767951032 0 -0.0011483800081757824 0.033844299584480403 0 -0.0010452045169574498 0.033661042297904981 0 -0.0011386493571090871 0.033656576978221012 0 -0.0012334898645666389 0.033354442730141022 0 -0.00097190963278522794 0.033566878663353082 0 -0.00092311844344099758 0.033749961151864329 0 -0.00094812757585134078 0.033800545941669792 0 -0.00094471342129647429 0.033582271555251217 0 -0.0009471350307080561 0.033876185957148176 0 -0.00092311844344099758 0.033749961151864329 0 -0.00094061784061500624 0.033584909767951032 0 -0.0014947210269765341 0.032835843047247876 0 -0.00094061784061500624 0.033584909767951032 0 -0.0013323927637748961 0.033464658375316127 0 -0.00092311844344099758 0.033749961151864329 0 -0.00094471342129647429 0.033582271555251217 0 -0.00094061784061500624 0.033584909767951032 0 -0.0010452045169574498 0.033661042297904981 0 -0.00094471342129647429 0.033582271555251217 0 -0.00094061784061500624 0.033584909767951032 0 -0.0011386493571090871 0.033656576978221012 0 -0.00094061784061500624 0.033584909767951032 0 -0.0013323927637748961 0.033464658375316127 0 -0.0014947210269765341 0.032835843047247876 0 -0.0013323927637748961 0.033464658375316127 0 -0.0017048252245138403 0.033263062548445924 0 -0.0014634740284510646 0.033629172053980048 0 -0.0016996280995134898 0.033593675213242816 0 -0.0017048252245138403 0.033263062548445924 0 -0.0016996280995134898 0.033593675213242816 0 -0.0017048252245138403 0.033263062548445924 0 -0.001933494338877535 0.033394597650817946 0 -0.0014634740284510646 0.033629172053980048 0 -0.0013323927637748961 0.033464658375316127 0 -0.0017048252245138403 0.033263062548445924 0 -0.0017048252245138403 0.033263062548445924 0 -0.0020133462186636749 0.033127438085465401 0 -0.0019503002919961658 0.032837886750402091 0 -0.0020133462186636749 0.033127438085465401 0 -0.0022210510484677931 0.033094711604602471 0 -0.0021682389612029153 0.032915625718322981 0 -0.0022210510484677931 0.033094711604602471 0 -0.0021197136244868763 0.033284889706402934 0 -0.0023080609117832624 0.033287331463607565 0 -0.0020133462186636749 0.033127438085465401 0 -0.0022210510484677931 0.033094711604602471 0 -0.0021197136244868763 0.033284889706402934 0 -0.0021197136244868763 0.033284889706402934 0 -0.0023080609117832624 0.033287331463607565 0 -0.0021863494852208619 0.033526247107353434 0 -0.0021197136244868763 0.033284889706402934 0 -0.001933494338877535 0.033394597650817946 0 -0.0021863494852208619 0.033526247107353434 0 -0.0017048252245138403 0.033263062548445924 0 -0.0020133462186636749 0.033127438085465401 0 -0.001933494338877535 0.033394597650817946 0 -0.0020133462186636749 0.033127438085465401 0 -0.0021197136244868763 0.033284889706402934 0 -0.001933494338877535 0.033394597650817946 0 -0.0024257214496439129 0.033038564962797293 0 -0.0026199188889451282 0.033112857853883577 0 -0.0025613567113555256 0.032892299231336866 0 -0.0024257214496439129 0.033038564962797293 0 -0.0025613567113555256 0.032892299231336866 0 -0.0023519473185774045 0.032884069911161704 0 -0.0022210510484677931 0.033094711604602471 0 -0.0024257214496439129 0.033038564962797293 0 -0.0023519473185774045 0.032884069911161704 0 -0.0022210510484677931 0.033094711604602471 0 -0.0024257214496439129 0.033038564962797293 0 -0.0023901672293043311 0.033180029095328002 0 -0.0022210510484677931 0.033094711604602471 0 -0.0023080609117832624 0.033287331463607565 0 -0.0025250281109064797 0.033494522093473492 0 -0.0023121087040593887 0.033052858696886948 0 -0.0028066464139300138 0.033272591606567793 0 -0.0023080609117832624 0.033287331463607565 0 -0.0024745244750525694 0.033455541400264396 0 -0.0021863494852208619 0.033526247107353434 0 -0.0025398190350583499 0.033213927681814019 0 -0.0028066464139300138 0.033272591606567793 0 -0.0024257214496439129 0.033038564962797293 0 -0.0023901672293043311 0.033180029095328002 0 -0.0026199188889451282 0.033112857853883577 0 -0.0023901672293043311 0.033180029095328002 0 -0.0026252166108913701 0.033355892964889187 0 -0.0026199188889451282 0.033112857853883577 0 -0.0033203265364015011 0.032720443925916595 0 -0.0013553401857220372 0.030924438159451475 0 -0.0016766468885357749 0.03067288660124657 0 -0.0024745244750525694 0.033455541400264396 0 -0.0023914330713705216 0.03378553183841685 0 -0.0028096489892216097 0.033874139645339765 0 -0.0028066464139300138 0.033272591606567793 0 -0.0018299500486886802 0.031265932566710515 0 -0.0028066464139300138 0.033272591606567793 0 -0.0019636493737003585 0.029909458012162524 0 -0.0024745244750525694 0.033455541400264396 0 -0.0023914330713705216 0.03378553183841685 0 -0.0021863494852208619 0.033526247107353434 0 -0.0023914330713705216 0.03378553183841685 0 -0.0020710151421708864 0.033865760986137139 0 -0.0024080084752841941 0.03420127125821857 0 -0.0023914330713705216 0.03378553183841685 0 -0.0024080084752841941 0.03420127125821857 0 -0.0028096489892216097 0.033874139645339765 0 -0.001933494338877535 0.033394597650817946 0 -0.0019119185262638921 0.033639326879777422 0 -0.0021863494852208619 0.033526247107353434 0 -0.0017598526423891756 0.033854742763683977 0 -0.0016996280995134898 0.033593675213242816 0 -0.0019119185262638921 0.033639326879777422 0 -0.0016996280995134898 0.033593675213242816 0 -0.001933494338877535 0.033394597650817946 0 -0.0019119185262638921 0.033639326879777422 0 -0.0023914330713705216 0.03378553183841685 0 -0.0021863494852208619 0.033526247107353434 0 -0.0020710151421708864 0.033865760986137139 0 -0.0019119185262638921 0.033639326879777422 0 -0.0021863494852208619 0.033526247107353434 0 -0.0020710151421708864 0.033865760986137139 0 -0.0017598526423891756 0.033854742763683977 0 -0.0019119185262638921 0.033639326879777422 0 -0.0020710151421708864 0.033865760986137139 0 -0.0017598526423891756 0.033854742763683977 0 -0.0020710151421708864 0.033865760986137139 0 -0.0017850353078962787 0.034207644750151985 0 -0.0018683547629517281 0.033315395663032127 0 -0.0019923361972809888 0.031977358253833764 0 -0.0018728707057543638 0.032349194566281603 0 -0.001753095109614716 0.032340503696312979 0 -0.0018424798428927189 0.032268156932543764 0 -0.0020710151421708864 0.033865760986137139 0 -0.0017850353078962787 0.034207644750151985 0 -0.0024080084752841941 0.03420127125821857 0 -0.0019923361972809888 0.031977358253833764 0 -0.0019435578486499976 0.031463092508694827 0 -0.0019861215721027788 0.030717868538637023 0 -0.0019897359797797567 0.030718905190798399 0 -0.0019828612897003152 0.030706547306451525 0 -0.0019923361972809888 0.031977358253833764 0 -0.0015544111645718135 0.029489965053498077 0 -0.0019441492588980387 0.030850356392553471 0 -0.0016065071898410544 0.030830913167290336 0 -0.0017417355932209722 0.0310029400294894 0 -0.0019923361972809888 0.031977358253833764 0 -0.0018299500486886802 0.031265932566710515 0 -0.0019868361019872677 0.030730825368493652 0 -0.0019897359797797567 0.030718905190798399 0 -0.0019858481647216757 0.030722808431223336 0 -0.0019861215721027788 0.030717868538637023 0 -0.0019897359797797567 0.030718905190798399 0 -0.0019858481647216757 0.030722808431223336 0 -0.00055427836369741404 0.027339657006784594 0 -3.5021545079457437e-05 0.026514109203562949 0 -0.0021540250267624949 0.030174355779394882 0 -0.0025976228192296173 0.030087183589639518 0 -0.0024967920683789846 0.030444423691437315 0 -0.0006225077152836085 0.027863219489400608 0 -0.00080423948762063386 0.02822792622037416 0 -0.00045016802356055501 0.027900796647956565 0 -0.0013975324286216622 0.029020131872576859 0 -0.0014888531032207785 0.029340725758033322 0 -0.0028846477399619573 0.03001507459331592 0 -0.0025976228192296173 0.030087183589639518 0 -0.0024967920683789846 0.030444423691437315 0 -0.0025632594728302312 0.030455805677611449 0 -0.0014888531032207785 0.029340725758033322 0 -0.0019897359797797567 0.030718905190798399 0 -0.001982667358383268 0.030704534662979722 0 -0.0019828612897003152 0.030706547306451525 0 -0.0014888531032207785 0.029340725758033322 0 -0.0015544111645718135 0.029489965053498077 0 -0.0014888531032207785 0.029340725758033322 0 -0.00055427836369741404 0.027339657006784594 0 -0.001127318003745183 0.028343841218839781 0 -0.001307409285304782 0.028565847793203432 0 -0.00095214898731914288 0.02855457867878726 0 -0.0015544111645718135 0.029489965053498077 0 -0.0018299500486886802 0.031265932566710515 0 -0.00055427836369741404 0.027339657006784594 0 -0.0019636493737003585 0.029909458012162524 0 -0.001352815405248632 0.028742063336361572 0 -0.00044804127310873988 0.028717608048745114 0 -0.002144246783498218 0.030263296910945755 0 -0.0015544111645718135 0.029489965053498077 0 -0.00055427836369741404 0.027339657006784594 0 3.8987831285509481e-05 0.025480655700859452 0 0.00010701362205535657 0.025488034476723195 0 0.00019877051759725368 0.025684208137751866 0 -0.0006225077152836085 0.027863219489400608 0 -0.00086463494952664685 0.028158276420910924 0 -0.00080423948762063386 0.02822792622037416 0 -0.00023804924130434236 0.025466100280096951 0 -0.00028463654536116286 0.025468754564689406 0 -0.00021255366016377516 0.025642969880317994 0 -4.7339484342805224e-05 0.025489808038237683 0 0.00021639641940699963 0.025409346227457209 0 0.00029198949574925966 0.025286225000422519 0 -0.00023533066401112114 0.026365606435071444 0 8.1171936182094031e-05 0.025932192836292039 0 -9.476861797017338e-06 0.025490341546525085 0 -4.7339484342805224e-05 0.025489808038237683 0 0.00021639641940699963 0.025409346227457209 0 -9.476861797017338e-06 0.025490341546525085 0 0.00010701362205535657 0.025488034476723195 0 0.00021639641940699963 0.025409346227457209 0 -0.00023533066401112114 0.026365606435071444 0 -0.00055427836369741404 0.027339657006784594 0 -0.00023804924130434236 0.025466100280096951 0 -0.00021255366016377516 0.025642969880317994 0 0.00019877051759725368 0.025684208137751866 0 -0.00021255366016377516 0.025642969880317994 0 -0.00020906817316438669 0.025900107428641999 0 0.00019877051759725368 0.025684208137751866 0 -0.00023533066401112114 0.026365606435071444 0 0.00017609029275875301 0.025403981710127452 0 -0.0026252166108913701 0.033355892964889187 0 -0.0026199188889451282 0.033112857853883577 0 -0.0029632823714916892 0.033089913207571466 0 -0.0019636493737003585 0.029909458012162524 0 -0.0015857296039714923 0.0294192855630292 0 -0.00021255366016377516 0.025642969880317994 0 -0.00052311830298736907 0.025696225719926698 0 -0.00020906817316438669 0.025900107428641999 0 -0.00028463654536116286 0.025468754564689406 0 -0.00021255366016377516 0.025642969880317994 0 -0.00052311830298736907 0.025696225719926698 0 -0.001352815405248632 0.028742063336361572 0 -0.002144246783498218 0.030263296910945755 0 -0.0024106297038737636 0.030055211777478431 0 -0.0019636493737003585 0.029909458012162524 0 -0.0018299500486886802 0.031265932566710515 0 -0.0026199188889451282 0.033112857853883577 0 -0.0027678345925907875 0.032933230562726554 0 -0.0029632823714916892 0.033089913207571466 0 -0.0026199188889451282 0.033112857853883577 0 -0.0027678345925907875 0.032933230562726554 0 -0.0025613567113555256 0.032892299231336866 0 -0.0029632823714916892 0.033089913207571466 0 -0.0029472380565347027 0.032796342452942613 0 -0.0032937459792184523 0.032786581407161376 0 -0.0015857296039714923 0.0294192855630292 0 -0.0015064511035937649 0.02979817830899931 0 -0.0027678345925907875 0.032933230562726554 0 -0.0029632823714916892 0.033089913207571466 0 -0.0029472380565347027 0.032796342452942613 0 -0.0029472380565347027 0.032796342452942613 0 -0.0030812477835229328 0.032575697449554228 0 -0.0032937459792184523 0.032786581407161376 0 -0.0029472380565347027 0.032796342452942613 0 -0.0030812477835229328 0.032575697449554228 0 -0.0028843400135151473 0.032588728463324945 0 -0.0030812477835229328 0.032575697449554228 0 -0.0031094856300187164 0.032399734461197573 0 -0.0032606954264970023 0.032494697670003389 0 -0.0030812477835229328 0.032575697449554228 0 -0.0031094856300187164 0.032399734461197573 0 -0.0029745905003817825 0.032418125226833024 0 -0.0030812477835229328 0.032575697449554228 0 -0.0029745905003817825 0.032418125226833024 0 -0.0028843400135151473 0.032588728463324945 0 -0.0029745905003817825 0.032418125226833024 0 -0.0029272719054750799 0.03228851706785664 0 -0.0027856116163733533 0.032386518482650943 0 -0.0029745905003817825 0.032418125226833024 0 -0.0029272719054750799 0.03228851706785664 0 -0.0030380110947630895 0.03229864525435143 0 -0.0031094856300187164 0.032399734461197573 0 -0.0030380110947630895 0.03229864525435143 0 -0.0031829831580204998 0.032219844335283493 0 -0.0031094856300187164 0.032399734461197573 0 -0.0029745905003817825 0.032418125226833024 0 -0.0030380110947630895 0.03229864525435143 0 -0.0027856116163733533 0.032386518482650943 0 -0.002579128987401294 0.032265226386332363 0 -0.0028249082942319211 0.032179178952515382 0 -0.0027856116163733533 0.032386518482650943 0 -0.0025535872831059627 0.032484692413641464 0 -0.002579128987401294 0.032265226386332363 0 -0.0029272719054750799 0.03228851706785664 0 -0.0027856116163733533 0.032386518482650943 0 -0.0028249082942319211 0.032179178952515382 0 -0.0027856116163733533 0.032386518482650943 0 -0.0027083896131023101 0.03256894414666292 0 -0.0028843400135151473 0.032588728463324945 0 -0.0029745905003817825 0.032418125226833024 0 -0.0027856116163733533 0.032386518482650943 0 -0.0028843400135151473 0.032588728463324945 0 -0.0027856116163733533 0.032386518482650943 0 -0.0027083896131023101 0.03256894414666292 0 -0.0025535872831059627 0.032484692413641464 0 -0.0027083896131023101 0.03256894414666292 0 -0.0025152601930774278 0.032689919511103969 0 -0.0025535872831059627 0.032484692413641464 0 -0.0027083896131023101 0.03256894414666292 0 -0.0026438654476036989 0.032715426313183117 0 -0.0027500737806414694 0.032775833044047645 0 -0.0027083896131023101 0.03256894414666292 0 -0.0026438654476036989 0.032715426313183117 0 -0.0025152601930774278 0.032689919511103969 0 -0.0027083896131023101 0.03256894414666292 0 -0.0028843400135151473 0.032588728463324945 0 -0.0027500737806414694 0.032775833044047645 0 -0.0027678345925907875 0.032933230562726554 0 -0.0029472380565347027 0.032796342452942613 0 -0.0027500737806414694 0.032775833044047645 0 -0.0029472380565347027 0.032796342452942613 0 -0.0028843400135151473 0.032588728463324945 0 -0.0027500737806414694 0.032775833044047645 0 -0.0027678345925907875 0.032933230562726554 0 -0.0027500737806414694 0.032775833044047645 0 -0.0025613567113555256 0.032892299231336866 0 -0.0026438654476036989 0.032715426313183117 0 -0.0027500737806414694 0.032775833044047645 0 -0.0025613567113555256 0.032892299231336866 0 -0.0026438654476036989 0.032715426313183117 0 -0.0025613567113555256 0.032892299231336866 0 -0.0025152601930774278 0.032689919511103969 0 -0.0025613567113555256 0.032892299231336866 0 -0.0023519473185774045 0.032884069911161704 0 -0.0025152601930774278 0.032689919511103969 0 -0.0023519473185774045 0.032884069911161704 0 -0.0022643336268216305 0.032666791465482445 0 -0.0021682389612029153 0.032915625718322981 0 -0.0023519473185774045 0.032884069911161704 0 -0.0022643336268216305 0.032666791465482445 0 -0.0025152601930774278 0.032689919511103969 0 -0.0022643336268216305 0.032666791465482445 0 -0.0025152601930774278 0.032689919511103969 0 -0.0025535872831059627 0.032484692413641464 0 -0.0022643336268216305 0.032666791465482445 0 -0.0019503002919961658 0.032837886750402091 0 -0.0020081641108342049 0.032358327843249518 0 -0.0014947210269765341 0.032835843047247876 0 -0.0019503002919961658 0.032837886750402091 0 -0.0020081641108342049 0.032358327843249518 0 -0.0022643336268216305 0.032666791465482445 0 -0.0019503002919961658 0.032837886750402091 0 -0.0021682389612029153 0.032915625718322981 0 -0.0020133462186636749 0.033127438085465401 0 -0.0019503002919961658 0.032837886750402091 0 -0.0021682389612029153 0.032915625718322981 0 -0.0022210510484677931 0.033094711604602471 0 -0.0023519473185774045 0.032884069911161704 0 -0.0021682389612029153 0.032915625718322981 0 -0.0022643336268216305 0.032666791465482445 0 -0.0020081641108342049 0.032358327843249518 0 -0.0023697955959081102 0.032348744632042098 0 -0.0022643336268216305 0.032666791465482445 0 -0.0025535872831059627 0.032484692413641464 0 -0.0023697955959081102 0.032348744632042098 0 -0.0025535872831059627 0.032484692413641464 0 -0.0023697955959081102 0.032348744632042098 0 -0.002579128987401294 0.032265226386332363 0 -0.002579128987401294 0.032265226386332363 0 -0.0024251140199881924 0.032004489132451582 0 -0.0026408168804319407 0.032078300062885604 0 -0.0023697955959081102 0.032348744632042098 0 -0.002579128987401294 0.032265226386332363 0 -0.0024251140199881924 0.032004489132451582 0 -0.0020081641108342049 0.032358327843249518 0 -0.0023697955959081102 0.032348744632042098 0 -0.0024251140199881924 0.032004489132451582 0 -0.0024251140199881924 0.032004489132451582 0 -0.0027130938167410799 0.031931322389788977 0 -0.0026408168804319407 0.032078300062885604 0 -0.00094365366176161591 0.033132690521911472 0 -0.0013560650141289344 0.033761000531928161 0 -0.0014611348792214738 0.03304285131855314 0 -0.0016875793293233601 0.033048869023209304 0 -0.0022508894412133057 0.032533093037041855 0 -0.0013560650141289344 0.033761000531928161 0 -0.0021054299885637329 0.033097294974892548 0 -0.0014611348792214738 0.03304285131855314 0 -0.0012246159275954452 0.032557684195701167 0 -0.0014611348792214738 0.03304285131855314 0 -0.002110824057753953 0.032280084806252711 0 -0.0021054299885637329 0.033097294974892548 0 -0.0014611348792214738 0.03304285131855314 0 -0.002110824057753953 0.032280084806252711 0 -0.0021054299885637329 0.033097294974892548 0 -0.002110824057753953 0.032280084806252711 0 -0.0027579695968321092 0.031825376626166774 0 -0.0022508894412133057 0.032533093037041855 0 -0.0027193897256549151 0.031903739636898201 0 -0.0027130938167410799 0.031931322389788977 0 -0.0027919700475087829 0.031823999570104518 0 -0.0027579695968321092 0.031825376626166774 0 -0.0024251140199881924 0.032004489132451582 0 -0.0027130938167410799 0.031931322389788977 0 -0.0027579695968321092 0.031825376626166774 0 -0.0027130938167410799 0.031931322389788977 0 -0.0028311106722030961 0.031895635621212254 0 -0.002837687906752252 0.0320315028492539 0 -0.0028311106722030961 0.031895635621212254 0 -0.0028767575767725197 0.031665951584791151 0 -0.0029718683192606846 0.031957277690844547 0 -0.0028311106722030961 0.031895635621212254 0 -0.0029718683192606846 0.031957277690844547 0 -0.002837687906752252 0.0320315028492539 0 -0.0027130938167410799 0.031931322389788977 0 -0.0028311106722030961 0.031895635621212254 0 -0.0027919700475087829 0.031823999570104518 0 -0.0028311106722030961 0.031895635621212254 0 -0.0027919700475087829 0.031823999570104518 0 -0.0028767575767725197 0.031665951584791151 0 -0.0027919700475087829 0.031823999570104518 0 -0.0028767575767725197 0.031665951584791151 0 -0.0027579695968321092 0.031825376626166774 0 -0.0028767575767725197 0.031665951584791151 0 -0.002944139564168335 0.031336778501804351 0 -0.0029860437318727697 0.031116112834936999 0 -0.0028878368110349206 0.031594104191513872 0 -0.0030273168312685067 0.031720640046041762 0 -0.0028767575767725197 0.031665951584791151 0 -0.0029718683192606846 0.031957277690844547 0 -0.0031801482964210147 0.032122706817095253 0 -0.0028767575767725197 0.031665951584791151 0 -0.002937875659211193 0.031416928291556678 0 -0.0029377618660392569 0.031458108234442145 0 -0.0028767575767725197 0.031665951584791151 0 -0.002937875659211193 0.031416928291556678 0 -0.002944139564168335 0.031336778501804351 0 -0.002937875659211193 0.031416928291556678 0 -0.0029393991085606423 0.03132508347213999 0 -0.0029522101509034345 0.031350668951256738 0 -0.002937875659211193 0.031416928291556678 0 -0.0029393991085606423 0.03132508347213999 0 -0.002944139564168335 0.031336778501804351 0 -0.0029393991085606423 0.03132508347213999 0 -0.002944139564168335 0.031336778501804351 0 -0.0029304481605129475 0.031242541043486016 0 -0.0029718683192606846 0.031957277690844547 0 -0.0030061587443074244 0.032165326676048586 0 -0.002837687906752252 0.0320315028492539 0 -0.0029718683192606846 0.031957277690844547 0 -0.0030061587443074244 0.032165326676048586 0 -0.0031801482964210147 0.032122706817095253 0 -0.0030380110947630895 0.03229864525435143 0 -0.0030061587443074244 0.032165326676048586 0 -0.0031829831580204998 0.032219844335283493 0 -0.0030061587443074244 0.032165326676048586 0 -0.0031801482964210147 0.032122706817095253 0 -0.0031829831580204998 0.032219844335283493 0 -0.0029272719054750799 0.03228851706785664 0 -0.0030061587443074244 0.032165326676048586 0 -0.0028249082942319211 0.032179178952515382 0 -0.0029272719054750799 0.03228851706785664 0 -0.0030380110947630895 0.03229864525435143 0 -0.0030061587443074244 0.032165326676048586 0 -0.0030061587443074244 0.032165326676048586 0 -0.0028249082942319211 0.032179178952515382 0 -0.002837687906752252 0.0320315028492539 0 -0.002579128987401294 0.032265226386332363 0 -0.0028249082942319211 0.032179178952515382 0 -0.0026408168804319407 0.032078300062885604 0 -0.0027130938167410799 0.031931322389788977 0 -0.0026408168804319407 0.032078300062885604 0 -0.002837687906752252 0.0320315028492539 0 -0.0028249082942319211 0.032179178952515382 0 -0.0026408168804319407 0.032078300062885604 0 -0.002837687906752252 0.0320315028492539 0 -0.002962696529922774 0.03123059404751723 0 -0.0028126851279675876 0.031373525754739499 0 -0.0027885856607781498 0.030847527201151928 0 -0.0028126851279675876 0.031373525754739499 0 -0.0025637294670414952 0.031217038384713101 0 -0.0027885856607781498 0.030847527201151928 0 -0.002962696529922774 0.03123059404751723 0 -0.0030158588632468951 0.031154975363940639 0 -0.0029838551827641897 0.031255439312171111 0 -0.002962696529922774 0.03123059404751723 0 -0.0027885856607781498 0.030847527201151928 0 -0.0030158588632468951 0.031154975363940639 0 -0.002962696529922774 0.03123059404751723 0 -0.0029626346418398643 0.031366359445122872 0 -0.0029838551827641897 0.031255439312171111 0 -0.002962696529922774 0.03123059404751723 0 -0.0029054010157128665 0.031460324567528453 0 -0.0029626346418398643 0.031366359445122872 0 -0.0029626346418398643 0.031366359445122872 0 -0.0029838551827641897 0.031255439312171111 0 -0.0029638240070110951 0.031301436064943566 0 -0.0029626346418398643 0.031366359445122872 0 -0.0029522101509034345 0.031350668951256738 0 -0.0029638240070110951 0.031301436064943566 0 -0.0029626346418398643 0.031366359445122872 0 -0.0029522101509034345 0.031350668951256738 0 -0.0029377618660392569 0.031458108234442145 0 -0.002937875659211193 0.031416928291556678 0 -0.0029522101509034345 0.031350668951256738 0 -0.0029377618660392569 0.031458108234442145 0 -0.0028767575767725197 0.031665951584791151 0 -0.0029054010157128665 0.031460324567528453 0 -0.0029377618660392569 0.031458108234442145 0 -0.0029054010157128665 0.031460324567528453 0 -0.0029626346418398643 0.031366359445122872 0 -0.0029377618660392569 0.031458108234442145 0 -0.0028767575767725197 0.031665951584791151 0 -0.0029054010157128665 0.031460324567528453 0 -0.00281062376091971 0.031591620905387439 0 -0.0028767575767725197 0.031665951584791151 0 -0.00281062376091971 0.031591620905387439 0 -0.0027579695968321092 0.031825376626166774 0 -0.0029054010157128665 0.031460324567528453 0 -0.00281062376091971 0.031591620905387439 0 -0.0028126851279675876 0.031373525754739499 0 -0.002962696529922774 0.03123059404751723 0 -0.0029054010157128665 0.031460324567528453 0 -0.0028126851279675876 0.031373525754739499 0 -0.0028126851279675876 0.031373525754739499 0 -0.0026171448785577579 0.031605722890279367 0 -0.0025637294670414952 0.031217038384713101 0 -0.00281062376091971 0.031591620905387439 0 -0.0028126851279675876 0.031373525754739499 0 -0.0026171448785577579 0.031605722890279367 0 -0.00281062376091971 0.031591620905387439 0 -0.0026171448785577579 0.031605722890279367 0 -0.0027579695968321092 0.031825376626166774 0 -0.0026171448785577579 0.031605722890279367 0 -0.0027579695968321092 0.031825376626166774 0 -0.0024309741512510536 0.031838070257224814 0 -0.002110824057753953 0.032280084806252711 0 -0.0027579695968321092 0.031825376626166774 0 -0.0024309741512510536 0.031838070257224814 0 -0.002110824057753953 0.032280084806252711 0 -0.0024309741512510536 0.031838070257224814 0 -0.0022090852591749653 0.031648543418867636 0 -0.002110824057753953 0.032280084806252711 0 -0.0022090852591749653 0.031648543418867636 0 -0.0015665679173252792 0.031960078688657294 0 -0.0026171448785577579 0.031605722890279367 0 -0.0024309741512510536 0.031838070257224814 0 -0.0022090852591749653 0.031648543418867636 0 -0.0026171448785577579 0.031605722890279367 0 -0.0022090852591749653 0.031648543418867636 0 -0.0025637294670414952 0.031217038384713101 0 -0.0012246159275954452 0.032557684195701167 0 -0.002110824057753953 0.032280084806252711 0 -0.0015665679173252792 0.031960078688657294 0 -0.0022090852591749653 0.031648543418867636 0 -0.0015665679173252792 0.031960078688657294 0 -0.0018703357539085167 0.031461935552676443 0 -0.0015665679173252792 0.031960078688657294 0 -0.0014630994496918112 0.031159782026072565 0 -0.00090738859342869504 0.032044260916836417 0 -0.0018703357539085167 0.031461935552676443 0 -0.0014630994496918112 0.031159782026072565 0 -0.0021988451672257008 0.031040128989811684 0 -0.0015665679173252792 0.031960078688657294 0 -0.0018703357539085167 0.031461935552676443 0 -0.0014630994496918112 0.031159782026072565 0 -0.0014630994496918112 0.031159782026072565 0 -0.0021988451672257008 0.031040128989811684 0 -0.0018978280480221451 0.030186950287724394 0 -0.0025637294670414952 0.031217038384713101 0 -0.0021988451672257008 0.031040128989811684 0 -0.0027885856607781498 0.030847527201151928 0 -0.0022090852591749653 0.031648543418867636 0 -0.0025637294670414952 0.031217038384713101 0 -0.0021988451672257008 0.031040128989811684 0 -0.0022090852591749653 0.031648543418867636 0 -0.0018703357539085167 0.031461935552676443 0 -0.0021988451672257008 0.031040128989811684 0 -0.0018978280480221451 0.030186950287724394 0 -0.0019770913544723788 0.028675868121674546 0 -0.0029747424178900644 0.028982354326794149 0 -0.0018978280480221451 0.030186950287724394 0 -0.0029747424178900644 0.028982354326794149 0 -0.0036661006616568611 0.029963324231164708 0 -0.001966065921517561 0.030233455257307546 0 -0.0030946752098345068 0.030354140102393568 0 -0.0021988451672257008 0.031040128989811684 0 -0.0018978280480221451 0.030186950287724394 0 -0.0027885856607781498 0.030847527201151928 0 -0.0013020105305561159 0.029268455733788397 0 -0.0018978280480221451 0.030186950287724394 0 -0.00069726151074093025 0.029708164147944752 0 -0.0013020105305561159 0.029268455733788397 0 -0.0018978280480221451 0.030186950287724394 0 -0.0019770913544723788 0.028675868121674546 0 -0.0014630994496918112 0.031159782026072565 0 -0.0018978280480221451 0.030186950287724394 0 -0.00069726151074093025 0.029708164147944752 0 -0.0019770913544723788 0.028675868121674546 0 -0.001547993336565864 0.027541026228494098 0 -0.0007311105689857643 0.028541249312826231 0 -0.0013020105305561159 0.029268455733788397 0 -0.0019770913544723788 0.028675868121674546 0 -0.0007311105689857643 0.028541249312826231 0 -0.0019770913544723788 0.028675868121674546 0 -0.0029747424178900644 0.028982354326794149 0 -0.0031553427197992929 0.027699465161753929 0 -0.0029747424178900644 0.028982354326794149 0 -0.0040150531290023984 0.028483634211019467 0 -0.0036661006616568611 0.029963324231164708 0 -0.0029747424178900644 0.028982354326794149 0 -0.0040150531290023984 0.028483634211019467 0 -0.0031553427197992929 0.027699465161753929 0 -0.0040150531290023984 0.028483634211019467 0 -0.0036661006616568611 0.029963324231164708 0 -0.0048169146100607635 0.028983284822035358 0 -0.0051742706498432902 0.029849070186713983 0 -0.0048169146100607635 0.028983284822035358 0 -0.0058276878045262952 0.028877486101862696 0 -0.0030946752098345068 0.030354140102393568 0 -0.0043511746638432852 0.030847115039047333 0 -0.0036661006616568611 0.029963324231164708 0 -0.0051742706498432902 0.029849070186713983 0 -0.0048169146100607635 0.028983284822035358 0 -0.0040150531290023984 0.028483634211019467 0 -0.0048169146100607635 0.028983284822035358 0 -0.0050560480362857761 0.02778293240628513 0 -0.0048169146100607635 0.028983284822035358 0 -0.0050560480362857761 0.02778293240628513 0 -0.0058276878045262952 0.028877486101862696 0 -0.0040150531290023984 0.028483634211019467 0 -0.0050560480362857761 0.02778293240628513 0 -0.0042578617965533007 0.02672162373977131 0 -0.0012506052043392384 0.012332867695284674 0 -0.0015354766530109314 0.012659497976873284 0 -0.0011313706633378625 0.012553880818468173 0 -0.0028318827349011859 0.020209285038562536 0 -0.002174739105320045 0.020370953231973105 0 -0.002174739105320045 0.020370953231973105 0 -0.0032088839250157208 0.02890832851619806 0 -0.0047132471017165721 0.026423478489833403 0 -0.0025441798088354961 0.026463030356082305 0 -0.0031553427197992929 0.027699465161753929 0 -0.0040150531290023984 0.028483634211019467 0 -0.0042578617965533007 0.02672162373977131 0 -0.0031553427197992929 0.027699465161753929 0 -0.0047132471017165721 0.026423478489833403 0 -0.0034440749995914115 0.025217101002969089 0 -0.0025441798088354961 0.026463030356082305 0 -0.002174739105320045 0.020370953231973105 0 2.6307004254660562e-05 0.018240579494265937 0 0.00022482996951136402 0.018481394695485383 0 0.00015521514239161163 0.018580469279644671 0 3.5172678665530445e-05 0.018676088714789808 0 -0.002174739105320045 0.020370953231973105 0 -0.0017947589223690379 0.022184417536155094 0 0.00012206762238899537 0.018595564806107273 0 0.00015521514239161163 0.018580469279644671 0 7.7254631719345199e-05 0.018336643314893913 0 -0.0015354766530109314 0.012659497976873284 0 -0.0011313706633378625 0.012553880818468173 0 -0.0012639934376919724 0.01290269650848286 0 -0.002174739105320045 0.020370953231973105 0 -0.00064101783833898527 0.015070346396386543 0 0.00015917853327771195 0.018389568614105789 0 0.00010177656561738632 0.017740330934980945 0 7.7254631719345199e-05 0.018336643314893913 0 0.00015521514239161163 0.018580469279644671 0 0.00018599581433200962 0.018581165941538153 0 7.7254631719345199e-05 0.018336643314893913 0 0.00015917853327771195 0.018389568614105789 0 0.00018599581433200962 0.018581165941538153 0 7.7254631719345199e-05 0.018336643314893913 0 0.00015917853327771195 0.018389568614105789 0 0.00018599581433200962 0.018581165941538153 0 0.00012598392437959999 0.019111988357955006 0 0.00015521514239161163 0.018580469279644671 0 0.00018599581433200962 0.018581165941538153 0 3.5172678665530445e-05 0.018676088714789808 0 0.00018599581433200962 0.018581165941538153 0 0.00012598392437959999 0.019111988357955006 0 3.5172678665530445e-05 0.018676088714789808 0 0.00015917853327771195 0.018389568614105789 0 0.00012598392437959999 0.019111988357955006 0 4.8721069873270195e-07 0.018341686324485636 0 0.00012598392437959999 0.019111988357955006 0 4.8721069873270195e-07 0.018341686324485636 0 3.6914767863440464e-07 0.020030319797387491 0 0.00015917853327771195 0.018389568614105789 0 4.8721069873270195e-07 0.018341686324485636 0 0.00010177656561738632 0.017740330934980945 0 -4.8483821927856212e-06 0.021723793983789819 0 -0.0021872009747325523 0.023688361212462952 0 -0.00042410032590562037 0.02419604665371404 0 -1.2047875127968889e-06 0.021717618103960876 0 3.6914767863440464e-07 0.020030319797387491 0 -0.00020898679106322315 0.019662030723245565 0 -3.4723471341720488e-07 0.021719277616343471 0 -0.0010392794453449293 0.021637640815878281 0 0.00012598392437959999 0.019111988357955006 0 3.6914767863440464e-07 0.020030319797387491 0 -0.00020898679106322315 0.019662030723245565 0 -0.0010392794453449293 0.021637640815878281 0 -0.0017947589223690379 0.022184417536155094 0 0.00012598392437959999 0.019111988357955006 0 -0.00020898679106322315 0.019662030723245565 0 3.5172678665530445e-05 0.018676088714789808 0 -0.0021872009747325523 0.023688361212462952 0 -0.0034440749995914115 0.025217101002969089 0 -0.0021221251658803965 0.024944480794976114 0 -0.0021221251658803965 0.024944480794976114 0 -0.00064978813866724933 0.025875753251575959 0 -0.00042410032590562037 0.02419604665371404 0 -0.0021872009747325523 0.023688361212462952 0 -0.0021221251658803965 0.024944480794976114 0 -0.00042410032590562037 0.02419604665371404 0 -0.0025441798088354961 0.026463030356082305 0 -0.001547993336565864 0.027541026228494098 0 -0.00052089253701168253 0.026428032107335204 0 -0.0021221251658803965 0.024944480794976114 0 -0.0025441798088354961 0.026463030356082305 0 -0.00052089253701168253 0.026428032107335204 0 -0.0020583618522544995 0.025031184901674421 0 -0.00064012586790535161 0.026156397863735838 0 -0.0034440749995914115 0.025217101002969089 0 -0.0021221251658803965 0.024944480794976114 0 -0.0025441798088354961 0.026463030356082305 0 -0.0025441798088354961 0.026463030356082305 0 -0.0031553427197992929 0.027699465161753929 0 -0.001547993336565864 0.027541026228494098 0 -0.0019770913544723788 0.028675868121674546 0 -0.0031553427197992929 0.027699465161753929 0 -0.001547993336565864 0.027541026228494098 0 -0.00042388659838931423 0.027631802991186994 0 0.00058164377903210604 0.027718074405734133 0 -0.00052089253701168253 0.026428032107335204 0 -0.001547993336565864 0.027541026228494098 0 -0.00042388659838931423 0.027631802991186994 0 -0.00052089253701168253 0.026428032107335204 0 -0.001547993336565864 0.027541026228494098 0 -0.00042388659838931423 0.027631802991186994 0 -0.0007311105689857643 0.028541249312826231 0 -0.00042388659838931423 0.027631802991186994 0 4.2745064599386873e-05 0.02820100176298394 0 -0.0007311105689857643 0.028541249312826231 0 -0.00042388659838931423 0.027631802991186994 0 0.00058164377903210604 0.027718074405734133 0 4.2745064599386873e-05 0.02820100176298394 0 0.00058164377903210604 0.027718074405734133 0 0.0005909406569241934 0.02847770229150931 0 4.2745064599386873e-05 0.02820100176298394 0 -0.00016232452082020189 0.026097932465762887 0 -3.9493663229316867e-05 0.024962444834962388 0 0.00026201347084586833 0.02680770063468612 0 2.6053958425086168e-05 0.027095998898062919 0 -0.00016232452082020189 0.026097932465762887 0 -0.00064978813866724933 0.025875753251575959 0 -0.00016232452082020189 0.026097932465762887 0 -0.00064978813866724933 0.025875753251575959 0 -3.9493663229316867e-05 0.024962444834962388 0 0.00030690221483764958 0.027404917070183103 0 -0.00064012586790535161 0.026156397863735838 0 2.6053958425086168e-05 0.027095998898062919 0 -0.00016232452082020189 0.026097932465762887 0 0.00026201347084586833 0.02680770063468612 0 -0.00064978813866724933 0.025875753251575959 0 -0.00042410032590562037 0.02419604665371404 0 -3.9493663229316867e-05 0.024962444834962388 0 -0.00042410032590562037 0.02419604665371404 0 -3.9493663229316867e-05 0.024962444834962388 0 2.3625238669731403e-06 0.023738609665076547 0 -4.8483821927856212e-06 0.021723793983789819 0 -0.00042410032590562037 0.02419604665371404 0 2.3625238669731403e-06 0.023738609665076547 0 1.6137668410655888e-07 0.025757308810435631 0 0.00021363744509313908 0.026153091614864968 0 -9.4088690609393807e-07 0.025761202258717395 0 -0.00017124331871714874 0.027367158734055964 0 0.00025353784373044426 0.027471101616734505 0 -3.9493663229316867e-05 0.024962444834962388 0 2.3625238669731403e-06 0.023738609665076547 0 0.00060127994414279793 0.024913314268371747 0 2.3625238669731403e-06 0.023738609665076547 0 -4.9777832519969835e-07 0.025754897573821663 0 0.00060127994414279793 0.024913314268371747 0 -3.9493663229316867e-05 0.024962444834962388 0 0.00060127994414279793 0.024913314268371747 0 0.00026201347084586833 0.02680770063468612 0 -0.00017124331871714874 0.027367158734055964 0 8.86763808832662e-05 0.027428054289229103 0 0.00025353784373044426 0.027471101616734505 0 8.86763808832662e-05 0.027428054289229103 0 0.00037408637555045622 0.027863843638182038 0 0.00025353784373044426 0.027471101616734505 0 8.86763808832662e-05 0.027428054289229103 0 0.00022401304215842078 0.027467889389685585 0 0.00037408637555045622 0.027863843638182038 0 -0.00017124331871714874 0.027367158734055964 0 8.86763808832662e-05 0.027428054289229103 0 0.00026201347084586833 0.02680770063468612 0 8.86763808832662e-05 0.027428054289229103 0 0.00026201347084586833 0.02680770063468612 0 0.00022401304215842078 0.027467889389685585 0 0.00021363744509313908 0.026153091614864968 0 0.00020367869669829633 0.026767812939587105 0 2.6053958425086168e-05 0.027095998898062919 0 0.00026201347084586833 0.02680770063468612 0 0.00022401304215842078 0.027467889389685585 0 0.00058164377903210604 0.027718074405734133 0 0.0010430305473757057 0.028608809796479496 0 0.0005909406569241934 0.02847770229150931 0 0.00030690221483764958 0.027404917070183103 0 0.0006395532790687559 0.028258145862922118 0 2.6053958425086168e-05 0.027095998898062919 0 0.00022401304215842078 0.027467889389685585 0 0.00021657650960841448 0.027967018453826126 0 0.00022401304215842078 0.027467889389685585 0 0.00053744631081503031 0.028144956332153661 0 0.00037408637555045622 0.027863843638182038 0 0.00022401304215842078 0.027467889389685585 0 0.00021657650960841448 0.027967018453826126 0 0.00053744631081503031 0.028144956332153661 0 0.0006395532790687559 0.028258145862922118 0 0.00069921875099700204 0.028551632175135306 0 0.0010430305473757057 0.028608809796479496 0 0.00093916091175830175 0.028731082850995363 0 0.00078601585471886268 0.028896795265564962 0 0.0010430305473757057 0.028608809796479496 0 0.00093916091175830175 0.028731082850995363 0 0.00067901719786262859 0.028583570962501879 0 0.00093916091175830175 0.028731082850995363 0 0.00097334929708587541 0.028993798608717248 0 0.0007994539722531456 0.028606913174876323 0 0.00093916091175830175 0.028731082850995363 0 0.00097334929708587541 0.028993798608717248 0 0.00078601585471886268 0.028896795265564962 0 -0.000113226886115394 0.032783840685966563 0 8.0398757416125525e-07 0.0332794645669066 0 -2.6930801809337188e-05 0.033153881832910764 0 0.00036094192043613891 0.030910107798237947 0 0.00033979154984212814 0.030900774490707786 0 0.00097334929708587541 0.028993798608717248 0 0.00078601585471886268 0.028896795265564962 0 0.00029612545098465988 0.029950081655730147 0 0.0010430305473757057 0.028608809796479496 0 0.00078601585471886268 0.028896795265564962 0 0.0005909406569241934 0.02847770229150931 0 0.00078601585471886268 0.028896795265564962 0 0.0005909406569241934 0.02847770229150931 0 0.00014946616790865601 0.028952536121009374 0 0.0005909406569241934 0.02847770229150931 0 4.2745064599386873e-05 0.02820100176298394 0 0.00014946616790865601 0.028952536121009374 0 -0.0013020105305561159 0.029268455733788397 0 -0.0007311105689857643 0.028541249312826231 0 -0.00069726151074093025 0.029708164147944752 0 0.00014946616790865601 0.028952536121009374 0 -0.0007311105689857643 0.028541249312826231 0 -0.00069726151074093025 0.029708164147944752 0 4.2745064599386873e-05 0.02820100176298394 0 0.00014946616790865601 0.028952536121009374 0 -0.0007311105689857643 0.028541249312826231 0 0.00014946616790865601 0.028952536121009374 0 -0.00069726151074093025 0.029708164147944752 0 0.00029612545098465988 0.029950081655730147 0 0.00078601585471886268 0.028896795265564962 0 0.00014946616790865601 0.028952536121009374 0 0.00029612545098465988 0.029950081655730147 0 -0.00055790149295651965 0.03211343093587949 0 -0.00090738859342869504 0.032044260916836417 0 -0.0003739595505629315 0.03262139195838671 0 -0.0014630994496918112 0.031159782026072565 0 -0.00069726151074093025 0.029708164147944752 0 0.00029612545098465988 0.029950081655730147 0 -0.0014630994496918112 0.031159782026072565 0 -0.00055790149295651965 0.03211343093587949 0 -0.00090738859342869504 0.032044260916836417 0 -0.0014790168362347716 0.031180127108740047 0 -0.00024228367282751203 0.031035083724531315 0 -0.0012246159275954452 0.032557684195701167 0 -0.00090738859342869504 0.032044260916836417 0 -0.00077825844007704185 0.032600962470176888 0 -0.0012246159275954452 0.032557684195701167 0 -0.0015665679173252792 0.031960078688657294 0 -0.00090738859342869504 0.032044260916836417 0 -0.00053381057093483989 0.032960618054614012 0 -0.00077825844007704185 0.032600962470176888 0 -0.0003739595505629315 0.03262139195838671 0 -0.00090738859342869504 0.032044260916836417 0 -0.00077825844007704185 0.032600962470176888 0 -0.0003739595505629315 0.03262139195838671 0 -0.0003739595505629315 0.03262139195838671 0 -0.00015401706052327869 0.033024231253305225 0 -0.0001277138594628544 0.032935702380906373 0 -0.00031486713453028522 0.032942672562927072 0 -0.00053381057093483989 0.032960618054614012 0 -0.0003739595505629315 0.03262139195838671 0 -0.00031486713453028522 0.032942672562927072 0 -0.0003739595505629315 0.03262139195838671 0 -0.00015401706052327869 0.033024231253305225 0 -6.9147743349586414e-05 0.033230750304575424 0 -0.00015401706052327869 0.033024231253305225 0 -6.7502403829809306e-05 0.033129934926492056 0 -6.7502403829809306e-05 0.033129934926492056 0 -0.0001277138594628544 0.032935702380906373 0 -2.7498660723792359e-05 0.033170521679500721 0 -0.00015401706052327869 0.033024231253305225 0 -6.7502403829809306e-05 0.033129934926492056 0 -0.0001277138594628544 0.032935702380906373 0 -0.000113226886115394 0.032783840685966563 0 -0.0001277138594628544 0.032935702380906373 0 -2.7498660723792359e-05 0.033170521679500721 0 -0.000113226886115394 0.032783840685966563 0 8.0398757416125525e-07 0.0332794645669066 0 -2.7498660723792359e-05 0.033170521679500721 0 0.00036094192043613891 0.030910107798237947 0 -0.00024228367282751203 0.031035083724531315 0 -0.000113226886115394 0.032783840685966563 0 -0.00055790149295651965 0.03211343093587949 0 -0.0003739595505629315 0.03262139195838671 0 -0.000113226886115394 0.032783840685966563 0 -0.0003739595505629315 0.03262139195838671 0 -0.0001277138594628544 0.032935702380906373 0 6.9473377281173649e-06 0.033533489158973362 0 8.0398757416125525e-07 0.0332794645669066 0 1.8978415823427476e-05 0.033462342881761475 0 6.9473377281173649e-06 0.033533489158973362 0 1.8978415823427476e-05 0.033462342881761475 0 -4.9888985668438946e-06 0.033681554505232629 0 6.9473377281173649e-06 0.033533489158973362 0 8.0398757416125525e-07 0.0332794645669066 0 7.3844991047388443e-06 0.033381735393588324 0 8.0398757416125525e-07 0.0332794645669066 0 -2.7498660723792359e-05 0.033170521679500721 0 1.8978415823427476e-05 0.033462342881761475 0 -6.7502403829809306e-05 0.033129934926492056 0 -2.7498660723792359e-05 0.033170521679500721 0 -4.6085035334099148e-06 0.033309768504296941 0 -2.7498660723792359e-05 0.033170521679500721 0 -4.6085035334099148e-06 0.033309768504296941 0 1.8978415823427476e-05 0.033462342881761475 0 2.3911485433385748e-05 0.033477864536493825 0 -4.6085035334099148e-06 0.033309768504296941 0 1.8978415823427476e-05 0.033462342881761475 0 2.3911485433385748e-05 0.033477864536493825 0 1.8978415823427476e-05 0.033462342881761475 0 -8.1964429964825137e-06 0.033731985569698981 0 1.8978415823427476e-05 0.033462342881761475 0 -8.1964429964825137e-06 0.033731985569698981 0 -4.9888985668438946e-06 0.033681554505232629 0 -8.1964429964825137e-06 0.033731985569698981 0 -3.9247554781762446e-05 0.033910580011537739 0 -4.9888985668438946e-06 0.033681554505232629 0 -8.1964429964825137e-06 0.033731985569698981 0 -7.197291974631586e-05 0.034122730599318189 0 -3.9247554781762446e-05 0.033910580011537739 0 -5.0914804849222805e-05 0.033852929094022113 0 -8.1964429964825137e-06 0.033731985569698981 0 -7.197291974631586e-05 0.034122730599318189 0 -7.197291974631586e-05 0.034122730599318189 0 -5.8394043260391739e-05 0.034088829070259452 0 -3.9247554781762446e-05 0.033910580011537739 0 -5.8394043260391739e-05 0.034088829070259452 0 -3.9247554781762446e-05 0.033910580011537739 0 -1.8386483899470312e-05 0.033762053181901196 0 -3.9247554781762446e-05 0.033910580011537739 0 -4.9888985668438946e-06 0.033681554505232629 0 -1.8386483899470312e-05 0.033762053181901196 0 6.9473377281173649e-06 0.033533489158973362 0 -4.9888985668438946e-06 0.033681554505232629 0 -1.8386483899470312e-05 0.033762053181901196 0 0.00019463158779976162 0.03115959636687694 0 0.00029008439732435752 0.03101127466207847 0 -1.8386483899470312e-05 0.033762053181901196 0 -3.8686281146213483e-05 0.033942680958097868 0 3.6465988485971294e-06 0.033585614965248013 0 0.00044802327999732408 0.028354201336045996 0 0.00060640799844229433 0.028466181379487896 0 0.00064775289116408071 0.02844591563706864 0 -5.8394043260391739e-05 0.034088829070259452 0 -3.8686281146213483e-05 0.033942680958097868 0 -6.2421296736752971e-05 0.034230882090603307 0 0.00019463158779976162 0.03115959636687694 0 -0.00011438309499406942 0.031168994725752262 0 -5.8394043260391739e-05 0.034088829070259452 0 -1.8386483899470312e-05 0.033762053181901196 0 -3.8686281146213483e-05 0.033942680958097868 0 0.00044802327999732408 0.028354201336045996 0 0.00028086979587168078 0.028699804538109327 0 2.3941254790942935e-05 0.028340684641947306 0 0.00044802327999732408 0.028354201336045996 0 0.00051606297489840459 0.028583718265670775 0 0.00028086979587168078 0.028699804538109327 0 0.00060640799844229433 0.028466181379487896 0 0.00061295634273594792 0.028408569939609177 0 0.00051606297489840459 0.028583718265670775 0 0.00044802327999732408 0.028354201336045996 0 0.00060640799844229433 0.028466181379487896 0 0.00051606297489840459 0.028583718265670775 0 0.00060640799844229433 0.028466181379487896 0 0.00061295634273594792 0.028408569939609177 0 0.00066781120772282444 0.028482092236829154 0 0.00061295634273594792 0.028408569939609177 0 0.00066781120772282444 0.028482092236829154 0 0.00053744631081503031 0.028144956332153661 0 0.00060640799844229433 0.028466181379487896 0 0.00066781120772282444 0.028482092236829154 0 0.00064775289116408071 0.02844591563706864 0 0.00066781120772282444 0.028482092236829154 0 0.00064775289116408071 0.02844591563706864 0 0.00067901719786262859 0.028583570962501879 0 0.00064775289116408071 0.02844591563706864 0 0.00066993128374041584 0.028527848102921523 0 0.00067901719786262859 0.028583570962501879 0 6.9473377281173649e-06 0.033533489158973362 0 3.6465988485971294e-06 0.033585614965248013 0 7.3844991047388443e-06 0.033381735393588324 0 0.00029008439732435752 0.03101127466207847 0 0.0002910788297502897 0.030909687037064093 0 6.9473377281173649e-06 0.033533489158973362 0 -1.8386483899470312e-05 0.033762053181901196 0 3.6465988485971294e-06 0.033585614965248013 0 0.00093916091175830175 0.028731082850995363 0 0.0007994539722531456 0.028606913174876323 0 0.00067901719786262859 0.028583570962501879 0 0.00033979154984212814 0.030900774490707786 0 0.0002910788297502897 0.030909687037064093 0 8.0398757416125525e-07 0.0332794645669066 0 -2.6930801809337188e-05 0.033153881832910764 0 7.3844991047388443e-06 0.033381735393588324 0 0.0007994539722531456 0.028606913174876323 0 0.00066993128374041584 0.028527848102921523 0 0.00067901719786262859 0.028583570962501879 0 0.00066781120772282444 0.028482092236829154 0 0.00067901719786262859 0.028583570962501879 0 0.00053744631081503031 0.028144956332153661 0 0.00021657650960841448 0.027967018453826126 0 0.00067901719786262859 0.028583570962501879 0 0.00053744631081503031 0.028144956332153661 0 0.00053744631081503031 0.028144956332153661 0 0.00051202517823951792 0.028254457407293796 0 0.00037408637555045622 0.027863843638182038 0 0.00061295634273594792 0.028408569939609177 0 0.00051202517823951792 0.028254457407293796 0 0.00052099836841960391 0.028582530645029747 0 0.00061295634273594792 0.028408569939609177 0 0.00053744631081503031 0.028144956332153661 0 0.00051202517823951792 0.028254457407293796 0 0.00051202517823951792 0.028254457407293796 0 0.00037408637555045622 0.027863843638182038 0 0.00041309829156208918 0.028306698301159852 0 0.00051202517823951792 0.028254457407293796 0 0.00041309829156208918 0.028306698301159852 0 0.00052099836841960391 0.028582530645029747 0 0.00037408637555045622 0.027863843638182038 0 0.00025353784373044426 0.027471101616734505 0 0.00041309829156208918 0.028306698301159852 0 0.00025353784373044426 0.027471101616734505 0 0.00041309829156208918 0.028306698301159852 0 1.0539342768031488e-06 0.027668028745911472 0 0.00041309829156208918 0.028306698301159852 0 1.0539342768031488e-06 0.027668028745911472 0 3.8967997808172471e-07 0.0295789260142802 0 -9.4088690609393807e-07 0.025761202258717395 0 0.00025353784373044426 0.027471101616734505 0 1.0539342768031488e-06 0.027668028745911472 0 0.00019650563616125177 0.030095901837148723 0 3.8967997808172471e-07 0.0295789260142802 0 1.0373932956136965e-06 0.031490518260048436 0 0.00019650563616125177 0.030095901837148723 0 3.8967997808172471e-07 0.0295789260142802 0 0.00034598189731342396 0.029182346835667339 0 0.00041309829156208918 0.028306698301159852 0 3.8967997808172471e-07 0.0295789260142802 0 0.00034598189731342396 0.029182346835667339 0 0.00019650563616125177 0.030095901837148723 0 0.00034598189731342396 0.029182346835667339 0 0.00019770662761156899 0.029393596171785889 0 0.00034598189731342396 0.029182346835667339 0 0.00039428599196413336 0.028902577729423524 0 0.00019770662761156899 0.029393596171785889 0 0.00041309829156208918 0.028306698301159852 0 0.00034598189731342396 0.029182346835667339 0 0.00052099836841960391 0.028582530645029747 0 0.00034598189731342396 0.029182346835667339 0 0.00039428599196413336 0.028902577729423524 0 0.00052099836841960391 0.028582530645029747 0 0.00039428599196413336 0.028902577729423524 0 0.00052099836841960391 0.028582530645029747 0 0.00051606297489840459 0.028583718265670775 0 0.00061295634273594792 0.028408569939609177 0 0.00052099836841960391 0.028582530645029747 0 0.00051606297489840459 0.028583718265670775 0 0.00039428599196413336 0.028902577729423524 0 0.00028086979587168078 0.028699804538109327 0 0.00019770662761156899 0.029393596171785889 0 0.00039428599196413336 0.028902577729423524 0 0.00051606297489840459 0.028583718265670775 0 0.00028086979587168078 0.028699804538109327 0 0.00028086979587168078 0.028699804538109327 0 -0.00017898840133192032 0.028825159960445206 0 0.00019770662761156899 0.029393596171785889 0 -0.00017898840133192032 0.028825159960445206 0 -0.00031339335472797602 0.029628539324805032 0 -0.00074792243586979505 0.029068299384948142 0 -0.00031339335472797602 0.029628539324805032 0 -0.0009325235095944891 0.030361235719638641 0 -0.00074792243586979505 0.029068299384948142 0 -0.00017898840133192032 0.028825159960445206 0 -0.00031339335472797602 0.029628539324805032 0 0.00019770662761156899 0.029393596171785889 0 -0.00031339335472797602 0.029628539324805032 0 0.00019770662761156899 0.029393596171785889 0 4.8670968863642766e-07 0.030564778697925822 0 0.00019650563616125177 0.030095901837148723 0 0.00019770662761156899 0.029393596171785889 0 4.8670968863642766e-07 0.030564778697925822 0 -0.00031339335472797602 0.029628539324805032 0 4.8670968863642766e-07 0.030564778697925822 0 -0.0009325235095944891 0.030361235719638641 0 4.8670968863642766e-07 0.030564778697925822 0 1.0373932956136965e-06 0.031490518260048436 0 -2.983327098833777e-06 0.033397688414625627 0 0.00019650563616125177 0.030095901837148723 0 4.8670968863642766e-07 0.030564778697925822 0 1.0373932956136965e-06 0.031490518260048436 0 5.9462737247086145e-07 0.034997749780517944 0 8.7511711405314103e-05 0.034717635913959946 0 -5.0488461927431515e-08 0.035000207837183092 0 5.9462737247086145e-07 0.034997749780517944 0 -1.0346757080892891e-06 0.033405417954487898 0 8.7511711405314103e-05 0.034717635913959946 0 -2.3735411474581215e-07 0.033400956782283941 0 -0.00050322854536814982 0.032653273875253179 0 -1.0346757080892891e-06 0.033405417954487898 0 -0.00021982767489925166 0.034913080200214316 0 8.7511711405314103e-05 0.034717635913959946 0 4.8670968863642766e-07 0.030564778697925822 0 -2.983327098833777e-06 0.033397688414625627 0 -0.0009325235095944891 0.030361235719638641 0 -0.00021982767489925166 0.034913080200214316 0 8.7511711405314103e-05 0.034717635913959946 0 -5.0488461927431515e-08 0.035000207837183092 0 -5.0488461927431515e-08 0.035000207837183092 0 -3.3959160230710208e-05 0.034997477234286797 0 -5.0576367905656783e-08 0.034999956542899842 0 -0.00021982767489925166 0.034913080200214316 0 -5.0488461927431515e-08 0.035000207837183092 0 -0.00011997251945964371 0.034974938991895556 0 -0.00050322854536814982 0.032653273875253179 0 -0.00049288464598011854 0.031781002961342827 0 -5.0488461927431515e-08 0.035000207837183092 0 -0.00011997251945964371 0.034974938991895556 0 -3.3959160230710208e-05 0.034997477234286797 0 -4.4140523003571617e-09 0.034999944998328772 0 -0.00011194254548812093 0.034880230834444755 0 -3.3959160230710208e-05 0.034997477234286797 0 -5.0576367905656783e-08 0.034999956542899842 0 -5.2282069927829239e-05 0.035019610266785225 0 -4.7329727733639432e-08 0.034999749339549961 0 -4.4166221885098755e-06 0.034764968526973798 0 5.4741141210744087e-09 0.034999590023491352 0 -4.7329727733639432e-08 0.034999749339549961 0 -4.4166221885098755e-06 0.034764968526973798 0 -1.2370799853737922e-05 0.034825471482321679 0 -4.4166221885098755e-06 0.034764968526973798 0 -1.3375891608304188e-06 0.034716891523197874 0 -1.2370799853737922e-05 0.034825471482321679 0 -1.3375891608304188e-06 0.034716891523197874 0 -1.2370799853737922e-05 0.034825471482321679 0 4.9621167679541535e-05 0.034721422977276289 0 -4.4166221885098755e-06 0.034764968526973798 0 -1.3375891608304188e-06 0.034716891523197874 0 2.7879109161798353e-05 0.034533406323135299 0 -1.3375891608304188e-06 0.034716891523197874 0 4.9621167679541535e-05 0.034721422977276289 0 2.7879109161798353e-05 0.034533406323135299 0 -0.00049288464598011854 0.031781002961342827 0 0.00019326971336873399 0.032880071824893033 0 -0.00011194254548812093 0.034880230834444755 0 0.00019326971336873399 0.032880071824893033 0 -0.00011997251945964371 0.034974938991895556 0 -5.2282069927829239e-05 0.035019610266785225 0 -8.9401543078361083e-05 0.035007076736930542 0 -0.00011997251945964371 0.034974938991895556 0 -3.3959160230710208e-05 0.034997477234286797 0 -5.2282069927829239e-05 0.035019610266785225 0 -0.00017898840133192032 0.028825159960445206 0 -0.00074792243586979505 0.029068299384948142 0 -0.00056733214626072384 0.028372145995476727 0 -0.00017898840133192032 0.028825159960445206 0 2.3941254790942935e-05 0.028340684641947306 0 -0.00056733214626072384 0.028372145995476727 0 0.00028086979587168078 0.028699804538109327 0 -0.00017898840133192032 0.028825159960445206 0 2.3941254790942935e-05 0.028340684641947306 0 -5.8394043260391739e-05 0.034088829070259452 0 -6.2421296736752971e-05 0.034230882090603307 0 -4.3675416093273475e-05 0.034355664050604015 0 -0.00011438309499406942 0.031168994725752262 0 0.00019326971336873399 0.032880071824893033 0 -6.2421296736752971e-05 0.034230882090603307 0 2.2577956918982558e-05 0.034423862350424557 0 -4.3675416093273475e-05 0.034355664050604015 0 0.00019326971336873399 0.032880071824893033 0 3.8357086760503401e-06 0.034688317564238083 0 2.2577956918982558e-05 0.034423862350424557 0 -4.3675416093273475e-05 0.034355664050604015 0 2.7879109161798353e-05 0.034533406323135299 0 -4.3675416093273475e-05 0.034355664050604015 0 -1.0220270099527915e-05 0.034517207628169656 0 -5.8145868805968506e-05 0.034288734173325508 0 -4.3675416093273475e-05 0.034355664050604015 0 2.7879109161798353e-05 0.034533406323135299 0 -1.0220270099527915e-05 0.034517207628169656 0 -5.8394043260391739e-05 0.034088829070259452 0 -4.3675416093273475e-05 0.034355664050604015 0 -5.8145868805968506e-05 0.034288734173325508 0 -7.197291974631586e-05 0.034122730599318189 0 -5.8394043260391739e-05 0.034088829070259452 0 -5.8145868805968506e-05 0.034288734173325508 0 -7.8899858502150843e-05 0.034383955672829182 0 -7.197291974631586e-05 0.034122730599318189 0 -5.8145868805968506e-05 0.034288734173325508 0 -7.8899858502150843e-05 0.034383955672829182 0 -1.0220270099527915e-05 0.034517207628169656 0 -5.8145868805968506e-05 0.034288734173325508 0 -7.8899858502150843e-05 0.034383955672829182 0 -1.0220270099527915e-05 0.034517207628169656 0 1.9828575174552261e-06 0.034722948746856122 0 2.4725273764294904e-08 0.034999719573962557 0 1.9828575174552261e-06 0.034722948746856122 0 5.4741141210744087e-09 0.034999590023491352 0 -4.4166221885098755e-06 0.034764968526973798 0 1.9828575174552261e-06 0.034722948746856122 0 5.4741141210744087e-09 0.034999590023491352 0 -4.4166221885098755e-06 0.034764968526973798 0 -1.0220270099527915e-05 0.034517207628169656 0 1.9828575174552261e-06 0.034722948746856122 0 -4.4166221885098755e-06 0.034764968526973798 0 2.7879109161798353e-05 0.034533406323135299 0 -1.0220270099527915e-05 0.034517207628169656 0 3.8859662737030905e-05 0.0032973081426809201 0 0.0001635459167658214 0.0037298889992242882 0 0.000460492889944784 0.0036570586009646248 0 3.8859662737030905e-05 0.0032973081426809201 0 0.000460492889944784 0.0036570586009646248 0 0.00045036718499730921 0.003207562575100807 0 3.8859662737030905e-05 0.0032973081426809201 0 -0.00012201298739627226 0.0036930352696912306 0 -0.00042338316186849105 0.0032886352691486051 0 -0.00031903705530371109 0.0034384424942968048 0 -0.00041502806469208736 0.0033204399754785375 0 3.8859662737030905e-05 0.0032973081426809201 0 -0.00012201298739627226 0.0036930352696912306 0 0.0001635459167658214 0.0037298889992242882 0 -0.00012201298739627226 0.0036930352696912306 0 0.0001635459167658214 0.0037298889992242882 0 0.00024166385754873117 0.0040921278042225021 0 -0.00031903705530371109 0.0034384424942968048 0 -0.00023617194114659723 0.0038150417803677985 0 0.0001635459167658214 0.0037298889992242882 0 0.000460492889944784 0.0036570586009646248 0 0.00024166385754873117 0.0040921278042225021 0 0.000460492889944784 0.0036570586009646248 0 0.00090200429430048728 0.0035550802969617464 0 0.00064158202417197282 0.004097917868652671 0 0.000460492889944784 0.0036570586009646248 0 0.00024166385754873117 0.0040921278042225021 0 0.00064158202417197282 0.004097917868652671 0 0.00030593075788414877 0.0056670348411123842 0 0.0011182609673309053 0.0096578932592153929 0 0.00090200429430048728 0.0035550802969617464 0 0.0010678103987763908 0.0042819429088941045 0 0.00064158202417197282 0.004097917868652671 0 0.000460492889944784 0.0036570586009646248 0 0.00090200429430048728 0.0035550802969617464 0 0.00045036718499730921 0.003207562575100807 0 -6.0776381974557855e-05 0.0089479155106087973 0 -0.00032757330725617098 0.007472478122035363 0 0.00092729755951661847 0.0079872086078159026 0 0.00090200429430048728 0.0035550802969617464 0 0.00045036718499730921 0.003207562575100807 0 0.00073801505256322131 0.0029534504593231223 0 0.00030593075788414877 0.0056670348411123842 0 0.00028321771230125378 0.0055969788676451405 0 0.00028321771230125378 0.0055969788676451405 0 -0.00024448829948020106 0.0030220995024834649 0 -0.00032757330725617098 0.007472478122035363 0 0.00038962573722361039 0.0068647074924560788 0 -0.0005934143243327898 0.0059835814075288388 0 0.00045036718499730921 0.003207562575100807 0 0.00073801505256322131 0.0029534504593231223 0 0.00015895061836943166 0.0026489058931697231 0 0.00073801505256322131 0.0029534504593231223 0 0.00015895061836943166 0.0026489058931697231 0 0.00061990097230586814 0.0023954960092380942 0 3.8859662737030905e-05 0.0032973081426809201 0 0.00015895061836943166 0.0026489058931697231 0 -0.00027914017304824429 0.0029238760875573231 0 3.8859662737030905e-05 0.0032973081426809201 0 0.00045036718499730921 0.003207562575100807 0 0.00015895061836943166 0.0026489058931697231 0 3.8859662737030905e-05 0.0032973081426809201 0 -0.00027914017304824429 0.0029238760875573231 0 -0.00042338316186849105 0.0032886352691486051 0 -0.00086496261422996435 -0.00010000408809247797 0 -0.00087588776483847825 0.00028896516678924476 0 -0.001494050350645577 -0.0024165183331594192 0 -0.0012411910292553969 -0.0022382415274444884 0 -0.0010965747888575471 -0.0027499259236018225 0 -0.001494050350645577 -0.0024165183331594192 0 -0.0012411910292553969 -0.0022382415274444884 0 -0.0015890107921198199 -0.0018245298163346356 0 -0.0012411910292553969 -0.0022382415274444884 0 -0.0010965747888575471 -0.0027499259236018225 0 -0.00092384175117499927 -0.0023495857312881285 0 -0.00027914017304824429 0.0029238760875573231 0 -0.00048139395392528229 0.0031558500816297268 0 -0.00042338316186849105 0.0032886352691486051 0 -0.00087588776483847825 0.00028896516678924476 0 -0.00083945490583625475 0.00029106816479857991 0 -0.00049975188515288664 -0.0025268775941941221 0 -0.0003010123991605112 -0.0023362465355864686 0 -0.00031674714244599443 -0.0025287412247633071 0 -0.00049975188515288664 -0.0025268775941941221 0 -0.00031674714244599443 -0.0025287412247633071 0 -0.00032884201092891606 -0.0026773160766696675 0 -0.00058019303497031159 -0.0022629499188164853 0 -0.00049975188515288664 -0.0025268775941941221 0 -0.0003010123991605112 -0.0023362465355864686 0 -0.00058019303497031159 -0.0022629499188164853 0 -0.00049975188515288664 -0.0025268775941941221 0 -0.00067535486129790699 -0.0024945262696431597 0 -0.00049975188515288664 -0.0025268775941941221 0 -0.00067535486129790699 -0.0024945262696431597 0 -0.00059450578158929009 -0.0026745349510272826 0 -0.00058019303497031159 -0.0022629499188164853 0 -0.00067535486129790699 -0.0024945262696431597 0 -0.00092384175117499927 -0.0023495857312881285 0 -0.00067535486129790699 -0.0024945262696431597 0 -0.00092384175117499927 -0.0023495857312881285 0 -0.00077323968711394484 -0.0026623493558711278 0 -0.0010965747888575471 -0.0027499259236018225 0 -0.00092384175117499927 -0.0023495857312881285 0 -0.00077323968711394484 -0.0026623493558711278 0 -0.0010965747888575471 -0.0027499259236018225 0 -0.00077323968711394484 -0.0026623493558711278 0 -0.00073303881789298347 -0.0029071871327913225 0 -0.00077323968711394484 -0.0026623493558711278 0 -0.00063832543387440843 -0.0028079270709608756 0 -0.00073303881789298347 -0.0029071871327913225 0 -0.00067535486129790699 -0.0024945262696431597 0 -0.00077323968711394484 -0.0026623493558711278 0 -0.00059450578158929009 -0.0026745349510272826 0 -0.00077323968711394484 -0.0026623493558711278 0 -0.00059450578158929009 -0.0026745349510272826 0 -0.00063832543387440843 -0.0028079270709608756 0 -0.00049975188515288664 -0.0025268775941941221 0 -0.00059450578158929009 -0.0026745349510272826 0 -0.00046594125623570446 -0.0027174469413954318 0 -0.00059450578158929009 -0.0026745349510272826 0 -0.00050941331665886071 -0.0028403332778497107 0 -0.00046594125623570446 -0.0027174469413954318 0 -0.00059450578158929009 -0.0026745349510272826 0 -0.00063832543387440843 -0.0028079270709608756 0 -0.00050941331665886071 -0.0028403332778497107 0 -0.00063832543387440843 -0.0028079270709608756 0 -0.00050941331665886071 -0.0028403332778497107 0 -0.00058440647404318154 -0.0029617170725864828 0 -0.00063832543387440843 -0.0028079270709608756 0 -0.00058440647404318154 -0.0029617170725864828 0 -0.00073303881789298347 -0.0029071871327913225 0 -0.00050941331665886071 -0.0028403332778497107 0 -0.00047021348727203786 -0.0029391553660644614 0 -0.00058440647404318154 -0.0029617170725864828 0 -0.00050941331665886071 -0.0028403332778497107 0 -0.00035731781952887402 -0.002872405458628398 0 -0.00046594125623570446 -0.0027174469413954318 0 -0.00050941331665886071 -0.0028403332778497107 0 -0.00035731781952887402 -0.002872405458628398 0 -0.00047021348727203786 -0.0029391553660644614 0 -0.00049975188515288664 -0.0025268775941941221 0 -0.00046594125623570446 -0.0027174469413954318 0 -0.00032884201092891606 -0.0026773160766696675 0 -0.00035731781952887402 -0.002872405458628398 0 -0.00046594125623570446 -0.0027174469413954318 0 -0.00032884201092891606 -0.0026773160766696675 0 -0.0004289609288085497 -0.0030821896497654402 0 -0.00065743381184708838 -0.0031173298734175499 0 -0.00014023726115429549 -0.0035149489410088147 0 -0.00035731781952887402 -0.002872405458628398 0 -0.00047021348727203786 -0.0029391553660644614 0 -0.0004289609288085497 -0.0030821896497654402 0 -0.00047021348727203786 -0.0029391553660644614 0 -0.0004289609288085497 -0.0030821896497654402 0 -0.00058440647404318154 -0.0029617170725864828 0 -0.0004289609288085497 -0.0030821896497654402 0 -0.00058440647404318154 -0.0029617170725864828 0 -0.00065743381184708838 -0.0031173298734175499 0 -0.00058440647404318154 -0.0029617170725864828 0 -0.00065743381184708838 -0.0031173298734175499 0 -0.00073303881789298347 -0.0029071871327913225 0 -0.00083945490583625475 0.00029106816479857991 0 -0.00035620847884228728 -0.00064524638667984812 0 -0.00048139395392528229 0.0031558500816297268 0 -0.00042609063063831035 0.0031640050174990262 0 -0.00043065842858526065 0.0032025464427879974 0 -0.0010965747888575471 -0.0027499259236018225 0 -0.00065743381184708838 -0.0031173298734175499 0 -0.00073303881789298347 -0.0029071871327913225 0 -0.00039797947828702177 0.0031560466355811489 0 -0.00043065842858526065 0.0032025464427879974 0 -0.00041871696056746945 0.0031483814650184743 0 -0.00042609063063831035 0.0031640050174990262 0 -0.00039797947828702177 0.0031560466355811489 0 -0.00043065842858526065 0.0032025464427879974 0 -0.00035620847884228728 -0.00064524638667984812 0 -3.4224765247141069e-05 0.00048734507654457301 0 0.00019389713199045367 -0.0026427298184770478 0 0.00025086891596081383 -0.00246874414979478 0 9.8964528171247877e-05 -0.0024855806137345313 0 -0.00035620847884228728 -0.00064524638667984812 0 3.5036871093876273e-05 -0.0027396724212100814 0 0.00019389713199045367 -0.0026427298184770478 0 9.8964528171247877e-05 -0.0024855806137345313 0 -5.5289877740859059e-05 -0.0025473871724215444 0 -0.00048139395392528229 0.0031558500816297268 0 -0.00042338316186849105 0.0032886352691486051 0 -0.00043065842858526065 0.0032025464427879974 0 -0.00043065842858526065 0.0032025464427879974 0 -0.00045033435642059989 0.003182028435013958 0 -0.00041871696056746945 0.0031483814650184743 0 -0.00042338316186849105 0.0032886352691486051 0 -0.00043065842858526065 0.0032025464427879974 0 -0.00045033435642059989 0.003182028435013958 0 -0.0005298057316264034 0.0032196695390684367 0 -0.00042338316186849105 0.0032886352691486051 0 -0.00045033435642059989 0.003182028435013958 0 -0.00045033435642059989 0.003182028435013958 0 -0.00044416731034077394 0.0030940637525036442 0 -0.00051745582578817243 0.0031395651266296195 0 -0.00041871696056746945 0.0031483814650184743 0 -0.00044416731034077394 0.0030940637525036442 0 -0.0003818949360869544 0.0030920255694501238 0 -0.00045033435642059989 0.003182028435013958 0 -0.00041871696056746945 0.0031483814650184743 0 -0.00044416731034077394 0.0030940637525036442 0 -0.00044416731034077394 0.0030940637525036442 0 -0.0003818949360869544 0.0030920255694501238 0 -0.00038768983748038727 0.0030151364998940609 0 -0.00044416731034077394 0.0030940637525036442 0 -0.00051452124096218064 0.0030787910903726291 0 -0.00051745582578817243 0.0031395651266296195 0 9.8964528171247877e-05 -0.0024855806137345313 0 0.00013499254474012916 -0.0023387023703395444 0 -2.9755339536465013e-05 -0.002418192759073286 0 0.00025086891596081383 -0.00246874414979478 0 9.8964528171247877e-05 -0.0024855806137345313 0 0.00013499254474012916 -0.0023387023703395444 0 0.00025086891596081383 -0.00246874414979478 0 0.00013499254474012916 -0.0023387023703395444 0 0.00032772071674169463 -0.0022705876038427619 0 -3.4224765247141069e-05 0.00048734507654457301 0 -2.9068645641094282e-05 0.0005461934033323424 0 -0.00039797947828702177 0.0031560466355811489 0 -0.00041871696056746945 0.0031483814650184743 0 -0.0003818949360869544 0.0030920255694501238 0 0.00032772071674169463 -0.0022705876038427619 0 0.00034536992204666931 -0.0020654515508785531 0 0.00041007849702891149 -0.0020459216511902432 0 -2.9068645641094282e-05 0.0005461934033323424 0 0.00048234119015498232 -0.00050695778151408342 0 0.00032772071674169463 -0.0022705876038427619 0 0.00021378849379120724 -0.0021845784340597044 0 0.00034536992204666931 -0.0020654515508785531 0 0.00013499254474012916 -0.0023387023703395444 0 0.00032772071674169463 -0.0022705876038427619 0 0.00021378849379120724 -0.0021845784340597044 0 0.00013499254474012916 -0.0023387023703395444 0 0.00021378849379120724 -0.0021845784340597044 0 9.1759810849356653e-05 -0.0022092964129783823 0 9.1759810849356653e-05 -0.0022092964129783823 0 0.00010405638855443058 -0.002079908633027159 0 -2.5818393087959992e-05 -0.0021792877216880039 0 0.00021378849379120724 -0.0021845784340597044 0 9.1759810849356653e-05 -0.0022092964129783823 0 0.00010405638855443058 -0.002079908633027159 0 0.00013499254474012916 -0.0023387023703395444 0 9.1759810849356653e-05 -0.0022092964129783823 0 1.7789649216392829e-05 -0.0022955659095223228 0 0.00011286513234107738 -0.0019672309933966752 0 0.00010405638855443058 -0.002079908633027159 0 1.564051544401473e-05 -0.0020439738520544861 0 0.00010405638855443058 -0.002079908633027159 0 0.00022200270609673366 -0.0020736936988525992 0 0.0002281566646327562 -0.0019591924480019626 0 0.00021378849379120724 -0.0021845784340597044 0 0.00010405638855443058 -0.002079908633027159 0 0.00022200270609673366 -0.0020736936988525992 0 0.00011286513234107738 -0.0019672309933966752 0 0.00010405638855443058 -0.002079908633027159 0 0.0002281566646327562 -0.0019591924480019626 0 0.0002281566646327562 -0.0019591924480019626 0 0.00034536992204666931 -0.0020654515508785531 0 0.00036379489889334693 -0.0018936909619021371 0 0.00022200270609673366 -0.0020736936988525992 0 0.0002281566646327562 -0.0019591924480019626 0 0.00034536992204666931 -0.0020654515508785531 0 0.00021378849379120724 -0.0021845784340597044 0 0.00022200270609673366 -0.0020736936988525992 0 0.00034536992204666931 -0.0020654515508785531 0 0.00026412646007905227 -0.00095790138020500045 0 0.00048234119015498232 -0.00050695778151408342 0 0.00045220629755108471 -0.0020465244846279759 0 0.00036379489889334693 -0.0018936909619021371 0 0.00050226931559256647 -0.0017208589458405129 0 0.00034536992204666931 -0.0020654515508785531 0 0.00045220629755108471 -0.0020465244846279759 0 0.00036379489889334693 -0.0018936909619021371 0 0.00036379489889334693 -0.0018936909619021371 0 0.00027447978243049106 -0.0017721229213922222 0 0.00050226931559256647 -0.0017208589458405129 0 0.00010534612331263365 -0.0012640093406488589 0 0.0007242109056135197 -0.0013896315277153555 0 0.0002281566646327562 -0.0019591924480019626 0 0.00036379489889334693 -0.0018936909619021371 0 0.00027447978243049106 -0.0017721229213922222 0 0.00010534612331263365 -0.0012640093406488589 0 0.00049217569551966028 -0.0021693187468074865 0 0.00027447978243049106 -0.0017721229213922222 0 -1.2101579482632089e-06 -0.0019487746587100964 0 -0.00014373231519341546 -0.00178384156522732 0 0.00011286513234107738 -0.0019672309933966752 0 0.00027447978243049106 -0.0017721229213922222 0 -1.2101579482632089e-06 -0.0019487746587100964 0 0.00011286513234107738 -0.0019672309933966752 0 0.0002281566646327562 -0.0019591924480019626 0 0.00027447978243049106 -0.0017721229213922222 0 0.00011286513234107738 -0.0019672309933966752 0 -1.2101579482632089e-06 -0.0019487746587100964 0 1.564051544401473e-05 -0.0020439738520544861 0 -0.00044416731034077394 0.0030940637525036442 0 -0.00047121781102071024 0.0030187752527489117 0 -0.00051452124096218064 0.0030787910903726291 0 0.0004455944071077233 -0.0018778826398426834 0 0.00083404143400240887 -0.0017031206421836602 0 0.00064822891408264144 -0.0016192541493029382 0 0.00048234119015498232 -0.00050695778151408342 0 6.1216954878091546e-05 0.0003645074920369886 0 -0.00044416731034077394 0.0030940637525036442 0 -0.00038768983748038727 0.0030151364998940609 0 -0.00047121781102071024 0.0030187752527489117 0 0.00048234119015498232 -0.00050695778151408342 0 0.0003682750451475813 -0.0021579553969396513 0 0.00048132553823056868 -0.00090988340325406328 0 0.00024343032431549782 -0.0010051384474243637 0 0.00066390732342497477 -0.0011151034954420336 0 0.0004455944071077233 -0.0018778826398426834 0 0.00064822891408264144 -0.0016192541493029382 0 0.00050226931559256647 -0.0017208589458405129 0 0.00027447978243049106 -0.0017721229213922222 0 0.00064822891408264144 -0.0016192541493029382 0 0.00050226931559256647 -0.0017208589458405129 0 0.00048132553823056868 -0.00090988340325406328 0 0.00066390732342497477 -0.0011151034954420336 0 0.00064021616896066803 -0.00095452382655583071 0 0.00066390732342497477 -0.0011151034954420336 0 0.00064021616896066803 -0.00095452382655583071 0 0.00081789471960442856 -0.0010311797067617554 0 0.00066390732342497477 -0.0011151034954420336 0 0.0010556470027504581 -0.0011408482806373565 0 0.001244518456805903 -0.001367370505763229 0 0.00083404143400240887 -0.0017031206421836602 0 0.00064822891408264144 -0.0016192541493029382 0 0.001244518456805903 -0.001367370505763229 0 0.0007242109056135197 -0.0013896315277153555 0 0.0012168748464598794 -0.0013776935893255599 0 0.00076436906712875979 -0.00090284459763382619 0 0.00064021616896066803 -0.00095452382655583071 0 0.00081789471960442856 -0.0010311797067617554 0 0.00066390732342497477 -0.0011151034954420336 0 0.00081789471960442856 -0.0010311797067617554 0 0.0010556470027504581 -0.0011408482806373565 0 0.00092226975239929454 -0.00090200140747217551 0 0.00081789471960442856 -0.0010311797067617554 0 0.00098160470854818265 -0.0010296258323918169 0 0.00081789471960442856 -0.0010311797067617554 0 0.00098160470854818265 -0.0010296258323918169 0 0.0010556470027504581 -0.0011408482806373565 0 0.00092226975239929454 -0.00090200140747217551 0 0.00098160470854818265 -0.0010296258323918169 0 0.0010894796164276873 -0.00099316840136920177 0 0.0021278957801480736 0.0048140039607267602 0 0.00024184831097406528 0.0045035044207025372 0 0.0010556470027504581 -0.0011408482806373565 0 0.0012368374806694614 -0.0010326058389912977 0 0.0012406749001593769 -0.001198758258521497 0 0.0013164615369061726 -0.00075464331932386839 0 0.0012368374806694614 -0.0010326058389912977 0 0.0014139069750851942 -0.0012723883544661641 0 0.00098160470854818265 -0.0010296258323918169 0 0.0010894796164276873 -0.00099316840136920177 0 0.0010556470027504581 -0.0011408482806373565 0 0.0010894796164276873 -0.00099316840136920177 0 0.0010556470027504581 -0.0011408482806373565 0 0.0012368374806694614 -0.0010326058389912977 0 0.0012368374806694614 -0.0010326058389912977 0 0.0012406749001593769 -0.001198758258521497 0 0.0014139069750851942 -0.0012723883544661641 0 0.0012406749001593769 -0.001198758258521497 0 0.001244518456805903 -0.001367370505763229 0 0.0014139069750851942 -0.0012723883544661641 0 0.0010556470027504581 -0.0011408482806373565 0 0.0012406749001593769 -0.001198758258521497 0 0.001244518456805903 -0.001367370505763229 0 0.0016496804366235569 0.007819075935119376 0 0.0018125699665253151 0.0076837767996211287 0 0.001712786393206437 0.0075094051281689514 0 0.0018125699665253151 0.0076837767996211287 0 0.001712786393206437 0.0075094051281689514 0 0.0019612272680340622 0.0075925673756916442 0 0.00024184831097406528 0.0045035044207025372 0 0.0013178225863569536 0.0093131933697198164 0 -0.0015672362816979925 0.010575684334118899 0 -0.00034115481935040933 0.010200613198756604 0 0.00041887085762036568 0.01102781686230766 0 0.0019296324653814687 0.007811767168041394 0 0.0018125699665253151 0.0076837767996211287 0 0.0019612272680340622 0.0075925673756916442 0 -0.00034115481935040933 0.010200613198756604 0 -0.0009647628817974303 0.0077318753135894791 0 0.0011661379940284496 0.0085938970139100637 0 0.00024184831097406528 0.0045035044207025372 0 -0.00095941297282551945 0.0059336143949224804 0 -0.0015672362816979925 0.010575684334118899 0 -0.00034115481935040933 0.010200613198756604 0 -0.0009647628817974303 0.0077318753135894791 0 6.1216954878091546e-05 0.0003645074920369886 0 0.00024184831097406528 0.0045035044207025372 0 -0.00047121781102071024 0.0030187752527489117 0 -0.00055252820151834698 0.003026378792320308 0 -0.00051452124096218064 0.0030787910903726291 0 -0.00055252820151834698 0.003026378792320308 0 -0.00051452124096218064 0.0030787910903726291 0 -0.00057691750469947148 0.003104043315255467 0 0.00083404143400240887 -0.0017031206421836602 0 0.001244518456805903 -0.001367370505763229 0 0.0014139069750851942 -0.0012723883544661641 0 -0.00051452124096218064 0.0030787910903726291 0 -0.00057691750469947148 0.003104043315255467 0 -0.00051745582578817243 0.0031395651266296195 0 -0.00095941297282551945 0.0059336143949224804 0 -0.00023617194114659723 0.0038150417803677985 0 -0.00057691750469947148 0.003104043315255467 0 -0.00059526777535319768 0.0031777787567539304 0 -0.00051745582578817243 0.0031395651266296195 0 -0.0005298057316264034 0.0032196695390684367 0 -0.00045033435642059989 0.003182028435013958 0 -0.00051745582578817243 0.0031395651266296195 0 -0.0005298057316264034 0.0032196695390684367 0 -0.00059526777535319768 0.0031777787567539304 0 -0.00051745582578817243 0.0031395651266296195 0 0.0010678103987763908 0.0042819429088941045 0 0.00064158202417197282 0.004097917868652671 0 0.00079183218950897765 0.0045773057872683549 0 0.0011182609673309053 0.0096578932592153929 0 0.0017331617372309839 0.0073593808954578246 0 -0.00023617194114659723 0.0038150417803677985 0 0.0017331617372309839 0.0073593808954578246 0 0.00024166385754873117 0.0040921278042225021 0 0.00064158202417197282 0.004097917868652671 0 0.00079183218950897765 0.0045773057872683549 0 -0.0009647628817974303 0.0077318753135894791 0 0.0026720188977675959 0.0069964872320618654 0 0.0011661379940284496 0.0085938970139100637 0 -0.0009647628817974303 0.0077318753135894791 0 -0.00029310698543587386 0.0048515809082440098 0 0.0026720188977675959 0.0069964872320618654 0 0.0021175506633064937 0.0077771574904371647 0 0.00092638093041582791 0.009028341996134167 0 0.0017598668900087721 0.0093252566715400515 0 0.0017331617372309839 0.0073593808954578246 0 0.0010551720102870629 0.0087793703993973588 0 0.0021175506633064937 0.0077771574904371647 0 0.0025428611864362935 0.0094373764578235576 0 0.0036933121900421377 0.0089100630906256122 0 0.0017795907321568657 0.0090261182259181658 0 0.00097244730288243212 0.0098776893426515758 0 0.0020774295980016131 0.01068465498453062 0 0.0017331617372309839 0.0073593808954578246 0 0.0020424121996063397 0.012302765657345432 0 0.0025428611864362935 0.0094373764578235576 0 0.0028719856253551579 0.010735164128382884 0 0.0036933121900421377 0.0089100630906256122 0 0.0021175506633064937 0.0077771574904371647 0 0.0025428611864362935 0.0094373764578235576 0 0.0017598668900087721 0.0093252566715400515 0 0.0025428611864362935 0.0094373764578235576 0 0.0020139012049393535 0.010264793327592338 0 0.0017598668900087721 0.0093252566715400515 0 0.0025428611864362935 0.0094373764578235576 0 0.0020139012049393535 0.010264793327592338 0 0.0028719856253551579 0.010735164128382884 0 0.00092638093041582791 0.009028341996134167 0 0.0017598668900087721 0.0093252566715400515 0 0.0012049330807961543 0.010121722980461878 0 0.0020139012049393535 0.010264793327592338 0 0.0017598668900087721 0.0093252566715400515 0 0.0012049330807961543 0.010121722980461878 0 0.0020139012049393535 0.010264793327592338 0 0.0012049330807961543 0.010121722980461878 0 0.0015749339510803013 0.010798672526795412 0 -0.00018263529942227018 0.010059251454321152 0 0.0010551720102870629 0.0087793703993973588 0 -0.00034115481935040933 0.010200613198756604 0 0.00092638093041582791 0.009028341996134167 0 0.00055226997840824915 0.010084121484355191 0 0.00092638093041582791 0.009028341996134167 0 0.0012049330807961543 0.010121722980461878 0 0.00055226997840824915 0.010084121484355191 0 0.0012049330807961543 0.010121722980461878 0 0.00055226997840824915 0.010084121484355191 0 0.00041887085762036568 0.01102781686230766 0 0.0013178225863569536 0.0093131933697198164 0 0.0020227509516797799 0.010429279738229396 0 0.00041887085762036568 0.01102781686230766 0 0.0015749339510803013 0.010798672526795412 0 0.0021265488743954543 0.011463412269504331 0 0.0019612272680340622 0.0075925673756916442 0 0.0020822384100379868 0.0077248201051359437 0 0.0022168062236853489 0.0076817287075275553 0 -0.00034115481935040933 0.010200613198756604 0 0.00055226997840824915 0.010084121484355191 0 0.00041887085762036568 0.01102781686230766 0 0.0012049330807961543 0.010121722980461878 0 0.00041887085762036568 0.01102781686230766 0 0.0015749339510803013 0.010798672526795412 0 0.0019296324653814687 0.007811767168041394 0 0.0019612272680340622 0.0075925673756916442 0 0.0020822384100379868 0.0077248201051359437 0 0.0021658647153518186 0.012394796402027449 0 0.003329828518630592 0.011812170126004233 0 0.0042756778143193501 0.012093802755893699 0 0.0020139012049393535 0.010264793327592338 0 0.0015749339510803013 0.010798672526795412 0 0.0021058080073475352 0.011101864209990393 0 0.0020139012049393535 0.010264793327592338 0 0.0028719856253551579 0.010735164128382884 0 0.0021058080073475352 0.011101864209990393 0 0.0015749339510803013 0.010798672526795412 0 0.0021058080073475352 0.011101864209990393 0 0.0021265488743954543 0.011463412269504331 0 0.0020437911137316453 0.010728754736555964 0 0.0020227509516797799 0.010429279738229396 0 0.0028719856253551579 0.010735164128382884 0 0.0021058080073475352 0.011101864209990393 0 0.0021240545427360902 0.011487233179306217 0 0.0022240515654127491 0.0078125540004948899 0 0.0020822384100379868 0.0077248201051359437 0 0.0022168062236853489 0.0076817287075275553 0 0.0030608939522571346 0.012681860463151262 0 0.0020227509516797799 0.010429279738229396 0 0.0021658647153518186 0.012394796402027449 0 0.0021213247364171763 0.011523658029256664 0 0.003329828518630592 0.011812170126004233 0 0.0028719856253551579 0.010735164128382884 0 0.0021240545427360902 0.011487233179306217 0 0.003329828518630592 0.011812170126004233 0 0.0020227509516797799 0.010429279738229396 0 0.0031984467998330294 0.011462345317837276 0 0.0028719856253551579 0.010735164128382884 0 0.003329828518630592 0.011812170126004233 0 0.0042756778143193501 0.012093802755893699 0 0.0028719856253551579 0.010735164128382884 0 0.0042756778143193501 0.012093802755893699 0 0.0036933121900421377 0.0089100630906256122 0 0.0021972650251212388 0.01892812429347247 0 0.0025709077596081189 0.018146586089160321 0 0.0015798413038587585 0.015587324316157647 0 0.0026682754125819047 0.017734847429542931 0 0.0026802708852313654 0.017324205477652482 0 0.0025709077596081189 0.018146586089160321 0 0.0030000550422688622 0.016612246494639316 0 0.0015798413038587585 0.015587324316157647 0 0.0042206296641022767 0.018086195304565809 0 0.0020424121996063397 0.012302765657345432 0 0.0026802708852313654 0.017324205477652482 0 0.0020424121996063397 0.012302765657345432 0 0.002563099741440878 0.020154927493895202 0 0.0017810838788878726 0.01960595082157254 0 0.0017668328957421186 0.020638386869862854 0 0.0038713216545030668 0.023387350172691876 0 0.005275358289236305 0.023681191353369772 0 0.0032866401365094573 0.023992188981880505 0 0.0026802708852313654 0.017324205477652482 0 0.0027780334699988901 0.021504113270115498 0 0.0042206296641022767 0.018086195304565809 0 0.0034938264235796612 0.022290621823796146 0 0.0021972650251212388 0.01892812429347247 0 0.0025709077596081189 0.018146586089160321 0 0.0046001897190663258 0.018550836559599146 0 0.0029613453488119461 0.016763535980045673 0 0.0046001897190663258 0.018550836559599146 0 0.0049361275484926369 0.018197694030613259 0 0.0025709077596081189 0.018146586089160321 0 0.0029613453488119461 0.016763535980045673 0 0.0046001897190663258 0.018550836559599146 0 0.003327556261946829 0.023346662857361714 0 0.0034938264235796612 0.022290621823796146 0 0.0020877376655351605 0.024180725148289443 0 0.0028516022509610392 0.024229171590178362 0 0.0017541150419715854 0.025265454739422637 0 0.0029756344489732722 0.023479710232646906 0 0.0033165979227493259 0.023984264561034849 0 0.0027825834566060051 0.024057941785184084 0 0.0029756344489732722 0.023479710232646906 0 0.0027825834566060051 0.024057941785184084 0 0.0023794295763899312 0.02374609756248405 0 0.0034938264235796612 0.022290621823796146 0 0.0029390844036992127 0.022645461199055538 0 0.0033129366500790586 0.022354852737508452 0 0.0028031838523287947 0.022425766093107573 0 0.0030664724598194505 0.022613724420568242 0 0.0034938264235796612 0.022290621823796146 0 0.0027780334699988901 0.021504113270115498 0 0.0029390844036992127 0.022645461199055538 0 0.0027780334699988901 0.021504113270115498 0 0.0029390844036992127 0.022645461199055538 0 0.0021585815239203031 0.023532948337947709 0 0.0026403853143293896 0.024080383685801399 0 0.0020877376655351605 0.024180725148289443 0 0.0028516022509610392 0.024229171590178362 0 0.0027825834566060051 0.024057941785184084 0 0.0023794295763899312 0.02374609756248405 0 0.0020877376655351605 0.024180725148289443 0 0.0020877376655351605 0.024180725148289443 0 0.0012918107696670666 0.024623408135270801 0 0.0017541150419715854 0.025265454739422637 0 0.0017595307569912035 0.02365613751388378 0 0.0012918107696670666 0.024623408135270801 0 0.00094317602979510334 0.02386844636944294 0 0.0017595307569912035 0.02365613751388378 0 0.0023794295763899312 0.02374609756248405 0 0.0020877376655351605 0.024180725148289443 0 0.0017595307569912035 0.02365613751388378 0 0.0020877376655351605 0.024180725148289443 0 0.0012918107696670666 0.024623408135270801 0 0.0012918107696670666 0.024623408135270801 0 0.0017541150419715854 0.025265454739422637 0 0.00096653217112750451 0.025331763792804687 0 0.0027780334699988901 0.021504113270115498 0 0.0013325111242394809 0.022860074324573609 0 0.0017810838788878726 0.01960595082157254 0 0.0010752547284519256 0.020328491102208076 0 0.0017668328957421186 0.020638386869862854 0 0.0010752547284519256 0.020328491102208076 0 0.0017668328957421186 0.020638386869862854 0 0.0011601058206710132 0.021147880011572029 0 0.0017668328957421186 0.020638386869862854 0 0.0011601058206710132 0.021147880011572029 0 0.0017076678954136644 0.021475142408192142 0 0.0013325111242394809 0.022860074324573609 0 0.0005912436023602979 0.023487954967701931 0 0.0017541150419715854 0.025265454739422637 0 0.00096653217112750451 0.025331763792804687 0 0.00096740642466630047 0.025752699220104244 0 0.0010752547284519256 0.020328491102208076 0 0.0011601058206710132 0.021147880011572029 0 0.00024015799638910711 0.021140544963256149 0 0.0011601058206710132 0.021147880011572029 0 0.00049816209687917744 0.021590084237009317 0 0.0011879745338014304 0.021871938757547768 0 0.0011601058206710132 0.021147880011572029 0 0.00024015799638910711 0.021140544963256149 0 0.00031895777736114646 0.021886335531224516 0 0.0011171271884897944 0.021196592738334196 0 0.00035215378565356582 0.02178348693470579 0 0.00049816209687917744 0.021590084237009317 0 0.00072387634478672839 0.022026036392544496 0 0.0011879745338014304 0.021871938757547768 0 0.0017076678954136644 0.021475142408192142 0 0.0019996244625699929 0.022037070955052713 0 0.0011879745338014304 0.021871938757547768 0 0.0011601058206710132 0.021147880011572029 0 0.0017076678954136644 0.021475142408192142 0 0.0011879745338014304 0.021871938757547768 0 0.0014232147442011969 0.01482283770025593 0 0.001601803062981604 0.015173201107246098 0 0.0012786325832247812 0.015228844284851351 0 0.0017978593970633546 0.017914652654387041 0 0.0016443366068644464 0.018981037707084605 0 0.0017076678954136644 0.021475142408192142 0 0.0022835874132062736 0.02111068475177463 0 0.0019996244625699929 0.022037070955052713 0 0.0018031220501664956 0.014926656368636486 0 0.001648572349012496 0.014782211216245926 0 0.001601803062981604 0.015173201107246098 0 0.001648572349012496 0.014782211216245926 0 0.0014232147442011969 0.01482283770025593 0 0.001601803062981604 0.015173201107246098 0 0.0011182609673309053 0.0096578932592153929 0 0.0010183339047579252 0.012701390266382324 0 0.0011182609673309053 0.0096578932592153929 0 0.0020424121996063397 0.012302765657345432 0 0.0015471378686024004 0.014466377278852485 0 0.0017350535989377415 0.014585292548436398 0 0.001648572349012496 0.014782211216245926 0 0.0018031220501664956 0.014926656368636486 0 0.0017350535989377415 0.014585292548436398 0 0.001648572349012496 0.014782211216245926 0 0.0015471378686024004 0.014466377278852485 0 0.001648572349012496 0.014782211216245926 0 0.0014232147442011969 0.01482283770025593 0 0.002563099741440878 0.020154927493895202 0 0.0017668328957421186 0.020638386869862854 0 0.0022835874132062736 0.02111068475177463 0 0.0026802708852313654 0.017324205477652482 0 0.0017978593970633546 0.017914652654387041 0 0.0017668328957421186 0.020638386869862854 0 0.0017076678954136644 0.021475142408192142 0 0.0022835874132062736 0.02111068475177463 0 0.00010701362205535657 0.025488034476723195 0 0.00029372254060518958 0.025458285162801991 0 0.00019877051759725368 0.025684208137751866 0 0.00010701362205535657 0.025488034476723195 0 0.00029372254060518958 0.025458285162801991 0 0.00021639641940699963 0.025409346227457209 0 0.00029372254060518958 0.025458285162801991 0 0.00021639641940699963 0.025409346227457209 0 0.00035253041575446399 0.025352218199933527 0 0.00029198949574925966 0.025286225000422519 0 0.00035253041575446399 0.025352218199933527 0 0.00045845131616544492 0.025323730130653074 0 0.00021639641940699963 0.025409346227457209 0 0.00029198949574925966 0.025286225000422519 0 0.00035253041575446399 0.025352218199933527 0 0.00045845131616544492 0.025323730130653074 0 0.00045326679041877673 0.025297419690992914 0 0.00049981580271175148 0.025301431275731884 0 0.00035253041575446399 0.025352218199933527 0 0.00045845131616544492 0.025323730130653074 0 0.00045326679041877673 0.025297419690992914 0 0.00029372254060518958 0.025458285162801991 0 0.00045326679041877673 0.025297419690992914 0 0.00049243704183677209 0.025572993464578239 0 0.00029372254060518958 0.025458285162801991 0 0.00035253041575446399 0.025352218199933527 0 0.00045326679041877673 0.025297419690992914 0 0.00052048899380147215 0.02511902099112908 0 0.00096653217112750451 0.025331763792804687 0 0.00049243704183677209 0.025572993464578239 0 0.00045326679041877673 0.025297419690992914 0 0.00052048899380147215 0.02511902099112908 0 0.00049243704183677209 0.025572993464578239 0 0.00045326679041877673 0.025297419690992914 0 0.00052048899380147215 0.02511902099112908 0 0.00049981580271175148 0.025301431275731884 0 0.00049030904543068089 0.025040529116088773 0 0.00063425836927161596 0.024555723321609092 0 0.0012918107696670666 0.024623408135270801 0 0.00052048899380147215 0.02511902099112908 0 0.00094317602979510334 0.02386844636944294 0 0.00052048899380147215 0.02511902099112908 0 0.00049981580271175148 0.025301431275731884 0 0.00022234033871794685 0.025300778478335981 0 0.0012918107696670666 0.024623408135270801 0 0.00052048899380147215 0.02511902099112908 0 0.00096653217112750451 0.025331763792804687 0 0.00096653217112750451 0.025331763792804687 0 0.00096740642466630047 0.025752699220104244 0 0.00049243704183677209 0.025572993464578239 0 0.00035215378565356582 0.02178348693470579 0 -0.00024757845345498096 0.02204674126234548 0 0.00024015799638910711 0.021140544963256149 0 0.00031895777736114646 0.021886335531224516 0 -0.00081099638542953499 0.022242330661956126 0 0.00031895777736114646 0.021886335531224516 0 -0.00081099638542953499 0.022242330661956126 0 -0.00073001736993306954 0.022710360780704108 0 0.0005912436023602979 0.023487954967701931 0 9.4955611137244165e-05 0.023836407928771539 0 0.0006293914373979026 0.026021781897716537 0 0.00049243704183677209 0.025572993464578239 0 0.00034056195624304592 0.025923505598650535 0 0.00096740642466630047 0.025752699220104244 0 0.0006293914373979026 0.026021781897716537 0 0.00049243704183677209 0.025572993464578239 0 0.00049243704183677209 0.025572993464578239 0 0.00034056195624304592 0.025923505598650535 0 0.00019877051759725368 0.025684208137751866 0 0.00029372254060518958 0.025458285162801991 0 0.00049243704183677209 0.025572993464578239 0 0.00019877051759725368 0.025684208137751866 0 0.00034056195624304592 0.025923505598650535 0 0.00019877051759725368 0.025684208137751866 0 8.533620153083481e-05 0.026098077681753436 0 -0.00020906817316438669 0.025900107428641999 0 0.00019877051759725368 0.025684208137751866 0 8.533620153083481e-05 0.026098077681753436 0 -0.0028412850938561262 0.030940293105504103 0 -0.0029860437318727697 0.031116112834936999 0 -0.0028778400215625079 0.03104679173680288 0 -0.003452086991677403 0.031065027982666527 0 -0.003344356838813952 0.032582861176647611 0 -0.0032606954264970023 0.032494697670003389 0 -0.0035417092086369216 0.032442897383076354 0 -0.0031829831580204998 0.032219844335283493 0 -0.003452086991677403 0.031065027982666527 0 -0.0030273168312685067 0.031720640046041762 0 -0.0034095258653479279 0.03235894226691817 0 -0.0031801482964210147 0.032122706817095253 0 -0.0031829831580204998 0.032219844335283493 0 -0.0031094856300187164 0.032399734461197573 0 -0.0032606954264970023 0.032494697670003389 0 -0.0031829831580204998 0.032219844335283493 0 -0.0032606954264970023 0.032494697670003389 0 -0.0032937459792184523 0.032786581407161376 0 -0.0035417092086369216 0.032442897383076354 0 -0.0030812477835229328 0.032575697449554228 0 -0.0032606954264970023 0.032494697670003389 0 -0.0032937459792184523 0.032786581407161376 0 0.0006293914373979026 0.026021781897716537 0 0.00034056195624304592 0.025923505598650535 0 0.0003646160540992868 0.026321798916811599 0 -0.0032937459792184523 0.032786581407161376 0 -0.0036157491158430987 0.032485313046447035 0 -0.0035417092086369216 0.032442897383076354 0 0.00034056195624304592 0.025923505598650535 0 8.533620153083481e-05 0.026098077681753436 0 0.0003646160540992868 0.026321798916811599 0 -0.0015064511035937649 0.02979817830899931 0 -0.001255408985019379 0.026691296694952928 0 -0.0028128967458152265 0.030925851547416228 0 -0.0028306965172565477 0.031006223128328382 0 -0.0028005924824300778 0.031010080445905835 0 -0.0028128967458152265 0.030925851547416228 0 -0.0028412850938561262 0.030940293105504103 0 -0.0028306965172565477 0.031006223128328382 0 -0.001255408985019379 0.026691296694952928 0 -0.003452086991677403 0.031065027982666527 0 -0.0028412850938561262 0.030940293105504103 0 -0.0028306965172565477 0.031006223128328382 0 -0.0028778400215625079 0.03104679173680288 0 -0.00029502151919368627 0.022516181910890887 0 9.6429268939350873e-05 0.022633017299395611 0 1.6558580194265251e-05 0.023219897795837705 0 -0.0028128967458152265 0.030925851547416228 0 -0.0027606145496895077 0.03100497507957602 0 -0.0028005924824300778 0.031010080445905835 0 -0.00087014374119216231 0.022567975574149416 0 -0.00029502151919368627 0.022516181910890887 0 1.6558580194265251e-05 0.023219897795837705 0 -0.001255408985019379 0.026691296694952928 0 -0.0013829262809812014 0.027736331877282354 0 9.4955611137244165e-05 0.023836407928771539 0 -0.001255408985019379 0.026691296694952928 0 -0.001255408985019379 0.026691296694952928 0 -0.00024757845345498096 0.02204674126234548 0 -0.00081099638542953499 0.022242330661956126 0 -0.0019320753022164579 0.023598301573785611 0 -0.00073001736993306954 0.022710360780704108 0 -0.00087014374119216231 0.022567975574149416 0 -0.00018789073442982562 0.022065148174472415 0 -0.00029502151919368627 0.022516181910890887 0 -0.00029502151919368627 0.022516181910890887 0 1.8672516865852455e-06 0.022345982010522444 0 9.6429268939350873e-05 0.022633017299395611 0 -0.00018789073442982562 0.022065148174472415 0 -0.00029502151919368627 0.022516181910890887 0 1.8672516865852455e-06 0.022345982010522444 0 -0.00018789073442982562 0.022065148174472415 0 1.8672516865852455e-06 0.022345982010522444 0 0.00039175305411152673 0.022168810922015895 0 0.00049816209687917744 0.021590084237009317 0 -0.00018789073442982562 0.022065148174472415 0 0.00039175305411152673 0.022168810922015895 0 1.8672516865852455e-06 0.022345982010522444 0 0.00039175305411152673 0.022168810922015895 0 9.6429268939350873e-05 0.022633017299395611 0 0.00039175305411152673 0.022168810922015895 0 9.6429268939350873e-05 0.022633017299395611 0 0.00081582784564906464 0.022471551376649499 0 0.00049816209687917744 0.021590084237009317 0 0.00039175305411152673 0.022168810922015895 0 0.00072387634478672839 0.022026036392544496 0 9.6429268939350873e-05 0.022633017299395611 0 0.00081582784564906464 0.022471551376649499 0 0.00071985788759197525 0.023083956090197671 0 9.6429268939350873e-05 0.022633017299395611 0 1.6558580194265251e-05 0.023219897795837705 0 0.00071985788759197525 0.023083956090197671 0 -0.0013829262809812014 0.027736331877282354 0 -0.00051556277223370115 0.023340358569615551 0 -0.0027606145496895077 0.03100497507957602 0 -0.0027783389627627285 0.031034410845702264 0 -0.0027491362931343147 0.030973724607395604 0 1.6558580194265251e-05 0.023219897795837705 0 0.00071985788759197525 0.023083956090197671 0 0.00088033893907053372 0.023865235116394493 0 -0.0027783389627627285 0.031034410845702264 0 -0.0027491362931343147 0.030973724607395604 0 -0.0028423898238156904 0.031035718621275406 0 -0.0030706394819745575 0.016484096736425188 0 -0.0017293146054986766 0.014371633760831143 0 -0.0017943412100465946 0.014899351732637322 0 -0.00051556277223370115 0.023340358569615551 0 -0.0026733933021766518 0.023176958052843345 0 -0.0027783389627627285 0.031034410845702264 0 -0.0027569361683109335 0.031045670570679359 0 -0.0028423898238156904 0.031035718621275406 0 -0.0027783389627627285 0.031034410845702264 0 -0.0027751095207806664 0.03106192375966068 0 -0.0027885256599767538 0.031053581009794978 0 -0.0027783389627627285 0.031034410845702264 0 -0.0027569361683109335 0.031045670570679359 0 -0.0027751095207806664 0.03106192375966068 0 -0.0027569361683109335 0.031045670570679359 0 -0.0027751095207806664 0.03106192375966068 0 -0.0027659526909866276 0.031060765206537489 0 -0.0027751095207806664 0.03106192375966068 0 -0.0028291039979373095 0.031118276639991969 0 -0.0027659526909866276 0.031060765206537489 0 -0.0027751095207806664 0.03106192375966068 0 -0.0027885256599767538 0.031053581009794978 0 -0.0028291039979373095 0.031118276639991969 0 -0.0027606145496895077 0.03100497507957602 0 -0.0027885256599767538 0.031053581009794978 0 -0.0028005924824300778 0.031010080445905835 0 -0.0027606145496895077 0.03100497507957602 0 -0.0027783389627627285 0.031034410845702264 0 -0.0027885256599767538 0.031053581009794978 0 -0.0028306965172565477 0.031006223128328382 0 -0.0028005924824300778 0.031010080445905835 0 -0.0028173777472863862 0.031045848597611059 0 -0.0027885256599767538 0.031053581009794978 0 -0.0028005924824300778 0.031010080445905835 0 -0.0028173777472863862 0.031045848597611059 0 -0.0028306965172565477 0.031006223128328382 0 -0.0028173777472863862 0.031045848597611059 0 -0.002850882663113188 0.031066387341178382 0 -0.0028306965172565477 0.031006223128328382 0 -0.002850882663113188 0.031066387341178382 0 -0.0028778400215625079 0.03104679173680288 0 -0.002850882663113188 0.031066387341178382 0 -0.0028945251613982678 0.03110341091229113 0 -0.0028778400215625079 0.03104679173680288 0 -0.002850882663113188 0.031066387341178382 0 -0.002865630700923198 0.031125630532027621 0 -0.0028281089638276546 0.031084806409556097 0 -0.002850882663113188 0.031066387341178382 0 -0.002865630700923198 0.031125630532027621 0 -0.0028945251613982678 0.03110341091229113 0 -0.0027885256599767538 0.031053581009794978 0 -0.0028173777472863862 0.031045848597611059 0 -0.0028281089638276546 0.031084806409556097 0 -0.0028173777472863862 0.031045848597611059 0 -0.002850882663113188 0.031066387341178382 0 -0.0028281089638276546 0.031084806409556097 0 -0.0027885256599767538 0.031053581009794978 0 -0.0028281089638276546 0.031084806409556097 0 -0.0028291039979373095 0.031118276639991969 0 -0.0028291039979373095 0.031118276639991969 0 -0.0028468763073275197 0.031139201188692511 0 -0.0027659526909866276 0.031060765206537489 0 -0.0028291039979373095 0.031118276639991969 0 -0.0028981794129236908 0.031200948419431527 0 -0.0028911250549421143 0.031196679644771554 0 -0.0028291039979373095 0.031118276639991969 0 -0.0028911250549421143 0.031196679644771554 0 -0.0028468763073275197 0.031139201188692511 0 -0.002865630700923198 0.031125630532027621 0 -0.0028281089638276546 0.031084806409556097 0 -0.0028291039979373095 0.031118276639991969 0 -0.002865630700923198 0.031125630532027621 0 -0.0028291039979373095 0.031118276639991969 0 -0.0028981794129236908 0.031200948419431527 0 -0.002865630700923198 0.031125630532027621 0 -0.0028981794129236908 0.031200948419431527 0 -0.0029065766920681473 0.03116684681809052 0 -0.0028981794129236908 0.031200948419431527 0 -0.0029304481605129475 0.031242541043486016 0 -0.0029065766920681473 0.03116684681809052 0 -0.0028981794129236908 0.031200948419431527 0 -0.0029202771414812102 0.031243607826420036 0 -0.0028911250549421143 0.031196679644771554 0 -0.0028981794129236908 0.031200948419431527 0 -0.0029202771414812102 0.031243607826420036 0 -0.0029292405364945038 0.031278813016992472 0 -0.0029393991085606423 0.03132508347213999 0 -0.0029292405364945038 0.031278813016992472 0 -0.0029304481605129475 0.031242541043486016 0 -0.0029393991085606423 0.03132508347213999 0 -0.0029522101509034345 0.031350668951256738 0 -0.0029292405364945038 0.031278813016992472 0 -0.002944139564168335 0.031336778501804351 0 -0.0029304481605129475 0.031242541043486016 0 -0.0029860437318727697 0.031116112834936999 0 -0.0028981794129236908 0.031200948419431527 0 -0.0029292405364945038 0.031278813016992472 0 -0.0029304481605129475 0.031242541043486016 0 -0.0029304481605129475 0.031242541043486016 0 -0.0029860437318727697 0.031116112834936999 0 -0.0029065766920681473 0.03116684681809052 0 -0.0029860437318727697 0.031116112834936999 0 -0.0029065766920681473 0.03116684681809052 0 -0.0028945251613982678 0.03110341091229113 0 -0.002865630700923198 0.031125630532027621 0 -0.0029065766920681473 0.03116684681809052 0 -0.0028945251613982678 0.03110341091229113 0 -0.0029860437318727697 0.031116112834936999 0 -0.0028945251613982678 0.03110341091229113 0 -0.0028778400215625079 0.03104679173680288 0 -0.00017674733783562169 0.013524044492021879 0 0.00028962358282720688 0.012620566122859037 0 -0.00071018852675552293 0.012437347738473405 0 -0.00017674733783562169 0.013524044492021879 0 0.00038569418190452319 0.01293016684880963 0 0.00028962358282720688 0.012620566122859037 0 0.0016443366068644464 0.018981037707084605 0 0.00090500668456098502 0.017572789554106408 0 0.0010407322874105775 0.012569904459828418 0 3.0197809605227475e-06 0.0099490067621391225 0 0.0013839886601686709 0.015483302759903233 0 0.0013218674664081608 0.015352618594760781 0 0.0010888584838572781 0.015784845663250977 0 0.0010407322874105775 0.012569904459828418 0 0.00090500668456098502 0.017572789554106408 0 -6.0776381974557855e-05 0.0089479155106087973 0 0.00076365263353037223 0.0089640424436480265 0 0.00092729755951661847 0.0079872086078159026 0 0.0014573001691164809 0.0091042066672739792 0 0.00076365263353037223 0.0089640424436480265 0 0.00092729755951661847 0.0079872086078159026 0 -6.0776381974557855e-05 0.0089479155106087973 0 0.00021039622725864255 0.010403698519279235 0 0.00082922992389945207 0.009753242841354497 0 0.0014573001691164809 0.0091042066672739792 0 0.00076365263353037223 0.0089640424436480265 0 0.00082922992389945207 0.009753242841354497 0 -6.0776381974557855e-05 0.0089479155106087973 0 0.00076365263353037223 0.0089640424436480265 0 0.00082922992389945207 0.009753242841354497 0 0.001601803062981604 0.015173201107246098 0 0.0012786325832247812 0.015228844284851351 0 0.0013218674664081608 0.015352618594760781 0 0.0012786325832247812 0.015228844284851351 0 0.0013218674664081608 0.015352618594760781 0 0.0010888584838572781 0.015784845663250977 0 0.0013715497295216888 0.015448052187281692 0 0.001601803062981604 0.015173201107246098 0 0.0013218674664081608 0.015352618594760781 0 0.0010407322874105775 0.012569904459828418 0 0.0010183339047579252 0.012701390266382324 0 0.0010407322874105775 0.012569904459828418 0 0.001649080424161734 0.014458509101365017 0 0.0019996244625699929 0.022037070955052713 0 0.0013893684575823479 0.022443882340425381 0 0.0011879745338014304 0.021871938757547768 0 0.00072387634478672839 0.022026036392544496 0 0.0011879745338014304 0.021871938757547768 0 0.00081582784564906464 0.022471551376649499 0 0.0013893684575823479 0.022443882340425381 0 0.0011879745338014304 0.021871938757547768 0 0.00081582784564906464 0.022471551376649499 0 0.00039175305411152673 0.022168810922015895 0 0.00072387634478672839 0.022026036392544496 0 0.00081582784564906464 0.022471551376649499 0 0.0013893684575823479 0.022443882340425381 0 0.00081582784564906464 0.022471551376649499 0 0.001197334655809358 0.022882979633408806 0 0.00081582784564906464 0.022471551376649499 0 0.001197334655809358 0.022882979633408806 0 0.00071985788759197525 0.023083956090197671 0 0.0019996244625699929 0.022037070955052713 0 0.0013893684575823479 0.022443882340425381 0 0.0017393416318159725 0.022940301341671739 0 0.0013893684575823479 0.022443882340425381 0 0.001197334655809358 0.022882979633408806 0 0.0017393416318159725 0.022940301341671739 0 0.001197334655809358 0.022882979633408806 0 0.0017393416318159725 0.022940301341671739 0 0.0013105287858213152 0.023408757956649595 0 0.0014788072286025411 0.016971221758842265 0 0.0010935429371194798 0.018327255666163264 0 0.0001346194594036247 0.018386301649959875 0 0.00038569418190452319 0.01293016684880963 0 0.00028962358282720688 0.012620566122859037 0 0.00052441166628302486 0.012400215436474323 0 0.00090500668456098502 0.017572789554106408 0 0.00034496130542068117 0.014528611871088091 0 0.00083170551696820237 0.013368438515418659 0 0.00034496130542068117 0.014528611871088091 0 0.00090500668456098502 0.017572789554106408 0 0.00069227977655632084 0.020852991602176761 0 0.0010935429371194798 0.018327255666163264 0 0.0001346194594036247 0.018386301649959875 0 -0.00080104872412096843 0.02013396293190017 0 0.00034496130542068117 0.014528611871088091 0 -0.0013606660224764419 0.016929666717714963 0 0.00028962358282720688 0.012620566122859037 0 0.00054086920745096106 0.01237957615275965 0 9.6990877763575696e-05 0.011989542023636458 0 0.00071985788759197525 0.023083956090197671 0 0.0013105287858213152 0.023408757956649595 0 0.00088033893907053372 0.023865235116394493 0 0.001197334655809358 0.022882979633408806 0 0.00071985788759197525 0.023083956090197671 0 0.0013105287858213152 0.023408757956649595 0 0.00069227977655632084 0.020852991602176761 0 -0.00051556277223370115 0.023340358569615551 0 -0.0013606660224764419 0.016929666717714963 0 -0.0010890222277056111 0.013002903855152714 0 -0.0030706394819745575 0.016484096736425188 0 -0.0033869422363095422 0.016232890120743009 0 -0.0017293146054986766 0.014371633760831143 0 0.0001346194594036247 0.018386301649959875 0 -0.001213337985086697 0.019815846691618434 0 -0.00080104872412096843 0.02013396293190017 0 -0.00051556277223370115 0.023340358569615551 0 -0.0013606660224764419 0.016929666717714963 0 -0.0013606660224764419 0.016929666717714963 0 -0.0005701746330644109 0.01264590463905986 0 -0.00064598802694250531 0.012618381008658376 0 -0.00074553532627058701 0.012549047010175613 0 -0.00066142091129775212 0.012508930478879798 0 -0.00064598802694250531 0.012618381008658376 0 -0.00058220067488696733 0.01246812683702197 0 -0.00066142091129775212 0.012508930478879798 0 -0.00030371440014836189 0.01458280950712083 0 -0.00052094314008288621 0.014782417947803488 0 -0.00039579104886023134 0.014872079779583731 0 0.00054086920745096106 0.01237957615275965 0 0.00083605982806268689 0.011294777783997472 0 9.6990877763575696e-05 0.011989542023636458 0 0.00034496130542068117 0.014528611871088091 0 -0.0005701746330644109 0.01264590463905986 0 0.00083605982806268689 0.011294777783997472 0 -0.00036979798213828904 0.011333249268441649 0 9.6990877763575696e-05 0.011989542023636458 0 -0.00036979798213828904 0.011333249268441649 0 9.6990877763575696e-05 0.011989542023636458 0 -0.00071018852675552293 0.012437347738473405 0 0.00028962358282720688 0.012620566122859037 0 9.6990877763575696e-05 0.011989542023636458 0 -0.00071018852675552293 0.012437347738473405 0 -0.00032757330725617098 0.007472478122035363 0 0.00092729755951661847 0.0079872086078159026 0 0.00038962573722361039 0.0068647074924560788 0 3.0197809605227475e-06 0.0099490067621391225 0 -0.00040677180926531513 0.0091947915076224535 0 -0.00036979798213828904 0.011333249268441649 0 -0.00071018852675552293 0.012437347738473405 0 -0.0012285901566782373 0.01134347371623688 0 -0.0012285901566782373 0.01134347371623688 0 -0.00089702471790978713 0.0106472292153232 0 -0.0017354062256411736 0.010267860212258104 0 -0.00036979798213828904 0.011333249268441649 0 -0.0012285901566782373 0.01134347371623688 0 -0.00089702471790978713 0.0106472292153232 0 -0.00089702471790978713 0.0106472292153232 0 -0.00097334465946922739 0.0098452304276436444 0 -0.0017354062256411736 0.010267860212258104 0 -0.00089702471790978713 0.0106472292153232 0 -0.00097334465946922739 0.0098452304276436444 0 -7.2835390887853108e-05 0.010564256169181331 0 -0.00062988568873708619 0.010984421170147859 0 -0.00048793583958598282 0.011391180482471858 0 -0.0010626532905990496 0.012224111817751907 0 -0.00089801602132190124 0.012370386743823002 0 -0.00084747871652322967 0.012105408005410767 0 0.00083605982806268689 0.011294777783997472 0 -0.00036979798213828904 0.011333249268441649 0 -7.2835390887853108e-05 0.010564256169181331 0 -0.00036979798213828904 0.011333249268441649 0 -0.00089702471790978713 0.0106472292153232 0 -7.2835390887853108e-05 0.010564256169181331 0 -0.0005701746330644109 0.01264590463905986 0 -0.00048793583958598282 0.011391180482471858 0 -0.00073414595275087826 0.012509590907857901 0 -0.00089801602132190124 0.012370386743823002 0 -0.00069653311884501645 0.012377527851522059 0 -0.0005701746330644109 0.01264590463905986 0 -0.00068625707614987375 0.012380280381328478 0 -0.00064598802694250531 0.012618381008658376 0 -0.00058220067488696733 0.01246812683702197 0 -0.00052763062644862026 0.01244373724629491 0 -0.00058220067488696733 0.01246812683702197 0 -0.00066142091129775212 0.012508930478879798 0 -0.00069653311884501645 0.012377527851522059 0 -0.00074553532627058701 0.012549047010175613 0 -0.00066142091129775212 0.012508930478879798 0 -0.00069653311884501645 0.012377527851522059 0 -0.00069653311884501645 0.012377527851522059 0 -0.00059072058404549912 0.012208840404454743 0 -0.0007454964800193254 0.012233731468738662 0 -0.00057908023172774663 0.012422170018984517 0 -0.00060469386832304607 0.012369172393630614 0 -0.00058220067488696733 0.01246812683702197 0 -0.00069653311884501645 0.012377527851522059 0 -0.00059072058404549912 0.012208840404454743 0 -0.00058220067488696733 0.01246812683702197 0 -0.00058453703151073379 0.012362413395895585 0 -0.00053548141891884143 0.012410965762833048 0 -0.00089801602132190124 0.012370386743823002 0 -0.0007454964800193254 0.012233731468738662 0 -0.00084747871652322967 0.012105408005410767 0 -0.00089801602132190124 0.012370386743823002 0 -0.00069653311884501645 0.012377527851522059 0 -0.0007454964800193254 0.012233731468738662 0 -0.0007454964800193254 0.012233731468738662 0 -0.0006944572308137326 0.012120539651325837 0 -0.00084747871652322967 0.012105408005410767 0 -0.00030329003461716141 0.011654531974342392 0 -0.00030160115355602675 0.011398151920150357 0 -0.0006944572308137326 0.012120539651325837 0 -0.00061838089374821441 0.011969500554051514 0 -0.00084747871652322967 0.012105408005410767 0 -0.00060469386832304607 0.012369172393630614 0 -0.00030329003461716141 0.011654531974342392 0 -0.00059072058404549912 0.012208840404454743 0 -0.0006944572308137326 0.012120539651325837 0 -0.00061838089374821441 0.011969500554051514 0 -0.00058453703151073379 0.012362413395895585 0 -0.00053414841157426124 0.012116778440007407 0 -0.00044685560633265158 0.012184763389265175 0 -0.00059072058404549912 0.012208840404454743 0 -0.0007454964800193254 0.012233731468738662 0 -0.0006944572308137326 0.012120539651325837 0 -0.00026351467703188266 0.012008482935909994 0 -0.00031984052996436802 0.012058201040683258 0 -0.00021672813782690924 0.012010762011594104 0 -2.84543509607201e-05 0.010684400142561119 0 0.00019494213218187301 0.010731671952436829 0 -6.7783207696414725e-05 0.010881002022572415 0 -0.00030329003461716141 0.011654531974342392 0 -0.00013232032418923297 0.011419610457152346 0 -0.00053414841157426124 0.012116778440007407 0 -0.00044685560633265158 0.012184763389265175 0 -0.00031984052996436802 0.012058201040683258 0 -0.00030329003461716141 0.011654531974342392 0 -0.00043259706200920106 0.012017109429789122 0 -2.84543509607201e-05 0.010684400142561119 0 0.00019494213218187301 0.010731671952436829 0 0.00020951068668762957 0.010653475049614952 0 0.00019494213218187301 0.010731671952436829 0 0.000222791420191953 0.010675927149521421 0 0.00020951068668762957 0.010653475049614952 0 0.00019494213218187301 0.010731671952436829 0 0.000222791420191953 0.010675927149521421 0 0.00029031405644763266 0.010732760397775093 0 0.000222791420191953 0.010675927149521421 0 0.00018301937786405412 0.010680981826647677 0 0.00010024249873690122 0.010639825755575616 0 0.000222791420191953 0.010675927149521421 0 6.5782896932144674e-05 0.010651438933381005 0 0.00010024249873690122 0.010639825755575616 0 0.00017376685336716925 0.010723553655196835 0 0.00018301937786405412 0.010680981826647677 0 0.00020951068668762957 0.010653475049614952 0 0.00017376685336716925 0.010723553655196835 0 0.00018301937786405412 0.010680981826647677 0 0.00010599134109538858 0.010688844185896607 0 -0.00062988568873708619 0.010984421170147859 0 2.1007127487534934e-05 0.010524565482635462 0 0.000222791420191953 0.010675927149521421 0 0.00018301937786405412 0.010680981826647677 0 0.00020951068668762957 0.010653475049614952 0 -0.00062988568873708619 0.010984421170147859 0 -0.00030160115355602675 0.011398151920150357 0 -0.0030158588632468951 0.031154975363940639 0 -0.0029838551827641897 0.031255439312171111 0 -0.0029763855212474465 0.031233587763176536 0 -0.0030158588632468951 0.031154975363940639 0 -0.0029549814181359341 0.031235455905948988 0 -0.0029763855212474465 0.031233587763176536 0 -0.0029763855212474465 0.031233587763176536 0 -0.002959049885989223 0.031249940016909873 0 -0.002933181336453497 0.031225200374496127 0 -0.0029549814181359341 0.031235455905948988 0 -0.0029763855212474465 0.031233587763176536 0 -0.002933181336453497 0.031225200374496127 0 -0.0029838551827641897 0.031255439312171111 0 -0.0029763855212474465 0.031233587763176536 0 -0.002959049885989223 0.031249940016909873 0 -0.0029638240070110951 0.031301436064943566 0 -0.0029410304116732435 0.031265049058805852 0 -0.002959049885989223 0.031249940016909873 0 -0.0029838551827641897 0.031255439312171111 0 -0.0029638240070110951 0.031301436064943566 0 -0.002959049885989223 0.031249940016909873 0 -0.0029522101509034345 0.031350668951256738 0 -0.0029292405364945038 0.031278813016992472 0 -0.0029410304116732435 0.031265049058805852 0 -0.0029202771414812102 0.031243607826420036 0 -0.0029292405364945038 0.031278813016992472 0 -0.0029410304116732435 0.031265049058805852 0 -0.0029522101509034345 0.031350668951256738 0 -0.0029638240070110951 0.031301436064943566 0 -0.0029410304116732435 0.031265049058805852 0 -0.0029410304116732435 0.031265049058805852 0 -0.0029120923297675447 0.03120820562088401 0 -0.0028911250549421143 0.031196679644771554 0 -0.0029202771414812102 0.031243607826420036 0 -0.0029410304116732435 0.031265049058805852 0 -0.0028911250549421143 0.031196679644771554 0 -0.002959049885989223 0.031249940016909873 0 -0.0029120923297675447 0.03120820562088401 0 -0.002933181336453497 0.031225200374496127 0 -0.0029410304116732435 0.031265049058805852 0 -0.002959049885989223 0.031249940016909873 0 -0.0029120923297675447 0.03120820562088401 0 -0.0029120923297675447 0.03120820562088401 0 -0.0028468763073275197 0.031139201188692511 0 -0.0028770167330979673 0.031187282867367459 0 -0.0029120923297675447 0.03120820562088401 0 -0.0028770167330979673 0.031187282867367459 0 -0.002933181336453497 0.031225200374496127 0 -0.0029120923297675447 0.03120820562088401 0 -0.0028911250549421143 0.031196679644771554 0 -0.0028468763073275197 0.031139201188692511 0 -0.0028468763073275197 0.031139201188692511 0 -0.002802236332650223 0.03110374356511459 0 -0.0027659526909866276 0.031060765206537489 0 -0.0028468763073275197 0.031139201188692511 0 -0.0028770167330979673 0.031187282867367459 0 -0.002802236332650223 0.03110374356511459 0 -0.0028770167330979673 0.031187282867367459 0 -0.002802236332650223 0.03110374356511459 0 -0.0028139154276183805 0.031234367321781503 0 -0.0028770167330979673 0.031187282867367459 0 -0.0029049984659361362 0.031233721853193903 0 -0.0028139154276183805 0.031234367321781503 0 -0.0029549814181359341 0.031235455905948988 0 -0.0029049984659361362 0.031233721853193903 0 -0.002933181336453497 0.031225200374496127 0 -0.0028770167330979673 0.031187282867367459 0 -0.0029049984659361362 0.031233721853193903 0 -0.002933181336453497 0.031225200374496127 0 -0.0029549814181359341 0.031235455905948988 0 -0.0029049984659361362 0.031233721853193903 0 -0.0029258449487530617 0.031267273898312964 0 -0.0026832080872776012 0.030922569762933252 0 -0.003531918071949385 0.026905121764843484 0 -0.00053554575854982084 0.012595821061758551 0 -0.00029126796179161483 0.012089777744634864 0 -5.6906238969275852e-05 0.011994382816261683 0 -0.0020613949589320139 0.030281179548656136 0 -0.0017326114693358959 0.029290674486135537 0 -0.0013538575982155602 0.029266193517211922 0 -0.0029049984659361362 0.031233721853193903 0 -0.0028139154276183805 0.031234367321781503 0 -0.0029258449487530617 0.031267273898312964 0 -0.00053554575854982084 0.012595821061758551 0 -0.00084399618106619412 0.01332958612561533 0 -0.0017293146054986766 0.014371633760831143 0 -0.00053554575854982084 0.012595821061758551 0 -0.00053555930524419517 0.012454648022829664 0 -0.00052763062644862026 0.01244373724629491 0 -0.00057527832301808106 0.012761143732112432 0 -0.0010890222277056111 0.013002903855152714 0 -0.0016111065479536865 0.021842825681006792 0 -0.0016630630996293039 0.020390758108973509 0 -0.00053554575854982084 0.012595821061758551 0 -0.00053555930524419517 0.012454648022829664 0 -0.00047932059354047527 0.012292431701756026 0 -0.0026518258020113211 0.030483159098259799 0 -0.0020613949589320139 0.030281179548656136 0 -0.0017326114693358959 0.029290674486135537 0 -0.00053554575854982084 0.012595821061758551 0 -0.00084399618106619412 0.01332958612561533 0 -5.6906238969275852e-05 0.011994382816261683 0 -0.00053554575854982084 0.012595821061758551 0 -0.00047932059354047527 0.012292431701756026 0 -0.00029126796179161483 0.012089777744634864 0 -0.0026518258020113211 0.030483159098259799 0 -0.0020613949589320139 0.030281179548656136 0 -0.0026749580706043122 0.030964621781558579 0 -0.0026832080872776012 0.030922569762933252 0 -0.0025830619298213217 0.030876099156210722 0 -0.002802236332650223 0.03110374356511459 0 -0.0028139154276183805 0.031234367321781503 0 -0.0026749580706043122 0.030964621781558579 0 -0.002802236332650223 0.03110374356511459 0 -0.0027659526909866276 0.031060765206537489 0 -0.0026749580706043122 0.030964621781558579 0 -0.0027569361683109335 0.031045670570679359 0 -0.0027659526909866276 0.031060765206537489 0 -0.0026749580706043122 0.030964621781558579 0 -0.0026518258020113211 0.030483159098259799 0 -0.0026749580706043122 0.030964621781558579 0 -0.0028423898238156904 0.031035718621275406 0 -0.00058220067488696733 0.01246812683702197 0 -0.00052763062644862026 0.01244373724629491 0 -0.00053548141891884143 0.012410965762833048 0 -0.00084399618106619412 0.01332958612561533 0 -0.0017293146054986766 0.014371633760831143 0 -0.0017943412100465946 0.014899351732637322 0 -0.0016111065479536865 0.021842825681006792 0 -0.0026733933021766518 0.023176958052843345 0 -0.0027569361683109335 0.031045670570679359 0 -0.0026749580706043122 0.030964621781558579 0 -0.0028423898238156904 0.031035718621275406 0 -0.00053555930524419517 0.012454648022829664 0 -0.00052763062644862026 0.01244373724629491 0 -0.00053548141891884143 0.012410965762833048 0 -0.00053555930524419517 0.012454648022829664 0 -0.00053548141891884143 0.012410965762833048 0 -0.00050733379428702634 0.012313111448872203 0 -0.00053548141891884143 0.012410965762833048 0 -0.00050236712520506787 0.012296050964186392 0 -0.00050733379428702634 0.012313111448872203 0 -0.00058453703151073379 0.012362413395895585 0 -0.00053548141891884143 0.012410965762833048 0 -0.00050236712520506787 0.012296050964186392 0 -0.00058453703151073379 0.012362413395895585 0 -0.00050236712520506787 0.012296050964186392 0 -0.00044685560633265158 0.012184763389265175 0 -0.00050236712520506787 0.012296050964186392 0 -0.00050733379428702634 0.012313111448872203 0 -0.00045089841710112418 0.012203169473914562 0 -0.00050236712520506787 0.012296050964186392 0 -0.00045089841710112418 0.012203169473914562 0 -0.00044685560633265158 0.012184763389265175 0 -0.00044685560633265158 0.012184763389265175 0 -0.00031984052996436802 0.012058201040683258 0 -0.00036704110536258408 0.012110568061612243 0 -0.00031984052996436802 0.012058201040683258 0 -0.00036704110536258408 0.012110568061612243 0 -0.00029185724680386963 0.012113898988000889 0 -0.00045089841710112418 0.012203169473914562 0 -0.00044685560633265158 0.012184763389265175 0 -0.00036704110536258408 0.012110568061612243 0 -0.00036704110536258408 0.012110568061612243 0 -0.00041423372560734154 0.012129901654557946 0 -0.00042666025953267436 0.012142682023163123 0 -0.00045089841710112418 0.012203169473914562 0 -0.00036704110536258408 0.012110568061612243 0 -0.00041423372560734154 0.012129901654557946 0 -0.00036704110536258408 0.012110568061612243 0 -0.00042666025953267436 0.012142682023163123 0 -0.00029185724680386963 0.012113898988000889 0 -0.00041423372560734154 0.012129901654557946 0 -0.00042666025953267436 0.012142682023163123 0 -0.00049023430498510052 0.01211618522267666 0 -0.00041423372560734154 0.012129901654557946 0 -0.00046436592073483576 0.012229149210010417 0 -0.00039145086888203159 0.012135273144207254 0 -0.00041423372560734154 0.012129901654557946 0 -0.00039145086888203159 0.012135273144207254 0 -0.00049023430498510052 0.01211618522267666 0 -0.00045089841710112418 0.012203169473914562 0 -0.00041423372560734154 0.012129901654557946 0 -0.00046436592073483576 0.012229149210010417 0 -0.00053555930524419517 0.012454648022829664 0 -0.00046436592073483576 0.012229149210010417 0 -0.00047932059354047527 0.012292431701756026 0 -0.00050733379428702634 0.012313111448872203 0 -0.00045089841710112418 0.012203169473914562 0 -0.00046436592073483576 0.012229149210010417 0 -0.00053555930524419517 0.012454648022829664 0 -0.00050733379428702634 0.012313111448872203 0 -0.00046436592073483576 0.012229149210010417 0 -0.00047932059354047527 0.012292431701756026 0 -0.00039145086888203159 0.012135273144207254 0 -0.00029126796179161483 0.012089777744634864 0 -0.00046436592073483576 0.012229149210010417 0 -0.00047932059354047527 0.012292431701756026 0 -0.00039145086888203159 0.012135273144207254 0 -0.0016630630996293039 0.020390758108973509 0 -0.0013488849054483925 0.015581583594632849 0 -0.0035475781359996113 0.021951821320101941 0 -0.003338529495057219 0.021940849419468271 0 -0.0029404792831036713 0.021193868795126965 0 -0.00038157239716176772 0.012090013779499777 0 -0.00049023430498510052 0.01211618522267666 0 -0.00079787244028456069 0.012084196704254806 0 -0.00039145086888203159 0.012135273144207254 0 -0.00038157239716176772 0.012090013779499777 0 -0.00049023430498510052 0.01211618522267666 0 -0.0011278425231091233 0.019567006845593912 0 -0.0016630630996293039 0.020390758108973509 0 -0.00039145086888203159 0.012135273144207254 0 -0.00029126796179161483 0.012089777744634864 0 -0.00038157239716176772 0.012090013779499777 0 -0.0016630630996293039 0.020390758108973509 0 -0.003531918071949385 0.026905121764843484 0 -0.00049023430498510052 0.01211618522267666 0 -0.00079787244028456069 0.012084196704254806 0 -0.00073651567652313133 0.012270704096566295 0 -0.00042666025953267436 0.012142682023163123 0 -0.00049023430498510052 0.01211618522267666 0 -0.00073651567652313133 0.012270704096566295 0 -0.0023822431869755765 0.020394983224273803 0 -0.0028381344513599862 0.021186633852406704 0 -0.0029404792831036713 0.021193868795126965 0 -0.0012506052043392384 0.012332867695284674 0 -0.00079787244028456069 0.012084196704254806 0 -0.00073651567652313133 0.012270704096566295 0 -0.0028318827349011859 0.020209285038562536 0 -0.0013488849054483925 0.015581583594632849 0 -0.0028318827349011859 0.020209285038562536 0 -0.0047748266397341166 0.025574992401787414 0 -0.0051742706498432902 0.029849070186713983 0 -0.0065481040277157627 0.029827834410926381 0 -0.0058276878045262952 0.028877486101862696 0 -0.0043511746638432852 0.030847115039047333 0 -0.003531918071949385 0.026905121764843484 0 -0.003338529495057219 0.021940849419468271 0 -0.0028381344513599862 0.021186633852406704 0 -0.0029404792831036713 0.021193868795126965 0 -0.003531918071949385 0.026905121764843484 0 -0.0047748266397341166 0.025574992401787414 0 -0.0030158588632468951 0.031154975363940639 0 -0.0029549814181359341 0.031235455905948988 0 -0.0029258449487530617 0.031267273898312964 0 -0.0011313706633378625 0.012553880818468173 0 -0.00079508723382259192 0.012491304182587025 0 -0.0012639934376919724 0.01290269650848286 0 -0.0011313706633378625 0.012553880818468173 0 -0.00073651567652313133 0.012270704096566295 0 -0.00079508723382259192 0.012491304182587025 0 -0.0012506052043392384 0.012332867695284674 0 -0.0011313706633378625 0.012553880818468173 0 -0.00073651567652313133 0.012270704096566295 0 -0.00073651567652313133 0.012270704096566295 0 -0.00079508723382259192 0.012491304182587025 0 -0.00049593689998638846 0.012306727827179245 0 -0.00042666025953267436 0.012142682023163123 0 -0.00073651567652313133 0.012270704096566295 0 -0.00049593689998638846 0.012306727827179245 0 -0.00079508723382259192 0.012491304182587025 0 -0.00049593689998638846 0.012306727827179245 0 -0.00068211537826920064 0.012788870056634911 0 -0.00079508723382259192 0.012491304182587025 0 -0.00068211537826920064 0.012788870056634911 0 -0.0012639934376919724 0.01290269650848286 0 -0.00022198512505504773 0.012344335167283459 0 -0.00049593689998638846 0.012306727827179245 0 -0.00068211537826920064 0.012788870056634911 0 -0.00042666025953267436 0.012142682023163123 0 -0.00049593689998638846 0.012306727827179245 0 -0.00029185724680386963 0.012113898988000889 0 -0.00022198512505504773 0.012344335167283459 0 -0.00049593689998638846 0.012306727827179245 0 -0.00029185724680386963 0.012113898988000889 0 -0.00031984052996436802 0.012058201040683258 0 -0.00029185724680386963 0.012113898988000889 0 -0.00012459944971783733 0.01199263059748914 0 -0.00022198512505504773 0.012344335167283459 0 -0.00029185724680386963 0.012113898988000889 0 -0.00012459944971783733 0.01199263059748914 0 -0.00022198512505504773 0.012344335167283459 0 -3.066762897401945e-05 0.012464638612368514 0 -4.4057700013935037e-05 0.011996738737663696 0 -0.00022198512505504773 0.012344335167283459 0 -0.00012459944971783733 0.01199263059748914 0 -4.4057700013935037e-05 0.011996738737663696 0 -0.00022198512505504773 0.012344335167283459 0 -3.066762897401945e-05 0.012464638612368514 0 -0.00010358878360019069 0.01321269913235425 0 -3.066762897401945e-05 0.012464638612368514 0 9.4295446497102333e-07 0.01321115066034821 0 -0.00010358878360019069 0.01321269913235425 0 9.4295446497102333e-07 0.01321115066034821 0 -2.1978567503261816e-06 0.014959451606998511 0 -0.00010358878360019069 0.01321269913235425 0 -2.1978567503261816e-06 0.014959451606998511 0 -0.00010358878360019069 0.01321269913235425 0 -0.0010688327668951785 0.013400556256153473 0 -0.00022198512505504773 0.012344335167283459 0 -0.00010358878360019069 0.01321269913235425 0 -0.00068211537826920064 0.012788870056634911 0 -0.00010358878360019069 0.01321269913235425 0 -0.00068211537826920064 0.012788870056634911 0 -0.0010688327668951785 0.013400556256153473 0 -9.7059143314020261e-07 0.01496531097531352 0 -0.00019604482461765588 0.017209058025456671 0 1.6195149404456983e-07 0.016652981975773425 0 3.2443693914161186e-11 0.014964021102591674 0 -0.00045045678088376467 0.015431929162582144 0 4.8721069873270195e-07 0.018341686324485636 0 1.6195149404456983e-07 0.016652981975773425 0 0.00010177656561738632 0.017740330934980945 0 -0.00019604482461765588 0.017209058025456671 0 1.6195149404456983e-07 0.016652981975773425 0 0.00010177656561738632 0.017740330934980945 0 -0.00068211537826920064 0.012788870056634911 0 -0.0010688327668951785 0.013400556256153473 0 -0.0012639934376919724 0.01290269650848286 0 -0.00019604482461765588 0.017209058025456671 0 0.00010177656561738632 0.017740330934980945 0 7.7254631719345199e-05 0.018336643314893913 0 -0.00045045678088376467 0.015431929162582144 0 -0.00064101783833898527 0.015070346396386543 0 0.00030219200240603334 0.01049185124033597 0 0.00029031405644763266 0.010732760397775093 0 0.00024846442660682739 0.011052868666572591 0 0.00030219200240603334 0.01049185124033597 0 0.00021692192070362022 0.01051923532489487 0 0.00012275321455068429 0.0099256509176618071 0 0.00030219200240603334 0.01049185124033597 0 0.00021692192070362022 0.01051923532489487 0 0.00029031405644763266 0.010732760397775093 0 0.000222791420191953 0.010675927149521421 0 0.00021692192070362022 0.01051923532489487 0 0.00029031405644763266 0.010732760397775093 0 0.000222791420191953 0.010675927149521421 0 0.00021692192070362022 0.01051923532489487 0 6.5782896932144674e-05 0.010651438933381005 0 0.00019494213218187301 0.010731671952436829 0 0.00029031405644763266 0.010732760397775093 0 0.00018686238241913633 0.010976821797816581 0 0.00019494213218187301 0.010731671952436829 0 0.00018686238241913633 0.010976821797816581 0 -6.7783207696414725e-05 0.010881002022572415 0 0.00018686238241913633 0.010976821797816581 0 -6.7783207696414725e-05 0.010881002022572415 0 -2.7120094338482357e-05 0.011542611662785578 0 -0.00031984052996436802 0.012058201040683258 0 -0.00012459944971783733 0.01199263059748914 0 -0.00021672813782690924 0.012010762011594104 0 -0.00013232032418923297 0.011419610457152346 0 -6.0343530331314828e-05 0.011571652139451142 0 -0.00012459944971783733 0.01199263059748914 0 -0.00021672813782690924 0.012010762011594104 0 -2.7120094338482357e-05 0.011542611662785578 0 -2.7120094338482357e-05 0.011542611662785578 0 -4.4057700013935037e-05 0.011996738737663696 0 0.00012501072842239586 0.011769628114970577 0 -0.00012459944971783733 0.01199263059748914 0 -2.7120094338482357e-05 0.011542611662785578 0 -4.4057700013935037e-05 0.011996738737663696 0 0.00018686238241913633 0.010976821797816581 0 -2.7120094338482357e-05 0.011542611662785578 0 0.00024846442660682739 0.011052868666572591 0 -2.7120094338482357e-05 0.011542611662785578 0 0.00024846442660682739 0.011052868666572591 0 0.00012501072842239586 0.011769628114970577 0 0.00029031405644763266 0.010732760397775093 0 0.00018686238241913633 0.010976821797816581 0 0.00024846442660682739 0.011052868666572591 0 0.00024846442660682739 0.011052868666572591 0 0.00012501072842239586 0.011769628114970577 0 0.00022736326515361937 0.010720541766593121 0 -3.066762897401945e-05 0.012464638612368514 0 -4.4057700013935037e-05 0.011996738737663696 0 0.00012501072842239586 0.011769628114970577 0 -3.066762897401945e-05 0.012464638612368514 0 9.4295446497102333e-07 0.01321115066034821 0 0.00012501072842239586 0.011769628114970577 0 9.4295446497102333e-07 0.01321115066034821 0 0.00012501072842239586 0.011769628114970577 0 2.0125290341217272e-07 0.011457743925840473 0 0.00012501072842239586 0.011769628114970577 0 2.0125290341217272e-07 0.011457743925840473 0 0.00022736326515361937 0.010720541766593121 0 2.0125290341217272e-07 0.011457743925840473 0 0.00022736326515361937 0.010720541766593121 0 3.5514058062734529e-07 0.0097056772681635012 0 0.00030219200240603334 0.01049185124033597 0 0.00024846442660682739 0.011052868666572591 0 0.00022736326515361937 0.010720541766593121 0 0.00030219200240603334 0.01049185124033597 0 0.00022736326515361937 0.010720541766593121 0 0.00019731813754462292 0.0096590965762031276 0 0.00030219200240603334 0.01049185124033597 0 0.00019731813754462292 0.0096590965762031276 0 0.00012275321455068429 0.0099256509176618071 0 0.00022736326515361937 0.010720541766593121 0 0.00019731813754462292 0.0096590965762031276 0 3.5514058062734529e-07 0.0097056772681635012 0 0.00019731813754462292 0.0096590965762031276 0 3.5514058062734529e-07 0.0097056772681635012 0 8.522378344896294e-07 0.0079522845673056803 0 0.00019731813754462292 0.0096590965762031276 0 8.522378344896294e-07 0.0079522845673056803 0 -2.2067708710234894e-05 0.0088796880482524768 0 -2.2067708710234894e-05 0.0088796880482524768 0 -2.7255470339022174e-06 0.0062030722551605268 0 -0.00082212990961834918 0.009337847593488836 0 8.522378344896294e-07 0.0079522845673056803 0 -2.2067708710234894e-05 0.0088796880482524768 0 -2.7255470339022174e-06 0.0062030722551605268 0 -2.2067708710234894e-05 0.0088796880482524768 0 -0.00082212990961834918 0.009337847593488836 0 0.00012275321455068429 0.0099256509176618071 0 0.00019731813754462292 0.0096590965762031276 0 -2.2067708710234894e-05 0.0088796880482524768 0 0.00012275321455068429 0.0099256509176618071 0 7.3503717683466994e-05 0.0049956482635731461 0 0.00030750951005928086 0.0043982306374106819 0 5.9532221813039602e-06 0.0052922148515893519 0 -6.4476430250543329e-07 0.0061974216663995482 0 2.7357703855567886e-07 0.0042615855633546407 0 5.9532221813039602e-06 0.0052922148515893519 0 4.5882171488979137e-05 0.0030359529381583793 0 2.7357703855567886e-07 0.0042615855633546407 0 5.9532221813039602e-06 0.0052922148515893519 0 0.00011394616900624495 0.0052105508124270297 0 0.00033017874793741045 0.0052266054388322054 0 5.9532221813039602e-06 0.0052922148515893519 0 3.9198911186389639e-05 0.0053532360224183761 0 0.00011394616900624495 0.0052105508124270297 0 -6.4476430250543329e-07 0.0061974216663995482 0 -0.00039663149724792799 0.0050154457828078649 0 3.9198911186389639e-05 0.0053532360224183761 0 -1.9161371944892365e-07 0.0062001277342411572 0 -0.00059017894217320839 0.007101917511477816 0 5.9532221813039602e-06 0.0052922148515893519 0 -6.4476430250543329e-07 0.0061974216663995482 0 3.9198911186389639e-05 0.0053532360224183761 0 -0.00039663149724792799 0.0050154457828078649 0 3.9198911186389639e-05 0.0053532360224183761 0 4.833096039335962e-05 0.0050354050274753377 0 3.9198911186389639e-05 0.0053532360224183761 0 4.833096039335962e-05 0.0050354050274753377 0 0.00011394616900624495 0.0052105508124270297 0 4.833096039335962e-05 0.0050354050274753377 0 0.00011394616900624495 0.0052105508124270297 0 0.00021765302053655978 0.0050312024742453897 0 -0.0007303831929706717 0.0019856895862243014 0 -0.0013765805050033107 0.0030104743834624055 0 4.833096039335962e-05 0.0050354050274753377 0 0.00013963202464921102 0.0048040598088664186 0 -0.00025776829310533451 0.0045999838897612761 0 4.833096039335962e-05 0.0050354050274753377 0 0.00013963202464921102 0.0048040598088664186 0 0.00021765302053655978 0.0050312024742453897 0 -0.00039663149724792799 0.0050154457828078649 0 4.833096039335962e-05 0.0050354050274753377 0 -0.00028088998059225452 0.0045712015024991851 0 0.00047479019982335198 0.0056885168212534145 0 -0.0013765805050033107 0.0030104743834624055 0 -0.00039663149724792799 0.0050154457828078649 0 -0.00028088998059225452 0.0045712015024991851 0 -0.00047230729599992898 0.0044995672550320427 0 -0.0018954904108830863 -0.00074487421820064025 0 -0.0019099997600901381 -0.0010213492399953443 0 -0.0016940978190690065 -0.00098350397328293292 0 -0.0013765805050033107 0.0030104743834624055 0 -0.00022821577708258273 0.0079195076227183501 0 -0.0015690578714938599 -0.0006368018134872076 0 -0.0018954904108830863 -0.00074487421820064025 0 -0.0016940978190690065 -0.00098350397328293292 0 -0.0015690578714938599 -0.0006368018134872076 0 -0.0016940978190690065 -0.00098350397328293292 0 -0.0013336068540015272 -0.00085006873775567648 0 0.00021692192070362022 0.01051923532489487 0 0.00012275321455068429 0.0099256509176618071 0 -0.00011040101520217352 0.010311742645968293 0 -0.00082212990961834918 0.009337847593488836 0 0.00012275321455068429 0.0099256509176618071 0 -0.00011040101520217352 0.010311742645968293 0 -0.00082212990961834918 0.009337847593488836 0 -0.00059217663620489685 0.010544855639622664 0 -0.00011040101520217352 0.010311742645968293 0 -0.00059017894217320839 0.007101917511477816 0 -0.00022821577708258273 0.0079195076227183501 0 -0.0012327920231925851 0.0049061128997871604 0 -0.00075396436030645848 0.0051248326437129434 0 -0.00061385959832599088 0.0059045049605989195 0 -0.0013765805050033107 0.0030104743834624055 0 -0.0011956229236474117 0.0055355072885967917 0 -0.00022821577708258273 0.0079195076227183501 0 0.00026467281190755662 0.011109468915337678 0 0.00021692192070362022 0.01051923532489487 0 -0.00011040101520217352 0.010311742645968293 0 6.5782896932144674e-05 0.010651438933381005 0 -0.00059217663620489685 0.010544855639622664 0 -0.00011040101520217352 0.010311742645968293 0 6.5782896932144674e-05 0.010651438933381005 0 6.5782896932144674e-05 0.010651438933381005 0 7.1946861799637043e-05 0.010627545640559689 0 0.00010024249873690122 0.010639825755575616 0 7.1946861799637043e-05 0.010627545640559689 0 0.00010024249873690122 0.010639825755575616 0 4.7322085204604391e-05 0.010539159321660121 0 0.00018301937786405412 0.010680981826647677 0 0.00010024249873690122 0.010639825755575616 0 0.00010599134109538858 0.010688844185896607 0 3.7185959189121711e-06 0.010376934499406644 0 -0.00014590332716759387 0.010300530599575485 0 4.7322085204604391e-05 0.010539159321660121 0 2.1007127487534934e-05 0.010524565482635462 0 3.7387851070009354e-05 0.010534254914626437 0 0.00010024249873690122 0.010639825755575616 0 0.00010599134109538858 0.010688844185896607 0 4.7322085204604391e-05 0.010539159321660121 0 -0.00070867487552329586 0.0096554976246844247 0 -0.00067094659282856083 0.0091879582292347349 0 -0.0001662321625969571 0.010153849361312514 0 -1.6450408309550189e-05 0.010269573890989387 0 -0.00027531573692618098 0.0099405519546605803 0 3.7185959189121711e-06 0.010376934499406644 0 -0.00014590332716759387 0.010300530599575485 0 -0.0001662321625969571 0.010153849361312514 0 -0.0015652471823043798 0.0029837934139988679 0 -0.0018109646045072101 0.0007559677027272764 0 -0.0021602282058668029 -0.0011612654309647989 0 -0.0020137240175086431 -0.0014296996468003836 0 -0.0022352625992864733 -0.0014907841515712393 0 -0.00090934806478120767 0.0040342955734711129 0 -0.0013866087816631102 0.0031046116214261694 0 -0.0011707213638470794 0.0041793448573673861 0 -0.00060878853648992667 0.0072080939848200298 0 -0.0015652471823043798 0.0029837934139988679 0 -0.00067094659282856083 0.0091879582292347349 0 -0.0013833259571367099 0.00800734820823862 0 -0.0013059702758941439 0.0084579044052873805 0 3.7185959189121711e-06 0.010376934499406644 0 4.7322085204604391e-05 0.010539159321660121 0 0.00010497943866171242 0.010631217715573703 0 -0.00070867487552329586 0.0096554976246844247 0 -0.00067094659282856083 0.0091879582292347349 0 -0.0013059702758941439 0.0084579044052873805 0 -1.6450408309550189e-05 0.010269573890989387 0 -0.0011956229236474117 0.0055355072885967917 0 -0.0021602282058668029 -0.0011612654309647989 0 -0.001966846853535422 -0.001241667048672274 0 -0.0020137240175086431 -0.0014296996468003836 0 -0.0020555703349139256 -0.0011133467189107361 0 -0.0021602282058668029 -0.0011612654309647989 0 -0.001966846853535422 -0.001241667048672274 0 7.8224020092400767e-05 0.010611110597401146 0 6.5782896932144674e-05 0.010651438933381005 0 7.1946861799637043e-05 0.010627545640559689 0 -0.0020555703349139256 -0.0011133467189107361 0 -0.0021273586475915852 -0.0010679884212536378 0 -0.0019099997600901381 -0.0010213492399953443 0 7.8224020092400767e-05 0.010611110597401146 0 7.1946861799637043e-05 0.010627545640559689 0 0.00010497943866171242 0.010631217715573703 0 -0.00022821577708258273 0.0079195076227183501 0 -0.0011956229236474117 0.0055355072885967917 0 -0.0020555703349139256 -0.0011133467189107361 0 -0.0021185096985672424 -0.0010884246077754343 0 -0.0021602282058668029 -0.0011612654309647989 0 -0.0021185096985672424 -0.0010884246077754343 0 -0.0021273586475915852 -0.0010679884212536378 0 -0.0021101259451622705 -0.0010990671994927405 0 -0.0021518088923276339 0.0013760079516588815 0 -0.0015652471823043798 0.0029837934139988679 0 -0.0020555703349139256 -0.0011133467189107361 0 -0.0021185096985672424 -0.0010884246077754343 0 -0.0021273586475915852 -0.0010679884212536378 0 7.1946861799637043e-05 0.010627545640559689 0 4.7322085204604391e-05 0.010539159321660121 0 0.00010497943866171242 0.010631217715573703 0 -0.0011956229236474117 0.0055355072885967917 0 -0.0015652471823043798 0.0029837934139988679 0 -0.0019099997600901381 -0.0010213492399953443 0 -0.0016940978190690065 -0.00098350397328293292 0 -0.0016403479264977799 -0.0011866161208396583 0 -0.0019099997600901381 -0.0010213492399953443 0 -0.0016403479264977799 -0.0011866161208396583 0 -0.0017939244386128172 -0.0013489463467014271 0 -0.0018954904108830863 -0.00074487421820064025 0 -0.0021273586475915852 -0.0010679884212536378 0 -0.0019099997600901381 -0.0010213492399953443 0 -0.0020555703349139256 -0.0011133467189107361 0 -0.0019099997600901381 -0.0010213492399953443 0 -0.001966846853535422 -0.001241667048672274 0 -0.0016940978190690065 -0.00098350397328293292 0 -0.0016403479264977799 -0.0011866161208396583 0 -0.0012844932373513086 -0.0011032723710066713 0 -0.0016607344378524267 -0.0010062635522983341 0 -0.001305384926382861 -0.0011561801844255982 0 -0.0016403479264977799 -0.0011866161208396583 0 -0.0014780449359973555 -0.0013597596323890997 0 -0.0012844932373513086 -0.0011032723710066713 0 -0.0016403479264977799 -0.0011866161208396583 0 -0.0014780449359973555 -0.0013597596323890997 0 -0.0017939244386128172 -0.0013489463467014271 0 -0.0019099997600901381 -0.0010213492399953443 0 -0.001966846853535422 -0.001241667048672274 0 -0.0017939244386128172 -0.0013489463467014271 0 -0.001966846853535422 -0.001241667048672274 0 -0.0017939244386128172 -0.0013489463467014271 0 -0.0020137240175086431 -0.0014296996468003836 0 -0.0017939244386128172 -0.0013489463467014271 0 -0.0019297071232887799 -0.0016986324732001924 0 -0.0015890107921198199 -0.0018245298163346356 0 -0.0017939244386128172 -0.0013489463467014271 0 -0.0020137240175086431 -0.0014296996468003836 0 -0.0019297071232887799 -0.0016986324732001924 0 -0.0014780449359973555 -0.0013597596323890997 0 -0.0017939244386128172 -0.0013489463467014271 0 -0.0015890107921198199 -0.0018245298163346356 0 -0.0014780449359973555 -0.0013597596323890997 0 -0.0015890107921198199 -0.0018245298163346356 0 -0.0013485125039181655 -0.0016327342954632132 0 -0.0018881032800158461 -0.0021001689606272994 0 -0.001494050350645577 -0.0024165183331594192 0 -0.0015890107921198199 -0.0018245298163346356 0 -0.0018881032800158461 -0.0021001689606272994 0 -0.0019297071232887799 -0.0016986324732001924 0 -0.0015890107921198199 -0.0018245298163346356 0 -0.0018881032800158461 -0.0021001689606272994 0 -0.0019297071232887799 -0.0016986324732001924 0 -0.0022926204903266577 -0.0018003498371283039 0 -0.00086496261422996435 -0.00010000408809247797 0 -0.00024448829948020106 0.0030220995024834649 0 -0.00040677180926531513 0.0091947915076224535 0 -0.00074970506047305975 0.0077511195548933785 0 0.00038962573722361039 0.0068647074924560788 0 -0.0005934143243327898 0.0059835814075288388 0 -0.00015573648232706125 0.0057409199158899981 0 -0.00024448829948020106 0.0030220995024834649 0 -0.00074970506047305975 0.0077511195548933785 0 -0.00096947548359375155 0.0052451525710861579 0 -0.00045194015233576094 0.0049593410318535241 0 -0.0011707213638470794 0.0041793448573673861 0 -9.7328012114143809e-05 0.010132018215229476 0 -0.00018823793993389768 0.010386304044177112 0 -0.0001662321625969571 0.010153849361312514 0 -0.00062988568873708619 0.010984421170147859 0 -0.00074970506047305975 0.0077511195548933785 0 -9.7328012114143809e-05 0.010132018215229476 0 -0.00014590332716759387 0.010300530599575485 0 -0.0001662321625969571 0.010153849361312514 0 -0.00090934806478120767 0.0040342955734711129 0 -0.00045194015233576094 0.0049593410318535241 0 -0.0011707213638470794 0.0041793448573673861 0 -0.00070867487552329586 0.0096554976246844247 0 -0.00018823793993389768 0.010386304044177112 0 -0.0001662321625969571 0.010153849361312514 0 -0.00060878853648992667 0.0072080939848200298 0 -0.00074970506047305975 0.0077511195548933785 0 -0.0020137240175086431 -0.0014296996468003836 0 -0.0019297071232887799 -0.0016986324732001924 0 -0.0022352625992864733 -0.0014907841515712393 0 -0.00024448829948020106 0.0030220995024834649 0 -0.0018109646045072101 0.0007559677027272764 0 -0.0019297071232887799 -0.0016986324732001924 0 -0.0022926204903266577 -0.0018003498371283039 0 -0.0022352625992864733 -0.0014907841515712393 0 -0.00086429378139544089 -0.0015797209561918897 0 -0.00052794827089601383 -0.0015554553971610097 0 -0.0006672675903163592 -0.0018432355756734891 0 -0.00051084176390838625 -0.0017475188831609823 0 -0.00018613583147202055 -0.0020651905985408043 0 -0.00052794827089601383 -0.0015554553971610097 0 -0.0006672675903163592 -0.0018432355756734891 0 -0.00020558090616073691 -0.0018570587779028252 0 -0.000496732612366093 -0.0019480551102970852 0 -0.00026065365228234631 -0.0019706874973285638 0 -0.00016464363729220324 -0.0022504435237604317 0 -0.00058019303497031159 -0.0022629499188164853 0 -0.00074373825330676096 -0.0019617277180708145 0 -0.00026093296628253393 -0.0019873972901725779 0 -0.00071517905373201941 -0.0018875732759482239 0 -0.00018613583147202055 -0.0020651905985408043 0 -0.00058019303497031159 -0.0022629499188164853 0 -0.00026093296628253393 -0.0019873972901725779 0 -0.0003010123991605112 -0.0023362465355864686 0 -0.00058019303497031159 -0.0022629499188164853 0 -0.00092384175117499927 -0.0023495857312881285 0 -0.00074373825330676096 -0.0019617277180708145 0 -0.00092384175117499927 -0.0023495857312881285 0 -0.00074373825330676096 -0.0019617277180708145 0 -0.0011846529922742925 -0.0019124268441584585 0 -0.0012411910292553969 -0.0022382415274444884 0 -0.00092384175117499927 -0.0023495857312881285 0 -0.0011846529922742925 -0.0019124268441584585 0 -0.00071517905373201941 -0.0018875732759482239 0 -0.0011615617819843991 -0.0018701812915013251 0 -0.0015661183757698231 -0.0018328374826091826 0 -0.0011615617819843991 -0.0018701812915013251 0 -0.0012411910292553969 -0.0022382415274444884 0 -0.0015890107921198199 -0.0018245298163346356 0 -0.0011846529922742925 -0.0019124268441584585 0 -0.0011252972083450998 -0.0018302087068586468 0 -0.0013485125039181655 -0.0016327342954632132 0 -0.0011505209224294466 -0.0014137656167134557 0 -0.0015890107921198199 -0.0018245298163346356 0 -0.0011252972083450998 -0.0018302087068586468 0 -0.0013485125039181655 -0.0016327342954632132 0 -0.00086429378139544089 -0.0015797209561918897 0 -0.0006672675903163592 -0.0018432355756734891 0 -0.0011252972083450998 -0.0018302087068586468 0 -0.00086429378139544089 -0.0015797209561918897 0 -0.0011252972083450998 -0.0018302087068586468 0 -0.0011505209224294466 -0.0014137656167134557 0 -0.0011505209224294466 -0.0014137656167134557 0 -0.0012844932373513086 -0.0011032723710066713 0 -0.00085029399492278881 -0.0012552095507259917 0 -0.00086429378139544089 -0.0015797209561918897 0 -0.0011505209224294466 -0.0014137656167134557 0 -0.00085029399492278881 -0.0012552095507259917 0 -0.00089285621383100827 -0.0014529142203437441 0 -0.00087015588473259356 -0.00146948853690112 0 -0.0014780449359973555 -0.0013597596323890997 0 -0.0013485125039181655 -0.0016327342954632132 0 -0.0011505209224294466 -0.0014137656167134557 0 -0.0014780449359973555 -0.0013597596323890997 0 -0.0011505209224294466 -0.0014137656167134557 0 -0.0012844932373513086 -0.0011032723710066713 0 -0.0016940978190690065 -0.00098350397328293292 0 -0.0013195196027381785 -0.0012308956002693712 0 -0.0013336068540015272 -0.00085006873775567648 0 -0.0013195196027381785 -0.0012308956002693712 0 -0.00095606234441894327 -0.0014175958198500184 0 -0.00099184893096211516 -0.001225546865277135 0 -0.0013195196027381785 -0.0012308956002693712 0 -0.00099184893096211516 -0.001225546865277135 0 -0.001051952279366376 -0.0010100782214874249 0 -0.0013195196027381785 -0.0012308956002693712 0 -0.00095606234441894327 -0.0014175958198500184 0 -0.00090581185911149805 -0.0014805041574027517 0 -0.001305384926382861 -0.0011561801844255982 0 -0.00087015588473259356 -0.00146948853690112 0 -0.00095606234441894327 -0.0014175958198500184 0 -0.00099184893096211516 -0.001225546865277135 0 -0.00090387464196266861 -0.001335217916710413 0 -0.00099184893096211516 -0.001225546865277135 0 -0.00083692177615166813 -0.0011260048419493827 0 -0.001051952279366376 -0.0010100782214874249 0 -0.00099184893096211516 -0.001225546865277135 0 -0.00083692177615166813 -0.0011260048419493827 0 -0.00084259144773355245 -0.001249220341614739 0 -0.00083692177615166813 -0.0011260048419493827 0 -0.0007583790369130798 -0.0011910951487472442 0 -0.00071055988530423252 -0.0011043055834102028 0 -0.00083692177615166813 -0.0011260048419493827 0 -0.00084259144773355245 -0.001249220341614739 0 -0.0007583790369130798 -0.0011910951487472442 0 -0.00084259144773355245 -0.001249220341614739 0 -0.0007583790369130798 -0.0011910951487472442 0 -0.0007379534503716567 -0.0012631873114791678 0 -0.00084259144773355245 -0.001249220341614739 0 -0.0007379534503716567 -0.0012631873114791678 0 -0.00077403950026347617 -0.0013271101296820711 0 -0.00099184893096211516 -0.001225546865277135 0 -0.00084259144773355245 -0.001249220341614739 0 -0.00090387464196266861 -0.001335217916710413 0 -0.00066225423989006802 -0.0012125941145969736 0 -0.00059785400408402911 -0.0011310597238363221 0 -0.00071055988530423252 -0.0011043055834102028 0 -0.00066225423989006802 -0.0012125941145969736 0 -0.0007583790369130798 -0.0011910951487472442 0 -0.00071055988530423252 -0.0011043055834102028 0 -0.00066225423989006802 -0.0012125941145969736 0 -0.0007379534503716567 -0.0012631873114791678 0 -0.00066509663219049212 -0.0013143063912592747 0 -0.00066225423989006802 -0.0012125941145969736 0 -0.0007583790369130798 -0.0011910951487472442 0 -0.0007379534503716567 -0.0012631873114791678 0 -0.00066225423989006802 -0.0012125941145969736 0 -0.00066509663219049212 -0.0013143063912592747 0 -0.00054229684531843596 -0.0012624784423466997 0 -0.00066509663219049212 -0.0013143063912592747 0 -0.00071553397519591997 -0.001393411080599053 0 -0.00057785784344559503 -0.0014035404111555851 0 -0.0007379534503716567 -0.0012631873114791678 0 -0.00066509663219049212 -0.0013143063912592747 0 -0.00077403950026347617 -0.0013271101296820711 0 -0.00066509663219049212 -0.0013143063912592747 0 -0.00071553397519591997 -0.001393411080599053 0 -0.00077403950026347617 -0.0013271101296820711 0 -0.00071553397519591997 -0.001393411080599053 0 -0.00075676085443010922 -0.0014912628512009957 0 -0.00061275623649891626 -0.0015112849431918427 0 -0.00071553397519591997 -0.001393411080599053 0 -0.00061275623649891626 -0.0015112849431918427 0 -0.00057785784344559503 -0.0014035404111555851 0 -0.00084259144773355245 -0.001249220341614739 0 -0.00090387464196266861 -0.001335217916710413 0 -0.00083148436038068629 -0.0013720195770940986 0 -0.00071553397519591997 -0.001393411080599053 0 -0.00077403950026347617 -0.0013271101296820711 0 -0.00083148436038068629 -0.0013720195770940986 0 -0.00084259144773355245 -0.001249220341614739 0 -0.00077403950026347617 -0.0013271101296820711 0 -0.00083148436038068629 -0.0013720195770940986 0 -0.00071553397519591997 -0.001393411080599053 0 -0.00083148436038068629 -0.0013720195770940986 0 -0.00075676085443010922 -0.0014912628512009957 0 -0.00083148436038068629 -0.0013720195770940986 0 -0.00084683378189480938 -0.0014411639157736408 0 -0.00075676085443010922 -0.0014912628512009957 0 -0.00095606234441894327 -0.0014175958198500184 0 -0.00090387464196266861 -0.001335217916710413 0 -0.00089430297916913524 -0.0014116169291649074 0 -0.00084683378189480938 -0.0014411639157736408 0 -0.00089430297916913524 -0.0014116169291649074 0 -0.00090525849145110826 -0.0014913045443784984 0 -0.00090387464196266861 -0.001335217916710413 0 -0.00083148436038068629 -0.0013720195770940986 0 -0.00089430297916913524 -0.0014116169291649074 0 -0.00083148436038068629 -0.0013720195770940986 0 -0.00084683378189480938 -0.0014411639157736408 0 -0.00089430297916913524 -0.0014116169291649074 0 -0.00095606234441894327 -0.0014175958198500184 0 -0.00089430297916913524 -0.0014116169291649074 0 -0.00090525849145110826 -0.0014913045443784984 0 -0.00086429378139544089 -0.0015797209561918897 0 -0.00052794827089601383 -0.0015554553971610097 0 -0.00085029399492278881 -0.0012552095507259917 0 -0.000496732612366093 -0.0019480551102970852 0 -0.00083812728838560222 -0.0016297532298293399 0 -0.00041856118477678748 -0.0017835987963316596 0 -0.00090525849145110826 -0.0014913045443784984 0 -0.00075676085443010922 -0.0014912628512009957 0 -0.00047429638588395069 -0.0017285171103521928 0 -0.00087015588473259356 -0.00146948853690112 0 -0.00043164802924024372 -0.0017665662300006477 0 -0.00051084176390838625 -0.0017475188831609823 0 -0.00087015588473259356 -0.00146948853690112 0 -0.00084683378189480938 -0.0014411639157736408 0 -0.00090525849145110826 -0.0014913045443784984 0 -0.00075676085443010922 -0.0014912628512009957 0 -0.00075676085443010922 -0.0014912628512009957 0 -0.00061275623649891626 -0.0015112849431918427 0 -0.00047429638588395069 -0.0017285171103521928 0 -0.000496732612366093 -0.0019480551102970852 0 -0.00026065365228234631 -0.0019706874973285638 0 -0.00041856118477678748 -0.0017835987963316596 0 -0.00061275623649891626 -0.0015112849431918427 0 -0.00047429638588395069 -0.0017285171103521928 0 -0.00047897126761929984 -0.001535370160841225 0 -0.00047429638588395069 -0.0017285171103521928 0 -0.00047897126761929984 -0.001535370160841225 0 -0.00024285531436621976 -0.0016016347556610292 0 -0.00047897126761929984 -0.001535370160841225 0 -0.00042732501211888185 -0.0013937225505516258 0 -0.00024285531436621976 -0.0016016347556610292 0 -0.00042732501211888185 -0.0013937225505516258 0 -0.00024285531436621976 -0.0016016347556610292 0 -0.00025601582968894473 -0.0012932808336744033 0 -0.00061275623649891626 -0.0015112849431918427 0 -0.00047897126761929984 -0.001535370160841225 0 -0.00057785784344559503 -0.0014035404111555851 0 -0.00047897126761929984 -0.001535370160841225 0 -0.00042732501211888185 -0.0013937225505516258 0 -0.00057785784344559503 -0.0014035404111555851 0 -0.00042732501211888185 -0.0013937225505516258 0 -0.00057785784344559503 -0.0014035404111555851 0 -0.00054229684531843596 -0.0012624784423466997 0 -0.00066509663219049212 -0.0013143063912592747 0 -0.00057785784344559503 -0.0014035404111555851 0 -0.00054229684531843596 -0.0012624784423466997 0 -0.00042732501211888185 -0.0013937225505516258 0 -0.00054229684531843596 -0.0012624784423466997 0 -0.00040128541489955263 -0.0012165897499659935 0 -0.00054229684531843596 -0.0012624784423466997 0 -0.00040128541489955263 -0.0012165897499659935 0 -0.00049967312986668648 -0.0011438549850024782 0 -0.00054229684531843596 -0.0012624784423466997 0 -0.00049967312986668648 -0.0011438549850024782 0 -0.00059785400408402911 -0.0011310597238363221 0 -0.00066225423989006802 -0.0012125941145969736 0 -0.00054229684531843596 -0.0012624784423466997 0 -0.00059785400408402911 -0.0011310597238363221 0 -0.00042732501211888185 -0.0013937225505516258 0 -0.00040128541489955263 -0.0012165897499659935 0 -0.00025601582968894473 -0.0012932808336744033 0 -0.00040128541489955263 -0.0012165897499659935 0 -0.00031311209767539858 -0.0011121387442252662 0 -0.00025601582968894473 -0.0012932808336744033 0 -0.00040128541489955263 -0.0012165897499659935 0 -0.00042620132362897065 -0.0010597416804925626 0 -0.00049967312986668648 -0.0011438549850024782 0 -0.00040128541489955263 -0.0012165897499659935 0 -0.00031311209767539858 -0.0011121387442252662 0 -0.00042620132362897065 -0.0010597416804925626 0 -0.00031311209767539858 -0.0011121387442252662 0 -0.00042620132362897065 -0.0010597416804925626 0 -0.00034741236912299016 -0.00095443516819297008 0 -0.00034741236912299016 -0.00095443516819297008 0 -0.00029350743473113296 -0.00078652655543768929 0 -0.00047555070753160393 -0.00075156605362449954 0 -0.00042620132362897065 -0.0010597416804925626 0 -0.00034741236912299016 -0.00095443516819297008 0 -0.00050910354097437229 -0.00093301812076441093 0 -0.00034741236912299016 -0.00095443516819297008 0 -0.00050910354097437229 -0.00093301812076441093 0 -0.00047555070753160393 -0.00075156605362449954 0 -0.00050910354097437229 -0.00093301812076441093 0 -0.00065214582374952077 -0.00083560439652883135 0 -0.00047555070753160393 -0.00075156605362449954 0 -0.00050910354097437229 -0.00093301812076441093 0 -0.00064929168483241731 -0.00099652365123822722 0 -0.00065214582374952077 -0.00083560439652883135 0 -0.00050910354097437229 -0.00093301812076441093 0 -0.00053118418219296447 -0.001053568565801 0 -0.00064929168483241731 -0.00099652365123822722 0 -0.00042620132362897065 -0.0010597416804925626 0 -0.00050910354097437229 -0.00093301812076441093 0 -0.00053118418219296447 -0.001053568565801 0 -0.00042620132362897065 -0.0010597416804925626 0 -0.00053118418219296447 -0.001053568565801 0 -0.00049967312986668648 -0.0011438549850024782 0 -0.00053118418219296447 -0.001053568565801 0 -0.00049967312986668648 -0.0011438549850024782 0 -0.00059785400408402911 -0.0011310597238363221 0 -0.00053118418219296447 -0.001053568565801 0 -0.00059785400408402911 -0.0011310597238363221 0 -0.00064929168483241731 -0.00099652365123822722 0 -0.00059785400408402911 -0.0011310597238363221 0 -0.00071055988530423252 -0.0011043055834102028 0 -0.00064929168483241731 -0.00099652365123822722 0 -0.00071055988530423252 -0.0011043055834102028 0 -0.00064929168483241731 -0.00099652365123822722 0 -0.00080465189212336095 -0.00095920739941024967 0 -0.00083692177615166813 -0.0011260048419493827 0 -0.00080465189212336095 -0.00095920739941024967 0 -0.001051952279366376 -0.0010100782214874249 0 -0.00083692177615166813 -0.0011260048419493827 0 -0.00071055988530423252 -0.0011043055834102028 0 -0.00080465189212336095 -0.00095920739941024967 0 -0.00080465189212336095 -0.00095920739941024967 0 -0.0008228473374524188 -0.00072734418387237663 0 -0.00095068442206776315 -0.00084391250264511818 0 -0.00080465189212336095 -0.00095920739941024967 0 -0.00065214582374952077 -0.00083560439652883135 0 -0.0008228473374524188 -0.00072734418387237663 0 -0.00064929168483241731 -0.00099652365123822722 0 -0.00080465189212336095 -0.00095920739941024967 0 -0.00065214582374952077 -0.00083560439652883135 0 -0.00064922997914696595 -0.00066709621234147247 0 -0.0008228473374524188 -0.00072734418387237663 0 -0.00078016674276775377 -0.00053455076481038805 0 -0.00065214582374952077 -0.00083560439652883135 0 -0.00064922997914696595 -0.00066709621234147247 0 -0.0008228473374524188 -0.00072734418387237663 0 -0.0008228473374524188 -0.00072734418387237663 0 -0.00078016674276775377 -0.00053455076481038805 0 -0.00096787480388597273 -0.0006006474321099721 0 -0.00078016674276775377 -0.00053455076481038805 0 -0.00096787480388597273 -0.0006006474321099721 0 -0.00082892558500254391 -0.00031307180130787265 0 -0.00064922997914696595 -0.00066709621234147247 0 -0.00078016674276775377 -0.00053455076481038805 0 -0.00053287339308146712 -0.00044134115352558459 0 -0.00053019364890818162 -0.00041349388461461617 0 -0.00014137325346145796 -0.00048215536352945091 0 -0.00021955103339109871 -0.00056834432185323832 0 -0.00064922997914696595 -0.00066709621234147247 0 -0.00051801628492946614 -0.00061007600346980385 0 -0.00053287339308146712 -0.00044134115352558459 0 -0.00051801628492946614 -0.00061007600346980385 0 -0.00038746711528890479 -0.000633884462060931 0 -0.00053287339308146712 -0.00044134115352558459 0 -0.00045339406726331122 -0.00039639377779700073 0 -0.00027163787030204536 -0.00053856318352561564 0 -0.00038746711528890479 -0.000633884462060931 0 -0.00026360553492995605 -0.00067437653558958025 0 -0.00021955103339109871 -0.00056834432185323832 0 -0.00038746711528890479 -0.000633884462060931 0 -0.00053287339308146712 -0.00044134115352558459 0 -0.00021955103339109871 -0.00056834432185323832 0 -0.00038746711528890479 -0.000633884462060931 0 -0.00029350743473113296 -0.00078652655543768929 0 -0.00047555070753160393 -0.00075156605362449954 0 -0.00038746711528890479 -0.000633884462060931 0 -0.00029350743473113296 -0.00078652655543768929 0 -0.00026360553492995605 -0.00067437653558958025 0 -0.00065214582374952077 -0.00083560439652883135 0 -0.00064922997914696595 -0.00066709621234147247 0 -0.00047555070753160393 -0.00075156605362449954 0 -0.00064922997914696595 -0.00066709621234147247 0 -0.00051801628492946614 -0.00061007600346980385 0 -0.00047555070753160393 -0.00075156605362449954 0 -0.00051801628492946614 -0.00061007600346980385 0 -0.00038746711528890479 -0.000633884462060931 0 -0.00047555070753160393 -0.00075156605362449954 0 -0.0013195196027381785 -0.0012308956002693712 0 -0.0013336068540015272 -0.00085006873775567648 0 -0.001051952279366376 -0.0010100782214874249 0 -0.0013336068540015272 -0.00085006873775567648 0 -0.001051952279366376 -0.0010100782214874249 0 -0.0011024458786911336 -0.0007501719031301683 0 -0.001051952279366376 -0.0010100782214874249 0 -0.00095068442206776315 -0.00084391250264511818 0 -0.0011024458786911336 -0.0007501719031301683 0 -0.00080465189212336095 -0.00095920739941024967 0 -0.001051952279366376 -0.0010100782214874249 0 -0.00095068442206776315 -0.00084391250264511818 0 -0.00096787480388597273 -0.0006006474321099721 0 -0.0012159324000343226 -0.00048905148804146749 0 -0.00082892558500254391 -0.00031307180130787265 0 -0.00095068442206776315 -0.00084391250264511818 0 -0.00096787480388597273 -0.0006006474321099721 0 -0.0011024458786911336 -0.0007501719031301683 0 -0.0008228473374524188 -0.00072734418387237663 0 -0.00095068442206776315 -0.00084391250264511818 0 -0.00096787480388597273 -0.0006006474321099721 0 -0.00096787480388597273 -0.0006006474321099721 0 -0.0011024458786911336 -0.0007501719031301683 0 -0.0012159324000343226 -0.00048905148804146749 0 -0.0007303831929706717 0.0019856895862243014 0 -0.00035737384719280015 0.0022915722453866103 0 0.00013963202464921102 0.0048040598088664186 0 0.0003870807738415408 0.0049642314610178337 0 0.00021765302053655978 0.0050312024742453897 0 -0.0015690578714938599 -0.0006368018134872076 0 -0.0013336068540015272 -0.00085006873775567648 0 -0.0012159324000343226 -0.00048905148804146749 0 -0.0013336068540015272 -0.00085006873775567648 0 -0.0011024458786911336 -0.0007501719031301683 0 -0.0012159324000343226 -0.00048905148804146749 0 0.0003870807738415408 0.0049642314610178337 0 0.00021765302053655978 0.0050312024742453897 0 0.00033017874793741045 0.0052266054388322054 0 0.00011394616900624495 0.0052105508124270297 0 0.00021765302053655978 0.0050312024742453897 0 0.00033017874793741045 0.0052266054388322054 0 0.0003870807738415408 0.0049642314610178337 0 0.00033017874793741045 0.0052266054388322054 0 0.00063377509211260188 0.0050532592937422433 0 0.00030750951005928086 0.0043982306374106819 0 -0.00027267271361685821 0.0019607266147041126 0 -0.00035737384719280015 0.0022915722453866103 0 -0.00027267271361685821 0.0019607266147041126 0 -3.9593316564741091e-07 0.0023230588990036274 0 -6.5163367955859019e-05 0.002178682558589602 0 4.5882171488979137e-05 0.0030359529381583793 0 -6.5163367955859019e-05 0.002178682558589602 0 4.5882171488979137e-05 0.0030359529381583793 0 -0.00015443706087118298 0.00236527833463723 0 -3.9593316564741091e-07 0.0023230588990036274 0 4.5882171488979137e-05 0.0030359529381583793 0 2.7357703855567886e-07 0.0042615855633546407 0 -0.00020871247871406115 6.5424688020069427e-05 0 -0.00030713775488274141 6.8736022923296522e-05 0 3.7736450507212487e-05 -0.0017186794610870055 0 -0.00020871247871406115 6.5424688020069427e-05 0 5.641690141061064e-05 -0.00091008738932995496 0 3.7736450507212487e-05 -0.0017186794610870055 0 -0.00053019364890818162 -0.00041349388461461617 0 -0.00061081571957915767 -0.00017022746819644953 0 -0.00014137325346145796 -0.00048215536352945091 0 -0.00031205514234519362 0.00079422101989955272 0 2.9347540292248338e-05 -0.0012355822643896333 0 -0.00033672768266993094 0.0007132963538289789 0 -0.00031205514234519362 0.00079422101989955272 0 -0.00045339406726331122 -0.00039639377779700073 0 -0.00027267271361685821 0.0019607266147041126 0 -0.00078016674276775377 -0.00053455076481038805 0 -0.00053287339308146712 -0.00044134115352558459 0 -0.00082892558500254391 -0.00031307180130787265 0 -6.5163367955859019e-05 0.002178682558589602 0 -0.00015443706087118298 0.00236527833463723 0 -0.00029659851334363385 0.0022945147010807422 0 -0.00053019364890818162 -0.00041349388461461617 0 -0.0008406692390794297 -0.0002638639687344757 0 -0.00061081571957915767 -0.00017022746819644953 0 -0.00027267271361685821 0.0019607266147041126 0 -0.00031205514234519362 0.00079422101989955272 0 -6.5163367955859019e-05 0.002178682558589602 0 -0.00020871247871406115 6.5424688020069427e-05 0 -0.00022376745369177614 0.00020470407839831288 0 -7.3694395972653229e-05 0.0019416548478301903 0 -0.00031205514234519362 0.00079422101989955272 0 -3.9593316564741091e-07 0.0023230588990036274 0 -0.00020871247871406115 6.5424688020069427e-05 0 -1.0755426292242539e-07 0.00038472942700867711 0 -3.9593316564741091e-07 0.0023230588990036274 0 -6.5163367955859019e-05 0.002178682558589602 0 -0.00020871247871406115 6.5424688020069427e-05 0 -0.00020871247871406115 6.5424688020069427e-05 0 -1.0755426292242539e-07 0.00038472942700867711 0 5.641690141061064e-05 -0.00091008738932995496 0 -1.0755426292242539e-07 0.00038472942700867711 0 5.641690141061064e-05 -0.00091008738932995496 0 3.6911990655222741e-07 -0.0015532807227205895 0 5.641690141061064e-05 -0.00091008738932995496 0 0.00012285867985862423 -0.0019304643490772571 0 3.7736450507212487e-05 -0.0017186794610870055 0 0.00012285867985862423 -0.0019304643490772571 0 3.7736450507212487e-05 -0.0017186794610870055 0 0.00015658638063335866 -0.0024592464025422131 0 5.641690141061064e-05 -0.00091008738932995496 0 0.00012285867985862423 -0.0019304643490772571 0 3.6911990655222741e-07 -0.0015532807227205895 0 0.00012285867985862423 -0.0019304643490772571 0 3.6911990655222741e-07 -0.0015532807227205895 0 -6.7878498031266173e-05 -0.0032271787530782485 0 3.6911990655222741e-07 -0.0015532807227205895 0 3.6015662326157198e-08 -0.0034907808684409764 0 -6.7878498031266173e-05 -0.0032271787530782485 0 3.6015662326157198e-08 -0.0034907808684409764 0 0.00017174954332468175 -0.0042695408409909458 0 -6.7878498031266173e-05 -0.0032271787530782485 0 0.00017174954332468175 -0.0042695408409909458 0 0.00018465370188460061 -0.0042399808262094801 0 0.00033720651595848188 -0.0048247937040831147 0 0.00017174954332468175 -0.0042695408409909458 0 0.00018465370188460061 -0.0042399808262094801 0 -6.7878498031266173e-05 -0.0032271787530782485 0 0.00012285867985862423 -0.0019304643490772571 0 -6.7878498031266173e-05 -0.0032271787530782485 0 0.00015658638063335866 -0.0024592464025422131 0 -6.7878498031266173e-05 -0.0032271787530782485 0 -0.00018089525545838026 -0.0024327988287208367 0 0.00015658638063335866 -0.0024592464025422131 0 -0.00010634179267130582 -0.0033115228800021023 0 -0.0001198664310224989 -0.0035625734379816473 0 -0.00018089525545838026 -0.0024327988287208367 0 0.00015658638063335866 -0.0024592464025422131 0 0.00014052987460914774 -0.0023726307746338576 0 0.00018465370188460061 -0.0042399808262094801 0 -6.7878498031266173e-05 -0.0032271787530782485 0 -0.00014900954954598939 -0.0046216661166231269 0 0.00018465370188460061 -0.0042399808262094801 0 0.00018771687381316266 -0.0048124158326692656 0 0.00033720651595848188 -0.0048247937040831147 0 0.00018465370188460061 -0.0042399808262094801 0 -0.00014900954954598939 -0.0046216661166231269 0 0.00018771687381316266 -0.0048124158326692656 0 -0.00014900954954598939 -0.0046216661166231269 0 0.00018771687381316266 -0.0048124158326692656 0 7.8154534221093534e-06 -0.0050454870555209606 0 -0.0001198664310224989 -0.0035625734379816473 0 -9.4620718757255454e-05 -0.0033246489497369132 0 0.00018771687381316266 -0.0048124158326692656 0 7.8154534221093534e-06 -0.0050454870555209606 0 0.00021958963104760394 -0.0050255420008045058 0 -9.4620718757255454e-05 -0.0033246489497369132 0 -0.00054494798874535799 -0.0074409892099845838 0 7.8154534221093534e-06 -0.0050454870555209606 0 0.00021958963104760394 -0.0050255420008045058 0 0.00024335917997801438 -0.0051604093725864204 0 -9.4620718757255454e-05 -0.0033246489497369132 0 0.00027923638291367514 -0.0013149300565496712 0 0.0010649401135093338 -0.001075214458844291 0 0.00036917827487952551 -0.00076231297938144911 0 0.0003021838631766786 -0.0012543206496522326 0 -0.00018089525545838026 -0.0024327988287208367 0 -0.00025598788136647183 -0.0021627674387931658 0 0.00014052987460914774 -0.0023726307746338576 0 -0.00013171232450409864 -0.001038570784034242 0 2.4621971247171695e-05 -0.00081382537294842963 0 0.0003021838631766786 -0.0012543206496522326 0 2.4621971247171695e-05 -0.00081382537294842963 0 0.00036917827487952551 -0.00076231297938144911 0 0.0003021838631766786 -0.0012543206496522326 0 -0.00031311209767539858 -0.0011121387442252662 0 -0.00013171232450409864 -0.001038570784034242 0 -0.00025601582968894473 -0.0012932808336744033 0 -0.00031311209767539858 -0.0011121387442252662 0 -0.00034741236912299016 -0.00095443516819297008 0 -0.00013171232450409864 -0.001038570784034242 0 -0.00029350743473113296 -0.00078652655543768929 0 -0.00013171232450409864 -0.001038570784034242 0 -0.0001529126078062263 -0.00070907353960579609 0 -0.00034741236912299016 -0.00095443516819297008 0 -0.00029350743473113296 -0.00078652655543768929 0 -0.00013171232450409864 -0.001038570784034242 0 -0.00013171232450409864 -0.001038570784034242 0 2.4621971247171695e-05 -0.00081382537294842963 0 -0.0001529126078062263 -0.00070907353960579609 0 2.4621971247171695e-05 -0.00081382537294842963 0 -0.0001529126078062263 -0.00070907353960579609 0 -0.00014137325346145796 -0.00048215536352945091 0 -0.00029350743473113296 -0.00078652655543768929 0 -0.0001529126078062263 -0.00070907353960579609 0 -0.00026360553492995605 -0.00067437653558958025 0 -0.0001529126078062263 -0.00070907353960579609 0 -0.00026360553492995605 -0.00067437653558958025 0 -0.00021955103339109871 -0.00056834432185323832 0 -0.0001529126078062263 -0.00070907353960579609 0 -0.00014137325346145796 -0.00048215536352945091 0 -0.00021955103339109871 -0.00056834432185323832 0 3.7736450507212487e-05 -0.0017186794610870055 0 0.00015658638063335866 -0.0024592464025422131 0 0.00014052987460914774 -0.0023726307746338576 0 2.9347540292248338e-05 -0.0012355822643896333 0 0.00027923638291367514 -0.0013149300565496712 0 2.4621971247171695e-05 -0.00081382537294842963 0 -0.00014137325346145796 -0.00048215536352945091 0 0.00036917827487952551 -0.00076231297938144911 0 -0.00018134635805768144 -0.0069090176909915695 0 8.4529009603047608e-06 -0.0063500601525891274 0 -9.1524250149425479e-06 -0.0056378032162010955 0 -0.0011201985066317021 -0.011099184028466259 0 -0.00075763371927993126 -0.010310094404927646 0 -0.00018134635805768144 -0.0069090176909915695 0 1.0408086255017318e-06 -0.0073671446837642691 0 8.4529009603047608e-06 -0.0063500601525891274 0 -0.00018134635805768144 -0.0069090176909915695 0 1.0408086255017318e-06 -0.0073671446837642691 0 -2.7245901366609088e-06 -0.0093014039203749409 0 1.0408086255017318e-06 -0.0073671446837642691 0 8.4529009603047608e-06 -0.0063500601525891274 0 0.00024404967870330691 -0.0055858766179817951 0 8.4529009603047608e-06 -0.0063500601525891274 0 0.00024404967870330691 -0.0055858766179817951 0 -9.1524250149425479e-06 -0.0056378032162010955 0 1.0408086255017318e-06 -0.0073671446837642691 0 0.00024404967870330691 -0.0055858766179817951 0 3.6872381934051319e-07 -0.0054286141168599254 0 3.6015662326157198e-08 -0.0034907808684409764 0 0.00017174954332468175 -0.0042695408409909458 0 3.6872381934051319e-07 -0.0054286141168599254 0 0.00017174954332468175 -0.0042695408409909458 0 0.00024404967870330691 -0.0055858766179817951 0 3.6872381934051319e-07 -0.0054286141168599254 0 0.00017174954332468175 -0.0042695408409909458 0 0.00024404967870330691 -0.0055858766179817951 0 0.00033720651595848188 -0.0048247937040831147 0 0.00033720651595848188 -0.0048247937040831147 0 0.00027695609311740563 -0.0049398770010669326 0 0.0002779328597752762 -0.0050131757993998119 0 0.00018771687381316266 -0.0048124158326692656 0 0.00033720651595848188 -0.0048247937040831147 0 0.00027695609311740563 -0.0049398770010669326 0 0.00027695609311740563 -0.0049398770010669326 0 0.0002779328597752762 -0.0050131757993998119 0 0.00025691499773352179 -0.0050855530775139593 0 -0.00051769861832629699 -0.0098460130560063357 0 -0.00033600484731040672 -0.010544458355842629 0 0.00018771687381316266 -0.0048124158326692656 0 0.00021958963104760394 -0.0050255420008045058 0 0.00027695609311740563 -0.0049398770010669326 0 0.00021958963104760394 -0.0050255420008045058 0 0.00027695609311740563 -0.0049398770010669326 0 0.00025691499773352179 -0.0050855530775139593 0 -0.00046636889276014878 -0.0055377122600483901 0 -0.00054494798874535799 -0.0074409892099845838 0 0.00024404967870330691 -0.0055858766179817951 0 0.00033720651595848188 -0.0048247937040831147 0 0.0002779328597752762 -0.0050131757993998119 0 0.00024404967870330691 -0.0055858766179817951 0 0.0002779328597752762 -0.0050131757993998119 0 -9.1524250149425479e-06 -0.0056378032162010955 0 -0.00051769861832629699 -0.0098460130560063357 0 -0.00075763371927993126 -0.010310094404927646 0 -0.0013619586232359656 -0.014826159279277112 0 -0.0016508345271407984 -0.01484483625282209 0 -0.0015271402820454796 -0.014663000287011096 0 -0.0013619586232359656 -0.014826159279277112 0 -0.0016350704918871935 -0.015009340051130301 0 -0.0016508345271407984 -0.01484483625282209 0 -0.0016508345271407984 -0.01484483625282209 0 -0.0017665131264487097 -0.014759790458318578 0 -0.0015271402820454796 -0.014663000287011096 0 -0.0016508345271407984 -0.01484483625282209 0 -0.0018256598747728467 -0.014962651526986231 0 -0.0017665131264487097 -0.014759790458318578 0 -0.0018256598747728467 -0.014962651526986231 0 -0.0017665131264487097 -0.014759790458318578 0 -0.0019453261488808168 -0.014892390738529972 0 -0.0016350704918871935 -0.015009340051130301 0 -0.0016508345271407984 -0.01484483625282209 0 -0.0018256598747728467 -0.014962651526986231 0 -0.0018669126094946935 -0.015096036124988419 0 -0.0016350704918871935 -0.015009340051130301 0 -0.0018256598747728467 -0.014962651526986231 0 -0.0016941149581829202 -0.014547156025611178 0 -0.0018184273235607503 -0.014362366971611614 0 -0.0019234574480501295 -0.014688043701040605 0 -0.0016941149581829202 -0.014547156025611178 0 -0.0015968553291423764 -0.014375952330317207 0 -0.0018184273235607503 -0.014362366971611614 0 -0.0016941149581829202 -0.014547156025611178 0 -0.0017665131264487097 -0.014759790458318578 0 -0.0019234574480501295 -0.014688043701040605 0 -0.0016941149581829202 -0.014547156025611178 0 -0.0015271402820454796 -0.014663000287011096 0 -0.0014893498602669701 -0.014464015953605363 0 -0.0016941149581829202 -0.014547156025611178 0 -0.0017665131264487097 -0.014759790458318578 0 -0.0015271402820454796 -0.014663000287011096 0 -0.0016941149581829202 -0.014547156025611178 0 -0.0014893498602669701 -0.014464015953605363 0 -0.0015968553291423764 -0.014375952330317207 0 -0.0014893498602669701 -0.014464015953605363 0 -0.0015968553291423764 -0.014375952330317207 0 -0.0014535061580760176 -0.01433514145604624 0 -0.0014893498602669701 -0.014464015953605363 0 -0.0014535061580760176 -0.01433514145604624 0 -0.0013191139572664757 -0.014377415329914874 0 -0.0014535061580760176 -0.01433514145604624 0 -0.0013191139572664757 -0.014377415329914874 0 -0.0013318464976601234 -0.014248151886086299 0 -0.0013191139572664757 -0.014377415329914874 0 -0.0011653603105439289 -0.014294292611509057 0 -0.0013318464976601234 -0.014248151886086299 0 -0.0013191139572664757 -0.014377415329914874 0 -0.0012904030422207678 -0.014518879884794477 0 -0.0012062557860967604 -0.014457232027899471 0 -0.0014893498602669701 -0.014464015953605363 0 -0.0013191139572664757 -0.014377415329914874 0 -0.0012904030422207678 -0.014518879884794477 0 -0.0013619586232359656 -0.014826159279277112 0 -0.0015271402820454796 -0.014663000287011096 0 -0.0012904030422207678 -0.014518879884794477 0 -0.0013619586232359656 -0.014826159279277112 0 -0.0012904030422207678 -0.014518879884794477 0 -0.0010941104317532637 -0.014597553455914011 0 -0.0015271402820454796 -0.014663000287011096 0 -0.0014893498602669701 -0.014464015953605363 0 -0.0012904030422207678 -0.014518879884794477 0 -0.0007632729875501216 -0.014427295359785838 0 -0.00033600484731040672 -0.010544458355842629 0 -0.0012904030422207678 -0.014518879884794477 0 -0.0011475825694410922 -0.014551037464438402 0 -0.0012062557860967604 -0.014457232027899471 0 0.00021958963104760394 -0.0050255420008045058 0 0.00022999880266362681 -0.0050722250975019098 0 0.00025691499773352179 -0.0050855530775139593 0 -0.00054494798874535799 -0.0074409892099845838 0 -0.00033600484731040672 -0.010544458355842629 0 -0.00054494798874535799 -0.0074409892099845838 0 -0.00036407830358679496 -0.0099259839396529988 0 -0.000127674456250805 -0.0094410599547482908 0 -7.6278949058601297e-05 -0.0094742252122870033 0 -0.00011452940605817187 -0.0095053477056899639 0 -0.00033600484731040672 -0.010544458355842629 0 -0.00036407830358679496 -0.0099259839396529988 0 -0.0011475825694410922 -0.014551037464438402 0 -0.0011199758133232111 -0.014527569272410168 0 -0.0012062557860967604 -0.014457232027899471 0 -0.00036407830358679496 -0.0099259839396529988 0 0.00014265676463871453 -0.010997938306344254 0 -0.0011199758133232111 -0.014527569272410168 0 -0.0012062557860967604 -0.014457232027899471 0 -0.0011653603105439289 -0.014294292611509057 0 0.00017182784487155503 -0.0080601925277226476 0 0.00026206584539720679 -0.0084827137458356235 0 0.00010846412801097035 -0.0084166995987538483 0 -0.0013191139572664757 -0.014377415329914874 0 -0.0012062557860967604 -0.014457232027899471 0 -0.0011653603105439289 -0.014294292611509057 0 0.00014265676463871453 -0.010997938306344254 0 0.0014422206183867393 -0.0052011647038777255 0 0.0023598290291936448 -0.0048312558215389797 0 0.0014422206183867393 -0.0052011647038777255 0 0.002410080190976866 -0.0057736413940904924 0 0.0024488452274761484 -0.0056784585048442523 0 0.0024523484283828184 -0.0057901976348167525 0 -0.00046304709809463096 -0.014867502295910861 0 -0.00061372113777322492 -0.014039883015107396 0 -0.0010772868711061072 -0.01467911492567423 0 0.00014265676463871453 -0.010997938306344254 0 0.00099944547965967381 -0.0096571527282640363 0 0.002410080190976866 -0.0057736413940904924 0 0.0024488452274761484 -0.0056784585048442523 0 0.002473940818542515 -0.0056794156904146397 0 0.00014265676463871453 -0.010997938306344254 0 -0.0011228304859686763 -0.014354521934186902 0 0.0022686810520699597 -0.0042700189760945806 0 0.0014735494438993194 -0.0055794821574350235 0 0.0025135778862712252 -0.005825749280445075 0 0.0024488452274761484 -0.0056784585048442523 0 0.002473940818542515 -0.0056794156904146397 0 0.0025135778862712252 -0.005825749280445075 0 0.00099944547965967381 -0.0096571527282640363 0 0.00027879272191006654 -0.010261445848305762 0 0.0023598290291936448 -0.0048312558215389797 0 0.0025201920274235527 -0.0057864499204574099 0 -0.00061372113777322492 -0.014039883015107396 0 -0.0011543174554170059 -0.01405265948911457 0 -0.001071241893781149 -0.014282489907027329 0 -0.00061372113777322492 -0.014039883015107396 0 -0.0011056639627285165 -0.013643088210000029 0 -0.00075599953368751728 -0.013130245433828187 0 -0.00061372113777322492 -0.014039883015107396 0 -0.0011056639627285165 -0.013643088210000029 0 -0.0011543174554170059 -0.01405265948911457 0 -0.0011056639627285165 -0.013643088210000029 0 -0.0011543174554170059 -0.01405265948911457 0 -0.0014848134496640477 -0.013837515631949224 0 -0.0011543174554170059 -0.01405265948911457 0 -0.0014498252094984471 -0.014359861964037797 0 -0.001071241893781149 -0.014282489907027329 0 -0.0011543174554170059 -0.01405265948911457 0 -0.0014498252094984471 -0.014359861964037797 0 -0.0014848134496640477 -0.013837515631949224 0 -0.0011228304859686763 -0.014354521934186902 0 -0.0015985518901892061 -0.014449087981108706 0 -0.0014498252094984471 -0.014359861964037797 0 -0.001071241893781149 -0.014282489907027329 0 -0.0010772868711061072 -0.01467911492567423 0 -0.0014498252094984471 -0.014359861964037797 0 -0.0010772868711061072 -0.01467911492567423 0 -0.0017142564156514685 -0.014482070142845175 0 -0.00061372113777322492 -0.014039883015107396 0 -0.001071241893781149 -0.014282489907027329 0 -0.0010772868711061072 -0.01467911492567423 0 -0.0014535061580760176 -0.01433514145604624 0 -0.0013318464976601234 -0.014248151886086299 0 -0.0015191432955501429 -0.014189036170969385 0 -0.0015968553291423764 -0.014375952330317207 0 -0.0015191432955501429 -0.014189036170969385 0 -0.0018184273235607503 -0.014362366971611614 0 -0.0017559362720292414 -0.014422092038006389 0 -0.0018442648127511138 -0.014282403674524042 0 -0.0019687883153844707 -0.014331851561607184 0 -0.0015985518901892061 -0.014449087981108706 0 -0.001902284112760604 -0.014449603034571306 0 -0.0015968553291423764 -0.014375952330317207 0 -0.0014535061580760176 -0.01433514145604624 0 -0.0015191432955501429 -0.014189036170969385 0 -0.0017559362720292414 -0.014422092038006389 0 -0.0016640612128382153 -0.014286425253307856 0 -0.0018442648127511138 -0.014282403674524042 0 -0.0015377286282443638 -0.014409281130535488 0 -0.0015985518901892061 -0.014449087981108706 0 -0.0014498252094984471 -0.014359861964037797 0 -0.0017559362720292414 -0.014422092038006389 0 -0.0016640612128382153 -0.014286425253307856 0 -0.0017464768471661316 -0.013785386625464541 0 -0.0023864083873253394 -0.014670567054182938 0 -0.0014498252094984471 -0.014359861964037797 0 -0.0016640612128382153 -0.014286425253307856 0 -0.0014848134496640477 -0.013837515631949224 0 -0.0016640612128382153 -0.014286425253307856 0 -0.0014848134496640477 -0.013837515631949224 0 -0.0018442648127511138 -0.014282403674524042 0 -0.0014848134496640477 -0.013837515631949224 0 -0.0018442648127511138 -0.014282403674524042 0 -0.0019437549469096893 -0.012963828228254289 0 -0.0018442648127511138 -0.014282403674524042 0 -0.0019192686625435355 -0.014259368702653864 0 -0.0018967237310767776 -0.014202518179484078 0 -0.0018442648127511138 -0.014282403674524042 0 -0.0019687883153844707 -0.014331851561607184 0 -0.0019192686625435355 -0.014259368702653864 0 -0.0019687883153844707 -0.014331851561607184 0 -0.0019725574597682354 -0.014307772072979289 0 -0.0020793247781992238 -0.014436870239126936 0 -0.0018141457177478909 -0.014551810502649979 0 -0.0019938889766505786 -0.014635161439956156 0 -0.0020793247781992238 -0.014436870239126936 0 -0.0019192686625435355 -0.014259368702653864 0 -0.0019725574597682354 -0.014307772072979289 0 -0.0020288476980369723 -0.01429298978377736 0 -0.001902284112760604 -0.014449603034571306 0 -0.0020654662147389846 -0.014420678450174081 0 -0.0019687883153844707 -0.014331851561607184 0 -0.0019192686625435355 -0.014259368702653864 0 -0.0019725574597682354 -0.014307772072979289 0 -0.0018141457177478909 -0.014551810502649979 0 -0.0019228788350169779 -0.014812269655721164 0 -0.0019938889766505786 -0.014635161439956156 0 -0.0015517107795371935 -0.014646965857361159 0 -0.0018141457177478909 -0.014551810502649979 0 -0.0019228788350169779 -0.014812269655721164 0 -0.0015985518901892061 -0.014449087981108706 0 -0.0018525430736060951 -0.014579735502301171 0 0.00018003047923887493 -0.0016812653876725613 0 0.00049133097662929458 -0.0016866347501887681 0 0.00032954180464050931 -0.0019598071746663114 0 0.00018003047923887493 -0.0016812653876725613 0 0.00032954180464050931 -0.0019598071746663114 0 -1.504305474997025e-05 -0.0019375909663273028 0 0.00018003047923887493 -0.0016812653876725613 0 -0.00024285531436621976 -0.0016016347556610292 0 -1.504305474997025e-05 -0.0019375909663273028 0 -0.00047429638588395069 -0.0017285171103521928 0 -0.00024285531436621976 -0.0016016347556610292 0 -1.504305474997025e-05 -0.0019375909663273028 0 -0.00043164802924024372 -0.0017665662300006477 0 -4.8446573087489319e-05 -0.0019184532556140779 0 -0.00026065365228234631 -0.0019706874973285638 0 -0.00041856118477678748 -0.0017835987963316596 0 -1.504305474997025e-05 -0.0019375909663273028 0 -0.00013171232450409864 -0.001038570784034242 0 -4.1564890079302896e-05 -0.0013919599460413411 0 0.0003021838631766786 -0.0012543206496522326 0 0.00018003047923887493 -0.0016812653876725613 0 -0.00024285531436621976 -0.0016016347556610292 0 -4.1564890079302896e-05 -0.0013919599460413411 0 -0.00024285531436621976 -0.0016016347556610292 0 -0.00025601582968894473 -0.0012932808336744033 0 -4.1564890079302896e-05 -0.0013919599460413411 0 -0.00013171232450409864 -0.001038570784034242 0 -0.00025601582968894473 -0.0012932808336744033 0 -4.1564890079302896e-05 -0.0013919599460413411 0 0.00018003047923887493 -0.0016812653876725613 0 -4.1564890079302896e-05 -0.0013919599460413411 0 0.0003021838631766786 -0.0012543206496522326 0 0.00018003047923887493 -0.0016812653876725613 0 0.0003021838631766786 -0.0012543206496522326 0 0.00049133097662929458 -0.0016866347501887681 0 0.0010649401135093338 -0.001075214458844291 0 0.0003021838631766786 -0.0012543206496522326 0 0.00089542738625765885 -0.0014903288670136793 0 0.0003021838631766786 -0.0012543206496522326 0 0.00089542738625765885 -0.0014903288670136793 0 0.00049133097662929458 -0.0016866347501887681 0 0.00089542738625765885 -0.0014903288670136793 0 0.00049133097662929458 -0.0016866347501887681 0 0.00097301769802924265 -0.0021062636387557654 0 -9.4620718757255454e-05 -0.0033246489497369132 0 0.00043629952151805966 -0.005491599965048834 0 -0.00075530056997860011 -0.005232734508371896 0 0.00032492532540364419 -0.0058687918807208998 0 -0.00030276988088841819 -0.0068555317181945045 0 0.0010649401135093338 -0.001075214458844291 0 0.00089542738625765885 -0.0014903288670136793 0 0.00143905263497294 -0.0018045119929254003 0 0.00032492532540364419 -0.0058687918807208998 0 0.00040637770535126213 -0.0062840236811205373 0 -0.00030276988088841819 -0.0068555317181945045 0 0.00089542738625765885 -0.0014903288670136793 0 0.00143905263497294 -0.0018045119929254003 0 0.00097301769802924265 -0.0021062636387557654 0 -0.00036407830358679496 -0.0099259839396529988 0 0.00043629952151805966 -0.005491599965048834 0 0.00017182784487155503 -0.0080601925277226476 0 3.4982075722155188e-05 -0.0081645886917494446 0 0.00010846412801097035 -0.0084166995987538483 0 0.00097301769802924265 -0.0021062636387557654 0 0.0013192263390314918 -0.0025057238861766261 0 0.00077073199518707162 -0.003513466660531853 0 0.00043629952151805966 -0.005491599965048834 0 0.0014422206183867393 -0.0052011647038777255 0 0.00143905263497294 -0.0018045119929254003 0 0.0013192263390314918 -0.0025057238861766261 0 0.0017539436491112448 -0.0026777221892334167 0 0.00143905263497294 -0.0018045119929254003 0 0.00097301769802924265 -0.0021062636387557654 0 0.0013192263390314918 -0.0025057238861766261 0 0.0010567852524709901 -0.0039005934764918 0 0.0014422206183867393 -0.0052011647038777255 0 0.0013192263390314918 -0.0025057238861766261 0 0.0018710562544968885 -0.0026995324204011299 0 0.0014010932579355891 -0.0030752927413286771 0 0.00049133097662929458 -0.0016866347501887681 0 0.00097301769802924265 -0.0021062636387557654 0 0.00077073199518707162 -0.003513466660531853 0 0.00047624523873685502 -0.0017451984455301858 0 0.00071287837525320298 -0.0028502123033927831 0 0.00049133097662929458 -0.0016866347501887681 0 0.00060654610689160312 -0.0020685874544177012 0 0.00032954180464050931 -0.0019598071746663114 0 0.00060654610689160312 -0.0020685874544177012 0 0.00036763080704537663 -0.002144463223611278 0 0.00032954180464050931 -0.0019598071746663114 0 0.00060654610689160312 -0.0020685874544177012 0 0.00036763080704537663 -0.002144463223611278 0 0.00051778012708079307 -0.0022385675964779819 0 0.0022686810520699597 -0.0042700189760945806 0 0.0018710562544968885 -0.0026995324204011299 0 0.0016571640407513375 -0.0035840297669398951 0 0.0018710562544968885 -0.0026995324204011299 0 0.0014010932579355891 -0.0030752927413286771 0 0.0016571640407513375 -0.0035840297669398951 0 0.0013192263390314918 -0.0025057238861766261 0 0.00077073199518707162 -0.003513466660531853 0 0.0014010932579355891 -0.0030752927413286771 0 0.00077073199518707162 -0.003513466660531853 0 0.0014010932579355891 -0.0030752927413286771 0 0.0016571640407513375 -0.0035840297669398951 0 0.00060654610689160312 -0.0020685874544177012 0 0.00051778012708079307 -0.0022385675964779819 0 0.00078141743206806 -0.0024850487361327191 0 0.00071287837525320298 -0.0028502123033927831 0 0.0011702891385010278 -0.0037405862708970988 0 0.0022686810520699597 -0.0042700189760945806 0 0.0016571640407513375 -0.0035840297669398951 0 0.0014735494438993194 -0.0055794821574350235 0 0.00077073199518707162 -0.003513466660531853 0 0.0016571640407513375 -0.0035840297669398951 0 0.0014735494438993194 -0.0055794821574350235 0 0.00047968759323527955 -0.002240337781775392 0 0.00021743891104172291 -0.0022440208357290322 0 0.00036763080704537663 -0.002144463223611278 0 0.00051778012708079307 -0.0022385675964779819 0 0.0002010834606583907 -0.0022536257862096143 0 0.00051778012708079307 -0.0022385675964779819 0 0.00034649238587592263 -0.0023931202927184401 0 0.00020451175670155132 -0.0022277301463393957 0 0.00051778012708079307 -0.0022385675964779819 0 0.00051758859742289309 -0.0024799195145981134 0 0.00078141743206806 -0.0024850487361327191 0 0.00051778012708079307 -0.0022385675964779819 0 0.00034649238587592263 -0.0023931202927184401 0 0.00051758859742289309 -0.0024799195145981134 0 0.00034649238587592263 -0.0023931202927184401 0 0.00012647860280921733 -0.0024275093259984891 0 0.00020451175670155132 -0.0022277301463393957 0 0.0002010834606583907 -0.0022536257862096143 0 0.00032954180464050931 -0.0019598071746663114 0 -1.504305474997025e-05 -0.0019375909663273028 0 0.00036763080704537663 -0.002144463223611278 0 0.0002010834606583907 -0.0022536257862096143 0 0.00032954180464050931 -0.0019598071746663114 0 0.0002010834606583907 -0.0022536257862096143 0 -1.504305474997025e-05 -0.0019375909663273028 0 -0.00016464363729220324 -0.0022504435237604317 0 -0.00026065365228234631 -0.0019706874973285638 0 -1.504305474997025e-05 -0.0019375909663273028 0 -0.00016464363729220324 -0.0022504435237604317 0 3.3782874239675366e-05 -0.0022735601415562082 0 -0.00026093296628253393 -0.0019873972901725779 0 -0.0003010123991605112 -0.0023362465355864686 0 0.00021743891104172291 -0.0022440208357290322 0 -0.00018613583147202055 -0.0020651905985408043 0 0.00012647860280921733 -0.0024275093259984891 0 0.00020451175670155132 -0.0022277301463393957 0 -9.8222570476863105e-05 -0.0022191448721473506 0 8.5359441931668568e-05 -0.0023613797136787023 0 -0.00018613583147202055 -0.0020651905985408043 0 3.3782874239675366e-05 -0.0022735601415562082 0 -0.0003010123991605112 -0.0023362465355864686 0 -0.00013554025314238658 -0.0025739656738396868 0 3.3782874239675366e-05 -0.0022735601415562082 0 -0.00013554025314238658 -0.0025739656738396868 0 7.8590120744020879e-05 -0.0025701753237977491 0 -0.00013554025314238658 -0.0025739656738396868 0 -0.00031674714244599443 -0.0025287412247633071 0 -0.00032884201092891606 -0.0026773160766696675 0 -0.0003010123991605112 -0.0023362465355864686 0 -0.00013554025314238658 -0.0025739656738396868 0 -0.00031674714244599443 -0.0025287412247633071 0 8.5359441931668568e-05 -0.0023613797136787023 0 0.0003059264827801327 -0.0025869654868379728 0 0.00034649238587592263 -0.0023931202927184401 0 0.00012647860280921733 -0.0024275093259984891 0 0.00033230464903716186 -0.0026231441055022393 0 3.3782874239675366e-05 -0.0022735601415562082 0 7.8590120744020879e-05 -0.0025701753237977491 0 0.00033230464903716186 -0.0026231441055022393 0 -0.00013554025314238658 -0.0025739656738396868 0 7.8590120744020879e-05 -0.0025701753237977491 0 8.4201319015958428e-05 -0.0027986346326147682 0 7.8590120744020879e-05 -0.0025701753237977491 0 0.00033230464903716186 -0.0026231441055022393 0 8.4201319015958428e-05 -0.0027986346326147682 0 8.4201319015958428e-05 -0.0027986346326147682 0 -0.00012638135721449188 -0.003041420684115908 0 0.00024350316258750322 -0.0031432139832375918 0 0.00033230464903716186 -0.0026231441055022393 0 8.4201319015958428e-05 -0.0027986346326147682 0 0.00038626096726716912 -0.0028760945646158971 0 8.4201319015958428e-05 -0.0027986346326147682 0 0.00024350316258750322 -0.0031432139832375918 0 0.00038626096726716912 -0.0028760945646158971 0 -0.00035731781952887402 -0.002872405458628398 0 -0.00032884201092891606 -0.0026773160766696675 0 -0.00017189715975499876 -0.0027903594208107262 0 -0.00013554025314238658 -0.0025739656738396868 0 -0.00032884201092891606 -0.0026773160766696675 0 -0.00017189715975499876 -0.0027903594208107262 0 -0.00013554025314238658 -0.0025739656738396868 0 8.4201319015958428e-05 -0.0027986346326147682 0 -0.00017189715975499876 -0.0027903594208107262 0 8.4201319015958428e-05 -0.0027986346326147682 0 -0.00017189715975499876 -0.0027903594208107262 0 -0.00012638135721449188 -0.003041420684115908 0 -0.00035731781952887402 -0.002872405458628398 0 -0.00017189715975499876 -0.0027903594208107262 0 -0.00012638135721449188 -0.003041420684115908 0 -0.0004289609288085497 -0.0030821896497654402 0 -0.00012638135721449188 -0.003041420684115908 0 -0.00014023726115429549 -0.0035149489410088147 0 -0.00035731781952887402 -0.002872405458628398 0 -0.0004289609288085497 -0.0030821896497654402 0 -0.00012638135721449188 -0.003041420684115908 0 -0.00012638135721449188 -0.003041420684115908 0 0.00024350316258750322 -0.0031432139832375918 0 -0.00014023726115429549 -0.0035149489410088147 0 -0.00014023726115429549 -0.0035149489410088147 0 0.00030588473310998036 -0.0034866179350315774 0 0.00038284303801682022 -0.0038959069145513719 0 0.00024350316258750322 -0.0031432139832375918 0 -0.00014023726115429549 -0.0035149489410088147 0 0.00030588473310998036 -0.0034866179350315774 0 9.8964528171247877e-05 -0.0024855806137345313 0 -5.5289877740859059e-05 -0.0025473871724215444 0 -2.9755339536465013e-05 -0.002418192759073286 0 -0.0010225219017808655 -0.013655831105944337 0 -0.0011720119214503049 -0.013875207842910854 0 -0.0013058665861900433 -0.01374219091548837 0 -0.0010225219017808655 -0.013655831105944337 0 -0.0013058665861900433 -0.01374219091548837 0 -0.0012693923174601218 -0.013515843672563706 0 -0.00033683597461118165 -0.0088132304654368037 0 -2.9149849591267518e-05 -0.0077831555841116479 0 0.00059916293908648238 -0.0035751530807175864 0 0.00030588473310998036 -0.0034866179350315774 0 0.00038284303801682022 -0.0038959069145513719 0 -0.00033683597461118165 -0.0088132304654368037 0 -0.0008464248079647444 -0.0074972391451750301 0 0.00059916293908648238 -0.0035751530807175864 0 0.00030588473310998036 -0.0034866179350315774 0 0.00044356920981292603 -0.0033125526115068563 0 0.00059916293908648238 -0.0035751530807175864 0 0.00059365785586963345 -0.0032757005806151917 0 0.00044356920981292603 -0.0033125526115068563 0 0.00059365785586963345 -0.0032757005806151917 0 0.00044356920981292603 -0.0033125526115068563 0 0.00048448433814625409 -0.0031014634853134592 0 0.00024350316258750322 -0.0031432139832375918 0 0.00030588473310998036 -0.0034866179350315774 0 0.00044356920981292603 -0.0033125526115068563 0 0.00024350316258750322 -0.0031432139832375918 0 0.00044356920981292603 -0.0033125526115068563 0 0.00048448433814625409 -0.0031014634853134592 0 0.00024350316258750322 -0.0031432139832375918 0 0.00048448433814625409 -0.0031014634853134592 0 0.00038626096726716912 -0.0028760945646158971 0 0.00059365785586963345 -0.0032757005806151917 0 0.00048448433814625409 -0.0031014634853134592 0 0.00068586852476082156 -0.0031016281239355896 0 0.00068586852476082156 -0.0031016281239355896 0 0.00073757205514464702 -0.0033095359604030828 0 0.0008001210888865382 -0.0032732040073920458 0 0.00059365785586963345 -0.0032757005806151917 0 0.00068586852476082156 -0.0031016281239355896 0 0.00073757205514464702 -0.0033095359604030828 0 0.00059916293908648238 -0.0035751530807175864 0 0.00073757205514464702 -0.0033095359604030828 0 0.00079584078310654448 -0.0032769085966938673 0 0.00059916293908648238 -0.0035751530807175864 0 0.00059365785586963345 -0.0032757005806151917 0 0.00073757205514464702 -0.0033095359604030828 0 0.00070432550383751577 -0.0069046070383220505 0 -2.9149849591267518e-05 -0.0077831555841116479 0 0.00068586852476082156 -0.0031016281239355896 0 0.0008001210888865382 -0.0032732040073920458 0 0.00098781421950408662 -0.0029932174941558415 0 -2.9149849591267518e-05 -0.0077831555841116479 0 0.00089566357665903356 -0.0064548051270170402 0 -2.9149849591267518e-05 -0.0077831555841116479 0 -0.00043591666387036803 -0.011262262542226458 0 0.00072175405396812545 -0.002833740231388509 0 0.00078141743206806 -0.0024850487361327191 0 0.00098781421950408662 -0.0029932174941558415 0 0.00068586852476082156 -0.0031016281239355896 0 0.00072175405396812545 -0.002833740231388509 0 0.00098781421950408662 -0.0029932174941558415 0 0.00068586852476082156 -0.0031016281239355896 0 0.00072175405396812545 -0.002833740231388509 0 0.00058915833694028427 -0.002911491210179442 0 0.00048448433814625409 -0.0031014634853134592 0 0.00068586852476082156 -0.0031016281239355896 0 0.00058915833694028427 -0.002911491210179442 0 0.00048448433814625409 -0.0031014634853134592 0 0.00038626096726716912 -0.0028760945646158971 0 0.00058915833694028427 -0.002911491210179442 0 0.00038626096726716912 -0.0028760945646158971 0 0.00058915833694028427 -0.002911491210179442 0 0.00055958470010499743 -0.0026984474564963564 0 0.00072175405396812545 -0.002833740231388509 0 0.00058915833694028427 -0.002911491210179442 0 0.00055958470010499743 -0.0026984474564963564 0 0.00033230464903716186 -0.0026231441055022393 0 0.00038626096726716912 -0.0028760945646158971 0 0.00055958470010499743 -0.0026984474564963564 0 0.00033230464903716186 -0.0026231441055022393 0 0.00055958470010499743 -0.0026984474564963564 0 0.00051758859742289309 -0.0024799195145981134 0 0.00055958470010499743 -0.0026984474564963564 0 0.00051758859742289309 -0.0024799195145981134 0 0.00078141743206806 -0.0024850487361327191 0 0.00034649238587592263 -0.0023931202927184401 0 0.00033230464903716186 -0.0026231441055022393 0 0.00051758859742289309 -0.0024799195145981134 0 0.0011702891385010278 -0.0037405862708970988 0 0.00089566357665903356 -0.0064548051270170402 0 0.00072175405396812545 -0.002833740231388509 0 0.00055958470010499743 -0.0026984474564963564 0 0.00078141743206806 -0.0024850487361327191 0 0.002473940818542515 -0.0056794156904146397 0 0.0025135778862712252 -0.005825749280445075 0 0.0027136695534984013 -0.0059874659810210682 0 0.0014735494438993194 -0.0055794821574350235 0 0.0025135778862712252 -0.005825749280445075 0 0.0021058444966511559 -0.0070403184669446733 0 0.0025135778862712252 -0.005825749280445075 0 0.0027136695534984013 -0.0059874659810210682 0 0.0021058444966511559 -0.0070403184669446733 0 -0.0011056639627285165 -0.013643088210000029 0 -0.00073198848507370672 -0.013123504680604949 0 -0.0012617477086868179 -0.01315718054794226 0 -0.00073198848507370672 -0.013123504680604949 0 -0.0012617477086868179 -0.01315718054794226 0 -0.00088400005165535883 -0.012336269610533192 0 -0.0015654364007113414 -0.014041883448509158 0 0.00027879272191006654 -0.010261445848305762 0 -0.0011056639627285165 -0.013643088210000029 0 -0.0014848134496640477 -0.013837515631949224 0 -0.0012617477086868179 -0.01315718054794226 0 -0.00075218453572502774 -0.012158465208242736 0 -0.0023864083873253394 -0.014670567054182938 0 -0.0013460236375662294 -0.013721523862150383 0 -0.0015268718316440656 -0.013727344178317257 0 -0.0011940591726900588 -0.013504092467410253 0 0.00027879272191006654 -0.010261445848305762 0 -0.00075218453572502774 -0.012158465208242736 0 -0.0012617477086868179 -0.01315718054794226 0 -0.00088400005165535883 -0.012336269610533192 0 -0.0019437549469096893 -0.012963828228254289 0 -0.0013460236375662294 -0.013721523862150383 0 -0.0015268718316440656 -0.013727344178317257 0 -0.0015082929618914025 -0.01383305837880822 0 -0.0015008789661844558 -0.013838200430462924 0 -0.0015082929618914025 -0.01383305837880822 0 -0.0014819850591584174 -0.013877662534052539 0 -0.00075218453572502774 -0.012158465208242736 0 -0.00080194560582500093 -0.013057866062521172 0 -0.00075218453572502774 -0.012158465208242736 0 -0.00043591666387036803 -0.011262262542226458 0 -0.00018288952771175205 -0.0097428290134223602 0 0.00025116314700410008 -0.0096987611963958373 0 0.00018323072620765151 -0.0095253042819932032 0 0.00027879272191006654 -0.010261445848305762 0 0.00089566357665903356 -0.0064548051270170402 0 -9.1494305649168873e-05 -0.010192354807433742 0 -0.00018288952771175205 -0.0097428290134223602 0 0.00025116314700410008 -0.0096987611963958373 0 0.00089566357665903356 -0.0064548051270170402 0 -0.00043591666387036803 -0.011262262542226458 0 -0.0019192686625435355 -0.014259368702653864 0 -0.0018967237310767776 -0.014202518179484078 0 -0.0020288476980369723 -0.01429298978377736 0 -0.0043336238438763924 -0.01709696519476582 0 -0.0041004759900066913 -0.017201548965907924 0 -0.0039907381164627741 -0.016863688437772806 0 -0.0023864083873253394 -0.014670567054182938 0 -0.0031934731128503086 -0.015758437190182235 0 -0.0014848134496640477 -0.013837515631949224 0 -0.0012617477086868179 -0.01315718054794226 0 -0.0019437549469096893 -0.012963828228254289 0 -0.0013460236375662294 -0.013721523862150383 0 -0.0011940591726900588 -0.013504092467410253 0 -0.0011223539713625869 -0.013832318451260676 0 -0.0043336238438763924 -0.01709696519476582 0 -0.0041004759900066913 -0.017201548965907924 0 -0.004317459304928376 -0.017461419616471668 0 -0.0023864083873253394 -0.014670567054182938 0 -0.002782223061066515 -0.015768154922048607 0 -0.0041004759900066913 -0.017201548965907924 0 -0.0040076707566153828 -0.017423342767739672 0 -0.004317459304928376 -0.017461419616471668 0 -0.0041340696873420103 -0.01761134341639543 0 -0.0040076707566153828 -0.017423342767739672 0 -0.004317459304928376 -0.017461419616471668 0 -0.0041340696873420103 -0.01761134341639543 0 -0.0040076707566153828 -0.017423342767739672 0 -0.0039176731166731954 -0.017759044434611973 0 -0.0011223539713625869 -0.013832318451260676 0 -0.0012760303824384148 -0.014134577824126596 0 -0.00095108456509294449 -0.01459163059736703 0 -0.002782223061066515 -0.015768154922048607 0 -0.0020136974537922768 -0.016264748946683998 0 -0.0041340696873420103 -0.01761134341639543 0 -0.004317459304928376 -0.017461419616471668 0 -0.0042879751707028419 -0.017796110940000647 0 -0.0013460236375662294 -0.013721523862150383 0 -0.0011223539713625869 -0.013832318451260676 0 -0.0014211077112611589 -0.013869600341333064 0 -0.0011223539713625869 -0.013832318451260676 0 -0.0012760303824384148 -0.014134577824126596 0 -0.0014211077112611589 -0.013869600341333064 0 -0.0012760303824384148 -0.014134577824126596 0 -0.0012554117612614557 -0.01472821675230945 0 -0.00095108456509294449 -0.01459163059736703 0 -0.0010680710555123606 -0.015489635186279296 0 -0.0020136974537922768 -0.016264748946683998 0 -0.0020136974537922768 -0.016264748946683998 0 -0.0028199490789952378 -0.018157979369041725 0 -0.00092532302743593084 -0.018059734276083129 0 -0.0011292428939041904 -0.01792958317116139 0 -0.001409382808626734 -0.018147380459861712 0 -0.0041340696873420103 -0.01761134341639543 0 -0.0042879751707028419 -0.017796110940000647 0 -0.0039176731166731954 -0.017759044434611973 0 -0.0014191224401440175 -0.013882458484304068 0 -0.0014841793727623084 -0.013897896580967352 0 -0.0014819850591584174 -0.013877662534052539 0 -0.0014191224401440175 -0.013882458484304068 0 -0.0014841793727623084 -0.013897896580967352 0 -0.0014589644470968319 -0.013846456594912156 0 -0.0011720119214503049 -0.013875207842910854 0 -0.0014191224401440175 -0.013882458484304068 0 -0.0013058665861900433 -0.01374219091548837 0 -0.00055018039841722352 -0.01355226007067542 0 -0.00043591666387036803 -0.011262262542226458 0 0.00016535089951866968 -0.0085066453775987771 0 4.5602436418451753e-05 -0.0086701547670620851 0 1.4844883229925921e-05 -0.0085941754406335877 0 -0.0011720119214503049 -0.013875207842910854 0 -0.0014191224401440175 -0.013882458484304068 0 -0.0013646616092212558 -0.013986654432936833 0 -0.0014191224401440175 -0.013882458484304068 0 -0.0014577460027038239 -0.013880043969516977 0 -0.0014819850591584174 -0.013877662534052539 0 -0.0015008789661844558 -0.013838200430462924 0 -0.0014577460027038239 -0.013880043969516977 0 -0.0014819850591584174 -0.013877662534052539 0 -0.0015082929618914025 -0.01383305837880822 0 -0.0014819850591584174 -0.013877662534052539 0 -0.0015110160155522793 -0.013895579821199506 0 -0.0015082929618914025 -0.01383305837880822 0 -0.0015110160155522793 -0.013895579821199506 0 -0.0014211077112611589 -0.013869600341333064 0 -0.0014841793727623084 -0.013897896580967352 0 -0.0014819850591584174 -0.013877662534052539 0 -0.0015110160155522793 -0.013895579821199506 0 -0.0013460236375662294 -0.013721523862150383 0 -0.0015082929618914025 -0.01383305837880822 0 -0.0014211077112611589 -0.013869600341333064 0 -0.0012760303824384148 -0.014134577824126596 0 -0.0014211077112611589 -0.013869600341333064 0 -0.0015834657476123026 -0.013989271676384899 0 -0.0015110160155522793 -0.013895579821199506 0 -0.0014211077112611589 -0.013869600341333064 0 -0.0015834657476123026 -0.013989271676384899 0 -0.0014841793727623084 -0.013897896580967352 0 -0.0015834657476123026 -0.013989271676384899 0 -0.0014589644470968319 -0.013846456594912156 0 -0.0014841793727623084 -0.013897896580967352 0 -0.0015110160155522793 -0.013895579821199506 0 -0.0015834657476123026 -0.013989271676384899 0 -0.0016148422242854186 -0.014058625738135355 0 -0.0016315341155393411 -0.014409887530357466 0 -0.0015834657476123026 -0.013989271676384899 0 -0.0014489652168583182 -0.013695292585540274 0 -0.0016597387424868895 -0.013570225300608661 0 -0.0012554117612614557 -0.01472821675230945 0 -0.0015834657476123026 -0.013989271676384899 0 -0.0016572029723390229 -0.015261459405531011 0 -0.0015834657476123026 -0.013989271676384899 0 -0.0014489652168583182 -0.013695292585540274 0 -0.0014589644470968319 -0.013846456594912156 0 -0.0012760303824384148 -0.014134577824126596 0 -0.0012554117612614557 -0.01472821675230945 0 -0.0015834657476123026 -0.013989271676384899 0 -0.0014489652168583182 -0.013695292585540274 0 -0.0013058665861900433 -0.01374219091548837 0 -0.0012693923174601218 -0.013515843672563706 0 -0.0014191224401440175 -0.013882458484304068 0 -0.0014589644470968319 -0.013846456594912156 0 -0.0013058665861900433 -0.01374219091548837 0 -0.0014489652168583182 -0.013695292585540274 0 -0.0014589644470968319 -0.013846456594912156 0 -0.0013058665861900433 -0.01374219091548837 0 -0.0012693923174601218 -0.013515843672563706 0 -0.0014073918654869458 -0.013403646436449665 0 -0.0011885484956542047 -0.013323843605343472 0 -0.0012693923174601218 -0.013515843672563706 0 -0.0014073918654869458 -0.013403646436449665 0 -0.0014773795578467549 -0.013527000700371342 0 -0.0014489652168583182 -0.013695292585540274 0 -0.0012693923174601218 -0.013515843672563706 0 -0.0014773795578467549 -0.013527000700371342 0 -0.0014489652168583182 -0.013695292585540274 0 -0.0014773795578467549 -0.013527000700371342 0 -0.0016597387424868895 -0.013570225300608661 0 -0.0016315341155393411 -0.014409887530357466 0 -0.0015189861372328075 -0.015191499544712507 0 -0.0016597387424868895 -0.013570225300608661 0 -0.0015553546593165765 -0.013409954158304205 0 -0.0016587450355955847 -0.013318243716122934 0 -0.0014073918654869458 -0.013403646436449665 0 -0.0014773795578467549 -0.013527000700371342 0 -0.0015553546593165765 -0.013409954158304205 0 -0.0014773795578467549 -0.013527000700371342 0 -0.0016597387424868895 -0.013570225300608661 0 -0.0015553546593165765 -0.013409954158304205 0 -0.0015553546593165765 -0.013409954158304205 0 -0.0016587450355955847 -0.013318243716122934 0 -0.0014703387921781007 -0.013217653806890297 0 -0.0014073918654869458 -0.013403646436449665 0 -0.0015553546593165765 -0.013409954158304205 0 -0.0014703387921781007 -0.013217653806890297 0 -0.00069345300329112726 -0.011976108879471538 0 -0.0010014726575706546 -0.01248758387970565 0 -0.0014073918654869458 -0.013403646436449665 0 -0.0014703387921781007 -0.013217653806890297 0 -0.0011885484956542047 -0.013323843605343472 0 -0.0012575593063955553 -0.017792129755758751 0 -0.00091078958922699322 -0.017703075009980022 0 -0.0011528508952252387 -0.017519365214650428 0 -0.0011292428939041904 -0.01792958317116139 0 -0.0012575593063955553 -0.017792129755758751 0 -0.00091078958922699322 -0.017703075009980022 0 -0.0011292428939041904 -0.01792958317116139 0 -0.0012575593063955553 -0.017792129755758751 0 -0.001409382808626734 -0.018147380459861712 0 -0.0016572029723390229 -0.015261459405531011 0 -0.00069253679600965467 -0.016074400134532943 0 -0.0013426870149660893 -0.016863690615810684 0 -0.0020136974537922768 -0.016264748946683998 0 -0.00079803571032811447 -0.016893205030072675 0 -0.0012554117612614557 -0.01472821675230945 0 -0.00068688701459405422 -0.014619234791873131 0 -0.00069253679600965467 -0.016074400134532943 0 -0.0012554117612614557 -0.01472821675230945 0 -0.0016572029723390229 -0.015261459405531011 0 -0.00069253679600965467 -0.016074400134532943 0 -0.00092532302743593084 -0.018059734276083129 0 -0.0011292428939041904 -0.01792958317116139 0 -0.00091078958922699322 -0.017703075009980022 0 -0.00091078958922699322 -0.017703075009980022 0 -0.0011528508952252387 -0.017519365214650428 0 -0.00094950649450439482 -0.017246947263229 0 -0.00069253679600965467 -0.016074400134532943 0 -0.0013426870149660893 -0.016863690615810684 0 -0.00094950649450439482 -0.017246947263229 0 -0.00079803571032811447 -0.016893205030072675 0 -0.00090372830448508246 -0.017186251261103576 0 -0.0011528508952252387 -0.017519365214650428 0 -0.00094950649450439482 -0.017246947263229 0 -0.0012777263605083253 -0.017304155143689846 0 -0.0012575593063955553 -0.017792129755758751 0 -0.0011528508952252387 -0.017519365214650428 0 -0.0014490641447275983 -0.017610436643999871 0 -0.00068944419598433585 -0.015170716799313581 0 -0.0015427235117420304 -0.017032481886187039 0 -0.00097347803418417053 -0.017294970976428094 0 -0.00094950649450439482 -0.017246947263229 0 -0.0012777263605083253 -0.017304155143689846 0 -0.0014874482455571631 -0.015589532249600921 0 -0.00030512251791382436 -0.015598194747987605 0 -0.0017747103793780944 -0.016392277097488018 0 -0.0013426870149660893 -0.016863690615810684 0 -0.00094950649450439482 -0.017246947263229 0 -0.0010083938012761303 -0.017358804556132874 0 -0.0015189861372328075 -0.015191499544712507 0 -0.00056715346439319852 -0.014425928150385204 0 -0.00097347803418417053 -0.017294970976428094 0 -0.00094950649450439482 -0.017246947263229 0 -0.0010083938012761303 -0.017358804556132874 0 -0.00068944419598433585 -0.015170716799313581 0 -0.00056715346439319852 -0.014425928150385204 0 -0.00034821099998187828 -0.014786439306337801 0 -0.00061303302414395877 -0.014633826739728118 0 -0.00055708234482397306 -0.01489775892255003 0 -0.00056715346439319852 -0.014425928150385204 0 -0.00019044613246001931 -0.014035786898263406 0 0.0013637536726001296 -0.012028856125161103 0 0.0014149387240412249 -0.012283356020334266 0 0.00079970793385313109 -0.012275034260652445 0 -0.00060500201398448804 -0.013741134811547396 0 -0.00056764687480480986 -0.013658688447351925 0 -0.00066733377021766329 -0.013661350381792205 0 -0.00042244656261747842 -0.015252150980993032 0 -0.00072670681250055656 -0.014916003563576497 0 -0.0005916909350507615 -0.014470974419159977 0 -0.00019044613246001931 -0.014035786898263406 0 -0.00062358391056057728 -0.014107188797376869 0 -0.00072670681250055656 -0.014916003563576497 0 -0.0011423244328227725 -0.014610891884515087 0 -0.0005916909350507615 -0.014470974419159977 0 -0.00060763946073446055 -0.015348367514867374 0 -0.00042244656261747842 -0.015252150980993032 0 -0.00072670681250055656 -0.014916003563576497 0 -0.00068944419598433585 -0.015170716799313581 0 -0.00019044613246001931 -0.014035786898263406 0 -0.00068944419598433585 -0.015170716799313581 0 -0.0014609797910854166 -0.01495584453485199 0 -0.00072670681250055656 -0.014916003563576497 0 -0.0011423244328227725 -0.014610891884515087 0 -0.0016462152137665072 -0.014827712108633834 0 -0.0014874482455571631 -0.015589532249600921 0 -0.00030512251791382436 -0.015598194747987605 0 -0.0016462152137665072 -0.014827712108633834 0 -0.00060763946073446055 -0.015348367514867374 0 -0.00072670681250055656 -0.014916003563576497 0 -0.0016462152137665072 -0.014827712108633834 0 -0.0006145627512256195 -0.011981670191848358 0 0.00018121602427307513 -0.011312027174415411 0 -0.00098963765721467572 -0.010585912687941016 0 0.00013589709788344479 -0.01202199219417132 0 -0.0006145627512256195 -0.011981670191848358 0 0.00018121602427307513 -0.011312027174415411 0 0.00013589709788344479 -0.01202199219417132 0 0.00018121602427307513 -0.011312027174415411 0 0.00079970793385313109 -0.012275034260652445 0 -0.00056715346439319852 -0.014425928150385204 0 -0.00069345300329112726 -0.011976108879471538 0 0.0013637536726001296 -0.012028856125161103 0 0.00018121602427307513 -0.011312027174415411 0 0.00079970793385313109 -0.012275034260652445 0 -0.0016587450355955847 -0.013318243716122934 0 -0.001681777046483827 -0.013125384146758363 0 -0.0014703387921781007 -0.013217653806890297 0 -0.00060500201398448804 -0.013741134811547396 0 -0.00056764687480480986 -0.013658688447351925 0 -0.00051336829654541262 -0.013610217046792841 0 0.0014149387240412249 -0.012283356020334266 0 0.00079970793385313109 -0.012275034260652445 0 0.00046717658866830223 -0.01280582585188712 0 -0.00019044613246001931 -0.014035786898263406 0 0.00011031400164828057 -0.013094276539905301 0 0.00013589709788344479 -0.01202199219417132 0 0.00079970793385313109 -0.012275034260652445 0 0.00046717658866830223 -0.01280582585188712 0 -0.00056764687480480986 -0.013658688447351925 0 -0.00051336829654541262 -0.013610217046792841 0 -0.00053724788100934656 -0.013624920715571566 0 0.00046717658866830223 -0.01280582585188712 0 -0.00022584416052449797 -0.012576207165479195 0 -0.00060309872280722048 -0.013402463004573891 0 0.00013589709788344479 -0.01202199219417132 0 0.00046717658866830223 -0.01280582585188712 0 -0.00022584416052449797 -0.012576207165479195 0 0.00013589709788344479 -0.01202199219417132 0 -0.0006145627512256195 -0.011981670191848358 0 -0.00022584416052449797 -0.012576207165479195 0 -0.0006145627512256195 -0.011981670191848358 0 -0.00022584416052449797 -0.012576207165479195 0 -0.00074108738919715657 -0.01274066632685877 0 -0.00022584416052449797 -0.012576207165479195 0 -0.00074108738919715657 -0.01274066632685877 0 -0.00060309872280722048 -0.013402463004573891 0 -0.00074108738919715657 -0.01274066632685877 0 -0.0014556707121654504 -0.012494518265462582 0 -0.0011481471815752171 -0.013102976328716182 0 -0.0006145627512256195 -0.011981670191848358 0 -0.00074108738919715657 -0.01274066632685877 0 -0.0014556707121654504 -0.012494518265462582 0 -0.0006145627512256195 -0.011981670191848358 0 -0.0015186861743647559 -0.01158922670821709 0 -0.00098963765721467572 -0.010585912687941016 0 -0.0006145627512256195 -0.011981670191848358 0 -0.0014556707121654504 -0.012494518265462582 0 -0.0015186861743647559 -0.01158922670821709 0 -0.0014556707121654504 -0.012494518265462582 0 -0.0015186861743647559 -0.01158922670821709 0 -0.0025992718327360657 -0.011990662478296362 0 -0.0015186861743647559 -0.01158922670821709 0 -0.0025992718327360657 -0.011990662478296362 0 -0.0018632808963008427 -0.010711237345089468 0 -0.0014556707121654504 -0.012494518265462582 0 -0.0011481471815752171 -0.013102976328716182 0 -0.0024206337579817595 -0.013298354240430212 0 -0.0014556707121654504 -0.012494518265462582 0 -0.0025992718327360657 -0.011990662478296362 0 -0.0024206337579817595 -0.013298354240430212 0 -0.00052497460354346422 -0.0021939487272613811 0 -0.0006026993449391243 -0.0022875784376230773 0 -0.00054277390971562518 -0.0021344190526916044 0 -0.001718626285140106 -0.0071907264888287428 0 -0.00079473677086512574 -0.0092232701410891686 0 -0.00052497460354346422 -0.0021939487272613811 0 -0.00054277390971562518 -0.0021344190526916044 0 -0.00046153710513905039 -0.0021568916895237707 0 -0.00052497460354346422 -0.0021939487272613811 0 -0.00025040236023816281 -0.0020520700959568336 0 -0.00014373231519341546 -0.00178384156522732 0 -0.00063183913567770218 -0.0022552835753036991 0 0.00049217569551966028 -0.0021693187468074865 0 -0.00052497460354346422 -0.0021939487272613811 0 -0.0006026993449391243 -0.0022875784376230773 0 -0.00034477636274590133 -0.0022581048091142196 0 -0.00052497460354346422 -0.0021939487272613811 0 -0.00025040236023816281 -0.0020520700959568336 0 -0.00034477636274590133 -0.0022581048091142196 0 -0.00025040236023816281 -0.0020520700959568336 0 -1.2101579482632089e-06 -0.0019487746587100964 0 -0.00014373231519341546 -0.00178384156522732 0 -0.00025040236023816281 -0.0020520700959568336 0 -1.2101579482632089e-06 -0.0019487746587100964 0 -0.00034477636274590133 -0.0022581048091142196 0 -1.2101579482632089e-06 -0.0019487746587100964 0 -0.0002377092014767837 -0.0025049432106795978 0 -0.00034477636274590133 -0.0022581048091142196 0 -0.00010218113608161094 -0.0021283029352201174 0 5.2297470535128226e-05 -0.0019048058634618338 0 -1.2101579482632089e-06 -0.0019487746587100964 0 1.564051544401473e-05 -0.0020439738520544861 0 -9.3538302737217413e-05 -0.0020722475148992423 0 1.564051544401473e-05 -0.0020439738520544861 0 -9.3538302737217413e-05 -0.0020722475148992423 0 -2.5818393087959992e-05 -0.0021792877216880039 0 0.00010405638855443058 -0.002079908633027159 0 1.564051544401473e-05 -0.0020439738520544861 0 -2.5818393087959992e-05 -0.0021792877216880039 0 -0.0002377092014767837 -0.0025049432106795978 0 -0.0006026993449391243 -0.0022875784376230773 0 -0.00056455763506804289 -0.0030075012291720508 0 -0.001718626285140106 -0.0071907264888287428 0 -0.00090791663509073514 -0.0050398896614856619 0 -0.0002377092014767837 -0.0025049432106795978 0 -0.0006026993449391243 -0.0022875784376230773 0 -0.00034477636274590133 -0.0022581048091142196 0 5.2297470535128226e-05 -0.0019048058634618338 0 -0.00090791663509073514 -0.0050398896614856619 0 -0.00022673648664525708 -0.0022691320859363024 0 -8.8316578580366844e-05 -0.0023232897956952719 0 -0.00019104565169862747 -0.0024451579631093487 0 -9.3538302737217413e-05 -0.0020722475148992423 0 -0.00022673648664525708 -0.0022691320859363024 0 -2.5818393087959992e-05 -0.0021792877216880039 0 -0.00022673648664525708 -0.0022691320859363024 0 -2.5818393087959992e-05 -0.0021792877216880039 0 -8.8316578580366844e-05 -0.0023232897956952719 0 9.1759810849356653e-05 -0.0022092964129783823 0 -2.5818393087959992e-05 -0.0021792877216880039 0 1.7789649216392829e-05 -0.0022955659095223228 0 -2.5818393087959992e-05 -0.0021792877216880039 0 -8.8316578580366844e-05 -0.0023232897956952719 0 1.7789649216392829e-05 -0.0022955659095223228 0 -5.5289877740859059e-05 -0.0025473871724215444 0 -2.9755339536465013e-05 -0.002418192759073286 0 -0.00019104565169862747 -0.0024451579631093487 0 -8.8316578580366844e-05 -0.0023232897956952719 0 -2.9755339536465013e-05 -0.002418192759073286 0 -0.00019104565169862747 -0.0024451579631093487 0 0.00013499254474012916 -0.0023387023703395444 0 1.7789649216392829e-05 -0.0022955659095223228 0 -2.9755339536465013e-05 -0.002418192759073286 0 -8.8316578580366844e-05 -0.0023232897956952719 0 1.7789649216392829e-05 -0.0022955659095223228 0 -2.9755339536465013e-05 -0.002418192759073286 0 -5.5289877740859059e-05 -0.0025473871724215444 0 -0.00019104565169862747 -0.0024451579631093487 0 -0.00028338028054471952 -0.00247522215857634 0 3.5036871093876273e-05 -0.0027396724212100814 0 -0.0008464248079647444 -0.0074972391451750301 0 -0.00090791663509073514 -0.0050398896614856619 0 -0.00044467382751333246 -0.0017993691990524402 0 -0.00090791663509073514 -0.0050398896614856619 0 -0.0008464248079647444 -0.0074972391451750301 0 -0.00020682662717258783 -0.0024080276621043372 0 -0.00019104565169862747 -0.0024451579631093487 0 -0.00028338028054471952 -0.00247522215857634 0 -0.0008464248079647444 -0.0074972391451750301 0 -0.0010014726575706546 -0.01248758387970565 0 -0.0012693923174601218 -0.013515843672563706 0 -0.00088755461734825306 -0.01343306670746694 0 -0.0011885484956542047 -0.013323843605343472 0 -0.0010225219017808655 -0.013655831105944337 0 -0.0012693923174601218 -0.013515843672563706 0 -0.00088755461734825306 -0.01343306670746694 0 -0.0015186861743647559 -0.01158922670821709 0 -0.00098963765721467572 -0.010585912687941016 0 -0.0018632808963008427 -0.010711237345089468 0 -0.0025992718327360657 -0.011990662478296362 0 -0.002756638836265827 -0.010673558668339777 0 -0.0018632808963008427 -0.010711237345089468 0 -0.002756638836265827 -0.010673558668339777 0 -0.0021684550309157553 -0.0098468349597644732 0 -0.0018632808963008427 -0.010711237345089468 0 -0.0021684550309157553 -0.0098468349597644732 0 -0.00098963765721467572 -0.010585912687941016 0 -0.0018632808963008427 -0.010711237345089468 0 -0.0019845850181046663 -0.018044283176515265 0 -0.0019493136598261629 -0.017993872607127884 0 -0.001962136857549689 -0.017976136829691135 0 -0.0019845850181046663 -0.018044283176515265 0 -0.0019493136598261629 -0.017993872607127884 0 -0.0019552195238791295 -0.018023499169181188 0 -0.0019493136598261629 -0.017993872607127884 0 -0.0019552195238791295 -0.018023499169181188 0 -0.001933049397708533 -0.017962062544625661 0 -0.0019552195238791295 -0.018023499169181188 0 -0.0019347791351539004 -0.018029573408351995 0 -0.0019761029435159164 -0.018106839899128608 0 -0.0019845850181046663 -0.018044283176515265 0 -0.0019479550010473134 -0.018169724183113776 0 -0.0019761029435159164 -0.018106839899128608 0 -0.0019845850181046663 -0.018044283176515265 0 -0.0019552195238791295 -0.018023499169181188 0 -0.0019761029435159164 -0.018106839899128608 0 -0.0027580636571556899 -0.020192603976034562 0 -0.0023215330556753677 -0.01939460372821596 0 -0.0020232195304456034 -0.020005057589896791 0 -0.0023448506220279703 -0.018966003631552781 0 -0.0021184182554504181 -0.018794698183359271 0 -0.0023215330556753677 -0.01939460372821596 0 -0.0015194548789854122 -0.01948148606038538 0 -0.0020232195304456034 -0.020005057589896791 0 -0.0015194548789854122 -0.01948148606038538 0 -0.0020232195304456034 -0.020005057589896791 0 -0.0014171767601376961 -0.020301777735089441 0 -0.0020232195304456034 -0.020005057589896791 0 -0.0020717538982383383 -0.020604435257696126 0 -0.0014171767601376961 -0.020301777735089441 0 -0.0027580636571556899 -0.020192603976034562 0 -0.0020232195304456034 -0.020005057589896791 0 -0.0020717538982383383 -0.020604435257696126 0 -0.0027580636571556899 -0.020192603976034562 0 -0.0020717538982383383 -0.020604435257696126 0 -0.0025900292198266662 -0.020773445850594263 0 -0.0020717538982383383 -0.020604435257696126 0 -0.0022692347339559071 -0.021352769949163217 0 -0.0025900292198266662 -0.020773445850594263 0 -0.0020717538982383383 -0.020604435257696126 0 -0.0015183465178809719 -0.021025822785501237 0 -0.0014171767601376961 -0.020301777735089441 0 -0.0020717538982383383 -0.020604435257696126 0 -0.0015183465178809719 -0.021025822785501237 0 -0.0022692347339559071 -0.021352769949163217 0 -0.0015183465178809719 -0.021025822785501237 0 -0.0022692347339559071 -0.021352769949163217 0 -0.0017348330281515992 -0.021711315746769325 0 -0.0022692347339559071 -0.021352769949163217 0 -0.0024942300082600065 -0.021585446391854266 0 -0.0022085726160909051 -0.021890051587165584 0 -0.0024942300082600065 -0.021585446391854266 0 -0.0027319491290103163 -0.021260407743659133 0 -0.0027143117196514279 -0.021532899283980861 0 -0.0022692347339559071 -0.021352769949163217 0 -0.0024942300082600065 -0.021585446391854266 0 -0.0027319491290103163 -0.021260407743659133 0 -0.0024627477765227826 -0.02152685031840108 0 -0.0024924553810583465 -0.020338476278227369 0 -0.0023448506220279703 -0.018966003631552781 0 -0.0024924553810583465 -0.020338476278227369 0 -0.0022692347339559071 -0.021352769949163217 0 -0.0025900292198266662 -0.020773445850594263 0 -0.0032858189610775268 -0.020959878395347385 0 -0.0027580636571556899 -0.020192603976034562 0 -0.0025900292198266662 -0.020773445850594263 0 -0.0032858189610775268 -0.020959878395347385 0 -0.0019493136598261629 -0.017993872607127884 0 -0.001962136857549689 -0.017976136829691135 0 -0.0019268571962104311 -0.01796779791798218 0 -0.0024924553810583465 -0.020338476278227369 0 -0.0023757163978181629 -0.019593780926222493 0 -0.0027237432331792284 -0.021264418137275112 0 -0.0029113307351633705 -0.02130720860440154 0 -0.0030275625419046272 -0.021132610604563208 0 -0.0024924553810583465 -0.020338476278227369 0 -0.0028284490791957591 -0.02099414175526983 0 -0.0027237432331792284 -0.021264418137275112 0 -0.0029113307351633705 -0.02130720860440154 0 -0.0027924247073635965 -0.021359343723282732 0 -0.0029113307351633705 -0.02130720860440154 0 -0.0027924247073635965 -0.021359343723282732 0 -0.0028644899702653954 -0.021496907260477042 0 -0.0027924247073635965 -0.021359343723282732 0 -0.0027143117196514279 -0.021532899283980861 0 -0.0028644899702653954 -0.021496907260477042 0 -0.0027319491290103163 -0.021260407743659133 0 -0.0027924247073635965 -0.021359343723282732 0 -0.0027143117196514279 -0.021532899283980861 0 -0.0027143117196514279 -0.021532899283980861 0 -0.0028644899702653954 -0.021496907260477042 0 -0.0027934537033753519 -0.021709713234681634 0 -0.0028644899702653954 -0.021496907260477042 0 -0.002934608126436926 -0.021675691087555193 0 -0.0027934537033753519 -0.021709713234681634 0 -0.0030339112574664828 -0.021417630574923852 0 -0.0031801874567766028 -0.021617508750215078 0 -0.002934608126436926 -0.021675691087555193 0 -0.0028644899702653954 -0.021496907260477042 0 -0.0030339112574664828 -0.021417630574923852 0 -0.002934608126436926 -0.021675691087555193 0 -0.0029113307351633705 -0.02130720860440154 0 -0.0028644899702653954 -0.021496907260477042 0 -0.0030339112574664828 -0.021417630574923852 0 -0.0030339112574664828 -0.021417630574923852 0 -0.0031801874567766028 -0.021617508750215078 0 -0.0032791829509408242 -0.021346796574164915 0 -0.0031801874567766028 -0.021617508750215078 0 -0.0034216706395657154 -0.021625324978840229 0 -0.0032791829509408242 -0.021346796574164915 0 -0.0034216706395657154 -0.021625324978840229 0 -0.0032791829509408242 -0.021346796574164915 0 -0.0036379761079001188 -0.021359675584171234 0 -0.0032791829509408242 -0.021346796574164915 0 -0.0036379761079001188 -0.021359675584171234 0 -0.0033431841136597109 -0.020988169489775856 0 -0.0035932940416909744 -0.018601992750894927 0 -0.0029879331317334136 -0.018233573674796069 0 -0.0032791829509408242 -0.021346796574164915 0 -0.0030275625419046272 -0.021132610604563208 0 -0.0033431841136597109 -0.020988169489775856 0 -0.0023757163978181629 -0.019593780926222493 0 -0.0029879331317334136 -0.018233573674796069 0 -0.0029113307351633705 -0.02130720860440154 0 -0.0030339112574664828 -0.021417630574923852 0 -0.0030275625419046272 -0.021132610604563208 0 -0.0030339112574664828 -0.021417630574923852 0 -0.0032791829509408242 -0.021346796574164915 0 -0.0030275625419046272 -0.021132610604563208 0 -0.0016462152137665072 -0.014827712108633834 0 -0.00221063628689984 -0.015537605029777836 0 -0.0022262733295199716 -0.014332071079123244 0 -0.00221063628689984 -0.015537605029777836 0 -0.0032688341253495263 -0.015539274967973445 0 -0.0022262733295199716 -0.014332071079123244 0 -0.0014874482455571631 -0.015589532249600921 0 -0.0016462152137665072 -0.014827712108633834 0 -0.00221063628689984 -0.015537605029777836 0 -0.0034216706395657154 -0.021625324978840229 0 -0.0036379761079001188 -0.021359675584171234 0 -0.0036530050341650332 -0.021688052444115931 0 -0.0036379761079001188 -0.021359675584171234 0 -0.0039133174090216823 -0.021726213482501151 0 -0.0036530050341650332 -0.021688052444115931 0 -0.0035932940416909744 -0.018601992750894927 0 -0.0031415975266017972 -0.017958892637208675 0 -0.00221063628689984 -0.015537605029777836 0 -0.0032688341253495263 -0.015539274967973445 0 -0.0029955278081218954 -0.01643225688339954 0 -0.0032688341253495263 -0.015539274967973445 0 -0.0029955278081218954 -0.01643225688339954 0 -0.0042622555878516722 -0.016747998153856115 0 -0.00221063628689984 -0.015537605029777836 0 -0.0029955278081218954 -0.01643225688339954 0 -0.0017747103793780944 -0.016392277097488018 0 -0.0014874482455571631 -0.015589532249600921 0 -0.00221063628689984 -0.015537605029777836 0 -0.0017747103793780944 -0.016392277097488018 0 -0.0029955278081218954 -0.01643225688339954 0 -0.0017747103793780944 -0.016392277097488018 0 -0.0032448546770311682 -0.017146765054585324 0 -0.0012777263605083253 -0.017304155143689846 0 -0.0014490641447275983 -0.017610436643999871 0 -0.0017258451538167854 -0.017697248676766537 0 -0.0011528508952252387 -0.017519365214650428 0 -0.0012777263605083253 -0.017304155143689846 0 -0.0014490641447275983 -0.017610436643999871 0 -0.0015427235117420304 -0.017032481886187039 0 -0.0026158334560552306 -0.017373369563972337 0 -0.0014490641447275983 -0.017610436643999871 0 -0.0015940755605422709 -0.017724561871354187 0 -0.0015244652958098038 -0.017851566660746925 0 -0.0017564605411871828 -0.017748247777230892 0 -0.0017258451538167854 -0.017697248676766537 0 -0.0018775792018481212 -0.01778031741731384 0 -0.0029955278081218954 -0.01643225688339954 0 -0.0032448546770311682 -0.017146765054585324 0 -0.0042622555878516722 -0.016747998153856115 0 -0.0014490641447275983 -0.017610436643999871 0 -0.0015940755605422709 -0.017724561871354187 0 -0.0017258451538167854 -0.017697248676766537 0 -0.0015940755605422709 -0.017724561871354187 0 -0.0016762653705723295 -0.017752241372459288 0 -0.0016545086304519706 -0.017822513472726963 0 -0.0016762653705723295 -0.017752241372459288 0 -0.0017209396521824954 -0.017786659051048509 0 -0.0016545086304519706 -0.017822513472726963 0 -0.0015940755605422709 -0.017724561871354187 0 -0.0016762653705723295 -0.017752241372459288 0 -0.0017258451538167854 -0.017697248676766537 0 -0.0016762653705723295 -0.017752241372459288 0 -0.0017258451538167854 -0.017697248676766537 0 -0.0017162416259778404 -0.017744200778530859 0 -0.0017564605411871828 -0.017748247777230892 0 -0.0017258451538167854 -0.017697248676766537 0 -0.0017162416259778404 -0.017744200778530859 0 -0.0017564605411871828 -0.017748247777230892 0 -0.0017162416259778404 -0.017744200778530859 0 -0.0017209396521824954 -0.017786659051048509 0 -0.0016762653705723295 -0.017752241372459288 0 -0.0017162416259778404 -0.017744200778530859 0 -0.0017209396521824954 -0.017786659051048509 0 -0.0017564605411871828 -0.017748247777230892 0 -0.0017209396521824954 -0.017786659051048509 0 -0.0017767887834525746 -0.017815634355326251 0 -0.00174709288832856 -0.017887095752544029 0 -0.0017086631745217079 -0.017984615794877368 0 -0.0016545086304519706 -0.017822513472726963 0 -0.0017209396521824954 -0.017786659051048509 0 -0.0017767887834525746 -0.017815634355326251 0 -0.00174709288832856 -0.017887095752544029 0 -0.0017209396521824954 -0.017786659051048509 0 -0.00174709288832856 -0.017887095752544029 0 -0.0016545086304519706 -0.017822513472726963 0 -0.00174709288832856 -0.017887095752544029 0 -0.0017086631745217079 -0.017984615794877368 0 -0.0018528076324046568 -0.018007283869754934 0 -0.0017086631745217079 -0.017984615794877368 0 -0.0016545086304519706 -0.017822513472726963 0 -0.0015244652958098038 -0.017851566660746925 0 -0.0015940755605422709 -0.017724561871354187 0 -0.0016545086304519706 -0.017822513472726963 0 -0.0015244652958098038 -0.017851566660746925 0 -0.0012575593063955553 -0.017792129755758751 0 -0.0015244652958098038 -0.017851566660746925 0 -0.001409382808626734 -0.018147380459861712 0 -0.0012575593063955553 -0.017792129755758751 0 -0.0014490641447275983 -0.017610436643999871 0 -0.0015244652958098038 -0.017851566660746925 0 -0.0019268571962104311 -0.01796779791798218 0 -0.001933049397708533 -0.017962062544625661 0 -0.001919157287444292 -0.017904813454634301 0 -0.0019493136598261629 -0.017993872607127884 0 -0.0019268571962104311 -0.01796779791798218 0 -0.001933049397708533 -0.017962062544625661 0 -0.0019268571962104311 -0.01796779791798218 0 -0.0019460869061588282 -0.017931296878598964 0 -0.001919157287444292 -0.017904813454634301 0 -0.001933049397708533 -0.017962062544625661 0 -0.001919157287444292 -0.017904813454634301 0 -0.001898471564562259 -0.017942012479731827 0 -0.0018775792018481212 -0.01778031741731384 0 -0.0018518094390417256 -0.01783881413032903 0 -0.001919157287444292 -0.017904813454634301 0 -0.0026158334560552306 -0.017373369563972337 0 -0.0029879331317334136 -0.018233573674796069 0 -0.0029879331317334136 -0.018233573674796069 0 -0.0020544858601940189 -0.017667166517705991 0 -0.0017564605411871828 -0.017748247777230892 0 -0.0018775792018481212 -0.01778031741731384 0 -0.0018518094390417256 -0.01783881413032903 0 -0.0017767887834525746 -0.017815634355326251 0 -0.0018518094390417256 -0.01783881413032903 0 -0.0018307015083704971 -0.017902230261665368 0 -0.0017564605411871828 -0.017748247777230892 0 -0.0017767887834525746 -0.017815634355326251 0 -0.0018518094390417256 -0.01783881413032903 0 -0.0018518094390417256 -0.01783881413032903 0 -0.001919157287444292 -0.017904813454634301 0 -0.001898471564562259 -0.017942012479731827 0 -0.0018518094390417256 -0.01783881413032903 0 -0.001898471564562259 -0.017942012479731827 0 -0.0018307015083704971 -0.017902230261665368 0 -0.001898471564562259 -0.017942012479731827 0 -0.0018307015083704971 -0.017902230261665368 0 -0.0018528076324046568 -0.018007283869754934 0 -0.0017767887834525746 -0.017815634355326251 0 -0.00174709288832856 -0.017887095752544029 0 -0.0018307015083704971 -0.017902230261665368 0 -0.00174709288832856 -0.017887095752544029 0 -0.0018307015083704971 -0.017902230261665368 0 -0.0018528076324046568 -0.018007283869754934 0 -0.001933049397708533 -0.017962062544625661 0 -0.001898471564562259 -0.017942012479731827 0 -0.0019347791351539004 -0.018029573408351995 0 -0.001898471564562259 -0.017942012479731827 0 -0.0018528076324046568 -0.018007283869754934 0 -0.0019347791351539004 -0.018029573408351995 0 -0.0019552195238791295 -0.018023499169181188 0 -0.001933049397708533 -0.017962062544625661 0 -0.0019347791351539004 -0.018029573408351995 0 -0.0018528076324046568 -0.018007283869754934 0 -0.0019347791351539004 -0.018029573408351995 0 -0.0019459123291042481 -0.018136121751429837 0 -0.0018528076324046568 -0.018007283869754934 0 -0.0019459123291042481 -0.018136121751429837 0 -0.0017690833529113155 -0.018160193166471182 0 -0.0030106239416574643 -0.017777499561759683 0 -0.0034995372116662683 -0.01775349735171957 0 -0.0032874293644367869 -0.017473068268601108 0 -0.0024789809430601885 -0.017961378618223632 0 -0.0025835827040094038 -0.017928878987694252 0 -0.0017086631745217079 -0.017984615794877368 0 -0.0015244652958098038 -0.017851566660746925 0 -0.001409382808626734 -0.018147380459861712 0 -0.0017086631745217079 -0.017984615794877368 0 -0.001409382808626734 -0.018147380459861712 0 -0.0017690833529113155 -0.018160193166471182 0 -0.0028199490789952378 -0.018157979369041725 0 -0.0025835827040094038 -0.017928878987694252 0 -0.0017086631745217079 -0.017984615794877368 0 -0.0018528076324046568 -0.018007283869754934 0 -0.0017690833529113155 -0.018160193166471182 0 -0.0039176731166731954 -0.017759044434611973 0 -0.0034995372116662683 -0.01775349735171957 0 -0.0036952666879058417 -0.017463790972687149 0 -0.0034995372116662683 -0.01775349735171957 0 -0.0036952666879058417 -0.017463790972687149 0 -0.0032874293644367869 -0.017473068268601108 0 -0.0040076707566153828 -0.017423342767739672 0 -0.0039176731166731954 -0.017759044434611973 0 -0.0036952666879058417 -0.017463790972687149 0 -0.0041004759900066913 -0.017201548965907924 0 -0.0040076707566153828 -0.017423342767739672 0 -0.0038451826452863816 -0.01715382357691779 0 -0.0040076707566153828 -0.017423342767739672 0 -0.0036952666879058417 -0.017463790972687149 0 -0.0038451826452863816 -0.01715382357691779 0 -0.0036952666879058417 -0.017463790972687149 0 -0.0035525864791170697 -0.017181575403657296 0 -0.0032874293644367869 -0.017473068268601108 0 -0.0036952666879058417 -0.017463790972687149 0 -0.0038451826452863816 -0.01715382357691779 0 -0.0035525864791170697 -0.017181575403657296 0 -0.0038451826452863816 -0.01715382357691779 0 -0.0035525864791170697 -0.017181575403657296 0 -0.0036872127070085203 -0.016899807249607452 0 -0.0035525864791170697 -0.017181575403657296 0 -0.0036872127070085203 -0.016899807249607452 0 -0.0032508818769608002 -0.016877953980449868 0 -0.0041004759900066913 -0.017201548965907924 0 -0.0038451826452863816 -0.01715382357691779 0 -0.0039907381164627741 -0.016863688437772806 0 -0.0038451826452863816 -0.01715382357691779 0 -0.0036872127070085203 -0.016899807249607452 0 -0.0039907381164627741 -0.016863688437772806 0 -0.002962777184136213 -0.017300926050056828 0 -0.0032874293644367869 -0.017473068268601108 0 -0.0032508818769608002 -0.016877953980449868 0 -0.0030106239416574643 -0.017777499561759683 0 -0.002962777184136213 -0.017300926050056828 0 -0.0025943619612531907 -0.0174120435843622 0 -0.0030106239416574643 -0.017777499561759683 0 -0.002962777184136213 -0.017300926050056828 0 -0.0032874293644367869 -0.017473068268601108 0 -0.0035525864791170697 -0.017181575403657296 0 -0.0032874293644367869 -0.017473068268601108 0 -0.0032508818769608002 -0.016877953980449868 0 -0.002962777184136213 -0.017300926050056828 0 -0.0032508818769608002 -0.016877953980449868 0 -0.0026567033506658335 -0.016904408694708734 0 -0.0026567033506658335 -0.016904408694708734 0 -0.0021966864065709902 -0.017306645111008444 0 -0.0025943619612531907 -0.0174120435843622 0 -0.002962777184136213 -0.017300926050056828 0 -0.0026567033506658335 -0.016904408694708734 0 -0.0025943619612531907 -0.0174120435843622 0 -0.0026567033506658335 -0.016904408694708734 0 -0.0021966864065709902 -0.017306645111008444 0 -0.0021882152801180731 -0.016578287061807733 0 -0.0021966864065709902 -0.017306645111008444 0 -0.0024435724290685435 -0.017808818514839599 0 -0.0018610444324066021 -0.017930186430502038 0 -0.0021966864065709902 -0.017306645111008444 0 -0.0025943619612531907 -0.0174120435843622 0 -0.0024435724290685435 -0.017808818514839599 0 -0.0019459123291042481 -0.018136121751429837 0 -0.0020004965150961177 -0.018114652488757439 0 -0.0019761029435159164 -0.018106839899128608 0 -0.0024789809430601885 -0.017961378618223632 0 -0.0021994959120735873 -0.017956095088184357 0 -0.0030106239416574643 -0.017777499561759683 0 -0.0025943619612531907 -0.0174120435843622 0 -0.0024435724290685435 -0.017808818514839599 0 -0.0021994959120735873 -0.017956095088184357 0 -0.0018647641808113864 -0.01792347997642086 0 -0.0020004965150961177 -0.018114652488757439 0 -0.0019761029435159164 -0.018106839899128608 0 -0.0019367230931060693 -0.018165842080009612 0 -0.0019479550010473134 -0.018169724183113776 0 -0.0019761029435159164 -0.018106839899128608 0 -0.0019367230931060693 -0.018165842080009612 0 -0.0019347791351539004 -0.018029573408351995 0 -0.0019459123291042481 -0.018136121751429837 0 -0.0019761029435159164 -0.018106839899128608 0 -0.0015194548789854122 -0.01948148606038538 0 -0.001694780927603196 -0.018353140048428775 0 -0.0011191375227227387 -0.018921400750019985 0 -0.0023215330556753677 -0.01939460372821596 0 -0.0015194548789854122 -0.01948148606038538 0 -0.001694780927603196 -0.018353140048428775 0 -0.0021184182554504181 -0.018794698183359271 0 -0.0017191671365039479 -0.018342643812983114 0 -0.0019479550010473134 -0.018169724183113776 0 -0.0019367230931060693 -0.018165842080009612 0 -0.001694780927603196 -0.018353140048428775 0 -0.0020004965150961177 -0.018114652488757439 0 -0.0019367230931060693 -0.018165842080009612 0 -0.0018610444324066021 -0.017930186430502038 0 -0.0019367230931060693 -0.018165842080009612 0 -0.0018610444324066021 -0.017930186430502038 0 -0.001694780927603196 -0.018353140048428775 0 -0.0018610444324066021 -0.017930186430502038 0 -0.001694780927603196 -0.018353140048428775 0 -0.0013556743023645263 -0.017940766040578704 0 -0.0013556743023645263 -0.017940766040578704 0 -0.0016364043637016427 -0.017402334531972707 0 -0.0011530768682875647 -0.01747142169241632 0 -0.0018610444324066021 -0.017930186430502038 0 -0.0013556743023645263 -0.017940766040578704 0 -0.0016364043637016427 -0.017402334531972707 0 -0.0021966864065709902 -0.017306645111008444 0 -0.0018610444324066021 -0.017930186430502038 0 -0.0016364043637016427 -0.017402334531972707 0 -0.0021966864065709902 -0.017306645111008444 0 -0.0016364043637016427 -0.017402334531972707 0 -0.0017412241258019546 -0.016821329480791215 0 -0.0016364043637016427 -0.017402334531972707 0 -0.0017412241258019546 -0.016821329480791215 0 -0.0011064016507244729 -0.016963354974284608 0 -0.0016364043637016427 -0.017402334531972707 0 -0.0011064016507244729 -0.016963354974284608 0 -0.0011530768682875647 -0.01747142169241632 0 -0.0013810244721823852 -0.016430146085840373 0 -0.0017412241258019546 -0.016821329480791215 0 -0.0011064016507244729 -0.016963354974284608 0 -0.0013810244721823852 -0.016430146085840373 0 -0.0013966853662598618 -0.015901586721548209 0 -0.00085188332274064281 -0.016352355173795088 0 -0.0013810244721823852 -0.016430146085840373 0 -0.0017808493416614831 -0.016264288810085584 0 -0.0013966853662598618 -0.015901586721548209 0 -0.0017808493416614831 -0.016264288810085584 0 -0.0013966853662598618 -0.015901586721548209 0 -0.001806889575967117 -0.015894370720073821 0 -0.0017808493416614831 -0.016264288810085584 0 -0.0021094844603626157 -0.015900288782654461 0 -0.001806889575967117 -0.015894370720073821 0 -0.0017808493416614831 -0.016264288810085584 0 -0.0017412241258019546 -0.016821329480791215 0 -0.0021882152801180731 -0.016578287061807733 0 -0.0021966864065709902 -0.017306645111008444 0 -0.0017412241258019546 -0.016821329480791215 0 -0.0021882152801180731 -0.016578287061807733 0 -0.0013810244721823852 -0.016430146085840373 0 -0.0017808493416614831 -0.016264288810085584 0 -0.0017412241258019546 -0.016821329480791215 0 -0.0026567033506658335 -0.016904408694708734 0 -0.0026197715112304654 -0.016239349807291574 0 -0.0029338699388046013 -0.016549212886252607 0 -0.0026567033506658335 -0.016904408694708734 0 -0.0021882152801180731 -0.016578287061807733 0 -0.0026197715112304654 -0.016239349807291574 0 -0.0026197715112304654 -0.016239349807291574 0 -0.0024592343173101276 -0.015392149846876731 0 -0.003196194973005185 -0.016091079841049408 0 -0.0021882152801180731 -0.016578287061807733 0 -0.0026197715112304654 -0.016239349807291574 0 -0.0021094844603626157 -0.015900288782654461 0 -0.0017808493416614831 -0.016264288810085584 0 -0.0021882152801180731 -0.016578287061807733 0 -0.0021094844603626157 -0.015900288782654461 0 -0.0020677861037130319 -0.015884763070504685 0 -0.0024617053160446902 -0.015227590441555529 0 -0.0021094844603626157 -0.015900288782654461 0 -0.0022325181384697463 -0.015513045179104122 0 -0.001859358677905223 -0.015586991284659159 0 -0.0026197715112304654 -0.016239349807291574 0 -0.0021094844603626157 -0.015900288782654461 0 -0.0024592343173101276 -0.015392149846876731 0 -0.0021094844603626157 -0.015900288782654461 0 -0.0024592343173101276 -0.015392149846876731 0 -0.0024058341712394184 -0.01500766198184899 0 -0.0024592343173101276 -0.015392149846876731 0 -0.0024058341712394184 -0.01500766198184899 0 -0.0024870229692436165 -0.015087452852088481 0 -0.0024058341712394184 -0.01500766198184899 0 -0.0024870229692436165 -0.015087452852088481 0 -0.0024445060426965259 -0.015016958869459116 0 5.8777277434602245e-05 -0.016685890186819673 0 3.9261228045734107e-05 -0.016556081905771524 0 -0.0001779784107322942 -0.01658424780596137 0 -0.00091480661900618843 -0.016121949499475971 0 -0.0011128933878298444 -0.016066434326410282 0 -0.0022325181384697463 -0.015513045179104122 0 -0.001859358677905223 -0.015586991284659159 0 -0.0021391640016259193 -0.015389942366211816 0 5.8777277434602245e-05 -0.016685890186819673 0 0.00015395667024101144 -0.016627381081191033 0 3.9261228045734107e-05 -0.016556081905771524 0 0.00015395667024101144 -0.016627381081191033 0 0.00010817808864551964 -0.01669042001142242 0 7.1592724480434888e-05 -0.016662635558214303 0 5.8777277434602245e-05 -0.016685890186819673 0 0.00015395667024101144 -0.016627381081191033 0 7.1592724480434888e-05 -0.016662635558214303 0 5.8777277434602245e-05 -0.016685890186819673 0 3.2470356797936939e-05 -0.016653351822549504 0 7.1592724480434888e-05 -0.016662635558214303 0 -0.0021094844603626157 -0.015900288782654461 0 -0.001859358677905223 -0.015586991284659159 0 -0.001806889575967117 -0.015894370720073821 0 -0.001859358677905223 -0.015586991284659159 0 -0.0013966853662598618 -0.015901586721548209 0 -0.001806889575967117 -0.015894370720073821 0 -0.00091480661900618843 -0.016121949499475971 0 -0.00068182439248800752 -0.016289260888084273 0 -0.0019228788350169779 -0.014812269655721164 0 -0.0021633381501641527 -0.014725386268375756 0 -0.0019938889766505786 -0.014635161439956156 0 -0.0021633381501641527 -0.014725386268375756 0 -0.0019938889766505786 -0.014635161439956156 0 -0.0020793247781992238 -0.014436870239126936 0 -0.0021633381501641527 -0.014725386268375756 0 -0.0020793247781992238 -0.014436870239126936 0 -0.0023275094454263509 -0.014621663963069926 0 -0.0031934731128503086 -0.015758437190182235 0 -0.0029222014734008564 -0.015531866505238008 0 -0.0020793247781992238 -0.014436870239126936 0 -0.0020288476980369723 -0.01429298978377736 0 -0.0023275094454263509 -0.014621663963069926 0 -0.0019725574597682354 -0.014307772072979289 0 -0.0020793247781992238 -0.014436870239126936 0 -0.0020288476980369723 -0.01429298978377736 0 -0.0036872127070085203 -0.016899807249607452 0 -0.0032508818769608002 -0.016877953980449868 0 -0.0036316643305647081 -0.016530414943719145 0 -0.0036872127070085203 -0.016899807249607452 0 -0.0039907381164627741 -0.016863688437772806 0 -0.0036316643305647081 -0.016530414943719145 0 -0.0021633381501641527 -0.014725386268375756 0 -0.0023275094454263509 -0.014621663963069926 0 -0.0023583543728407622 -0.014851351937108031 0 -0.0023275094454263509 -0.014621663963069926 0 -0.0023583543728407622 -0.014851351937108031 0 -0.0024679156364106497 -0.014916589136769695 0 -0.0029222014734008564 -0.015531866505238008 0 -0.0028110863274509873 -0.015503137128358983 0 -0.0032508818769608002 -0.016877953980449868 0 -0.0036316643305647081 -0.016530414943719145 0 -0.003196194973005185 -0.016091079841049408 0 -0.0032508818769608002 -0.016877953980449868 0 -0.0026567033506658335 -0.016904408694708734 0 -0.0029338699388046013 -0.016549212886252607 0 -0.0032508818769608002 -0.016877953980449868 0 -0.0029338699388046013 -0.016549212886252607 0 -0.003196194973005185 -0.016091079841049408 0 -0.0026197715112304654 -0.016239349807291574 0 -0.0029338699388046013 -0.016549212886252607 0 -0.003196194973005185 -0.016091079841049408 0 -0.0024592343173101276 -0.015392149846876731 0 -0.0024679156364106497 -0.014916589136769695 0 -0.0024870229692436165 -0.015087452852088481 0 -0.002453937054480681 -0.015368733804462777 0 -0.0028110863274509873 -0.015503137128358983 0 -0.0024679156364106497 -0.014916589136769695 0 -0.0024870229692436165 -0.015087452852088481 0 -0.0023920030155344337 -0.014938647540490357 0 -0.0024397218127235787 -0.015008751920785218 0 -0.0023920030155344337 -0.014938647540490357 0 -0.0024004725782425344 -0.015008124947346067 0 -0.0024870229692436165 -0.015087452852088481 0 -0.0024397218127235787 -0.015008751920785218 0 -0.0023920030155344337 -0.014938647540490357 0 -0.0024870229692436165 -0.015087452852088481 0 -0.0024445060426965259 -0.015016958869459116 0 -0.0024397218127235787 -0.015008751920785218 0 -0.0024445060426965259 -0.015016958869459116 0 -0.0024397218127235787 -0.015008751920785218 0 -0.0024004725782425344 -0.015008124947346067 0 -0.0023920030155344337 -0.014938647540490357 0 -0.0021760229530112646 -0.0149262460137262 0 -0.0024004725782425344 -0.015008124947346067 0 -0.0023583543728407622 -0.014851351937108031 0 -0.0024679156364106497 -0.014916589136769695 0 -0.0023920030155344337 -0.014938647540490357 0 -0.0023583543728407622 -0.014851351937108031 0 -0.0023920030155344337 -0.014938647540490357 0 -0.0022534374647854979 -0.014928647451897157 0 -0.0021633381501641527 -0.014725386268375756 0 -0.0023583543728407622 -0.014851351937108031 0 -0.0022534374647854979 -0.014928647451897157 0 -0.0023710041707945312 -0.014911887848530156 0 -0.0021756878891132682 -0.014765346805305096 0 -0.0021125371265405535 -0.014595792782717455 0 -0.0019234574480501295 -0.014688043701040605 0 -0.0021760229530112646 -0.0149262460137262 0 -0.0023920030155344337 -0.014938647540490357 0 -0.0021125371265405535 -0.014595792782717455 0 -0.0021760229530112646 -0.0149262460137262 0 -0.0017665131264487097 -0.014759790458318578 0 -0.0019234574480501295 -0.014688043701040605 0 -0.0019453261488808168 -0.014892390738529972 0 -0.0018525430736060951 -0.014579735502301171 0 -0.0021756878891132682 -0.014765346805305096 0 -0.0019228788350169779 -0.014812269655721164 0 -0.0021633381501641527 -0.014725386268375756 0 -0.0022534374647854979 -0.014928647451897157 0 -0.0018184273235607503 -0.014362366971611614 0 -0.0021125371265405535 -0.014595792782717455 0 -0.0019234574480501295 -0.014688043701040605 0 -0.0018669126094946935 -0.015096036124988419 0 -0.0018256598747728467 -0.014962651526986231 0 -0.0019901596459303756 -0.015060553654031269 0 -0.0018256598747728467 -0.014962651526986231 0 -0.0019901596459303756 -0.015060553654031269 0 -0.0019453261488808168 -0.014892390738529972 0 -0.0019901596459303756 -0.015060553654031269 0 -0.0019453261488808168 -0.014892390738529972 0 -0.0021760229530112646 -0.0149262460137262 0 -0.0019234574480501295 -0.014688043701040605 0 -0.0019453261488808168 -0.014892390738529972 0 -0.0021760229530112646 -0.0149262460137262 0 -0.0019663261925058069 -0.015067046554422951 0 -0.0022224353773081162 -0.015107244837323877 0 -0.0019901596459303756 -0.015060553654031269 0 -0.0019663497669683153 -0.015059911606955363 0 -0.0019658986540569256 -0.015064358705945684 0 -0.0019901596459303756 -0.015060553654031269 0 -0.0021760229530112646 -0.0149262460137262 0 -0.0022652171924026025 -0.015114795967508116 0 -0.0022652171924026025 -0.015114795967508116 0 -0.0023705740194706168 -0.015070266442271373 0 -0.002424035868611884 -0.015096965419367775 0 -0.0022224353773081162 -0.015107244837323877 0 -0.0016304863574132459 -0.014517041776819686 0 -0.0019663497669683153 -0.015059911606955363 0 -0.0019495993339312522 -0.015052120110713659 0 -0.0019652937962869725 -0.015054142212725875 0 -0.0023289047533692864 -0.01504262218087387 0 -0.002400992893770511 -0.015042353882083477 0 -0.0023705740194706168 -0.015070266442271373 0 -0.0022652171924026025 -0.015114795967508116 0 -0.0023289047533692864 -0.01504262218087387 0 -0.0023705740194706168 -0.015070266442271373 0 -0.0021760229530112646 -0.0149262460137262 0 -0.0022652171924026025 -0.015114795967508116 0 -0.0023289047533692864 -0.01504262218087387 0 -0.0021760229530112646 -0.0149262460137262 0 -0.0023289047533692864 -0.01504262218087387 0 -0.0024004725782425344 -0.015008124947346067 0 -0.0023289047533692864 -0.01504262218087387 0 -0.002400992893770511 -0.015042353882083477 0 -0.0024004725782425344 -0.015008124947346067 0 -0.002400992893770511 -0.015042353882083477 0 -0.0024004725782425344 -0.015008124947346067 0 -0.0024350515502936754 -0.015025645894880304 0 -0.0024445060426965259 -0.015016958869459116 0 -0.0024004725782425344 -0.015008124947346067 0 -0.0024350515502936754 -0.015025645894880304 0 -0.002400992893770511 -0.015042353882083477 0 -0.0024350515502936754 -0.015025645894880304 0 -0.0024234993574693293 -0.015054269641192285 0 -0.0024350515502936754 -0.015025645894880304 0 -0.0024449929768032772 -0.015048771711812603 0 -0.0024234993574693293 -0.015054269641192285 0 -0.0012910357618247006 -0.014965825353965699 0 -0.0013127218030042716 -0.014921534304207855 0 -0.0013468937754846971 -0.01492036379207503 0 -0.0014856223659570416 -0.015220638109698629 0 -0.0006937735159509204 -0.014630357056632185 0 -0.0024449929768032772 -0.015048771711812603 0 -0.0024234993574693293 -0.015054269641192285 0 -0.002424035868611884 -0.015096965419367775 0 -0.0014856223659570416 -0.015220638109698629 0 -0.0016304863574132459 -0.014517041776819686 0 -0.0024234993574693293 -0.015054269641192285 0 -0.0023705740194706168 -0.015070266442271373 0 -0.002424035868611884 -0.015096965419367775 0 -0.002400992893770511 -0.015042353882083477 0 -0.0024234993574693293 -0.015054269641192285 0 -0.0023705740194706168 -0.015070266442271373 0 -0.00030399892159079487 -0.011959200062560132 0 -0.00026033783388800744 -0.011956430152538578 0 -0.00020908736991340988 -0.012107465165481479 0 -0.0006937735159509204 -0.014630357056632185 0 -0.0016304863574132459 -0.014517041776819686 0 -0.00026033783388800744 -0.011956430152538578 0 -0.00020908736991340988 -0.012107465165481479 0 1.6349405833250596e-05 -0.012090258463691056 0 -0.00022988277581727402 -0.015052213420318164 0 -0.00042170216028908255 -0.014237180134658389 0 -9.693406463804697e-06 -0.014695682315260177 0 -0.0006937735159509204 -0.014630357056632185 0 -0.00031403738253748474 -0.013030676663580074 0 -0.00031403738253748474 -0.013030676663580074 0 -0.00019147034026624246 -0.012616429688570616 0 -0.00042170216028908255 -0.014237180134658389 0 1.6512883163661479e-05 -0.013689366521054654 0 -9.693406463804697e-06 -0.014695682315260177 0 1.6512883163661479e-05 -0.013689366521054654 0 -3.4885758011114046e-08 -0.012433663029217364 0 -0.00012374680220339222 -0.012323324515556015 0 -0.00042170216028908255 -0.014237180134658389 0 1.6512883163661479e-05 -0.013689366521054654 0 -0.00012374680220339222 -0.012323324515556015 0 -0.00012374680220339222 -0.012323324515556015 0 -8.9820662394797572e-05 -0.011592545539865036 0 -1.3217419267481391e-06 -0.010528639912454963 0 -3.4885758011114046e-08 -0.012433663029217364 0 -0.00012374680220339222 -0.012323324515556015 0 -1.3217419267481391e-06 -0.010528639912454963 0 -0.00012374680220339222 -0.012323324515556015 0 1.6349405833250596e-05 -0.012090258463691056 0 -8.9820662394797572e-05 -0.011592545539865036 0 -0.00020908736991340988 -0.012107465165481479 0 -0.00012374680220339222 -0.012323324515556015 0 1.6349405833250596e-05 -0.012090258463691056 0 -0.0016304863574132459 -0.014517041776819686 0 -0.00092100549147285647 -0.01371732336905665 0 -0.0019652937962869725 -0.015054142212725875 0 -0.0019658986540569256 -0.015064358705945684 0 -0.0019477346754801573 -0.015072849561498238 0 -0.0019663497669683153 -0.015059911606955363 0 -0.0019652937962869725 -0.015054142212725875 0 -0.0019658986540569256 -0.015064358705945684 0 1.6349405833250596e-05 -0.012090258463691056 0 -8.9820662394797572e-05 -0.011592545539865036 0 -0.00067400351489039156 -0.011337645142450002 0 -0.00092100549147285647 -0.01371732336905665 0 -0.00081787963004607118 -0.011140957091729154 0 -1.2610470544242746e-09 -0.01052438781210298 0 -1.7241051006441154e-06 -0.0099166210504874116 0 -5.2470594430881025e-09 -0.0093065786282408094 0 -8.9820662394797572e-05 -0.011592545539865036 0 -1.3217419267481391e-06 -0.010528639912454963 0 -0.00067400351489039156 -0.011337645142450002 0 1.412096416799863e-07 -0.010525666613690771 0 -0.00081787963004607118 -0.011140957091729154 0 -0.0011201985066317021 -0.011099184028466259 0 -0.00081787963004607118 -0.011140957091729154 0 -0.00018134635805768144 -0.0069090176909915695 0 -0.00089387533484479266 -0.0086359011791718558 0 -2.7245901366609088e-06 -0.0093014039203749409 0 -0.00081787963004607118 -0.011140957091729154 0 -9.4819872618596938e-07 -0.0093057372995461324 0 -0.0018669126094946935 -0.015096036124988419 0 -0.0019901596459303756 -0.015060553654031269 0 -0.0019658986540569256 -0.015064358705945684 0 -0.0018669126094946935 -0.015096036124988419 0 -0.0019658986540569256 -0.015064358705945684 0 -0.0019477346754801573 -0.015072849561498238 0 0.00018403665673847878 -0.01634084341538412 0 3.9261228045734107e-05 -0.016556081905771524 0 -0.00015705872471357622 -0.016306298395548511 0 0.00019743240376658746 -0.01622145642145038 0 0.0001325576506999715 -0.016014470881640815 0 0.00018403665673847878 -0.01634084341538412 0 0.00021512578868223832 -0.01546163015036325 0 0.00020155747140252516 -0.015596528810639566 0 0.00018403665673847878 -0.01634084341538412 0 0.00024491091177971026 -0.016685520347797158 0 0.00021146895675678342 -0.016350246534975202 0 0.00018403665673847878 -0.01634084341538412 0 0.00024491091177971026 -0.016685520347797158 0 0.00015395667024101144 -0.016627381081191033 0 0.00024491091177971026 -0.016685520347797158 0 0.00015395667024101144 -0.016627381081191033 0 0.00010817808864551964 -0.01669042001142242 0 0.00018403665673847878 -0.01634084341538412 0 0.00015395667024101144 -0.016627381081191033 0 3.9261228045734107e-05 -0.016556081905771524 0 3.9261228045734107e-05 -0.016556081905771524 0 -0.0001779784107322942 -0.01658424780596137 0 -0.00015705872471357622 -0.016306298395548511 0 -0.0024058341712394184 -0.01500766198184899 0 -0.0024350515502936754 -0.015025645894880304 0 -0.0024449929768032772 -0.015048771711812603 0 -0.0022325181384697463 -0.015513045179104122 0 -0.0023462225707454537 -0.015211296304225928 0 -0.0021391640016259193 -0.015389942366211816 0 -0.0014856223659570416 -0.015220638109698629 0 -0.0011128933878298444 -0.016066434326410282 0 -0.0024617053160446902 -0.015227590441555529 0 -0.0014856223659570416 -0.015220638109698629 0 -0.0024058341712394184 -0.01500766198184899 0 -0.0024445060426965259 -0.015016958869459116 0 -0.0024350515502936754 -0.015025645894880304 0 -0.00047423379041035117 -0.016353479095196702 0 -0.0001779784107322942 -0.01658424780596137 0 -0.00015705872471357622 -0.016306298395548511 0 -0.00047423379041035117 -0.016353479095196702 0 -0.00051384067591468924 -0.016269500490431181 0 -0.00015705872471357622 -0.016306298395548511 0 -0.00022988277581727402 -0.015052213420318164 0 0.00021512578868223832 -0.01546163015036325 0 -9.693406463804697e-06 -0.014695682315260177 0 -0.0006937735159509204 -0.014630357056632185 0 0.0001325576506999715 -0.016014470881640815 0 0.00021512578868223832 -0.01546163015036325 0 0.0001130445877787402 -0.014713881289859882 0 0.00020155747140252516 -0.015596528810639566 0 0.00021512578868223832 -0.01546163015036325 0 -9.693406463804697e-06 -0.014695682315260177 0 0.0001130445877787402 -0.014713881289859882 0 1.6512883163661479e-05 -0.013689366521054654 0 -9.693406463804697e-06 -0.014695682315260177 0 0.0001130445877787402 -0.014713881289859882 0 1.6512883163661479e-05 -0.013689366521054654 0 -3.4885758011114046e-08 -0.012433663029217364 0 4.348398397813035e-07 -0.014341835683135282 0 1.6512883163661479e-05 -0.013689366521054654 0 0.0001130445877787402 -0.014713881289859882 0 4.348398397813035e-07 -0.014341835683135282 0 4.348398397813035e-07 -0.014341835683135282 0 2.9216309159846306e-07 -0.016248610039941321 0 0.00020155747140252516 -0.015596528810639566 0 0.0001130445877787402 -0.014713881289859882 0 4.348398397813035e-07 -0.014341835683135282 0 0.00020155747140252516 -0.015596528810639566 0 2.9216309159846306e-07 -0.016248610039941321 0 0.00020155747140252516 -0.015596528810639566 0 0.00021146895675678342 -0.016350246534975202 0 0.00018403665673847878 -0.01634084341538412 0 0.00020155747140252516 -0.015596528810639566 0 0.00021146895675678342 -0.016350246534975202 0 0.00024491091177971026 -0.016685520347797158 0 0.00021146895675678342 -0.016350246534975202 0 0.00023517686551818539 -0.017047207612504854 0 2.9216309159846306e-07 -0.016248610039941321 0 0.00021146895675678342 -0.016350246534975202 0 0.00023517686551818539 -0.017047207612504854 0 2.9216309159846306e-07 -0.016248610039941321 0 1.1549264617408033e-06 -0.018156754053740724 0 0.00023517686551818539 -0.017047207612504854 0 1.1549264617408033e-06 -0.018156754053740724 0 0.00016380640183414783 -0.017937763411410523 0 0.00023517686551818539 -0.017047207612504854 0 1.1549264617408033e-06 -0.018156754053740724 0 0.00016380640183414783 -0.017937763411410523 0 -2.3705027406590232e-06 -0.020060241996621979 0 0.00016380640183414783 -0.017937763411410523 0 -0.00010487089108960509 -0.017150812914749455 0 -0.00075217212811036385 -0.017441752139669527 0 0.00016380640183414783 -0.017937763411410523 0 0.00018979554846294597 -0.017095908753094698 0 -0.00010487089108960509 -0.017150812914749455 0 0.00016380640183414783 -0.017937763411410523 0 0.00023517686551818539 -0.017047207612504854 0 0.00018979554846294597 -0.017095908753094698 0 0.00024491091177971026 -0.016685520347797158 0 0.00023517686551818539 -0.017047207612504854 0 0.00018979554846294597 -0.017095908753094698 0 0.00024491091177971026 -0.016685520347797158 0 0.00018979554846294597 -0.017095908753094698 0 8.3597440132764455e-05 -0.016809667406409767 0 0.00018979554846294597 -0.017095908753094698 0 -0.00010487089108960509 -0.017150812914749455 0 8.3597440132764455e-05 -0.016809667406409767 0 -0.00010487089108960509 -0.017150812914749455 0 -0.00012902488560885826 -0.016800641670342665 0 8.3597440132764455e-05 -0.016809667406409767 0 -0.00010487089108960509 -0.017150812914749455 0 -0.00012902488560885826 -0.016800641670342665 0 -0.00031521702505577767 -0.016942058183072081 0 -0.00012902488560885826 -0.016800641670342665 0 -3.8770363958803081e-06 -0.016725335298942295 0 8.3597440132764455e-05 -0.016809667406409767 0 -0.00012902488560885826 -0.016800641670342665 0 -0.00010443692476734692 -0.0166938024572547 0 -0.00023526074685564208 -0.016737777225697817 0 -0.00012902488560885826 -0.016800641670342665 0 -0.00010443692476734692 -0.0166938024572547 0 -3.8770363958803081e-06 -0.016725335298942295 0 -0.00010443692476734692 -0.0166938024572547 0 -3.8770363958803081e-06 -0.016725335298942295 0 -9.8898666732130539e-06 -0.016669815537123395 0 -3.8770363958803081e-06 -0.016725335298942295 0 0.00010817808864551964 -0.01669042001142242 0 -9.8898666732130539e-06 -0.016669815537123395 0 0.00024491091177971026 -0.016685520347797158 0 0.00010817808864551964 -0.01669042001142242 0 8.3597440132764455e-05 -0.016809667406409767 0 -3.8770363958803081e-06 -0.016725335298942295 0 0.00010817808864551964 -0.01669042001142242 0 8.3597440132764455e-05 -0.016809667406409767 0 -0.0014068883372852349 -0.026747474210972497 0 -0.0021146398691445534 -0.027235913669245496 0 -0.0013711272544398455 -0.02579573735429742 0 -0.0014068883372852349 -0.026747474210972497 0 -0.0015069572581186978 -0.027523842072597948 0 -0.0010982758903684466 -0.027230899574303313 0 -0.0014068883372852349 -0.026747474210972497 0 -0.0015069572581186978 -0.027523842072597948 0 -0.0021146398691445534 -0.027235913669245496 0 -0.00029595106727702355 -0.02104389953043509 0 -0.0011753623992605956 -0.019339764920082932 0 -0.00023526074685564208 -0.016737777225697817 0 -0.00037375836592138414 -0.016757632573372011 0 -0.00023510877389459176 -0.016701721951129532 0 -0.0002952731084701752 -0.016731441000434052 0 -0.00037375836592138414 -0.016757632573372011 0 -0.00023510877389459176 -0.016701721951129532 0 -0.00010443692476734692 -0.0166938024572547 0 -0.00023526074685564208 -0.016737777225697817 0 -0.00016102966040186403 -0.016673286504955736 0 -0.00023526074685564208 -0.016737777225697817 0 -0.00016102966040186403 -0.016673286504955736 0 -0.00023510877389459176 -0.016701721951129532 0 -0.00012902488560885826 -0.016800641670342665 0 -0.00023526074685564208 -0.016737777225697817 0 -0.00031521702505577767 -0.016942058183072081 0 -0.00023526074685564208 -0.016737777225697817 0 -0.00037375836592138414 -0.016757632573372011 0 -0.00031521702505577767 -0.016942058183072081 0 -0.00029595106727702355 -0.02104389953043509 0 -0.0013678690667227958 -0.021241789065349792 0 -0.00037375836592138414 -0.016757632573372011 0 -0.00031521702505577767 -0.016942058183072081 0 -0.00075217212811036385 -0.017441752139669527 0 -0.00010487089108960509 -0.017150812914749455 0 -0.00031521702505577767 -0.016942058183072081 0 -0.00075217212811036385 -0.017441752139669527 0 -0.00041065787609424276 -0.016675228768397946 0 -0.00037375836592138414 -0.016757632573372011 0 -0.00075217212811036385 -0.017441752139669527 0 -0.0021146398691445534 -0.027235913669245496 0 -0.0013711272544398455 -0.02579573735429742 0 -0.0020026837518688462 -0.024473381219386459 0 -4.5288179400426896e-06 -0.020068001865256844 0 -0.00051624437109410587 -0.022622272720800887 0 2.5669708478853915e-07 -0.022283443883906965 0 -0.0013711272544398455 -0.02579573735429742 0 -0.0020026837518688462 -0.024473381219386459 0 -0.00047928612871910665 -0.02429124789501546 0 -0.0020026837518688462 -0.024473381219386459 0 -0.00051624437109410587 -0.022622272720800887 0 -0.00047928612871910665 -0.02429124789501546 0 0.00016380640183414783 -0.017937763411410523 0 -0.00075217212811036385 -0.017441752139669527 0 -2.3705027406590232e-06 -0.020060241996621979 0 -0.0020026837518688462 -0.024473381219386459 0 -4.5288179400426896e-06 -0.020068001865256844 0 -0.00051624437109410587 -0.022622272720800887 0 -0.0013678690667227958 -0.021241789065349792 0 -4.1414714883378097e-07 -0.020064595616140525 0 -0.00051624437109410587 -0.022622272720800887 0 2.5669708478853915e-07 -0.022283443883906965 0 -0.00047928612871910665 -0.02429124789501546 0 2.5669708478853915e-07 -0.022283443883906965 0 -7.7693195321744469e-06 -0.02530885675946374 0 5.8827574439011515e-07 -0.025302382496766945 0 -7.7693195321744469e-06 -0.02530885675946374 0 -0.00047928612871910665 -0.02429124789501546 0 -0.00058132817304210331 -0.026315655447521204 0 2.5669708478853915e-07 -0.022283443883906965 0 -7.7693195321744469e-06 -0.02530885675946374 0 -0.00047928612871910665 -0.02429124789501546 0 -7.7693195321744469e-06 -0.02530885675946374 0 5.8827574439011515e-07 -0.025302382496766945 0 0.00016858344499656258 -0.026924881176591725 0 5.8827574439011515e-07 -0.025302382496766945 0 0.00016858344499656258 -0.026924881176591725 0 0.00053078696883919333 -0.028527802778913612 0 0.00016858344499656258 -0.026924881176591725 0 0.00019695218816236253 -0.028273519266225726 0 0.00053078696883919333 -0.028527802778913612 0 -7.7693195321744469e-06 -0.02530885675946374 0 0.00016858344499656258 -0.026924881176591725 0 -0.00010736477220585929 -0.027207088872373199 0 0.00016858344499656258 -0.026924881176591725 0 0.00019695218816236253 -0.028273519266225726 0 -0.00010736477220585929 -0.027207088872373199 0 0.00019695218816236253 -0.028273519266225726 0 -0.00010736477220585929 -0.027207088872373199 0 -0.000253784655887658 -0.028421815617932319 0 0.00019695218816236253 -0.028273519266225726 0 0.00053078696883919333 -0.028527802778913612 0 0.00048200373284696708 -0.029358004958051305 0 -0.0013711272544398455 -0.02579573735429742 0 -0.00047928612871910665 -0.02429124789501546 0 -0.00058132817304210331 -0.026315655447521204 0 -0.0014068883372852349 -0.026747474210972497 0 -0.0013711272544398455 -0.02579573735429742 0 -0.00058132817304210331 -0.026315655447521204 0 -7.7693195321744469e-06 -0.02530885675946374 0 -0.00058132817304210331 -0.026315655447521204 0 -0.00010736477220585929 -0.027207088872373199 0 -0.00058132817304210331 -0.026315655447521204 0 -0.00010736477220585929 -0.027207088872373199 0 -0.00058755114400279814 -0.027752262022349802 0 -0.00010736477220585929 -0.027207088872373199 0 -0.00058755114400279814 -0.027752262022349802 0 -0.000253784655887658 -0.028421815617932319 0 -0.00058132817304210331 -0.026315655447521204 0 -0.00058755114400279814 -0.027752262022349802 0 -0.0010982758903684466 -0.027230899574303313 0 -0.00058755114400279814 -0.027752262022349802 0 -0.0010982758903684466 -0.027230899574303313 0 -0.00095821018166252988 -0.027799408536991893 0 -0.0014068883372852349 -0.026747474210972497 0 -0.00058132817304210331 -0.026315655447521204 0 -0.0010982758903684466 -0.027230899574303313 0 -0.0010982758903684466 -0.027230899574303313 0 -0.0011438485256526775 -0.027739244143944332 0 -0.00095821018166252988 -0.027799408536991893 0 -0.0015069572581186978 -0.027523842072597948 0 -0.0010982758903684466 -0.027230899574303313 0 -0.0011438485256526775 -0.027739244143944332 0 -0.0015069572581186978 -0.027523842072597948 0 -0.00092677885600003784 -0.028650746792372769 0 -0.0010005742013895474 -0.028360513923359278 0 -0.0015069572581186978 -0.027523842072597948 0 -0.0011438485256526775 -0.027739244143944332 0 -0.0010005742013895474 -0.028360513923359278 0 0.00054540962266564296 -0.021108916122548532 0 0.00044809673897394512 -0.021130982218289802 0 0.00058445299388716642 -0.021186596596541474 0 -0.0010025537472719964 -0.028644415940601294 0 -0.0010005742013895474 -0.028360513923359278 0 -0.0008108308226488553 -0.028495661938632195 0 0.00025153470892008158 -0.025509017422224833 0 0.00030254114717004192 -0.026860245906492334 0 -0.0010005742013895474 -0.028360513923359278 0 -0.0008108308226488553 -0.028495661938632195 0 -0.00081456530004468393 -0.028152143416157748 0 -0.00058755114400279814 -0.027752262022349802 0 -0.00081456530004468393 -0.028152143416157748 0 -0.00095821018166252988 -0.027799408536991893 0 -0.0010005742013895474 -0.028360513923359278 0 -0.00081456530004468393 -0.028152143416157748 0 -0.00095821018166252988 -0.027799408536991893 0 -0.0011438485256526775 -0.027739244143944332 0 -0.0010005742013895474 -0.028360513923359278 0 -0.00095821018166252988 -0.027799408536991893 0 -0.00058755114400279814 -0.027752262022349802 0 -0.0006113381908083213 -0.028355672084895707 0 -0.000253784655887658 -0.028421815617932319 0 -0.00058755114400279814 -0.027752262022349802 0 -0.00081456530004468393 -0.028152143416157748 0 -0.0006113381908083213 -0.028355672084895707 0 -0.0008108308226488553 -0.028495661938632195 0 -0.00081456530004468393 -0.028152143416157748 0 -0.0006113381908083213 -0.028355672084895707 0 -0.0006113381908083213 -0.028355672084895707 0 -0.000253784655887658 -0.028421815617932319 0 -0.00056818869886296236 -0.028902389478075118 0 -0.000253784655887658 -0.028421815617932319 0 -0.00056818869886296236 -0.028902389478075118 0 -0.00025464823550390572 -0.029256590995420561 0 -0.0010025537472719964 -0.028644415940601294 0 -0.0008108308226488553 -0.028495661938632195 0 -0.00056818869886296236 -0.028902389478075118 0 -0.0008108308226488553 -0.028495661938632195 0 -0.0006113381908083213 -0.028355672084895707 0 -0.00056818869886296236 -0.028902389478075118 0 0.0019754191287977107 -0.025226562012732611 0 0.0019324413927525794 -0.025167900027152589 0 0.0019778468355952576 -0.025085491653105394 0 0.00025153470892008158 -0.025509017422224833 0 0.00083621543465040591 -0.027423030430607797 0 -0.0010025537472719964 -0.028644415940601294 0 -0.00056818869886296236 -0.028902389478075118 0 -0.00055414990271074782 -0.029496763208048608 0 -0.00056818869886296236 -0.028902389478075118 0 -0.00055414990271074782 -0.029496763208048608 0 -0.00025464823550390572 -0.029256590995420561 0 0.00049166978664504622 -0.020956425065190163 0 0.00048162932719938859 -0.020808456358031184 0 0.00063827701716653125 -0.021018452243388094 0 0.00025153470892008158 -0.025509017422224833 0 0.0012286053224003573 -0.02248467771175883 0 0.00044809673897394512 -0.021130982218289802 0 0.00049166978664504622 -0.020956425065190163 0 0.00036580520477620128 -0.020817762748766486 0 0.00054540962266564296 -0.021108916122548532 0 0.00044809673897394512 -0.021130982218289802 0 0.00052993222689388757 -0.021050582794353317 0 0.00049166978664504622 -0.020956425065190163 0 0.00052993222689388757 -0.021050582794353317 0 0.00063827701716653125 -0.021018452243388094 0 0.00044809673897394512 -0.021130982218289802 0 0.00049166978664504622 -0.020956425065190163 0 0.00052993222689388757 -0.021050582794353317 0 0.00019695218816236253 -0.028273519266225726 0 8.1819571937477031e-05 -0.029157493643992428 0 0.00048200373284696708 -0.029358004958051305 0 8.1819571937477031e-05 -0.029157493643992428 0 0.00032214389113680974 -0.030015737375974558 0 0.00048200373284696708 -0.029358004958051305 0 0.00019695218816236253 -0.028273519266225726 0 -0.000253784655887658 -0.028421815617932319 0 8.1819571937477031e-05 -0.029157493643992428 0 -0.000253784655887658 -0.028421815617932319 0 8.1819571937477031e-05 -0.029157493643992428 0 -0.00025464823550390572 -0.029256590995420561 0 -0.00025464823550390572 -0.029256590995420561 0 -0.00028217620731114642 -0.02969972592810452 0 -2.3791343457392634e-06 -0.029762245767548011 0 -0.00055414990271074782 -0.029496763208048608 0 -0.00028217620731114642 -0.02969972592810452 0 -0.0001879805164033257 -0.030032569452776894 0 -0.00055414990271074782 -0.029496763208048608 0 -0.00025464823550390572 -0.029256590995420561 0 -0.00028217620731114642 -0.02969972592810452 0 -0.00028217620731114642 -0.02969972592810452 0 -2.3791343457392634e-06 -0.029762245767548011 0 -0.00026916604432854446 -0.030363259528530112 0 8.1819571937477031e-05 -0.029157493643992428 0 -0.00025464823550390572 -0.029256590995420561 0 -2.3791343457392634e-06 -0.029762245767548011 0 8.1819571937477031e-05 -0.029157493643992428 0 -2.3791343457392634e-06 -0.029762245767548011 0 0.00032214389113680974 -0.030015737375974558 0 -2.3791343457392634e-06 -0.029762245767548011 0 0.00032214389113680974 -0.030015737375974558 0 8.6897374754939854e-05 -0.030307789371169916 0 0.00030288756536932569 -0.030534025561498569 0 0.00021884994229404609 -0.030794686282673522 0 0.00041749246756592927 -0.030976327004719865 0 0.00030288756536932569 -0.030534025561498569 0 0.00041749246756592927 -0.030976327004719865 0 0.00050822855479719419 -0.030607025434349608 0 0.00032214389113680974 -0.030015737375974558 0 0.00030288756536932569 -0.030534025561498569 0 0.00050822855479719419 -0.030607025434349608 0 0.00030288756536932569 -0.030534025561498569 0 8.6897374754939854e-05 -0.030307789371169916 0 0.00021884994229404609 -0.030794686282673522 0 0.00032214389113680974 -0.030015737375974558 0 0.00030288756536932569 -0.030534025561498569 0 8.6897374754939854e-05 -0.030307789371169916 0 0.00021884994229404609 -0.030794686282673522 0 -1.7725760116976032e-05 -0.030721932174721769 0 0.00016782559013495899 -0.03102593264401228 0 8.6897374754939854e-05 -0.030307789371169916 0 0.00021884994229404609 -0.030794686282673522 0 -1.7725760116976032e-05 -0.030721932174721769 0 0.0004215054303925279 -0.030038086750603168 0 0.0001637041419087445 -0.028750741206389006 0 8.6897374754939854e-05 -0.030307789371169916 0 -1.7725760116976032e-05 -0.030721932174721769 0 -0.00026916604432854446 -0.030363259528530112 0 -2.3791343457392634e-06 -0.029762245767548011 0 8.6897374754939854e-05 -0.030307789371169916 0 -0.00026916604432854446 -0.030363259528530112 0 3.8747769448010732e-05 -0.029912215379176835 0 0.0001637041419087445 -0.028750741206389006 0 0.0019324413927525794 -0.025167900027152589 0 0.0018399865980272552 -0.025118795691193147 0 0.0019184491324686947 -0.025107480959945239 0 0.00083621543465040591 -0.027423030430607797 0 0.0001637041419087445 -0.028750741206389006 0 0.0018399865980272552 -0.025118795691193147 0 0.0019094820596440409 -0.025031595074663855 0 0.001858530225682578 -0.025003627699482521 0 0.0018399865980272552 -0.025118795691193147 0 0.0019094820596440409 -0.025031595074663855 0 0.0019184491324686947 -0.025107480959945239 0 0.0018399865980272552 -0.025118795691193147 0 0.001858530225682578 -0.025003627699482521 0 0.0018229418199043786 -0.02493406207218329 0 0.0018399865980272552 -0.025118795691193147 0 0.0018229418199043786 -0.02493406207218329 0 0.00174760943607734 -0.024873180998113788 0 0.0019094820596440409 -0.025031595074663855 0 0.0018828822670171024 -0.024949296945374764 0 0.0019769710835250975 -0.024856493478919998 0 -1.7725760116976032e-05 -0.030721932174721769 0 -0.00028168650620117631 -0.030540810496234874 0 0.00019468922619218017 -0.031336827622016859 0 0.0001637041419087445 -0.028750741206389006 0 0.0010068767211520251 -0.027871196293242806 0 0.0019094820596440409 -0.025031595074663855 0 0.001858530225682578 -0.025003627699482521 0 0.0018828822670171024 -0.024949296945374764 0 0.001858530225682578 -0.025003627699482521 0 0.0018828822670171024 -0.024949296945374764 0 0.0018229418199043786 -0.02493406207218329 0 0.0018828822670171024 -0.024949296945374764 0 0.0018229418199043786 -0.02493406207218329 0 0.0018719041367159922 -0.024860395292355879 0 0.0018828822670171024 -0.024949296945374764 0 0.0019769710835250975 -0.024856493478919998 0 0.0018719041367159922 -0.024860395292355879 0 0.0018229418199043786 -0.02493406207218329 0 0.00174760943607734 -0.024873180998113788 0 0.0018137419819176993 -0.024837103218224708 0 0.0018229418199043786 -0.02493406207218329 0 0.0018137419819176993 -0.024837103218224708 0 0.0018719041367159922 -0.024860395292355879 0 -1.7725760116976032e-05 -0.030721932174721769 0 0.00016782559013495899 -0.03102593264401228 0 0.00019468922619218017 -0.031336827622016859 0 0.00016782559013495899 -0.03102593264401228 0 0.00019613925234697284 -0.031229516922267143 0 0.00019468922619218017 -0.031336827622016859 0 0.0001682465755107878 -0.031338699327591951 0 0.00019613925234697284 -0.031229516922267143 0 0.00019468922619218017 -0.031336827622016859 0 0.0001682465755107878 -0.031338699327591951 0 0.00019613925234697284 -0.031229516922267143 0 0.00034261627881493112 -0.031186296526789385 0 0.0001682465755107878 -0.031338699327591951 0 0.00034261627881493112 -0.031186296526789385 0 0.00047481926535245048 -0.031404885536619603 0 0.00016782559013495899 -0.03102593264401228 0 0.00034261627881493112 -0.031186296526789385 0 0.00041749246756592927 -0.030976327004719865 0 0.00021884994229404609 -0.030794686282673522 0 0.00016782559013495899 -0.03102593264401228 0 0.00041749246756592927 -0.030976327004719865 0 0.00016782559013495899 -0.03102593264401228 0 0.00019613925234697284 -0.031229516922267143 0 0.00034261627881493112 -0.031186296526789385 0 0.00048162932719938859 -0.020808456358031184 0 0.00036580520477620128 -0.020817762748766486 0 0.00043266963235324605 -0.020645760884376037 0 0.00048162932719938859 -0.020808456358031184 0 0.00057153836845700841 -0.020717821700940022 0 0.00063827701716653125 -0.021018452243388094 0 0.00049166978664504622 -0.020956425065190163 0 0.00048162932719938859 -0.020808456358031184 0 0.00036580520477620128 -0.020817762748766486 0 0.0019324413927525794 -0.025167900027152589 0 0.0019778468355952576 -0.025085491653105394 0 0.0019184491324686947 -0.025107480959945239 0 0.0019094820596440409 -0.025031595074663855 0 0.0019778468355952576 -0.025085491653105394 0 0.0019184491324686947 -0.025107480959945239 0 0.00036580520477620128 -0.020817762748766486 0 0.00043266963235324605 -0.020645760884376037 0 0.00037419802413374547 -0.020587296832668793 0 0.0012286053224003573 -0.02248467771175883 0 0.0011872054872336466 -0.022823596641009778 0 0.0019094820596440409 -0.025031595074663855 0 0.0019778468355952576 -0.025085491653105394 0 0.0019769710835250975 -0.024856493478919998 0 0.00043266963235324605 -0.020645760884376037 0 0.00039687452387566829 -0.020627366520567826 0 0.00037419802413374547 -0.020587296832668793 0 0.00043266963235324605 -0.020645760884376037 0 0.00057153836845700841 -0.020717821700940022 0 0.0005034495299342962 -0.020390869879643662 0 0.00046955648942823306 -0.018745256331295382 0 0.00049803798386469176 -0.019585200054708617 0 0.00048162932719938859 -0.020808456358031184 0 0.00043266963235324605 -0.020645760884376037 0 0.00057153836845700841 -0.020717821700940022 0 0.00034678016170632404 -0.016837186480581058 0 0.0002985919347944316 -0.017173106418551038 0 0.00074738732639380821 -0.017472572179504504 0 0.00034678016170632404 -0.016837186480581058 0 5.8491233297623576e-05 -0.016865407622390034 0 0.0002985919347944316 -0.017173106418551038 0 5.8491233297623576e-05 -0.016865407622390034 0 7.8490389179427352e-06 -0.017324032024471761 0 0.0002985919347944316 -0.017173106418551038 0 0.00034678016170632404 -0.016837186480581058 0 2.5486655065311032e-05 -0.016709186213154804 0 -1.218232539115318e-05 -0.016636777526369398 0 0.00046955648942823306 -0.018745256331295382 0 0.00034093780942281694 -0.018444255208937711 0 0.00034678016170632404 -0.016837186480581058 0 2.5486655065311032e-05 -0.016709186213154804 0 5.8491233297623576e-05 -0.016865407622390034 0 2.5486655065311032e-05 -0.016709186213154804 0 -8.5274337323166141e-05 -0.016712414184339448 0 5.8491233297623576e-05 -0.016865407622390034 0 5.8491233297623576e-05 -0.016865407622390034 0 -0.00022755806447389231 -0.016912554535327719 0 7.8490389179427352e-06 -0.017324032024471761 0 -8.5274337323166141e-05 -0.016712414184339448 0 5.8491233297623576e-05 -0.016865407622390034 0 -0.00022755806447389231 -0.016912554535327719 0 -0.00022408239221755955 -0.016876175060482571 0 -0.00047908773256419605 -0.016540258895933555 0 -0.0013810244721823852 -0.016430146085840373 0 -0.0011064016507244729 -0.016963354974284608 0 -0.00085188332274064281 -0.016352355173795088 0 -0.00022755806447389231 -0.016912554535327719 0 -0.0011064016507244729 -0.016963354974284608 0 -0.00085188332274064281 -0.016352355173795088 0 -0.00068182439248800752 -0.016289260888084273 0 -0.00047908773256419605 -0.016540258895933555 0 -8.5274337323166141e-05 -0.016712414184339448 0 -0.00012311820243922808 -0.016689691357034693 0 -8.9627023678474899e-05 -0.016664871967696487 0 -8.5274337323166141e-05 -0.016712414184339448 0 -0.00022755806447389231 -0.016912554535327719 0 -0.00012311820243922808 -0.016689691357034693 0 -0.00012311820243922808 -0.016689691357034693 0 -8.9627023678474899e-05 -0.016664871967696487 0 -4.4017090384681871e-05 -0.016655851680369448 0 -8.9627023678474899e-05 -0.016664871967696487 0 -4.4017090384681871e-05 -0.016655851680369448 0 -9.8297987001282609e-05 -0.016651154525570054 0 3.2470356797936939e-05 -0.016653351822549504 0 -0.00012311820243922808 -0.016689691357034693 0 -4.4017090384681871e-05 -0.016655851680369448 0 3.2470356797936939e-05 -0.016653351822549504 0 -4.4017090384681871e-05 -0.016655851680369448 0 7.1592724480434888e-05 -0.016662635558214303 0 -4.4017090384681871e-05 -0.016655851680369448 0 7.1592724480434888e-05 -0.016662635558214303 0 -9.8898666732130539e-06 -0.016669815537123395 0 0.00010817808864551964 -0.01669042001142242 0 7.1592724480434888e-05 -0.016662635558214303 0 -9.8898666732130539e-06 -0.016669815537123395 0 -4.4017090384681871e-05 -0.016655851680369448 0 -9.8297987001282609e-05 -0.016651154525570054 0 -9.8898666732130539e-06 -0.016669815537123395 0 -0.00010443692476734692 -0.0166938024572547 0 -9.8297987001282609e-05 -0.016651154525570054 0 -0.00016102966040186403 -0.016673286504955736 0 -0.00010443692476734692 -0.0166938024572547 0 -9.8297987001282609e-05 -0.016651154525570054 0 -9.8898666732130539e-06 -0.016669815537123395 0 -0.0002952731084701752 -0.016731441000434052 0 -0.00010395697486730721 -0.016641940335894938 0 -0.00023510877389459176 -0.016701721951129532 0 -9.8297987001282609e-05 -0.016651154525570054 0 -0.00016102966040186403 -0.016673286504955736 0 -0.00010395697486730721 -0.016641940335894938 0 -0.00016102966040186403 -0.016673286504955736 0 -0.00010395697486730721 -0.016641940335894938 0 -0.00023510877389459176 -0.016701721951129532 0 -0.0002952731084701752 -0.016731441000434052 0 -0.00010395697486730721 -0.016641940335894938 0 -1.218232539115318e-05 -0.016636777526369398 0 -0.0015069572581186978 -0.027523842072597948 0 -0.0021146398691445534 -0.027235913669245496 0 -0.00092677885600003784 -0.028650746792372769 0 0.00069155859498142491 -0.021328698948719787 0 0.00058445299388716642 -0.021186596596541474 0 0.00063827701716653125 -0.021018452243388094 0 -0.00029595106727702355 -0.02104389953043509 0 0.00034093780942281694 -0.018444255208937711 0 -0.00029595106727702355 -0.02104389953043509 0 0.00025153470892008158 -0.025509017422224833 0 0.00069155859498142491 -0.021328698948719787 0 0.00044809673897394512 -0.021130982218289802 0 0.00058445299388716642 -0.021186596596541474 0 0.00054540962266564296 -0.021108916122548532 0 0.00058445299388716642 -0.021186596596541474 0 0.00063827701716653125 -0.021018452243388094 0 2.5486655065311032e-05 -0.016709186213154804 0 -0.00010395697486730721 -0.016641940335894938 0 -1.218232539115318e-05 -0.016636777526369398 0 0.00054540962266564296 -0.021108916122548532 0 0.00052993222689388757 -0.021050582794353317 0 0.00063827701716653125 -0.021018452243388094 0 2.5486655065311032e-05 -0.016709186213154804 0 -8.5274337323166141e-05 -0.016712414184339448 0 -0.00010395697486730721 -0.016641940335894938 0 -8.5274337323166141e-05 -0.016712414184339448 0 -8.9627023678474899e-05 -0.016664871967696487 0 -0.00010395697486730721 -0.016641940335894938 0 -8.9627023678474899e-05 -0.016664871967696487 0 -9.8297987001282609e-05 -0.016651154525570054 0 -0.00010395697486730721 -0.016641940335894938 0 6.8546280348833878e-06 -0.033728913368664647 0 -1.5784341225226958e-07 -0.03499657368548207 0 2.0624952414314566e-07 -0.034997238782591096 0 -1.5784341225226958e-07 -0.03499657368548207 0 0.00026332606975883085 -0.031680739499295264 0 1.5134424118805047e-06 -0.029410816912456717 0 6.8546280348833878e-06 -0.033728913368664647 0 -1.5784341225226958e-07 -0.03499657368548207 0 0.00026332606975883085 -0.031680739499295264 0 6.8546280348833878e-06 -0.033728913368664647 0 -8.7710396362544713e-05 -0.033967712251432844 0 -0.00020522708343000964 -0.033991832070341052 0 0.00026332606975883085 -0.031680739499295264 0 0.00031245999011889514 -0.031092269442833768 0 0.00077817140062219235 -0.030423481384763713 0 6.8546280348833878e-06 -0.033728913368664647 0 0.00026332606975883085 -0.031680739499295264 0 0.00031245999011889514 -0.031092269442833768 0 1.6400811613557969e-05 -0.033506694500569853 0 0.00020785853139985606 -0.032571078164693429 0 0.00031245999011889514 -0.031092269442833768 0 0.00077817140062219235 -0.030423481384763713 0 0.00098214817947048032 -0.030380814358183954 0 0.00020785853139985606 -0.032571078164693429 0 0.00070511702594182931 -0.031915689073116572 0 0.00026332606975883085 -0.031680739499295264 0 0.00077817140062219235 -0.030423481384763713 0 0.00057204131096349196 -0.02920754593745812 0 0.00077817140062219235 -0.030423481384763713 0 0.00057204131096349196 -0.02920754593745812 0 0.00086785956138713146 -0.029988167137322035 0 0.00026332606975883085 -0.031680739499295264 0 0.00057204131096349196 -0.02920754593745812 0 1.5134424118805047e-06 -0.029410816912456717 0 5.8827574439011515e-07 -0.025302382496766945 0 0.00057204131096349196 -0.02920754593745812 0 1.5134424118805047e-06 -0.029410816912456717 0 5.8827574439011515e-07 -0.025302382496766945 0 0.00057204131096349196 -0.02920754593745812 0 0.00053078696883919333 -0.028527802778913612 0 0.00057204131096349196 -0.02920754593745812 0 0.00053078696883919333 -0.028527802778913612 0 0.00086785956138713146 -0.029988167137322035 0 0.00053078696883919333 -0.028527802778913612 0 0.00048200373284696708 -0.029358004958051305 0 0.00086785956138713146 -0.029988167137322035 0 0.00048200373284696708 -0.029358004958051305 0 0.00086785956138713146 -0.029988167137322035 0 0.00067181353033218653 -0.030413992023107447 0 0.00086785956138713146 -0.029988167137322035 0 0.00094077638346046623 -0.030962180885246993 0 0.0011338618259417578 -0.031225880198173562 0 0.00086785956138713146 -0.029988167137322035 0 0.00067181353033218653 -0.030413992023107447 0 0.00094077638346046623 -0.030962180885246993 0 0.00032214389113680974 -0.030015737375974558 0 0.00048200373284696708 -0.029358004958051305 0 0.00067181353033218653 -0.030413992023107447 0 0.00032214389113680974 -0.030015737375974558 0 0.00067181353033218653 -0.030413992023107447 0 0.00050822855479719419 -0.030607025434349608 0 0.00067181353033218653 -0.030413992023107447 0 0.00050822855479719419 -0.030607025434349608 0 0.00077236138707842015 -0.031048752676941446 0 0.00041749246756592927 -0.030976327004719865 0 0.00050822855479719419 -0.030607025434349608 0 0.00077236138707842015 -0.031048752676941446 0 0.00041749246756592927 -0.030976327004719865 0 0.00077236138707842015 -0.031048752676941446 0 0.00060584143806654157 -0.031267891833233835 0 0.00034261627881493112 -0.031186296526789385 0 0.00041749246756592927 -0.030976327004719865 0 0.00060584143806654157 -0.031267891833233835 0 0.00077236138707842015 -0.031048752676941446 0 0.00060584143806654157 -0.031267891833233835 0 0.0008804169820152731 -0.031442421685596474 0 0.00060584143806654157 -0.031267891833233835 0 0.0008804169820152731 -0.031442421685596474 0 0.00067917154303174219 -0.031545612672686414 0 0.00034261627881493112 -0.031186296526789385 0 0.00060584143806654157 -0.031267891833233835 0 0.00047481926535245048 -0.031404885536619603 0 0.00060584143806654157 -0.031267891833233835 0 0.00047481926535245048 -0.031404885536619603 0 0.00067917154303174219 -0.031545612672686414 0 0.00077236138707842015 -0.031048752676941446 0 0.0008804169820152731 -0.031442421685596474 0 0.0010295582048018108 -0.031367488077189809 0 0.00067181353033218653 -0.030413992023107447 0 0.00077236138707842015 -0.031048752676941446 0 0.00094077638346046623 -0.030962180885246993 0 0.00077236138707842015 -0.031048752676941446 0 0.00094077638346046623 -0.030962180885246993 0 0.0010295582048018108 -0.031367488077189809 0 0.00094077638346046623 -0.030962180885246993 0 0.0010295582048018108 -0.031367488077189809 0 0.0011338618259417578 -0.031225880198173562 0 0.0010295582048018108 -0.031367488077189809 0 0.00097729974353044668 -0.031701315881023422 0 0.0011338618259417578 -0.031225880198173562 0 0.0010295582048018108 -0.031367488077189809 0 0.0010879368812937206 -0.031434982111049205 0 0.00097729974353044668 -0.031701315881023422 0 0.0008804169820152731 -0.031442421685596474 0 0.0010295582048018108 -0.031367488077189809 0 0.0010879368812937206 -0.031434982111049205 0 0.00082536205750275825 -0.032062034335313398 0 0.00021991454919047335 -0.032791253224143661 0 0.00065754712119890689 -0.032638769421613707 0 -2.4277536326298339e-05 -0.03352422414975155 0 -0.00012417183793259962 -0.03301869288570395 0 0.0010879368812937206 -0.031434982111049205 0 0.00097729974353044668 -0.031701315881023422 0 0.00036831890536427397 -0.031947163044137222 0 0.00097729974353044668 -0.031701315881023422 0 0.00071993881645832048 -0.03228221075416652 0 0.00036831890536427397 -0.031947163044137222 0 0.00097729974353044668 -0.031701315881023422 0 0.00071993881645832048 -0.03228221075416652 0 0.0011338618259417578 -0.031225880198173562 0 0.00077817140062219235 -0.030423481384763713 0 0.00086785956138713146 -0.029988167137322035 0 0.00098214817947048032 -0.030380814358183954 0 0.00071993881645832048 -0.03228221075416652 0 0.0011338618259417578 -0.031225880198173562 0 0.00054903130474412735 -0.033452808262175511 0 0.0010542936056506722 -0.031368168905274434 0 0.00070511702594182931 -0.031915689073116572 0 0.00086785956138713146 -0.029988167137322035 0 0.0011338618259417578 -0.031225880198173562 0 0.00098214817947048032 -0.030380814358183954 0 -4.3589481422853662e-05 -0.0347356853401651 0 2.0624952414314566e-07 -0.034997238782591096 0 -6.8979769268268366e-08 -0.035000281397115543 0 -8.7710396362544713e-05 -0.033967712251432844 0 0.00054903130474412735 -0.033452808262175511 0 -0.00020522708343000964 -0.033991832070341052 0 0.00054903130474412735 -0.033452808262175511 0 -0.00020522708343000964 -0.033991832070341052 0 0.00012669508264911847 -0.033166437628248321 0 -0.00020522708343000964 -0.033991832070341052 0 0.00012669508264911847 -0.033166437628248321 0 -0.00024651156377070719 -0.033983035298638636 0 0.00071993881645832048 -0.03228221075416652 0 0.00054903130474412735 -0.033452808262175511 0 0.00012669508264911847 -0.033166437628248321 0 0.00012669508264911847 -0.033166437628248321 0 0.00036831890536427397 -0.031947163044137222 0 -0.00024651156377070719 -0.033983035298638636 0 0.00071993881645832048 -0.03228221075416652 0 0.00012669508264911847 -0.033166437628248321 0 0.00036831890536427397 -0.031947163044137222 0 -2.4277536326298339e-05 -0.03352422414975155 0 -0.00012417183793259962 -0.03301869288570395 0 -0.00022798481597329973 -0.034039058154596395 0 -0.00020020025596645407 -0.033826515593681619 0 -0.00021210968203158771 -0.03397946273742939 0 -0.00021174104282725744 -0.034561210921185762 0 -0.00022798481597329973 -0.034039058154596395 0 -4.3589481422853662e-05 -0.0347356853401651 0 -0.00034209206992034138 -0.034648126515207045 0 -0.00021174104282725744 -0.034561210921185762 0 -0.00022798481597329973 -0.034039058154596395 0 -0.00021174104282725744 -0.034561210921185762 0 -4.3589481422853662e-05 -0.0347356853401651 0 -0.00019983098878480115 -0.034733504104880797 0 -0.00034209206992034138 -0.034648126515207045 0 -0.00021174104282725744 -0.034561210921185762 0 -0.00019983098878480115 -0.034733504104880797 0 0.00021991454919047335 -0.032791253224143661 0 -0.00023172669062615075 -0.033784158010456714 0 -2.4277536326298339e-05 -0.03352422414975155 0 -0.00022798481597329973 -0.034039058154596395 0 -0.00024651156377070719 -0.033983035298638636 0 -0.00022798481597329973 -0.034039058154596395 0 -4.3589481422853662e-05 -0.0347356853401651 0 2.0624952414314566e-07 -0.034997238782591096 0 -0.00022798481597329973 -0.034039058154596395 0 -0.00024651156377070719 -0.033983035298638636 0 2.0624952414314566e-07 -0.034997238782591096 0 -0.00020522708343000964 -0.033991832070341052 0 -0.00024651156377070719 -0.033983035298638636 0 2.0624952414314566e-07 -0.034997238782591096 0 6.8546280348833878e-06 -0.033728913368664647 0 -0.00020522708343000964 -0.033991832070341052 0 2.0624952414314566e-07 -0.034997238782591096 0 -8.3461991264867694e-05 -0.034925849021940139 0 -6.8979769268268366e-08 -0.035000281397115543 0 -0.00013887903851071484 -0.03486900935890129 0 -8.3461991264867694e-05 -0.034925849021940139 0 -6.8979769268268366e-08 -0.035000281397115543 0 -1.0421102161027868e-07 -0.034999639104281451 0 -4.3589481422853662e-05 -0.0347356853401651 0 -6.8979769268268366e-08 -0.035000281397115543 0 -0.00013887903851071484 -0.03486900935890129 0 -0.00013887903851071484 -0.03486900935890129 0 -0.00019983098878480115 -0.034733504104880797 0 -0.00022970555602768393 -0.034792801714232033 0 -4.3589481422853662e-05 -0.0347356853401651 0 -0.00013887903851071484 -0.03486900935890129 0 -0.00019983098878480115 -0.034733504104880797 0 -0.00034209206992034138 -0.034648126515207045 0 -0.00019983098878480115 -0.034733504104880797 0 -0.00022970555602768393 -0.034792801714232033 0 -0.00034209206992034138 -0.034648126515207045 0 -0.00022970555602768393 -0.034792801714232033 0 -0.00022636950878461511 -0.034807666422618851 0 -0.00022970555602768393 -0.034792801714232033 0 -0.00019343462665291804 -0.034833623162999587 0 -0.00022636950878461511 -0.034807666422618851 0 -0.00013887903851071484 -0.03486900935890129 0 -0.00022970555602768393 -0.034792801714232033 0 -0.00019343462665291804 -0.034833623162999587 0 -0.00013887903851071484 -0.03486900935890129 0 -0.00019343462665291804 -0.034833623162999587 0 -0.00015686804207015875 -0.034854345765451759 0 -8.3461991264867694e-05 -0.034925849021940139 0 -0.00013887903851071484 -0.03486900935890129 0 -0.00015686804207015875 -0.034854345765451759 0 -0.00015686804207015875 -0.034854345765451759 0 -0.00016581874007284914 -0.034821602947759982 0 -0.00015114695664308772 -0.034811472725207723 0 -0.00016581874007284914 -0.034821602947759982 0 -0.00013083096965278216 -0.034795306765101369 0 -0.00015114695664308772 -0.034811472725207723 0 -0.00016581874007284914 -0.034821602947759982 0 -0.00012571957657599107 -0.034796985013018158 0 -0.00013083096965278216 -0.034795306765101369 0 -0.00012571957657599107 -0.034796985013018158 0 -0.00010902222986381883 -0.034782007305211367 0 -0.00013083096965278216 -0.034795306765101369 0 -0.00014341508087618605 -0.034816002872209074 0 -0.00016581874007284914 -0.034821602947759982 0 -0.00012571957657599107 -0.034796985013018158 0 -0.00014341508087618605 -0.034816002872209074 0 -0.00016581874007284914 -0.034821602947759982 0 -0.00022636950878461511 -0.034807666422618851 0 -0.00019343462665291804 -0.034833623162999587 0 -0.00016581874007284914 -0.034821602947759982 0 -0.00022636950878461511 -0.034807666422618851 0 -0.00019343462665291804 -0.034833623162999587 0 -0.00015686804207015875 -0.034854345765451759 0 -0.00016581874007284914 -0.034821602947759982 0 -0.00020020025596645407 -0.033826515593681619 0 0.00016354956705534572 -0.033384268544570356 0 0.00065754712119890689 -0.032638769421613707 0 -0.00012417183793259962 -0.03301869288570395 0 0.00052091735707056916 -0.032071805312230146 0 0.00065754712119890689 -0.032638769421613707 0 0.00052091735707056916 -0.032071805312230146 0 0.00088531226940985139 -0.031878744546599155 0 0.00082536205750275825 -0.032062034335313398 0 0.00086949955440943506 -0.031916185442418643 0 0.00029420036634486026 -0.033698806104386601 0 0.00016354956705534572 -0.033384268544570356 0 0.00076855467236653676 -0.03191469745552071 0 0.00052091735707056916 -0.032071805312230146 0 0.00088531226940985139 -0.031878744546599155 0 0.00088531226940985139 -0.031878744546599155 0 0.00069057969527252269 -0.031904913889837599 0 0.00074733833836069543 -0.031941097652435461 0 0.00076855467236653676 -0.03191469745552071 0 0.00088531226940985139 -0.031878744546599155 0 0.00074733833836069543 -0.031941097652435461 0 0.0008804169820152731 -0.031442421685596474 0 0.00088531226940985139 -0.031878744546599155 0 0.00067917154303174219 -0.031545612672686414 0 0.0008804169820152731 -0.031442421685596474 0 0.0010879368812937206 -0.031434982111049205 0 0.00088531226940985139 -0.031878744546599155 0 0.00088531226940985139 -0.031878744546599155 0 0.00067917154303174219 -0.031545612672686414 0 0.00056772008562342119 -0.031680432852344731 0 0.00088531226940985139 -0.031878744546599155 0 0.00056772008562342119 -0.031680432852344731 0 0.00069057969527252269 -0.031904913889837599 0 0.00047481926535245048 -0.031404885536619603 0 0.00067917154303174219 -0.031545612672686414 0 0.00056772008562342119 -0.031680432852344731 0 0.00056772008562342119 -0.031680432852344731 0 0.00069057969527252269 -0.031904913889837599 0 0.00048087470795187226 -0.031861086934753043 0 0.0001760649972479623 -0.030900824952586003 0 0.00022279847381226404 -0.031313835062074517 0 0.00069057969527252269 -0.031904913889837599 0 0.0006738481701928146 -0.031978100369118065 0 0.00048087470795187226 -0.031861086934753043 0 -0.00027553300839840817 -0.030073524310041028 0 6.8361857056352312e-05 -0.030515951680768996 0 -4.3022273036307541e-05 -0.030750654144844458 0 -0.00027553300839840817 -0.030073524310041028 0 -0.00021444664328542626 -0.029644470863321146 0 6.8361857056352312e-05 -0.030515951680768996 0 0.0006738481701928146 -0.031978100369118065 0 0.0007322825481010112 -0.031967446879118844 0 0.00071639933038765023 -0.032035244687112413 0 0.00059398237062741044 -0.026454680635037916 0 0.0009046194198881239 -0.027714301955984261 0 0.0006738481701928146 -0.031978100369118065 0 0.00074733833836069543 -0.031941097652435461 0 0.0007322825481010112 -0.031967446879118844 0 0.00069057969527252269 -0.031904913889837599 0 0.0006738481701928146 -0.031978100369118065 0 0.00074733833836069543 -0.031941097652435461 0 0.00076855467236653676 -0.03191469745552071 0 0.0007322825481010112 -0.031967446879118844 0 0.00071639933038765023 -0.032035244687112413 0 0.00076855467236653676 -0.03191469745552071 0 0.00074733833836069543 -0.031941097652435461 0 0.0007322825481010112 -0.031967446879118844 0 -0.00012571957657599107 -0.034796985013018158 0 -9.5421549815952471e-05 -0.034777664139122082 0 -0.00010902222986381883 -0.034782007305211367 0 0.00029420036634486026 -0.033698806104386601 0 -0.00015327525547390795 -0.031470897115082261 0 -0.00014341508087618605 -0.034816002872209074 0 -0.00012571957657599107 -0.034796985013018158 0 -9.5421549815952471e-05 -0.034777664139122082 0 -9.8160079649214709e-05 -0.034777633231960259 0 -9.5421549815952471e-05 -0.034777664139122082 0 -0.00010902222986381883 -0.034782007305211367 0 0.0011258104848146334 -0.02862576232542681 0 5.2064925976885008e-05 -0.027761585635295398 0 0.00059154856436855667 -0.029217064490801758 0 0.00059398237062741044 -0.026454680635037916 0 0.0008510578817006436 -0.027329468799559952 0 -0.00039835946117052515 -0.033579695809132878 0 -0.00044832397899689444 -0.033450330479644817 0 -0.00067871447009284071 -0.033716018090365146 0 -0.00027553300839840817 -0.030073524310041028 0 -0.00051594980702141023 -0.029401149143471108 0 -0.00021444664328542626 -0.029644470863321146 0 -0.00015327525547390795 -0.031470897115082261 0 0.0008510578817006436 -0.027329468799559952 0 0.0001760649972479623 -0.030900824952586003 0 -0.00015327525547390795 -0.031470897115082261 0 7.0596767720018999e-05 -0.033408434054198154 0 -0.00015327525547390795 -0.031470897115082261 0 0.0013210585464225007 -0.023476978009570975 0 0.001403549855242792 -0.023297082936594556 0 0.0011374104722498587 -0.023340155640619996 0 0.0013210585464225007 -0.023476978009570975 0 0.0012368050118874998 -0.023675094003529022 0 0.0011374104722498587 -0.023340155640619996 0 0.0013210585464225007 -0.023476978009570975 0 0.001403549855242792 -0.023297082936594556 0 0.001484680932367078 -0.023444130289876134 0 0.0013210585464225007 -0.023476978009570975 0 0.0012368050118874998 -0.023675094003529022 0 0.0015164884484217295 -0.023734768015577556 0 -0.00015327525547390795 -0.031470897115082261 0 0.00059398237062741044 -0.026454680635037916 0 0.0020213462196434361 -0.023086785672516309 0 0.0017996173647329278 -0.023078304622316307 0 0.0018884054797681244 -0.022737791358379326 0 0.0020213462196434361 -0.023086785672516309 0 0.0017996173647329278 -0.023078304622316307 0 0.0018352758021196046 -0.023314635395929054 0 0.00031041131244677355 -0.03027054633094681 0 -0.0003233836039586794 -0.033318405727532321 0 0.00031041131244677355 -0.03027054633094681 0 0.00056006937504119207 -0.031664984085454824 0 0.0015250276456762683 -0.023058712553119143 0 0.0017996173647329278 -0.023078304622316307 0 0.0016088243217783973 -0.023198725099850818 0 0.0023915619905356166 -0.0225307312518561 0 0.0008510578817006436 -0.027329468799559952 0 0.0015250276456762683 -0.023058712553119143 0 0.001403549855242792 -0.023297082936594556 0 0.0011374104722498587 -0.023340155640619996 0 0.0015250276456762683 -0.023058712553119143 0 0.0017996173647329278 -0.023078304622316307 0 0.0018884054797681244 -0.022737791358379326 0 -0.00047385571500041984 -0.034237378855281428 0 -0.00067871447009284071 -0.033716018090365146 0 -0.00041971782637110816 -0.033957521690748976 0 0.00031041131244677355 -0.03027054633094681 0 0.0008510578817006436 -0.027329468799559952 0 -0.00039835946117052515 -0.033579695809132878 0 -0.00067871447009284071 -0.033716018090365146 0 -0.00041971782637110816 -0.033957521690748976 0 -0.00026839577527769707 -0.034029581442980364 0 -0.00024672771621482819 -0.034196935735504745 0 -0.00015375168534311696 -0.034333081188680073 0 7.0596767720018999e-05 -0.033408434054198154 0 -0.0001248633646691673 -0.034116142360390171 0 7.0596767720018999e-05 -0.033408434054198154 0 -0.00012627355434268565 -0.034695363160795023 0 -0.00039835946117052515 -0.033579695809132878 0 -0.00041971782637110816 -0.033957521690748976 0 -0.00024672771621482819 -0.034196935735504745 0 -9.8160079649214709e-05 -0.034777633231960259 0 -0.00010902222986381883 -0.034782007305211367 0 -0.00010486830996311072 -0.0347697313720517 0 -0.00024672771621482819 -0.034196935735504745 0 -0.0002304496352426344 -0.034350240515586293 0 -0.00015375168534311696 -0.034333081188680073 0 -0.00024672771621482819 -0.034196935735504745 0 -0.00027846869709102225 -0.034322449449808119 0 -0.0002304496352426344 -0.034350240515586293 0 -0.00041459239677882473 -0.034223019110249983 0 -0.00041971782637110816 -0.033957521690748976 0 -0.00024672771621482819 -0.034196935735504745 0 -0.00041459239677882473 -0.034223019110249983 0 -0.00034627094457740574 -0.034304029914852173 0 -0.00024672771621482819 -0.034196935735504745 0 -0.00034627094457740574 -0.034304029914852173 0 -0.00024672771621482819 -0.034196935735504745 0 -0.00027846869709102225 -0.034322449449808119 0 -0.00034627094457740574 -0.034304029914852173 0 -0.00027846869709102225 -0.034322449449808119 0 -0.00027897089160347521 -0.034404495468521708 0 -0.00027897089160347521 -0.034404495468521708 0 -0.0002304496352426344 -0.034350240515586293 0 -0.00024599173381784236 -0.034452331764567072 0 -0.00027846869709102225 -0.034322449449808119 0 -0.00027897089160347521 -0.034404495468521708 0 -0.0002304496352426344 -0.034350240515586293 0 -0.0002304496352426344 -0.034350240515586293 0 -0.00024599173381784236 -0.034452331764567072 0 -0.00015375168534311696 -0.034333081188680073 0 -0.00027897089160347521 -0.034404495468521708 0 -0.00024599173381784236 -0.034452331764567072 0 -0.00026539316556125215 -0.03449632470758042 0 -0.00037891203886763347 -0.034260926526968008 0 -0.00034627094457740574 -0.034304029914852173 0 -0.00026539316556125215 -0.03449632470758042 0 0.00031041131244677355 -0.03027054633094681 0 0.00096915369392714475 -0.028868342822405232 0 0.0020213462196434361 -0.023086785672516309 0 0.0018352758021196046 -0.023314635395929054 0 0.0020626753989690153 -0.023756322472586421 0 -0.00034627094457740574 -0.034304029914852173 0 -0.00027897089160347521 -0.034404495468521708 0 -0.00026539316556125215 -0.03449632470758042 0 0.0017996173647329278 -0.023078304622316307 0 0.0016088243217783973 -0.023198725099850818 0 0.0018352758021196046 -0.023314635395929054 0 0.0016088243217783973 -0.023198725099850818 0 0.0018352758021196046 -0.023314635395929054 0 0.0016698538798032936 -0.023479214780046026 0 0.0018352758021196046 -0.023314635395929054 0 0.0016698538798032936 -0.023479214780046026 0 0.0020626753989690153 -0.023756322472586421 0 0.0016698538798032936 -0.023479214780046026 0 0.0020626753989690153 -0.023756322472586421 0 0.0016273643248512577 -0.023749052686274096 0 0.0020626753989690153 -0.023756322472586421 0 0.0020353301383560468 -0.024803662336709942 0 0.0016988278858707394 -0.024466774824375738 0 0.00096915369392714475 -0.028868342822405232 0 0.0011026197018501711 -0.029178518410962074 0 -0.00026539316556125215 -0.03449632470758042 0 -0.00026425215479502031 -0.034373047840366953 0 4.6888034533753287e-05 -0.034124532427338761 0 0.0020626753989690153 -0.023756322472586421 0 0.0015635578560312625 -0.024112897114567031 0 0.0016273643248512577 -0.023749052686274096 0 0.0020626753989690153 -0.023756322472586421 0 0.0016988278858707394 -0.024466774824375738 0 0.0015635578560312625 -0.024112897114567031 0 4.6888034533753287e-05 -0.034124532427338761 0 -0.00011436297125695759 -0.034002423081224448 0 0.00046992225130885508 -0.032606331255245896 0 0.0020353301383560468 -0.024803662336709942 0 0.001803374318686167 -0.025211370158190156 0 0.0018226835437058953 -0.026122031493102982 0 -0.00011436297125695759 -0.034002423081224448 0 -0.00010835903897486276 -0.033766477104767746 0 0.00011181604749190562 -0.033217458996928365 0 0.0017475917533495309 -0.024796525772270862 0 0.0020353301383560468 -0.024803662336709942 0 0.0016988278858707394 -0.024466774824375738 0 0.0017475917533495309 -0.024796525772270862 0 0.0020353301383560468 -0.024803662336709942 0 0.001803374318686167 -0.025211370158190156 0 -0.00020789484989762415 -0.034202895129102365 0 -0.00037523666716901235 -0.034502454082600977 0 -0.00026425215479502031 -0.034373047840366953 0 4.6888034533753287e-05 -0.034124532427338761 0 -0.00011436297125695759 -0.034002423081224448 0 -0.00026425215479502031 -0.034373047840366953 0 -0.00031007336517452117 -0.034455676433795046 0 -0.00026953558421854198 -0.034456809815096801 0 -0.00026425215479502031 -0.034373047840366953 0 -0.00011436297125695759 -0.034002423081224448 0 -0.00010835903897486276 -0.033766477104767746 0 -0.00031007336517452117 -0.034455676433795046 0 -0.00026953558421854198 -0.034456809815096801 0 -0.00029995496996777597 -0.034456023729698262 0 -0.00024609350276531377 -0.034493604805819748 0 -0.00024722393209239673 -0.034456877724874171 0 -0.00022144979659006163 -0.034514111151054176 0 -0.00024609350276531377 -0.034493604805819748 0 -0.00026953558421854198 -0.034456809815096801 0 -0.00024722393209239673 -0.034456877724874171 0 -0.00024609350276531377 -0.034493604805819748 0 -0.00026953558421854198 -0.034456809815096801 0 -0.00028069939121579032 -0.034463285530284174 0 -0.00026953558421854198 -0.034456809815096801 0 -0.00028069939121579032 -0.034463285530284174 0 -0.00029995496996777597 -0.034456023729698262 0 -0.00026425215479502031 -0.034373047840366953 0 -0.00026953558421854198 -0.034456809815096801 0 -0.00024722393209239673 -0.034456877724874171 0 -0.00024722393209239673 -0.034456877724874171 0 -0.00025932772606935341 -0.034464855026363511 0 -0.00022144979659006163 -0.034514111151054176 0 -0.00026425215479502031 -0.034373047840366953 0 -0.00024722393209239673 -0.034456877724874171 0 -0.00025932772606935341 -0.034464855026363511 0 -0.00026539316556125215 -0.03449632470758042 0 -0.00026425215479502031 -0.034373047840366953 0 -0.00025932772606935341 -0.034464855026363511 0 -0.00024599173381784236 -0.034452331764567072 0 -0.00026539316556125215 -0.03449632470758042 0 -0.00025932772606935341 -0.034464855026363511 0 -0.00025932772606935341 -0.034464855026363511 0 -0.00022144979659006163 -0.034514111151054176 0 -0.00019049807919646215 -0.034523833866144681 0 -0.00024599173381784236 -0.034452331764567072 0 -0.00025932772606935341 -0.034464855026363511 0 -0.00019049807919646215 -0.034523833866144681 0 -0.00022144979659006163 -0.034514111151054176 0 -0.00014896366237367181 -0.03465712401134733 0 -0.00019049807919646215 -0.034523833866144681 0 -0.00022144979659006163 -0.034514111151054176 0 -0.00021386327615741945 -0.03455511856021061 0 -0.00014896366237367181 -0.03465712401134733 0 -0.00024609350276531377 -0.034493604805819748 0 -0.00022144979659006163 -0.034514111151054176 0 -0.00021386327615741945 -0.03455511856021061 0 -0.00021386327615741945 -0.03455511856021061 0 -0.0002020623196906817 -0.034619896151652861 0 -0.00023456918033324821 -0.034520717989584192 0 -0.00024609350276531377 -0.034493604805819748 0 -0.00021386327615741945 -0.03455511856021061 0 -0.00023456918033324821 -0.034520717989584192 0 -0.00021386327615741945 -0.03455511856021061 0 -0.0002020623196906817 -0.034619896151652861 0 -0.00014896366237367181 -0.03465712401134733 0 -0.0002020623196906817 -0.034619896151652861 0 -0.00014896366237367181 -0.03465712401134733 0 -0.00017025323604719152 -0.034749394424752736 0 -0.00014896366237367181 -0.03465712401134733 0 -0.00013931706483732948 -0.034767654253059214 0 -0.0001586997833767942 -0.03479681814331112 0 -0.00014896366237367181 -0.03465712401134733 0 -0.00010486830996311072 -0.0347697313720517 0 -0.00013931706483732948 -0.034767654253059214 0 -0.00014896366237367181 -0.03465712401134733 0 -0.00019049807919646215 -0.034523833866144681 0 -0.00015375168534311696 -0.034333081188680073 0 -0.00024599173381784236 -0.034452331764567072 0 -0.00019049807919646215 -0.034523833866144681 0 -0.00015375168534311696 -0.034333081188680073 0 -0.00016925476825864621 -0.03458373299336364 0 -0.00012627355434268565 -0.034695363160795023 0 -0.00010486830996311072 -0.0347697313720517 0 -0.00013083096965278216 -0.034795306765101369 0 -0.00013931706483732948 -0.034767654253059214 0 -0.00010902222986381883 -0.034782007305211367 0 -0.00010486830996311072 -0.0347697313720517 0 -0.00013083096965278216 -0.034795306765101369 0 -0.00013083096965278216 -0.034795306765101369 0 -0.00015114695664308772 -0.034811472725207723 0 -0.00013931706483732948 -0.034767654253059214 0 -0.00015114695664308772 -0.034811472725207723 0 -0.00013931706483732948 -0.034767654253059214 0 -0.0001586997833767942 -0.03479681814331112 0 -4.7517704861889043e-05 -0.034935937442330776 0 -1.0421102161027868e-07 -0.034999639104281451 0 -8.4843379891626836e-09 -0.035000061787591706 0 -0.00015686804207015875 -0.034854345765451759 0 -0.0001586997833767942 -0.03479681814331112 0 -0.00010885319636510169 -0.034871112146396072 0 -0.00015686804207015875 -0.034854345765451759 0 -0.00015114695664308772 -0.034811472725207723 0 -0.0001586997833767942 -0.03479681814331112 0 -8.3461991264867694e-05 -0.034925849021940139 0 -0.00015686804207015875 -0.034854345765451759 0 -0.00010885319636510169 -0.034871112146396072 0 -0.0001586997833767942 -0.03479681814331112 0 -0.00010885319636510169 -0.034871112146396072 0 -0.00017025323604719152 -0.034749394424752736 0 -0.00014896366237367181 -0.03465712401134733 0 -0.0001586997833767942 -0.03479681814331112 0 -0.00017025323604719152 -0.034749394424752736 0 -0.00017025323604719152 -0.034749394424752736 0 -0.00011592635967820289 -0.034928671355930384 0 -0.00015955803788754433 -0.034964931045805822 0 -0.0002020623196906817 -0.034619896151652861 0 -0.00017025323604719152 -0.034749394424752736 0 -0.00015091533400680529 -0.034671583969142397 0 -0.00016815979523888516 -0.034754999915837553 0 -0.00015387421289433283 -0.034816829510203789 0 -0.00017025323604719152 -0.034749394424752736 0 -9.5312903027264264e-05 -0.034863591242333743 0 -0.00011592635967820289 -0.034928671355930384 0 -9.5312903027264264e-05 -0.034863591242333743 0 -6.8217963417203993e-05 -0.0349335320451057 0 -0.00011592635967820289 -0.034928671355930384 0 -0.00010885319636510169 -0.034871112146396072 0 -0.00017025323604719152 -0.034749394424752736 0 -9.5312903027264264e-05 -0.034863591242333743 0 -0.00010885319636510169 -0.034871112146396072 0 -9.5312903027264264e-05 -0.034863591242333743 0 -4.7517704861889043e-05 -0.034935937442330776 0 -4.7517704861889043e-05 -0.034935937442330776 0 -6.8217963417203993e-05 -0.0349335320451057 0 -4.4625384501218375e-05 -0.034974652767138702 0 -9.5312903027264264e-05 -0.034863591242333743 0 -4.7517704861889043e-05 -0.034935937442330776 0 -6.8217963417203993e-05 -0.0349335320451057 0 -8.3461991264867694e-05 -0.034925849021940139 0 -0.00010885319636510169 -0.034871112146396072 0 -1.0421102161027868e-07 -0.034999639104281451 0 -0.00010885319636510169 -0.034871112146396072 0 -4.7517704861889043e-05 -0.034935937442330776 0 -1.0421102161027868e-07 -0.034999639104281451 0 -3.4599709530275e-05 -0.018600113931131264 0 -0.0005073140413546978 -0.018632478649353162 0 -0.00030224019776668427 -0.017980744290467129 0 -3.4599709530275e-05 -0.018600113931131264 0 0.00020678783332136512 -0.018219614446937562 0 -0.00030224019776668427 -0.017980744290467129 0 -3.4599709530275e-05 -0.018600113931131264 0 0.00020678783332136512 -0.018219614446937562 0 0.00030692344552307353 -0.018682187802340575 0 0.00020678783332136512 -0.018219614446937562 0 0.00069956902057485642 -0.018269140238003623 0 0.00030692344552307353 -0.018682187802340575 0 0.00057310750748601252 -0.019319181756202425 0 0.00038956251319785919 -0.019923615014094145 0 0.00030692344552307353 -0.018682187802340575 0 0.00057994125818829599 -0.019298327557833641 0 8.0267313619717268e-05 -0.019095617994355031 0 0.00028434998764094487 -0.02044089340504297 0 0.0003590683490696164 -0.020494604461514344 0 0.00038277833669875987 -0.020481692326317073 0 0.00069956902057485642 -0.018269140238003623 0 0.00030692344552307353 -0.018682187802340575 0 0.00057994125818829599 -0.019298327557833641 0 0.00041325880017632088 -0.020559674383126419 0 0.00028434998764094487 -0.02044089340504297 0 0.0003590683490696164 -0.020494604461514344 0 0.00057994125818829599 -0.019298327557833641 0 8.0267313619717268e-05 -0.019095617994355031 0 9.6042966352570284e-05 -0.019623299632551414 0 8.0267313619717268e-05 -0.019095617994355031 0 -0.00019497984293187482 -0.019573987200557575 0 9.6042966352570284e-05 -0.019623299632551414 0 -3.4599709530275e-05 -0.018600113931131264 0 0.00030692344552307353 -0.018682187802340575 0 8.0267313619717268e-05 -0.019095617994355031 0 -3.4599709530275e-05 -0.018600113931131264 0 8.0267313619717268e-05 -0.019095617994355031 0 -0.00035399055004570965 -0.019081025639827859 0 -3.4599709530275e-05 -0.018600113931131264 0 -0.00035399055004570965 -0.019081025639827859 0 -0.0005073140413546978 -0.018632478649353162 0 8.0267313619717268e-05 -0.019095617994355031 0 -0.00035399055004570965 -0.019081025639827859 0 -0.00019497984293187482 -0.019573987200557575 0 -0.00070304530640718957 -0.019254010119764273 0 -0.0011191375227227387 -0.018921400750019985 0 -0.0005073140413546978 -0.018632478649353162 0 -0.00035399055004570965 -0.019081025639827859 0 -0.00070304530640718957 -0.019254010119764273 0 -0.00055197990532219457 -0.019752342779425693 0 -0.00035399055004570965 -0.019081025639827859 0 -0.00070304530640718957 -0.019254010119764273 0 -0.0005073140413546978 -0.018632478649353162 0 -0.00070304530640718957 -0.019254010119764273 0 -0.0011191375227227387 -0.018921400750019985 0 -0.00095273605451912493 -0.019827943210753259 0 -0.001694780927603196 -0.018353140048428775 0 -0.0011191375227227387 -0.018921400750019985 0 -0.00095298179415292874 -0.018345547356617229 0 -0.0013556743023645263 -0.017940766040578704 0 -0.00095298179415292874 -0.018345547356617229 0 -0.00082208687523611381 -0.017836143829048339 0 -0.001694780927603196 -0.018353140048428775 0 -0.0013556743023645263 -0.017940766040578704 0 -0.00095298179415292874 -0.018345547356617229 0 -0.00095298179415292874 -0.018345547356617229 0 -0.0005073140413546978 -0.018632478649353162 0 -0.00030224019776668427 -0.017980744290467129 0 -0.0011191375227227387 -0.018921400750019985 0 -0.00095298179415292874 -0.018345547356617229 0 -0.0005073140413546978 -0.018632478649353162 0 -0.00095298179415292874 -0.018345547356617229 0 -0.00082208687523611381 -0.017836143829048339 0 -0.00030224019776668427 -0.017980744290467129 0 -0.00082208687523611381 -0.017836143829048339 0 -0.00059030213803792355 -0.017407187439739149 0 -0.00030224019776668427 -0.017980744290467129 0 -0.0013556743023645263 -0.017940766040578704 0 -0.00082208687523611381 -0.017836143829048339 0 -0.0011530768682875647 -0.01747142169241632 0 -0.00082208687523611381 -0.017836143829048339 0 -0.0011530768682875647 -0.01747142169241632 0 -0.00059030213803792355 -0.017407187439739149 0 -0.0011064016507244729 -0.016963354974284608 0 -0.0011530768682875647 -0.01747142169241632 0 -0.00059030213803792355 -0.017407187439739149 0 -0.00022755806447389231 -0.016912554535327719 0 -0.00059030213803792355 -0.017407187439739149 0 7.8490389179427352e-06 -0.017324032024471761 0 -0.00022755806447389231 -0.016912554535327719 0 -0.0011064016507244729 -0.016963354974284608 0 -0.00059030213803792355 -0.017407187439739149 0 7.8490389179427352e-06 -0.017324032024471761 0 -0.00030224019776668427 -0.017980744290467129 0 0.00020675249369968439 -0.01779199863910692 0 0.00020678783332136512 -0.018219614446937562 0 -0.00030224019776668427 -0.017980744290467129 0 0.00020675249369968439 -0.01779199863910692 0 -0.00059030213803792355 -0.017407187439739149 0 7.8490389179427352e-06 -0.017324032024471761 0 -0.00030224019776668427 -0.017980744290467129 0 0.00069956902057485642 -0.018269140238003623 0 0.00040503651820780891 -0.017528063353380158 0 0.00074738732639380821 -0.017472572179504504 0 0.00069956902057485642 -0.018269140238003623 0 0.00020675249369968439 -0.01779199863910692 0 0.00040503651820780891 -0.017528063353380158 0 0.00020678783332136512 -0.018219614446937562 0 0.00069956902057485642 -0.018269140238003623 0 0.00020675249369968439 -0.01779199863910692 0 0.00040503651820780891 -0.017528063353380158 0 0.0002985919347944316 -0.017173106418551038 0 0.00074738732639380821 -0.017472572179504504 0 7.8490389179427352e-06 -0.017324032024471761 0 0.00040503651820780891 -0.017528063353380158 0 0.0002985919347944316 -0.017173106418551038 0 7.8490389179427352e-06 -0.017324032024471761 0 0.00020675249369968439 -0.01779199863910692 0 0.00040503651820780891 -0.017528063353380158 0 0.00043266963235324605 -0.020645760884376037 0 0.00039099281229404371 -0.020636599648451985 0 0.00039687452387566829 -0.020627366520567826 0 0.00035581442345654373 -0.02096779519258319 0 0.00049803798386469176 -0.019585200054708617 0 0.00039099281229404371 -0.020636599648451985 0 0.00039687452387566829 -0.020627366520567826 0 0.00038900539872497865 -0.020656902710501 0 0.00039687452387566829 -0.020627366520567826 0 0.00037419802413374547 -0.020587296832668793 0 0.00038900539872497865 -0.020656902710501 0 0.00037419802413374547 -0.020587296832668793 0 0.00038900539872497865 -0.020656902710501 0 0.00042385796892320776 -0.020734508299758845 0 0.00038900539872497865 -0.020656902710501 0 0.00042385796892320776 -0.020734508299758845 0 0.00038879111741492775 -0.020630007627186035 0 0.00042385796892320776 -0.020734508299758845 0 0.00038879111741492775 -0.020630007627186035 0 0.00034517958537909528 -0.020539552496671592 0 0.00057310750748601252 -0.019319181756202425 0 0.00049803798386469176 -0.019585200054708617 0 0.00041325880017632088 -0.020559674383126419 0 0.00041030891035005599 -0.020688077971688056 0 0.00038879111741492775 -0.020630007627186035 0 0.00049803798386469176 -0.019585200054708617 0 0.00050188547983658039 -0.020881819087212119 0 0.00039099281229404371 -0.020636599648451985 0 0.00038900539872497865 -0.020656902710501 0 0.00038879111741492775 -0.020630007627186035 0 0.00017791903853249402 -0.031323284967278348 0 0.00022279847381226404 -0.031313835062074517 0 0.0010068767211520251 -0.027871196293242806 0 0.0009046194198881239 -0.027714301955984261 0 0.00019468922619218017 -0.031336827622016859 0 6.8361857056352312e-05 -0.030515951680768996 0 -4.3022273036307541e-05 -0.030750654144844458 0 0.00174760943607734 -0.024873180998113788 0 0.0017583530888966772 -0.024695913969277429 0 0.0016833429919633192 -0.024565121775373726 0 0.0001682465755107878 -0.031338699327591951 0 0.00019468922619218017 -0.031336827622016859 0 -4.3022273036307541e-05 -0.030750654144844458 0 0.0001682465755107878 -0.031338699327591951 0 0.00056772008562342119 -0.031680432852344731 0 0.00048087470795187226 -0.031861086934753043 0 0.0001682465755107878 -0.031338699327591951 0 0.00047481926535245048 -0.031404885536619603 0 0.00056772008562342119 -0.031680432852344731 0 0.00174760943607734 -0.024873180998113788 0 0.0017583530888966772 -0.024695913969277429 0 0.0018026805140210849 -0.024767901096426834 0 0.0019769710835250975 -0.024856493478919998 0 0.0018968453986466876 -0.024721240566079244 0 0.0019704213523513339 -0.024455832501920724 0 0.0011872054872336466 -0.022823596641009778 0 0.0012781391344730243 -0.022638554022811785 0 0.0017583530888966772 -0.024695913969277429 0 0.0018107003437759508 -0.024703591767818917 0 0.001818931963060306 -0.0246267060079132 0 0.0018107003437759508 -0.024703591767818917 0 0.0018968453986466876 -0.024721240566079244 0 0.001818931963060306 -0.0246267060079132 0 0.0018107003437759508 -0.024703591767818917 0 0.0018026805140210849 -0.024767901096426834 0 0.0018968453986466876 -0.024721240566079244 0 0.0017583530888966772 -0.024695913969277429 0 0.0018107003437759508 -0.024703591767818917 0 0.0018026805140210849 -0.024767901096426834 0 0.00174760943607734 -0.024873180998113788 0 0.0018026805140210849 -0.024767901096426834 0 0.0018137419819176993 -0.024837103218224708 0 0.0018137419819176993 -0.024837103218224708 0 0.0018719041367159922 -0.024860395292355879 0 0.0018968453986466876 -0.024721240566079244 0 0.0018026805140210849 -0.024767901096426834 0 0.0018137419819176993 -0.024837103218224708 0 0.0018968453986466876 -0.024721240566079244 0 0.0019769710835250975 -0.024856493478919998 0 0.0018719041367159922 -0.024860395292355879 0 0.0018968453986466876 -0.024721240566079244 0 0.00037419802413374547 -0.020587296832668793 0 0.00042385796892320776 -0.020734508299758845 0 0.00058878836577454512 -0.020874199375085022 0 0.00042385796892320776 -0.020734508299758845 0 0.00058878836577454512 -0.020874199375085022 0 0.00046746912914770483 -0.021281055031170761 0 0.0018968453986466876 -0.024721240566079244 0 0.0019704213523513339 -0.024455832501920724 0 0.0018831921672465089 -0.024526877697905639 0 0.0019704213523513339 -0.024455832501920724 0 0.0018831921672465089 -0.024526877697905639 0 0.0015525183684614839 -0.024080205610865876 0 0.0018968453986466876 -0.024721240566079244 0 0.0018831921672465089 -0.024526877697905639 0 0.001818931963060306 -0.0246267060079132 0 0.0018831921672465089 -0.024526877697905639 0 0.001818931963060306 -0.0246267060079132 0 0.0017956805460017443 -0.024557971511065386 0 0.0017583530888966772 -0.024695913969277429 0 0.0017582507679018565 -0.024600337154301016 0 0.0016833429919633192 -0.024565121775373726 0 0.0017583530888966772 -0.024695913969277429 0 0.001818931963060306 -0.0246267060079132 0 0.0017582507679018565 -0.024600337154301016 0 0.001818931963060306 -0.0246267060079132 0 0.0017582507679018565 -0.024600337154301016 0 0.0017956805460017443 -0.024557971511065386 0 0.0017582507679018565 -0.024600337154301016 0 0.0017956805460017443 -0.024557971511065386 0 0.0017441840002957109 -0.024559448626042948 0 0.0018831921672465089 -0.024526877697905639 0 0.0017956805460017443 -0.024557971511065386 0 0.0017048639377138235 -0.024514981167778092 0 0.0017582507679018565 -0.024600337154301016 0 0.0017441840002957109 -0.024559448626042948 0 0.0016833429919633192 -0.024565121775373726 0 0.0019143128701547534 -0.024568606318420835 0 0.0015571506023433299 -0.024114891882365028 0 0.0017956805460017443 -0.024557971511065386 0 0.0017441840002957109 -0.024559448626042948 0 0.0017048639377138235 -0.024514981167778092 0 0.0017441840002957109 -0.024559448626042948 0 0.0016833429919633192 -0.024565121775373726 0 0.0017048639377138235 -0.024514981167778092 0 0.0016536558832040123 -0.024498635469250352 0 0.0016833429919633192 -0.024565121775373726 0 0.0017048639377138235 -0.024514981167778092 0 0.0012368050118874998 -0.023675094003529022 0 0.0015525183684614839 -0.024080205610865876 0 0.0015164884484217295 -0.023734768015577556 0 0.00059398237062741044 -0.026454680635037916 0 0.0015571506023433299 -0.024114891882365028 0 0.0015525183684614839 -0.024080205610865876 0 0.001825088001855641 -0.023612801613423818 0 0.0015164884484217295 -0.023734768015577556 0 0.0012781391344730243 -0.022638554022811785 0 0.0014059850446689682 -0.022658793200324538 0 0.0019704213523513339 -0.024455832501920724 0 0.0015525183684614839 -0.024080205610865876 0 0.001825088001855641 -0.023612801613423818 0 0.00058878836577454512 -0.020874199375085022 0 0.00046746912914770483 -0.021281055031170761 0 0.0010110428155361353 -0.021649810345839484 0 0.00046746912914770483 -0.021281055031170761 0 0.0010110428155361353 -0.021649810345839484 0 0.00039182033820384825 -0.021682041689388452 0 0.0010110428155361353 -0.021649810345839484 0 0.00039182033820384825 -0.021682041689388452 0 0.00067298482549577282 -0.022392133295953145 0 0.001825088001855641 -0.023612801613423818 0 0.001484680932367078 -0.023444130289876134 0 0.0015164884484217295 -0.023734768015577556 0 0.001825088001855641 -0.023612801613423818 0 0.001484680932367078 -0.023444130289876134 0 0.0015150211673902027 -0.023261814190701301 0 0.0013210585464225007 -0.023476978009570975 0 0.001484680932367078 -0.023444130289876134 0 0.0015164884484217295 -0.023734768015577556 0 0.00041325880017632088 -0.020559674383126419 0 0.00034517958537909528 -0.020539552496671592 0 0.0003590683490696164 -0.020494604461514344 0 0.00041325880017632088 -0.020559674383126419 0 0.00038879111741492775 -0.020630007627186035 0 0.00034517958537909528 -0.020539552496671592 0 0.00039944592696837582 -0.020739733912449487 0 0.00021804260904722476 -0.020988122356417498 0 0.00042385796892320776 -0.020734508299758845 0 0.00046746912914770483 -0.021281055031170761 0 3.3124901056457024e-05 -0.021457620258085005 0 0.00046746912914770483 -0.021281055031170761 0 3.3124901056457024e-05 -0.021457620258085005 0 0.00039182033820384825 -0.021682041689388452 0 3.3124901056457024e-05 -0.021457620258085005 0 0.00039182033820384825 -0.021682041689388452 0 3.7315300404153753e-05 -0.021787616530661139 0 0.00039182033820384825 -0.021682041689388452 0 3.7315300404153753e-05 -0.021787616530661139 0 0.00067298482549577282 -0.022392133295953145 0 0.00034517958537909528 -0.020539552496671592 0 0.0003590683490696164 -0.020494604461514344 0 0.00038277833669875987 -0.020481692326317073 0 3.3124901056457024e-05 -0.021457620258085005 0 3.7315300404153753e-05 -0.021787616530661139 0 9.4046346984545331e-05 -0.021726980213495565 0 0.00021804260904722476 -0.020988122356417498 0 0.00021052478668933772 -0.021099361624766291 0 9.4046346984545331e-05 -0.021726980213495565 0 9.4551772430571636e-05 -0.021606496090725208 0 9.3641289507225058e-05 -0.021450734420923715 0 3.7315300404153753e-05 -0.021787616530661139 0 9.4046346984545331e-05 -0.021726980213495565 0 9.4551772430571636e-05 -0.021606496090725208 0 7.5214740510495806e-05 -0.0219069853665282 0 0.00027672013717658611 -0.022226793090829648 0 3.7315300404153753e-05 -0.021787616530661139 0 9.4551772430571636e-05 -0.021606496090725208 0 0.00021603186954249909 -0.021491086131304533 0 3.7315300404153753e-05 -0.021787616530661139 0 0.00032469457135205057 -0.023180206294533746 0 0.00067298482549577282 -0.022392133295953145 0 9.4551772430571636e-05 -0.021606496090725208 0 0.00021603186954249909 -0.021491086131304533 0 9.3641289507225058e-05 -0.021450734420923715 0 0.00021603186954249909 -0.021491086131304533 0 9.3641289507225058e-05 -0.021450734420923715 0 0.00019991957421751632 -0.021583189664495975 0 9.4046346984545331e-05 -0.021726980213495565 0 9.3641289507225058e-05 -0.021450734420923715 0 4.9072124114542652e-05 -0.021142928243008015 0 9.3641289507225058e-05 -0.021450734420923715 0 8.1091814406484498e-05 -0.021538690289112143 0 4.9072124114542652e-05 -0.021142928243008015 0 0.0014059850446689682 -0.022658793200324538 0 0.0014825631685365648 -0.022958319841602806 0 0.001825088001855641 -0.023612801613423818 0 0.0015150211673902027 -0.023261814190701301 0 0.0014738103040838279 -0.022980840332725135 0 0.0015250276456762683 -0.023058712553119143 0 0.0016088243217783973 -0.023198725099850818 0 0.0014738103040838279 -0.022980840332725135 0 0.0015250276456762683 -0.023058712553119143 0 0.0015150211673902027 -0.023261814190701301 0 0.0014738103040838279 -0.022980840332725135 0 0.0015250276456762683 -0.023058712553119143 0 0.001403549855242792 -0.023297082936594556 0 0.0015150211673902027 -0.023261814190701301 0 0.001403549855242792 -0.023297082936594556 0 0.001484680932367078 -0.023444130289876134 0 0.0015150211673902027 -0.023261814190701301 0 0.0014738103040838279 -0.022980840332725135 0 0.00067298482549577282 -0.022392133295953145 0 0.00088869716116130233 -0.023078085570711417 0 0.0010110428155361353 -0.021649810345839484 0 0.0014738103040838279 -0.022980840332725135 0 0.00067298482549577282 -0.022392133295953145 0 0.00032469457135205057 -0.023180206294533746 0 0.00067298482549577282 -0.022392133295953145 0 0.00088869716116130233 -0.023078085570711417 0 0.00032469457135205057 -0.023180206294533746 0 0.0010574631373654248 -0.023478647793232301 0 0.00096642004451974841 -0.02380492570607529 0 0.00032469457135205057 -0.023180206294533746 0 0.00088869716116130233 -0.023078085570711417 0 0.0010574631373654248 -0.023478647793232301 0 0.0014738103040838279 -0.022980840332725135 0 0.00088869716116130233 -0.023078085570711417 0 0.0014088712288373344 -0.023317956848786063 0 0.00088869716116130233 -0.023078085570711417 0 0.0014088712288373344 -0.023317956848786063 0 0.0010574631373654248 -0.023478647793232301 0 0.0010574631373654248 -0.023478647793232301 0 0.0014145525068835322 -0.023604213882467747 0 0.0012145703353276234 -0.023763478880587528 0 0.0014088712288373344 -0.023317956848786063 0 0.0010574631373654248 -0.023478647793232301 0 0.0014145525068835322 -0.023604213882467747 0 0.0010574631373654248 -0.023478647793232301 0 0.0012145703353276234 -0.023763478880587528 0 0.00096642004451974841 -0.02380492570607529 0 0.0016698538798032936 -0.023479214780046026 0 0.0014088712288373344 -0.023317956848786063 0 0.0014145525068835322 -0.023604213882467747 0 0.0016698538798032936 -0.023479214780046026 0 0.0014145525068835322 -0.023604213882467747 0 0.0016273643248512577 -0.023749052686274096 0 0.0016088243217783973 -0.023198725099850818 0 0.0016698538798032936 -0.023479214780046026 0 0.0014088712288373344 -0.023317956848786063 0 0.0016088243217783973 -0.023198725099850818 0 0.0014738103040838279 -0.022980840332725135 0 0.0014088712288373344 -0.023317956848786063 0 0.0016988278858707394 -0.024466774824375738 0 0.001457600646896611 -0.024360811137530695 0 0.0012825378189588418 -0.024624353427050549 0 0.0016988278858707394 -0.024466774824375738 0 0.001457600646896611 -0.024360811137530695 0 0.0015635578560312625 -0.024112897114567031 0 0.001457600646896611 -0.024360811137530695 0 0.0012813435690933878 -0.02425557318166922 0 0.0012825378189588418 -0.024624353427050549 0 0.0015635578560312625 -0.024112897114567031 0 0.0012482802186663602 -0.023989918710393191 0 0.0012813435690933878 -0.02425557318166922 0 0.001457600646896611 -0.024360811137530695 0 0.0015635578560312625 -0.024112897114567031 0 0.0012813435690933878 -0.02425557318166922 0 0.0015635578560312625 -0.024112897114567031 0 0.0016273643248512577 -0.023749052686274096 0 0.0014275009175287168 -0.02384847010983325 0 0.0014145525068835322 -0.023604213882467747 0 0.0016273643248512577 -0.023749052686274096 0 0.0014275009175287168 -0.02384847010983325 0 0.0015635578560312625 -0.024112897114567031 0 0.0014275009175287168 -0.02384847010983325 0 0.0012482802186663602 -0.023989918710393191 0 0.0014145525068835322 -0.023604213882467747 0 0.0014275009175287168 -0.02384847010983325 0 0.0012145703353276234 -0.023763478880587528 0 0.0014275009175287168 -0.02384847010983325 0 0.0012482802186663602 -0.023989918710393191 0 0.0012145703353276234 -0.023763478880587528 0 0.0012482802186663602 -0.023989918710393191 0 0.0012145703353276234 -0.023763478880587528 0 0.00096642004451974841 -0.02380492570607529 0 0.0012482802186663602 -0.023989918710393191 0 0.001088153061685908 -0.024125966335208637 0 0.00096642004451974841 -0.02380492570607529 0 0.001088153061685908 -0.024125966335208637 0 0.0010651737762441165 -0.024327318184294212 0 0.00088679480645716667 -0.024258871855601969 0 0.001088153061685908 -0.024125966335208637 0 0.0012813435690933878 -0.02425557318166922 0 0.0010651737762441165 -0.024327318184294212 0 0.0010651737762441165 -0.024327318184294212 0 0.00079929598980329065 -0.024344871158775434 0 0.0012825378189588418 -0.024624353427050549 0 0.0012482802186663602 -0.023989918710393191 0 0.001088153061685908 -0.024125966335208637 0 0.0012813435690933878 -0.02425557318166922 0 0.0012813435690933878 -0.02425557318166922 0 0.0010651737762441165 -0.024327318184294212 0 0.0012825378189588418 -0.024624353427050549 0 0.00027672013717658611 -0.022226793090829648 0 0.00059508298236985628 -0.023717011886238579 0 0.00032469457135205057 -0.023180206294533746 0 0.00081807940958613691 -0.024341183408731322 0 0.00088679480645716667 -0.024258871855601969 0 0.00032469457135205057 -0.023180206294533746 0 0.00088679480645716667 -0.024258871855601969 0 0.00096642004451974841 -0.02380492570607529 0 0.00021603186954249909 -0.021491086131304533 0 0.0005893416875798487 -0.021749155971283751 0 0.00033246235754260647 -0.021653761069440773 0 0.0010651737762441165 -0.024327318184294212 0 0.00079929598980329065 -0.024344871158775434 0 0.00088679480645716667 -0.024258871855601969 0 0.00059508298236985628 -0.023717011886238579 0 0.00058520656840686358 -0.023771152746678726 0 0.001088153061685908 -0.024125966335208637 0 0.00088679480645716667 -0.024258871855601969 0 0.00096642004451974841 -0.02380492570607529 0 0.0005893416875798487 -0.021749155971283751 0 0.00042834201874820434 -0.021806034877867368 0 0.00033246235754260647 -0.021653761069440773 0 0.00014560530093993135 -0.025506610704665863 0 -0.00036385913318409799 -0.026154218062950863 0 7.5888225992388244e-05 -0.02641821024704966 0 0.00014560530093993135 -0.025506610704665863 0 0.0005445239793582374 -0.026203810242518 0 7.5888225992388244e-05 -0.02641821024704966 0 0.0005893416875798487 -0.021749155971283751 0 0.00042834201874820434 -0.021806034877867368 0 0.00046984709633526579 -0.022031076024267109 0 0.00059508298236985628 -0.023717011886238579 0 -2.1530091754687499e-05 -0.024175733795086144 0 0.00079929598980329065 -0.024344871158775434 0 0.0012825378189588418 -0.024624353427050549 0 0.0011816461149285651 -0.025261497002550513 0 0.00059508298236985628 -0.023717011886238579 0 0.00071460526283065415 -0.025319752117781518 0 0.0011816461149285651 -0.025261497002550513 0 0.0015583057915499752 -0.025056296563501161 0 0.0016231125524384584 -0.025588108022786563 0 0.0012825378189588418 -0.024624353427050549 0 0.0011816461149285651 -0.025261497002550513 0 0.0015583057915499752 -0.025056296563501161 0 0.001803374318686167 -0.025211370158190156 0 0.0015583057915499752 -0.025056296563501161 0 0.0016231125524384584 -0.025588108022786563 0 0.0017475917533495309 -0.024796525772270862 0 0.001803374318686167 -0.025211370158190156 0 0.0015583057915499752 -0.025056296563501161 0 0.0017475917533495309 -0.024796525772270862 0 0.0016988278858707394 -0.024466774824375738 0 0.0012825378189588418 -0.024624353427050549 0 0.0017475917533495309 -0.024796525772270862 0 0.0012825378189588418 -0.024624353427050549 0 0.0015583057915499752 -0.025056296563501161 0 8.1091814406484498e-05 -0.021538690289112143 0 0.00019991957421751632 -0.021583189664495975 0 0.00023356789202808151 -0.021783950281449704 0 9.3641289507225058e-05 -0.021450734420923715 0 8.1091814406484498e-05 -0.021538690289112143 0 0.00019991957421751632 -0.021583189664495975 0 0.00021603186954249909 -0.021491086131304533 0 0.00019991957421751632 -0.021583189664495975 0 0.00033246235754260647 -0.021653761069440773 0 0.00019991957421751632 -0.021583189664495975 0 0.00033246235754260647 -0.021653761069440773 0 0.00031661281368992286 -0.021743547911261159 0 0.00042834201874820434 -0.021806034877867368 0 0.00033246235754260647 -0.021653761069440773 0 0.00031661281368992286 -0.021743547911261159 0 0.00019991957421751632 -0.021583189664495975 0 0.00031661281368992286 -0.021743547911261159 0 0.00023356789202808151 -0.021783950281449704 0 0.00039147213041952541 -0.021908188608307236 0 0.00020446386913853338 -0.022084197042365007 0 0.00039322803401679678 -0.022444434304460109 0 0.00046984709633526579 -0.022031076024267109 0 0.00039147213041952541 -0.021908188608307236 0 0.00017354493280448446 -0.022416103335358453 0 0.00031661281368992286 -0.021743547911261159 0 0.00023356789202808151 -0.021783950281449704 0 0.00039147213041952541 -0.021908188608307236 0 0.00023356789202808151 -0.021783950281449704 0 0.00039147213041952541 -0.021908188608307236 0 0.00020446386913853338 -0.022084197042365007 0 0.00042834201874820434 -0.021806034877867368 0 0.00031661281368992286 -0.021743547911261159 0 0.00039147213041952541 -0.021908188608307236 0 0.00042834201874820434 -0.021806034877867368 0 0.00046984709633526579 -0.022031076024267109 0 0.00039147213041952541 -0.021908188608307236 0 8.1091814406484498e-05 -0.021538690289112143 0 0.00023356789202808151 -0.021783950281449704 0 -6.5904247799122474e-05 -0.021940050083943195 0 0.00020446386913853338 -0.022084197042365007 0 -6.5904247799122474e-05 -0.021940050083943195 0 1.3433527098642604e-05 -0.022421862758809918 0 0.00023356789202808151 -0.021783950281449704 0 0.00020446386913853338 -0.022084197042365007 0 -6.5904247799122474e-05 -0.021940050083943195 0 -6.5904247799122474e-05 -0.021940050083943195 0 -0.00070877804789571265 -0.022116066505982877 0 -0.00032637964331897178 -0.021677409699371056 0 -0.00070877804789571265 -0.022116066505982877 0 -0.00087794463229463307 -0.021497753789876634 0 -0.00032637964331897178 -0.021677409699371056 0 -0.00070877804789571265 -0.022116066505982877 0 -0.00087794463229463307 -0.021497753789876634 0 -0.0014302617392731943 -0.022118979855426619 0 -0.00087794463229463307 -0.021497753789876634 0 -0.00032637964331897178 -0.021677409699371056 0 4.9072124114542652e-05 -0.021142928243008015 0 8.1091814406484498e-05 -0.021538690289112143 0 -0.00032637964331897178 -0.021677409699371056 0 4.9072124114542652e-05 -0.021142928243008015 0 8.1091814406484498e-05 -0.021538690289112143 0 -6.5904247799122474e-05 -0.021940050083943195 0 -0.00032637964331897178 -0.021677409699371056 0 0.00038277833669875987 -0.020481692326317073 0 -5.4209619171295238e-05 -0.020762103728411516 0 4.9072124114542652e-05 -0.021142928243008015 0 0.00021052478668933772 -0.021099361624766291 0 7.1478544715105157e-05 -0.02116857996251903 0 -0.00059518457054748048 -0.021135159604724348 0 -2.4530280941856924e-05 -0.020446776467597801 0 -0.00034216679915306656 -0.020779623811547732 0 -0.00025898023231393184 -0.020322229930515946 0 -0.00052692783071431142 -0.020249884884926274 0 -0.00087794463229463307 -0.021497753789876634 0 -5.4209619171295238e-05 -0.020762103728411516 0 4.9072124114542652e-05 -0.021142928243008015 0 -0.00034216679915306656 -0.020779623811547732 0 3.0580149721922416e-05 -0.0204131535845304 0 -0.00025898023231393184 -0.020322229930515946 0 -0.00087794463229463307 -0.021497753789876634 0 -5.4209619171295238e-05 -0.020762103728411516 0 3.0580149721922416e-05 -0.0204131535845304 0 -0.00025898023231393184 -0.020322229930515946 0 -0.00033877850250064518 -0.019993970206279511 0 -0.00052692783071431142 -0.020249884884926274 0 3.0580149721922416e-05 -0.0204131535845304 0 -0.00013320581717533495 -0.019993461521354228 0 9.6042966352570284e-05 -0.019623299632551414 0 3.0580149721922416e-05 -0.0204131535845304 0 -0.00025898023231393184 -0.020322229930515946 0 -0.00013320581717533495 -0.019993461521354228 0 -0.00013320581717533495 -0.019993461521354228 0 -0.00033877850250064518 -0.019993970206279511 0 -0.00019497984293187482 -0.019573987200557575 0 -0.00025898023231393184 -0.020322229930515946 0 -0.00013320581717533495 -0.019993461521354228 0 -0.00033877850250064518 -0.019993970206279511 0 -0.00035399055004570965 -0.019081025639827859 0 -0.00019497984293187482 -0.019573987200557575 0 -0.00055197990532219457 -0.019752342779425693 0 -0.00033877850250064518 -0.019993970206279511 0 -0.00019497984293187482 -0.019573987200557575 0 -0.00055197990532219457 -0.019752342779425693 0 -0.00013320581717533495 -0.019993461521354228 0 -0.00019497984293187482 -0.019573987200557575 0 9.6042966352570284e-05 -0.019623299632551414 0 0.00038956251319785919 -0.019923615014094145 0 1.5003500822084603e-05 -0.020697935431644256 0 0.00028434998764094487 -0.02044089340504297 0 0.00038277833669875987 -0.020481692326317073 0 -5.4209619171295238e-05 -0.020762103728411516 0 0.00057994125818829599 -0.019298327557833641 0 -5.4209619171295238e-05 -0.020762103728411516 0 3.0580149721922416e-05 -0.0204131535845304 0 0.00057994125818829599 -0.019298327557833641 0 3.0580149721922416e-05 -0.0204131535845304 0 9.6042966352570284e-05 -0.019623299632551414 0 -0.0015194548789854122 -0.01948148606038538 0 -0.0011191375227227387 -0.018921400750019985 0 -0.00095273605451912493 -0.019827943210753259 0 -0.0015194548789854122 -0.01948148606038538 0 -0.00095273605451912493 -0.019827943210753259 0 -0.0014171767601376961 -0.020301777735089441 0 -0.00070304530640718957 -0.019254010119764273 0 -0.00095273605451912493 -0.019827943210753259 0 -0.00055197990532219457 -0.019752342779425693 0 -0.00033877850250064518 -0.019993970206279511 0 -0.00055197990532219457 -0.019752342779425693 0 -0.00052692783071431142 -0.020249884884926274 0 -0.00095273605451912493 -0.019827943210753259 0 -0.00055197990532219457 -0.019752342779425693 0 -0.00052692783071431142 -0.020249884884926274 0 -0.00095273605451912493 -0.019827943210753259 0 -0.00052692783071431142 -0.020249884884926274 0 -0.00091432393643846636 -0.020628475970652083 0 -0.00034216679915306656 -0.020779623811547732 0 -0.00052692783071431142 -0.020249884884926274 0 -0.00091432393643846636 -0.020628475970652083 0 -0.00095273605451912493 -0.019827943210753259 0 -0.0014171767601376961 -0.020301777735089441 0 -0.00091432393643846636 -0.020628475970652083 0 -0.0015183465178809719 -0.021025822785501237 0 -0.00091432393643846636 -0.020628475970652083 0 -0.00081584653669673226 -0.021506254802904978 0 -0.0015183465178809719 -0.021025822785501237 0 -0.0014171767601376961 -0.020301777735089441 0 -0.00091432393643846636 -0.020628475970652083 0 -0.00034216679915306656 -0.020779623811547732 0 -0.00091432393643846636 -0.020628475970652083 0 -0.00081584653669673226 -0.021506254802904978 0 -0.00059518457054748048 -0.021135159604724348 0 -0.0011300265110094549 -0.021819394821944251 0 -0.0015183465178809719 -0.021025822785501237 0 -0.00081584653669673226 -0.021506254802904978 0 -0.0017348330281515992 -0.021711315746769325 0 -0.00081584653669673226 -0.021506254802904978 0 -0.0012956897646248247 -0.022157597722834398 0 -0.0017348330281515992 -0.021711315746769325 0 -0.0011300265110094549 -0.021819394821944251 0 -0.0016332158263566718 -0.022506804642438309 0 -0.0014302617392731943 -0.022118979855426619 0 -0.0019960980375245863 -0.022856752294964894 0 -0.0010623228474232038 -0.022876928250335472 0 -0.0019960980375245863 -0.022856752294964894 0 -0.0014649368283340867 -0.023358497806751546 0 -0.0010623228474232038 -0.022876928250335472 0 -0.0019960980375245863 -0.022856752294964894 0 -0.0014649368283340867 -0.023358497806751546 0 -0.0019506250836291315 -0.023685967091680294 0 -0.0019960980375245863 -0.022856752294964894 0 -0.0019506250836291315 -0.023685967091680294 0 -0.0023202977850232541 -0.023555564025880424 0 -0.0014649368283340867 -0.023358497806751546 0 -0.0013495484563669634 -0.023969255595880937 0 -0.0019506250836291315 -0.023685967091680294 0 -0.0014649368283340867 -0.023358497806751546 0 -0.0013495484563669634 -0.023969255595880937 0 -0.00090042466413320994 -0.023515790655532217 0 -0.0015230274516279713 -0.023913680383661838 0 -0.0019079456901017683 -0.023713340799632051 0 -0.0017176041488422096 -0.023818457800706693 0 -0.0019506250836291315 -0.023685967091680294 0 -0.0021759096774847005 -0.024166392740771654 0 -0.0019506250836291315 -0.023685967091680294 0 -0.0021759096774847005 -0.024166392740771654 0 -0.0022244304019575427 -0.023737650891290665 0 -0.0019506250836291315 -0.023685967091680294 0 -0.0023202977850232541 -0.023555564025880424 0 -0.0022244304019575427 -0.023737650891290665 0 -0.0011168692291986331 -0.026004233934985962 0 -0.0016093693429053305 -0.026122685566268049 0 -0.001005494224696238 -0.026403669053696358 0 -0.0011168692291986331 -0.026004233934985962 0 -0.00076929291592638203 -0.025781521484794616 0 -0.001005494224696238 -0.026403669053696358 0 -0.0014910401149375401 -0.024902970454607373 0 -0.00076181331018490756 -0.02463817131228906 0 -0.0011168692291986331 -0.026004233934985962 0 -0.0016093693429053305 -0.026122685566268049 0 -0.0011771168217540328 -0.025591804763779383 0 -0.0011168692291986331 -0.026004233934985962 0 -0.0011771168217540328 -0.025591804763779383 0 -0.00076929291592638203 -0.025781521484794616 0 -0.00081392585876712269 -0.02420579233117923 0 -0.00090042466413320994 -0.023515790655532217 0 -0.00034340482844391981 -0.023607247426808024 0 -0.0013495484563669634 -0.023969255595880937 0 -0.00081392585876712269 -0.02420579233117923 0 -0.00090042466413320994 -0.023515790655532217 0 -0.0015230274516279713 -0.023913680383661838 0 -0.0014910401149375401 -0.024902970454607373 0 -0.0014649368283340867 -0.023358497806751546 0 -0.00090042466413320994 -0.023515790655532217 0 -0.0010623228474232038 -0.022876928250335472 0 -0.00076181331018490756 -0.02463817131228906 0 -0.00027309701304806743 -0.023924111192386376 0 -0.00090042466413320994 -0.023515790655532217 0 -0.00034340482844391981 -0.023607247426808024 0 -0.00049995640024379868 -0.023095341035664432 0 -0.00034340482844391981 -0.023607247426808024 0 -0.00049995640024379868 -0.023095341035664432 0 7.1871648838205688e-05 -0.023010162186160421 0 -0.00049995640024379868 -0.023095341035664432 0 -0.00044443338558161979 -0.022553193149795446 0 7.1871648838205688e-05 -0.023010162186160421 0 -0.00049995640024379868 -0.023095341035664432 0 -0.0010623228474232038 -0.022876928250335472 0 -0.00044443338558161979 -0.022553193149795446 0 -0.00090042466413320994 -0.023515790655532217 0 -0.00049995640024379868 -0.023095341035664432 0 -0.0010623228474232038 -0.022876928250335472 0 -0.00070877804789571265 -0.022116066505982877 0 -0.0014302617392731943 -0.022118979855426619 0 -0.0010623228474232038 -0.022876928250335472 0 -0.00070877804789571265 -0.022116066505982877 0 -0.0010623228474232038 -0.022876928250335472 0 -0.00044443338558161979 -0.022553193149795446 0 -6.5904247799122474e-05 -0.021940050083943195 0 -0.00070877804789571265 -0.022116066505982877 0 -0.00044443338558161979 -0.022553193149795446 0 -6.5904247799122474e-05 -0.021940050083943195 0 -0.00044443338558161979 -0.022553193149795446 0 1.3433527098642604e-05 -0.022421862758809918 0 0.00020446386913853338 -0.022084197042365007 0 1.3433527098642604e-05 -0.022421862758809918 0 0.00039322803401679678 -0.022444434304460109 0 0.00059991256743639147 -0.021350946862448972 0 -0.00017648383114610055 -0.024063993980402213 0 -0.00036385913318409799 -0.026154218062950863 0 -0.00084703999610248289 -0.026778902731579932 0 -0.00014195712421059809 -0.026825435612333373 0 -2.1530091754687499e-05 -0.024175733795086144 0 -0.00017648383114610055 -0.024063993980402213 0 -0.00017648383114610055 -0.024063993980402213 0 -0.000921711436934511 -0.026651597009941113 0 -0.00084703999610248289 -0.026778902731579932 0 -0.00045162285631880216 -0.027470258122097035 0 -0.0011283934859706959 -0.027600145285681017 0 -0.00084703999610248289 -0.026778902731579932 0 -0.00045162285631880216 -0.027470258122097035 0 -0.00014195712421059809 -0.026825435612333373 0 -0.0002843438199515666 -0.024468573952975012 0 -0.00073869157311607086 -0.025045211670789779 0 -0.00052810527312643202 -0.025141953618453037 0 1.3433527098642604e-05 -0.022421862758809918 0 0.00039322803401679678 -0.022444434304460109 0 7.1871648838205688e-05 -0.023010162186160421 0 -0.00017648383114610055 -0.024063993980402213 0 -0.00027309701304806743 -0.023924111192386376 0 -0.00044443338558161979 -0.022553193149795446 0 1.3433527098642604e-05 -0.022421862758809918 0 7.1871648838205688e-05 -0.023010162186160421 0 0.0005445239793582374 -0.026203810242518 0 0.000444153524376721 -0.026807348080356046 0 0.00094150944858437948 -0.026928821658018694 0 0.00071460526283065415 -0.025319752117781518 0 0.00014698057143421668 -0.031299536197655048 0 0.0011816461149285651 -0.025261497002550513 0 0.0016231125524384584 -0.025588108022786563 0 0.0017626327202810534 -0.026351802054863423 0 0.000444153524376721 -0.026807348080356046 0 0.00084413483308746551 -0.027099318360996199 0 0.00094150944858437948 -0.026928821658018694 0 0.0016231125524384584 -0.025588108022786563 0 0.0018226835437058953 -0.026122031493102982 0 0.0017626327202810534 -0.026351802054863423 0 0.00025041216007058454 -0.030816209064370485 0 0.00014698057143421668 -0.031299536197655048 0 0.0005445239793582374 -0.026203810242518 0 0.000444153524376721 -0.026807348080356046 0 7.5888225992388244e-05 -0.02641821024704966 0 0.000444153524376721 -0.026807348080356046 0 -0.00014195712421059809 -0.026825435612333373 0 0.000204332887402208 -0.027228411896775082 0 0.000444153524376721 -0.026807348080356046 0 7.5888225992388244e-05 -0.02641821024704966 0 -0.00014195712421059809 -0.026825435612333373 0 -0.00036385913318409799 -0.026154218062950863 0 7.5888225992388244e-05 -0.02641821024704966 0 -0.00014195712421059809 -0.026825435612333373 0 -0.00045162285631880216 -0.027470258122097035 0 0.000204332887402208 -0.027228411896775082 0 0.00039304873620034858 -0.027995129919612182 0 -0.00045162285631880216 -0.027470258122097035 0 -0.00014195712421059809 -0.026825435612333373 0 0.000204332887402208 -0.027228411896775082 0 -0.00041587682634680178 -0.034198492254410781 0 -0.00037265073423394348 -0.034398992429049681 0 -0.00040999024703534736 -0.034152139349692689 0 -0.00037265073423394348 -0.034398992429049681 0 -0.00032661501258354498 -0.034425762664185323 0 -0.00035832635027487986 -0.034411266674995708 0 -0.00041587682634680178 -0.034198492254410781 0 -0.00037265073423394348 -0.034398992429049681 0 -0.00032663187839626292 -0.034443747687620846 0 0.00025041216007058454 -0.030816209064370485 0 -2.4552226090454543e-05 -0.031199757483244297 0 0.000204332887402208 -0.027228411896775082 0 0.00084413483308746551 -0.027099318360996199 0 0.00039304873620034858 -0.027995129919612182 0 -0.00061204001532645961 -0.035587917138077664 0 0.00014698057143421668 -0.031299536197655048 0 0.000444153524376721 -0.026807348080356046 0 0.000204332887402208 -0.027228411896775082 0 0.00084413483308746551 -0.027099318360996199 0 -0.00037265073423394348 -0.034398992429049681 0 -0.00032663187839626292 -0.034443747687620846 0 -0.00057202600602763835 -0.034310804836858382 0 -0.00037265073423394348 -0.034398992429049681 0 -0.00035832635027487986 -0.034411266674995708 0 -0.00039011174171440615 -0.034397281721138172 0 -0.00045162285631880216 -0.027470258122097035 0 0.00039304873620034858 -0.027995129919612182 0 -0.00033364110054679851 -0.028170843229397311 0 -0.00033364110054679851 -0.028170843229397311 0 -2.9325204498139401e-05 -0.028857106424122245 0 -0.0005966272742656374 -0.028526260943522685 0 0.00039304873620034858 -0.027995129919612182 0 -0.00033364110054679851 -0.028170843229397311 0 -2.9325204498139401e-05 -0.028857106424122245 0 -2.4552226090454543e-05 -0.031199757483244297 0 1.3908584880829515e-05 -0.029697008210348534 0 -0.00018362753057842181 -0.031169615032507959 0 -0.00018232769526199598 -0.031189364146890285 0 -0.00018085367771111284 -0.031191428442072025 0 -2.4552226090454543e-05 -0.031199757483244297 0 -0.00013916735002909508 -0.032845744560573514 0 -0.00032663187839626292 -0.034443747687620846 0 -0.00056007450185119876 -0.033770878444925011 0 -4.7429811368254467e-05 -0.033778197456497419 0 -0.00032663187839626292 -0.034443747687620846 0 -0.00056007450185119876 -0.033770878444925011 0 -0.00057202600602763835 -0.034310804836858382 0 -0.0011283934859706959 -0.027600145285681017 0 -0.00089192364761884709 -0.028108144848498572 0 -0.0013664175666936338 -0.028378654207079478 0 -0.000921711436934511 -0.026651597009941113 0 -0.0010509881383672086 -0.02710424134625785 0 -0.0011771168217540328 -0.025591804763779383 0 -0.00073869157311607086 -0.025045211670789779 0 -0.00076929291592638203 -0.025781521484794616 0 -0.00073869157311607086 -0.025045211670789779 0 -0.00052810527312643202 -0.025141953618453037 0 -0.00076929291592638203 -0.025781521484794616 0 -0.00045162285631880216 -0.027470258122097035 0 -0.00033364110054679851 -0.028170843229397311 0 -0.00089192364761884709 -0.028108144848498572 0 -0.00045162285631880216 -0.027470258122097035 0 -0.0011283934859706959 -0.027600145285681017 0 -0.00089192364761884709 -0.028108144848498572 0 -0.00089192364761884709 -0.028108144848498572 0 -0.0005966272742656374 -0.028526260943522685 0 -0.0011129456235776619 -0.028486094813569816 0 -0.00033364110054679851 -0.028170843229397311 0 -0.00089192364761884709 -0.028108144848498572 0 -0.0005966272742656374 -0.028526260943522685 0 -2.9325204498139401e-05 -0.028857106424122245 0 -0.0005966272742656374 -0.028526260943522685 0 -0.00061462247825467122 -0.029019292250013401 0 -0.0005966272742656374 -0.028526260943522685 0 -0.0011129456235776619 -0.028486094813569816 0 -0.00061462247825467122 -0.029019292250013401 0 -0.0010509881383672086 -0.02710424134625785 0 -0.001576179426902521 -0.027108963260153572 0 -0.0011129456235776619 -0.028486094813569816 0 -0.0013664175666936338 -0.028378654207079478 0 -0.001122724432566685 -0.028911351283546709 0 -0.0013664175666936338 -0.028378654207079478 0 -0.001122724432566685 -0.028911351283546709 0 -0.0015529976991243441 -0.028942270511381062 0 -0.00089192364761884709 -0.028108144848498572 0 -0.0011129456235776619 -0.028486094813569816 0 -0.0013664175666936338 -0.028378654207079478 0 -0.001122724432566685 -0.028911351283546709 0 -0.00087193378952821221 -0.029253415632418379 0 -0.0015529976991243441 -0.028942270511381062 0 -0.0013529397346259814 -0.028031637499475313 0 -0.0015862295595802899 -0.028059258979016385 0 -0.0016792524868205036 -0.02787184027208852 0 -0.0010633909850142266 -0.029260456527158814 0 -0.001576179426902521 -0.027108963260153572 0 -0.0010237081381169596 -0.028615897737070607 0 -0.0010633909850142266 -0.029260456527158814 0 -0.00061462247825467122 -0.029019292250013401 0 -0.00076323620556968653 -0.029620460709267302 0 -0.00044956457430857726 -0.029759876463914054 0 -0.0011129456235776619 -0.028486094813569816 0 -0.001122724432566685 -0.028911351283546709 0 -0.00087193378952821221 -0.029253415632418379 0 -0.0011129456235776619 -0.028486094813569816 0 -0.00061462247825467122 -0.029019292250013401 0 -0.00076323620556968653 -0.029620460709267302 0 -0.00085825406285756868 -0.029731903562996705 0 -0.00088482652338138003 -0.029720911955162157 0 -0.00087065785514740162 -0.029689288841434808 0 -0.0010633909850142266 -0.029260456527158814 0 -0.00099318498341211718 -0.029269700210315445 0 -0.0010633909850142266 -0.029260456527158814 0 -0.000619332867371564 -0.030523521746490395 0 -0.000619332867371564 -0.030523521746490395 0 -0.00099318498341211718 -0.029269700210315445 0 -0.00058668719351630835 -0.030808433252322631 0 -0.00045938449370255303 -0.030535828788565148 0 -0.00072397403154520401 -0.030748131861702627 0 -0.00045938449370255303 -0.030535828788565148 0 -0.00072397403154520401 -0.030748131861702627 0 -0.00054116760079885647 -0.030285703312096866 0 -0.0003100315187618436 -0.031649198844107135 0 -0.00076699573597004838 -0.030640574365200002 0 -0.0013529397346259814 -0.028031637499475313 0 -0.0013022417996733909 -0.028193346585277366 0 -0.001393937997354029 -0.028191656254817669 0 -0.0013529397346259814 -0.028031637499475313 0 -0.001393937997354029 -0.028191656254817669 0 -0.0014901209659401158 -0.028152144970971887 0 -0.0013022417996733909 -0.028193346585277366 0 -0.001393937997354029 -0.028191656254817669 0 -0.00134256236017898 -0.028271437022165544 0 -0.0013529397346259814 -0.028031637499475313 0 -0.0014901209659401158 -0.028152144970971887 0 -0.0015862295595802899 -0.028059258979016385 0 -0.001393937997354029 -0.028191656254817669 0 -0.0014901209659401158 -0.028152144970971887 0 -0.0014775589469072203 -0.028307124249430288 0 -0.0015862295595802899 -0.028059258979016385 0 -0.0016272293465522704 -0.028211694557982864 0 -0.0017575870162594264 -0.028085571694065177 0 -0.0014901209659401158 -0.028152144970971887 0 -0.0015862295595802899 -0.028059258979016385 0 -0.0016272293465522704 -0.028211694557982864 0 -0.00056007450185119876 -0.033770878444925011 0 -0.00027993231906036612 -0.033165961026207738 0 -0.00086378910995438696 -0.032849947745213999 0 -0.00056007450185119876 -0.033770878444925011 0 -0.00027993231906036612 -0.033165961026207738 0 -4.7429811368254467e-05 -0.033778197456497419 0 -0.00013916735002909508 -0.032845744560573514 0 -0.0003100315187618436 -0.031649198844107135 0 -0.00027993231906036612 -0.033165961026207738 0 -4.7429811368254467e-05 -0.033778197456497419 0 0.00037216726027809136 -0.032815509064171328 0 -2.9325204498139401e-05 -0.028857106424122245 0 -0.00061462247825467122 -0.029019292250013401 0 -0.00044956457430857726 -0.029759876463914054 0 -0.00018616761290749285 -0.031196239667146016 0 -0.00018085367771111284 -0.031191428442072025 0 -0.00018462218177189523 -0.031198466394071794 0 -0.00018232769526199598 -0.031189364146890285 0 -0.00018616761290749285 -0.031196239667146016 0 -0.00018085367771111284 -0.031191428442072025 0 1.3908584880829515e-05 -0.029697008210348534 0 -0.000619332867371564 -0.030523521746490395 0 -0.000619332867371564 -0.030523521746490395 0 -0.0003100315187618436 -0.031649198844107135 0 -0.0003100315187618436 -0.031649198844107135 0 -0.00059114020033214571 -0.032352309184608734 0 -0.00082433367486329612 -0.03225657035137252 0 -0.0010111790659586841 -0.032176262284537585 0 -0.00090685896766206503 -0.032082430463259252 0 -0.00027993231906036612 -0.033165961026207738 0 0.00037216726027809136 -0.032815509064171328 0 -0.00028471379259456064 -0.032497017098520299 0 -0.00027993231906036612 -0.033165961026207738 0 -0.00028471379259456064 -0.032497017098520299 0 -0.00086378910995438696 -0.032849947745213999 0 -0.00028471379259456064 -0.032497017098520299 0 -0.00086378910995438696 -0.032849947745213999 0 -0.0011195559999722315 -0.032176235753481539 0 -0.0010120271691691062 -0.03197201338962382 0 -0.00119356715580533 -0.031726973119792723 0 -0.0011195559999722315 -0.032176235753481539 0 -0.0010111790659586841 -0.032176262284537585 0 -0.0010120271691691062 -0.03197201338962382 0 -0.0011195559999722315 -0.032176235753481539 0 -0.00059114020033214571 -0.032352309184608734 0 -0.0010718076672049839 -0.032178750188225066 0 -0.0010120271691691062 -0.03197201338962382 0 -0.00090685896766206503 -0.032082430463259252 0 -0.00084461439695771099 -0.031799563483040194 0 -0.0010111790659586841 -0.032176262284537585 0 -0.0010120271691691062 -0.03197201338962382 0 -0.00090685896766206503 -0.032082430463259252 0 -0.0008365999830310584 -0.031979246353984456 0 -0.00076699573597004838 -0.030640574365200002 0 -0.00090685896766206503 -0.032082430463259252 0 -0.00084461439695771099 -0.031799563483040194 0 -0.00074707344935953982 -0.032075132573510606 0 -0.00082433367486329612 -0.03225657035137252 0 -0.00090685896766206503 -0.032082430463259252 0 -0.00074707344935953982 -0.032075132573510606 0 -0.00084461439695771099 -0.031799563483040194 0 -0.00119356715580533 -0.031726973119792723 0 -0.0010456914543476934 -0.031451159901295343 0 -0.0010120271691691062 -0.03197201338962382 0 -0.00084461439695771099 -0.031799563483040194 0 -0.00119356715580533 -0.031726973119792723 0 -0.0016043764120831198 -0.028399488787745709 0 -0.0016272293465522704 -0.028211694557982864 0 -0.0014775589469072203 -0.028307124249430288 0 -0.0014901209659401158 -0.028152144970971887 0 -0.0016272293465522704 -0.028211694557982864 0 -0.0014775589469072203 -0.028307124249430288 0 -0.001393937997354029 -0.028191656254817669 0 -0.0014775589469072203 -0.028307124249430288 0 -0.00134256236017898 -0.028271437022165544 0 -0.0014775589469072203 -0.028307124249430288 0 -0.00134256236017898 -0.028271437022165544 0 -0.0014068215870384109 -0.028599124468199417 0 -0.00134256236017898 -0.028271437022165544 0 -0.0012795634629682222 -0.028301138972079518 0 -0.0014068215870384109 -0.028599124468199417 0 -0.00099318498341211718 -0.029269700210315445 0 -0.0009442165100026394 -0.028655467007007294 0 -0.0013126211625588936 -0.028214964964328737 0 -0.00134256236017898 -0.028271437022165544 0 -0.0012795634629682222 -0.028301138972079518 0 -0.00099318498341211718 -0.029269700210315445 0 -0.00076699573597004838 -0.030640574365200002 0 -0.00093222435755411994 -0.031692143814730719 0 -0.0008585148250926626 -0.031896367883769712 0 -0.00072660120368043266 -0.031632097127184129 0 -0.00076699573597004838 -0.030640574365200002 0 -0.0010741053176778908 -0.030295773481770195 0 -0.00093222435755411994 -0.031692143814730719 0 -0.00072660120368043266 -0.031632097127184129 0 -0.00085056271460693311 -0.03148084414311015 0 -0.0016043764120831198 -0.028399488787745709 0 -0.0014775589469072203 -0.028307124249430288 0 -0.0014068215870384109 -0.028599124468199417 0 -0.0016043764120831198 -0.028399488787745709 0 -0.0014068215870384109 -0.028599124468199417 0 -0.0016794140512960073 -0.028598955269725106 0 -0.0022574876749939235 -0.025732758652135521 0 -0.0023292050168261195 -0.025584796019238135 0 -0.0024519241651894735 -0.025755861832235868 0 -0.0022574876749939235 -0.025732758652135521 0 -0.0022277701266598744 -0.025512120379331562 0 -0.0023292050168261195 -0.025584796019238135 0 -0.0016043764120831198 -0.028399488787745709 0 -0.0016794140512960073 -0.028598955269725106 0 -0.0018350610839626643 -0.028292151870259255 0 -0.0020035582481379086 -0.027056243500149978 0 -0.0020460952576668574 -0.026536677104914166 0 -0.0016043764120831198 -0.028399488787745709 0 -0.0016272293465522704 -0.028211694557982864 0 -0.0018350610839626643 -0.028292151870259255 0 -0.0022574876749939235 -0.025732758652135521 0 -0.0022277701266598744 -0.025512120379331562 0 -0.0022108177330512212 -0.025487077978918568 0 -0.0022277701266598744 -0.025512120379331562 0 -0.0021973729022551941 -0.025472514627065759 0 -0.0022554676638144155 -0.025501008585893648 0 -0.0019958639042456415 -0.026273363518256158 0 -0.0020460952576668574 -0.026536677104914166 0 -0.0020460952576668574 -0.026536677104914166 0 -0.0023730934524536351 -0.025245631778972207 0 -0.002245898899727265 -0.025435109749866239 0 -0.0023303355590220619 -0.025491702035772629 0 -0.0021830248371972534 -0.025266540067124678 0 -0.0021973729022551941 -0.025472514627065759 0 -0.002245898899727265 -0.025435109749866239 0 -0.0021725373475623483 -0.025324529731682442 0 -0.0021973729022551941 -0.025472514627065759 0 -0.002245898899727265 -0.025435109749866239 0 -0.0022554676638144155 -0.025501008585893648 0 -0.0022277701266598744 -0.025512120379331562 0 -0.0022554676638144155 -0.025501008585893648 0 -0.0023292050168261195 -0.025584796019238135 0 -0.002245898899727265 -0.025435109749866239 0 -0.0022554676638144155 -0.025501008585893648 0 -0.0023292050168261195 -0.025584796019238135 0 -0.002245898899727265 -0.025435109749866239 0 -0.0023292050168261195 -0.025584796019238135 0 -0.0023303355590220619 -0.025491702035772629 0 -0.0023292050168261195 -0.025584796019238135 0 -0.0024519241651894735 -0.025755861832235868 0 -0.0024544957337197123 -0.025669267935047958 0 -0.0023292050168261195 -0.025584796019238135 0 -0.0024544957337197123 -0.025669267935047958 0 -0.0023303355590220619 -0.025491702035772629 0 -0.0024544957337197123 -0.025669267935047958 0 -0.0024678299085197268 -0.025576428114826931 0 -0.0025204729623490938 -0.025741413985290253 0 -0.0024519241651894735 -0.025755861832235868 0 -0.0024544957337197123 -0.025669267935047958 0 -0.0025601275148236348 -0.025845313536236245 0 -0.0024678299085197268 -0.025576428114826931 0 -0.0025204729623490938 -0.025741413985290253 0 -0.0024948320047014734 -0.025637886159626904 0 -0.0024678299085197268 -0.025576428114826931 0 -0.0025309729535065587 -0.025528007203480901 0 -0.0024948320047014734 -0.025637886159626904 0 -0.0024678299085197268 -0.025576428114826931 0 -0.002501247074731182 -0.025331964967660801 0 -0.0025309729535065587 -0.025528007203480901 0 -0.0024678299085197268 -0.025576428114826931 0 -0.0023088073732970686 -0.02538672022198895 0 -0.002501247074731182 -0.025331964967660801 0 -0.0024544957337197123 -0.025669267935047958 0 -0.0024678299085197268 -0.025576428114826931 0 -0.0023303355590220619 -0.025491702035772629 0 -0.0024678299085197268 -0.025576428114826931 0 -0.0023303355590220619 -0.025491702035772629 0 -0.0023088073732970686 -0.02538672022198895 0 -0.0023303355590220619 -0.025491702035772629 0 -0.0023088073732970686 -0.02538672022198895 0 -0.0021830248371972534 -0.025266540067124678 0 -0.0023088073732970686 -0.02538672022198895 0 -0.0020921212216052855 -0.025139196760004239 0 -0.0021830248371972534 -0.025266540067124678 0 -0.0020921212216052855 -0.025139196760004239 0 -0.0021647208500768073 -0.025266885935440794 0 -0.0021830248371972534 -0.025266540067124678 0 -0.0023088073732970686 -0.02538672022198895 0 -0.0020921212216052855 -0.025139196760004239 0 -0.002501247074731182 -0.025331964967660801 0 -0.0020543514600279522 -0.02510433606095341 0 -0.0018433950766805329 -0.024875858490869224 0 -0.002501247074731182 -0.025331964967660801 0 -0.002393441328729669 -0.024846131020447325 0 -0.0028309275406083506 -0.024660528673946792 0 -0.0020921212216052855 -0.025139196760004239 0 -0.002501247074731182 -0.025331964967660801 0 -0.002393441328729669 -0.024846131020447325 0 -0.002393441328729669 -0.024846131020447325 0 -0.0028309275406083506 -0.024660528673946792 0 -0.0021759096774847005 -0.024166392740771654 0 -0.0020921212216052855 -0.025139196760004239 0 -0.002393441328729669 -0.024846131020447325 0 -0.0021759096774847005 -0.024166392740771654 0 -0.0020921212216052855 -0.025139196760004239 0 -0.0021759096774847005 -0.024166392740771654 0 -0.0015332448625864732 -0.024463509248408764 0 -0.0017176041488422096 -0.023818457800706693 0 -0.0021759096774847005 -0.024166392740771654 0 -0.0015332448625864732 -0.024463509248408764 0 -0.0017176041488422096 -0.023818457800706693 0 -0.0012024048740406756 -0.024056937891519501 0 -0.0015332448625864732 -0.024463509248408764 0 -0.0021566075271671958 -0.0252588993939716 0 -0.0021647208500768073 -0.025266885935440794 0 -0.0021607603329181547 -0.025282295937751043 0 -0.0014910401149375401 -0.024902970454607373 0 -0.0018433950766805329 -0.024875858490869224 0 -0.0021607603329181547 -0.025282295937751043 0 -0.0021217729857286923 -0.02527902431968752 0 -0.0021320758117977135 -0.025309342304041152 0 -0.0014910401149375401 -0.024902970454607373 0 -0.001576179426902521 -0.027108963260153572 0 -0.0021566075271671958 -0.0252588993939716 0 -0.0021607603329181547 -0.025282295937751043 0 -0.0021217729857286923 -0.02527902431968752 0 -0.001576179426902521 -0.027108963260153572 0 -0.0019335223291505538 -0.026681350419206461 0 -0.0021607603329181547 -0.025282295937751043 0 -0.0021320758117977135 -0.025309342304041152 0 -0.0021725373475623483 -0.025324529731682442 0 -0.0015862295595802899 -0.028059258979016385 0 -0.0016792524868205036 -0.02787184027208852 0 -0.0017575870162594264 -0.028085571694065177 0 -0.0016272293465522704 -0.028211694557982864 0 -0.0018350610839626643 -0.028292151870259255 0 -0.0017575870162594264 -0.028085571694065177 0 -0.0020460952576668574 -0.026536677104914166 0 -0.0019335223291505538 -0.026681350419206461 0 -0.0021494756165709918 -0.025377582649111389 0 -0.0021320758117977135 -0.025309342304041152 0 -0.0021725373475623483 -0.025324529731682442 0 -0.0021647208500768073 -0.025266885935440794 0 -0.0021607603329181547 -0.025282295937751043 0 -0.0021830248371972534 -0.025266540067124678 0 -0.002245898899727265 -0.025435109749866239 0 -0.0021725373475623483 -0.025324529731682442 0 -0.0021830248371972534 -0.025266540067124678 0 -0.0021607603329181547 -0.025282295937751043 0 -0.0021725373475623483 -0.025324529731682442 0 -0.0021830248371972534 -0.025266540067124678 0 -2.7231547880163327e-08 -0.034999964641685748 0 -2.9976133956075184e-05 -0.034971279367597793 0 -2.3820466403165982e-05 -0.034974416369278963 0 -2.9976133956075184e-05 -0.034971279367597793 0 -5.0418928407072395e-05 -0.034947086251100094 0 -2.3820466403165982e-05 -0.034974416369278963 0 -5.2439926395083682e-05 -0.035026723859940406 0 -5.1641311822816991e-09 -0.034999991175740458 0 -6.4283319036622513e-05 -0.03505564821154887 0 2.1366117938182595e-10 -0.035000086492706528 0 -4.1023288566933949e-05 -0.035001567788079904 0 -2.7231547880163327e-08 -0.034999964641685748 0 -2.9976133956075184e-05 -0.034971279367597793 0 6.5640910720523855e-09 -0.034999982389441867 0 -4.7517704861889043e-05 -0.034935937442330776 0 -8.4843379891626836e-09 -0.035000061787591706 0 -4.4625384501218375e-05 -0.034974652767138702 0 -8.1656129865111467e-09 -0.034999993678026593 0 -5.0539945281468388e-05 -0.034969576031968527 0 -4.6267058550281641e-09 -0.034999919926866324 0 2.1366117938182595e-10 -0.035000086492706528 0 -4.1023288566933949e-05 -0.035001567788079904 0 -4.6267058550281641e-09 -0.034999919926866324 0 -5.3762658523815093e-05 -0.034967396058467437 0 -4.1023288566933949e-05 -0.035001567788079904 0 -6.4283319036622513e-05 -0.03505564821154887 0 -4.1023288566933949e-05 -0.035001567788079904 0 -0.00010183731961001264 -0.034987156832709559 0 -5.3762658523815093e-05 -0.034967396058467437 0 -4.1023288566933949e-05 -0.035001567788079904 0 -0.00010183731961001264 -0.034987156832709559 0 -6.8217963417203993e-05 -0.0349335320451057 0 -4.4625384501218375e-05 -0.034974652767138702 0 -0.00011592635967820289 -0.034928671355930384 0 -5.0539945281468388e-05 -0.034969576031968527 0 -0.000111745417070134 -0.034933355454262585 0 -5.3762658523815093e-05 -0.034967396058467437 0 -0.00010183731961001264 -0.034987156832709559 0 -0.00011592635967820289 -0.034928671355930384 0 -0.00010183731961001264 -0.034987156832709559 0 -0.00011592635967820289 -0.034928671355930384 0 -0.00015955803788754433 -0.034964931045805822 0 -0.00015091533400680529 -0.034671583969142397 0 -0.00011595215739537816 -0.034760121307457523 0 -0.00019803024805695215 -0.034704807106432922 0 -0.00010183731961001264 -0.034987156832709559 0 -0.00015955803788754433 -0.034964931045805822 0 -0.00013756325883045538 -0.035031515788467693 0 -0.00015387421289433283 -0.034816829510203789 0 -0.00013037488585031749 -0.034903374407211203 0 -0.00011595215739537816 -0.034760121307457523 0 -0.00013317232242603965 -0.034825814180053823 0 -0.00017718988818629837 -0.034802841054386441 0 -6.4283319036622513e-05 -0.03505564821154887 0 -0.00010183731961001264 -0.034987156832709559 0 -0.00013756325883045538 -0.035031515788467693 0 -2.9976133956075184e-05 -0.034971279367597793 0 -5.6488722026755033e-05 -0.0349373872509409 0 -5.0418928407072395e-05 -0.034947086251100094 0 -5.2439926395083682e-05 -0.035026723859940406 0 -9.3954427554729145e-05 -0.034944182181430208 0 -6.4283319036622513e-05 -0.03505564821154887 0 -0.00013756325883045538 -0.035031515788467693 0 -0.00013261015052424001 -0.035098559642290784 0 -0.00011595215739537816 -0.034760121307457523 0 -9.4626805697866373e-05 -0.034850093005464766 0 -0.00013317232242603965 -0.034825814180053823 0 -0.00013037488585031749 -0.034903374407211203 0 -9.3954427554729145e-05 -0.034944182181430208 0 -9.4626805697866373e-05 -0.034850093005464766 0 -0.00013317232242603965 -0.034825814180053823 0 -0.00011330317804419981 -0.034864636655947356 0 -0.00013317232242603965 -0.034825814180053823 0 -0.00017718988818629837 -0.034802841054386441 0 -0.0001414285369083921 -0.034885096054139579 0 -0.00020354281123120043 -0.034626064585894296 0 -0.0001590061478628071 -0.034749484471455379 0 -0.00023101897873615087 -0.034443099143521241 0 -0.00030901354100938271 -0.034422596672346144 0 -0.00033517249232032151 -0.034467308201554546 0 -0.00023101897873615087 -0.034443099143521241 0 -0.00033517249232032151 -0.034467308201554546 0 -0.00025931771816917589 -0.034533277537995337 0 -0.00030901354100938271 -0.034422596672346144 0 -0.00028528306639082486 -0.034425001531537498 0 -0.00032529563439377495 -0.034414321646415474 0 -0.00023101897873615087 -0.034443099143521241 0 -0.00030901354100938271 -0.034422596672346144 0 -0.00028528306639082486 -0.034425001531537498 0 -0.00011595215739537816 -0.034760121307457523 0 -0.00017718988818629837 -0.034802841054386441 0 -0.00019803024805695215 -0.034704807106432922 0 -0.00020354281123120043 -0.034626064585894296 0 -0.00023464908899114323 -0.034573946365629653 0 -0.00023101897873615087 -0.034443099143521241 0 -0.0002868217715621695 -0.034439522895757121 0 -0.00028528306639082486 -0.034425001531537498 0 -0.00021076451189363705 -0.034610593323946649 0 -0.00023464908899114323 -0.034573946365629653 0 -0.0002020623196906817 -0.034619896151652861 0 -0.00015091533400680529 -0.034671583969142397 0 -0.00019803024805695215 -0.034704807106432922 0 -0.0002020623196906817 -0.034619896151652861 0 -0.0002868217715621695 -0.034439522895757121 0 -0.00023456918033324821 -0.034520717989584192 0 -0.00024609350276531377 -0.034493604805819748 0 -0.00023456918033324821 -0.034520717989584192 0 -0.00027041341240667354 -0.034457123555466151 0 -0.0002868217715621695 -0.034439522895757121 0 -0.00023456918033324821 -0.034520717989584192 0 -0.00027041341240667354 -0.034457123555466151 0 -0.00028528306639082486 -0.034425001531537498 0 -0.00027041341240667354 -0.034457123555466151 0 -0.00032529563439377495 -0.034414321646415474 0 -0.0002868217715621695 -0.034439522895757121 0 -0.00028528306639082486 -0.034425001531537498 0 -0.00027041341240667354 -0.034457123555466151 0 -0.00032529563439377495 -0.034414321646415474 0 -0.00034428067225816654 -0.034419244817054377 0 -0.00037874223850512835 -0.034394525893450191 0 -0.00032529563439377495 -0.034414321646415474 0 -0.0003118730062799368 -0.034437591082945314 0 -0.00034428067225816654 -0.034419244817054377 0 -0.00027041341240667354 -0.034457123555466151 0 -0.00032529563439377495 -0.034414321646415474 0 -0.0003118730062799368 -0.034437591082945314 0 -0.00024609350276531377 -0.034493604805819748 0 -0.00027041341240667354 -0.034457123555466151 0 -0.00028461066681659882 -0.034457669415318373 0 -0.00027041341240667354 -0.034457123555466151 0 -0.0003118730062799368 -0.034437591082945314 0 -0.00028461066681659882 -0.034457669415318373 0 -0.0003118730062799368 -0.034437591082945314 0 -0.00028461066681659882 -0.034457669415318373 0 -0.00030718385896662552 -0.034447780226201902 0 -0.00024609350276531377 -0.034493604805819748 0 -0.00028461066681659882 -0.034457669415318373 0 -0.00028069939121579032 -0.034463285530284174 0 -0.00028461066681659882 -0.034457669415318373 0 -0.00028069939121579032 -0.034463285530284174 0 -0.00030718385896662552 -0.034447780226201902 0 0.0011026197018501711 -0.029178518410962074 0 0.00049156816465485708 -0.03096652833973414 0 -0.00010835903897486276 -0.033766477104767746 0 0.00011181604749190562 -0.033217458996928365 0 0.00013252449981684611 -0.033072059079124812 0 -0.00031007336517452117 -0.034455676433795046 0 -0.00032167515304498586 -0.034435684267481836 0 -0.00032661501258354498 -0.034425762664185323 0 -0.00030044386090750794 -0.034579745221260859 0 0.00049156816465485708 -0.03096652833973414 0 -0.00037523666716901235 -0.034502454082600977 0 0.00014698057143421668 -0.031299536197655048 0 0.001803374318686167 -0.025211370158190156 0 0.0016231125524384584 -0.025588108022786563 0 0.0018226835437058953 -0.026122031493102982 0 -0.00031007336517452117 -0.034455676433795046 0 -0.00031199066407823197 -0.034448636647349387 0 -0.00032167515304498586 -0.034435684267481836 0 -0.00031199066407823197 -0.034448636647349387 0 -0.00031318002015694581 -0.034446126308879485 0 -0.00032167515304498586 -0.034435684267481836 0 -0.00031007336517452117 -0.034455676433795046 0 -0.00031199066407823197 -0.034448636647349387 0 -0.00029995496996777597 -0.034456023729698262 0 -0.00028069939121579032 -0.034463285530284174 0 -0.00029995496996777597 -0.034456023729698262 0 -0.00030718385896662552 -0.034447780226201902 0 -0.00029995496996777597 -0.034456023729698262 0 -0.00031318002015694581 -0.034446126308879485 0 -0.00030718385896662552 -0.034447780226201902 0 -0.00031199066407823197 -0.034448636647349387 0 -0.00029995496996777597 -0.034456023729698262 0 -0.00031318002015694581 -0.034446126308879485 0 -0.00031318002015694581 -0.034446126308879485 0 -0.00031993877632198909 -0.034439244049443339 0 -0.00030718385896662552 -0.034447780226201902 0 -0.00031993877632198909 -0.034439244049443339 0 -0.00030718385896662552 -0.034447780226201902 0 -0.00032799132311632924 -0.034432566566524485 0 -0.0003118730062799368 -0.034437591082945314 0 -0.00030718385896662552 -0.034447780226201902 0 -0.00032799132311632924 -0.034432566566524485 0 -0.00032799132311632924 -0.034432566566524485 0 -0.00033043972074683632 -0.034428426560431533 0 -0.00032572380352583846 -0.034432679456836139 0 -0.00031993877632198909 -0.034439244049443339 0 -0.00032799132311632924 -0.034432566566524485 0 -0.00032572380352583846 -0.034432679456836139 0 -0.00031993877632198909 -0.034439244049443339 0 -0.00032572380352583846 -0.034432679456836139 0 -0.00032167515304498586 -0.034435684267481836 0 -0.00031318002015694581 -0.034446126308879485 0 -0.00031993877632198909 -0.034439244049443339 0 -0.00032167515304498586 -0.034435684267481836 0 -0.00033043972074683632 -0.034428426560431533 0 -0.00032661501258354498 -0.034425762664185323 0 -0.00032720279246912837 -0.034428551238598712 0 0.00049156816465485708 -0.03096652833973414 0 0.00014698057143421668 -0.031299536197655048 0 -0.00032167515304498586 -0.034435684267481836 0 -0.00032661501258354498 -0.034425762664185323 0 -0.00032720279246912837 -0.034428551238598712 0 -0.00033043972074683632 -0.034428426560431533 0 -0.00032661501258354498 -0.034425762664185323 0 -0.00033492910711705359 -0.034423231449755336 0 -0.00032572380352583846 -0.034432679456836139 0 -0.00032167515304498586 -0.034435684267481836 0 -0.00032720279246912837 -0.034428551238598712 0 -0.00033043972074683632 -0.034428426560431533 0 -0.00032572380352583846 -0.034432679456836139 0 -0.00032720279246912837 -0.034428551238598712 0 -0.00032661501258354498 -0.034425762664185323 0 -0.00033492910711705359 -0.034423231449755336 0 -0.00034425472640969032 -0.034418516577677083 0 -0.00033492910711705359 -0.034423231449755336 0 -0.00034056719999989626 -0.034422353066975012 0 -0.00034425472640969032 -0.034418516577677083 0 -0.00032661501258354498 -0.034425762664185323 0 -0.00034425472640969032 -0.034418516577677083 0 -0.00035832635027487986 -0.034411266674995708 0 -0.00032799132311632924 -0.034432566566524485 0 -0.00033043972074683632 -0.034428426560431533 0 -0.00034056719999989626 -0.034422353066975012 0 -0.00033043972074683632 -0.034428426560431533 0 -0.00033492910711705359 -0.034423231449755336 0 -0.00034056719999989626 -0.034422353066975012 0 -0.00034056719999989626 -0.034422353066975012 0 -0.00034425472640969032 -0.034418516577677083 0 -0.00035952308034974475 -0.03441133288440143 0 -0.0003118730062799368 -0.034437591082945314 0 -0.00032799132311632924 -0.034432566566524485 0 -0.00034428067225816654 -0.034419244817054377 0 -0.00032799132311632924 -0.034432566566524485 0 -0.00034056719999989626 -0.034422353066975012 0 -0.00034428067225816654 -0.034419244817054377 0 -0.00034056719999989626 -0.034422353066975012 0 -0.00034428067225816654 -0.034419244817054377 0 -0.00035952308034974475 -0.03441133288440143 0 -0.00034428067225816654 -0.034419244817054377 0 -0.00035952308034974475 -0.03441133288440143 0 -0.00037874223850512835 -0.034394525893450191 0 -0.00035952308034974475 -0.03441133288440143 0 -0.00039011174171440615 -0.034397281721138172 0 -0.00037874223850512835 -0.034394525893450191 0 -0.00034425472640969032 -0.034418516577677083 0 -0.00035832635027487986 -0.034411266674995708 0 -0.00035952308034974475 -0.03441133288440143 0 -0.00035832635027487986 -0.034411266674995708 0 -0.00035952308034974475 -0.03441133288440143 0 -0.00039011174171440615 -0.034397281721138172 0 -0.00039011174171440615 -0.034397281721138172 0 -0.00044062535052680663 -0.034360353626064953 0 -0.00037874223850512835 -0.034394525893450191 0 -0.00037265073423394348 -0.034398992429049681 0 -0.00039011174171440615 -0.034397281721138172 0 -0.00044062535052680663 -0.034360353626064953 0 -0.00044062535052680663 -0.034360353626064953 0 -0.00037145680143650244 -0.034400946628853984 0 -0.00043975547637913423 -0.034421276561565704 0 -0.00037265073423394348 -0.034398992429049681 0 -0.00044062535052680663 -0.034360353626064953 0 -0.00057202600602763835 -0.034310804836858382 0 -0.00044062535052680663 -0.034360353626064953 0 -0.00037874223850512835 -0.034394525893450191 0 -0.00037145680143650244 -0.034400946628853984 0 -0.00030901354100938271 -0.034422596672346144 0 -0.00037145680143650244 -0.034400946628853984 0 -0.00033517249232032151 -0.034467308201554546 0 -0.00032529563439377495 -0.034414321646415474 0 -0.00037874223850512835 -0.034394525893450191 0 -0.00037145680143650244 -0.034400946628853984 0 -0.00030901354100938271 -0.034422596672346144 0 -0.00032529563439377495 -0.034414321646415474 0 -0.00037145680143650244 -0.034400946628853984 0 -0.00037145680143650244 -0.034400946628853984 0 -0.00033517249232032151 -0.034467308201554546 0 -0.00043975547637913423 -0.034421276561565704 0 -0.00033517249232032151 -0.034467308201554546 0 -0.00043975547637913423 -0.034421276561565704 0 -0.00047743799785241776 -0.034597181460592791 0 -0.00044062535052680663 -0.034360353626064953 0 -0.00043975547637913423 -0.034421276561565704 0 -0.00057202600602763835 -0.034310804836858382 0 -0.00043975547637913423 -0.034421276561565704 0 -0.00057202600602763835 -0.034310804836858382 0 -0.00047743799785241776 -0.034597181460592791 0 -0.00061932576607681385 -0.034278691535867448 0 -0.0008353430813287584 -0.033952151924801263 0 -0.00056007450185119876 -0.033770878444925011 0 -0.00057202600602763835 -0.034310804836858382 0 -0.0012218513032201212 -0.033342633964293364 0 -0.00056007450185119876 -0.033770878444925011 0 -0.00086378910995438696 -0.032849947745213999 0 -0.0012218513032201212 -0.033342633964293364 0 -0.00033517249232032151 -0.034467308201554546 0 -0.00047743799785241776 -0.034597181460592791 0 -0.00032025477771753291 -0.034640466451030229 0 -0.00032025477771753291 -0.034640466451030229 0 -0.00040239288557224597 -0.034779448054150751 0 -0.00027758738958889851 -0.034801434640465242 0 -0.00047743799785241776 -0.034597181460592791 0 -0.00032025477771753291 -0.034640466451030229 0 -0.00040239288557224597 -0.034779448054150751 0 -0.00086378910995438696 -0.032849947745213999 0 -0.0012218513032201212 -0.033342633964293364 0 -0.0015953431884284787 -0.032190459027518672 0 -0.00086378910995438696 -0.032849947745213999 0 -0.0011195559999722315 -0.032176235753481539 0 -0.0015953431884284787 -0.032190459027518672 0 -0.0008353430813287584 -0.033952151924801263 0 -0.00098957439225088651 -0.033496722820102111 0 -0.0011195559999722315 -0.032176235753481539 0 -0.0015953431884284787 -0.032190459027518672 0 -0.001399743405906008 -0.031835508907271125 0 -0.00119356715580533 -0.031726973119792723 0 -0.0011195559999722315 -0.032176235753481539 0 -0.001399743405906008 -0.031835508907271125 0 -0.0015953431884284787 -0.032190459027518672 0 -0.001399743405906008 -0.031835508907271125 0 -0.0016567673938213316 -0.031657008284166961 0 -0.001399743405906008 -0.031835508907271125 0 -0.0016567673938213316 -0.031657008284166961 0 -0.0014480198820195332 -0.031566108434953943 0 -0.00119356715580533 -0.031726973119792723 0 -0.001399743405906008 -0.031835508907271125 0 -0.0014480198820195332 -0.031566108434953943 0 -0.00098957439225088651 -0.033496722820102111 0 -0.00099252170020062394 -0.033255162393708904 0 -0.00040239288557224597 -0.034779448054150751 0 -0.00031442722755209586 -0.034898453063728171 0 -0.00027758738958889851 -0.034801434640465242 0 -0.00027758738958889851 -0.034801434640465242 0 -0.00015409459797118713 -0.034855673750455625 0 -0.00020427899109322196 -0.034930280379657327 0 -0.00031442722755209586 -0.034898453063728171 0 -0.00027758738958889851 -0.034801434640465242 0 -0.00020427899109322196 -0.034930280379657327 0 -0.00015409459797118713 -0.034855673750455625 0 -0.00012027434858498456 -0.034924038845545236 0 -0.00020427899109322196 -0.034930280379657327 0 -0.00015409459797118713 -0.034855673750455625 0 -0.00011961154425359926 -0.034892940495153138 0 -0.00010305720760617495 -0.034900734589982746 0 -0.00015342139569605542 -0.034851830827290001 0 -0.0001590061478628071 -0.034749484471455379 0 -0.00015409459797118713 -0.034855673750455625 0 -0.0001414285369083921 -0.034885096054139579 0 -0.00011961154425359926 -0.034892940495153138 0 -0.00027758738958889851 -0.034801434640465242 0 -0.00015409459797118713 -0.034855673750455625 0 -0.00016793566264815751 -0.034610478840849529 0 -0.00032025477771753291 -0.034640466451030229 0 -0.00027758738958889851 -0.034801434640465242 0 -0.00016793566264815751 -0.034610478840849529 0 -0.00033517249232032151 -0.034467308201554546 0 -0.00032025477771753291 -0.034640466451030229 0 -0.00025931771816917589 -0.034533277537995337 0 -0.00032025477771753291 -0.034640466451030229 0 -0.00025931771816917589 -0.034533277537995337 0 -0.00016793566264815751 -0.034610478840849529 0 -0.00013317232242603965 -0.034825814180053823 0 -0.0001414285369083921 -0.034885096054139579 0 -0.00011330317804419981 -0.034864636655947356 0 -0.00023101897873615087 -0.034443099143521241 0 -0.00025931771816917589 -0.034533277537995337 0 -0.00016793566264815751 -0.034610478840849529 0 -0.0001414285369083921 -0.034885096054139579 0 -0.00011330317804419981 -0.034864636655947356 0 -0.00011961154425359926 -0.034892940495153138 0 -7.5615249793377443e-05 -0.03490778243453585 0 -0.00011330317804419981 -0.034864636655947356 0 -0.00011961154425359926 -0.034892940495153138 0 -5.6488722026755033e-05 -0.0349373872509409 0 -7.5615249793377443e-05 -0.03490778243453585 0 -6.1830782951119881e-05 -0.034927997161981396 0 -9.3954427554729145e-05 -0.034944182181430208 0 -8.3465234320621488e-05 -0.034890280230345273 0 -7.8448102530870802e-05 -0.034842077081058229 0 -7.5615249793377443e-05 -0.03490778243453585 0 -0.00011330317804419981 -0.034864636655947356 0 -9.3954427554729145e-05 -0.034944182181430208 0 -7.701711225083284e-05 -0.034893526932535383 0 -5.0418928407072395e-05 -0.034947086251100094 0 -6.1830782951119881e-05 -0.034927997161981396 0 -6.6012974369868295e-05 -0.03492301062341175 0 -5.6488722026755033e-05 -0.0349373872509409 0 -5.0418928407072395e-05 -0.034947086251100094 0 -6.1830782951119881e-05 -0.034927997161981396 0 -7.5615249793377443e-05 -0.03490778243453585 0 -6.1830782951119881e-05 -0.034927997161981396 0 -6.6012974369868295e-05 -0.03492301062341175 0 -5.0418928407072395e-05 -0.034947086251100094 0 -6.6012974369868295e-05 -0.03492301062341175 0 -4.8022975764650471e-05 -0.034952707099723722 0 -6.6012974369868295e-05 -0.03492301062341175 0 -5.3734793235881064e-05 -0.03493366970459344 0 -4.8022975764650471e-05 -0.034952707099723722 0 -7.5615249793377443e-05 -0.03490778243453585 0 -0.00011961154425359926 -0.034892940495153138 0 -0.00010305720760617495 -0.034900734589982746 0 -7.5615249793377443e-05 -0.03490778243453585 0 -6.6012974369868295e-05 -0.03492301062341175 0 -0.00010305720760617495 -0.034900734589982746 0 -0.00015409459797118713 -0.034855673750455625 0 -0.00010305720760617495 -0.034900734589982746 0 -0.00012027434858498456 -0.034924038845545236 0 -0.00010305720760617495 -0.034900734589982746 0 -0.00012027434858498456 -0.034924038845545236 0 -7.6594867965594613e-05 -0.034927756133728727 0 -0.00012027434858498456 -0.034924038845545236 0 -7.6594867965594613e-05 -0.034927756133728727 0 -8.0769399234450063e-05 -0.034966387498862307 0 -6.6012974369868295e-05 -0.03492301062341175 0 -7.6594867965594613e-05 -0.034927756133728727 0 -5.3734793235881064e-05 -0.03493366970459344 0 -6.6012974369868295e-05 -0.03492301062341175 0 -0.00010305720760617495 -0.034900734589982746 0 -7.6594867965594613e-05 -0.034927756133728727 0 -7.6594867965594613e-05 -0.034927756133728727 0 -5.3734793235881064e-05 -0.03493366970459344 0 -5.1385600659742339e-05 -0.034943132994878154 0 -2.4970376506131498e-05 -0.034969271300724178 0 -4.4262374986807241e-05 -0.034953793761116167 0 -5.3734793235881064e-05 -0.03493366970459344 0 -3.6894395911892811e-05 -0.034932577103834503 0 -4.8022975764650471e-05 -0.034952707099723722 0 -5.3734793235881064e-05 -0.03493366970459344 0 -5.1385600659742339e-05 -0.034943132994878154 0 -3.6894395911892811e-05 -0.034932577103834503 0 -7.6594867965594613e-05 -0.034927756133728727 0 -5.1385600659742339e-05 -0.034943132994878154 0 -4.8812733074413123e-05 -0.034963777735283759 0 -5.1385600659742339e-05 -0.034943132994878154 0 -2.4941613193219136e-08 -0.034999871221943847 0 -4.8812733074413123e-05 -0.034963777735283759 0 -5.1385600659742339e-05 -0.034943132994878154 0 -3.6894395911892811e-05 -0.034932577103834503 0 -2.4941613193219136e-08 -0.034999871221943847 0 -6.6345324638302359e-09 -0.035000004280077768 0 -1.0984111819677145e-05 -0.035005208180816302 0 1.001252842906101e-09 -0.035000008055112254 0 -2.4970376506131498e-05 -0.034969271300724178 0 -7.3638975368080196e-09 -0.03499999028647318 0 -6.6345324638302359e-09 -0.035000004280077768 0 -1.0984111819677145e-05 -0.035005208180816302 0 -1.2893027568347932e-05 -0.034984914177216844 0 -6.6345324638302359e-09 -0.035000004280077768 0 -1.2893027568347932e-05 -0.034984914177216844 0 -1.5144925344725462e-08 -0.034999953102930435 0 -1.2893027568347932e-05 -0.034984914177216844 0 -1.5144925344725462e-08 -0.034999953102930435 0 -2.3820466403165982e-05 -0.034974416369278963 0 -1.2893027568347932e-05 -0.034984914177216844 0 -4.8022975764650471e-05 -0.034952707099723722 0 -2.3820466403165982e-05 -0.034974416369278963 0 -1.0984111819677145e-05 -0.035005208180816302 0 -1.2893027568347932e-05 -0.034984914177216844 0 -4.8022975764650471e-05 -0.034952707099723722 0 -5.0418928407072395e-05 -0.034947086251100094 0 -4.8022975764650471e-05 -0.034952707099723722 0 -2.3820466403165982e-05 -0.034974416369278963 0 -2.7231547880163327e-08 -0.034999964641685748 0 -1.5144925344725462e-08 -0.034999953102930435 0 -2.3820466403165982e-05 -0.034974416369278963 0 -2.4948559702550937e-05 -0.035007260768748327 0 -3.8330509501137014e-05 -0.035025774611040172 0 -2.6665356515518901e-09 -0.035000053725675356 0 -2.3320790794814829e-08 -0.034999998733501091 0 -2.4948559702550937e-05 -0.035007260768748327 0 -2.6665356515518901e-09 -0.035000053725675356 0 -2.4948559702550937e-05 -0.035007260768748327 0 -4.8722277153065762e-05 -0.03499661703823681 0 -9.3187608704766619e-05 -0.035033369628386921 0 -2.4948559702550937e-05 -0.035007260768748327 0 -9.3187608704766619e-05 -0.035033369628386921 0 -3.8330509501137014e-05 -0.035025774611040172 0 -2.4948559702550937e-05 -0.035007260768748327 0 -4.8722277153065762e-05 -0.03499661703823681 0 -9.3592322027904384e-09 -0.035000012832584762 0 -2.3320790794814829e-08 -0.034999998733501091 0 -2.4948559702550937e-05 -0.035007260768748327 0 -9.3592322027904384e-09 -0.035000012832584762 0 -4.8722277153065762e-05 -0.03499661703823681 0 -9.3592322027904384e-09 -0.035000012832584762 0 -3.2500434357544605e-05 -0.034986147382978526 0 -9.3592322027904384e-09 -0.035000012832584762 0 -2.4941613193219136e-08 -0.034999871221943847 0 -3.2500434357544605e-05 -0.034986147382978526 0 -2.4941613193219136e-08 -0.034999871221943847 0 -4.8812733074413123e-05 -0.034963777735283759 0 -3.2500434357544605e-05 -0.034986147382978526 0 -4.8812733074413123e-05 -0.034963777735283759 0 -3.2500434357544605e-05 -0.034986147382978526 0 -8.0769399234450063e-05 -0.034966387498862307 0 -4.8722277153065762e-05 -0.03499661703823681 0 -3.2500434357544605e-05 -0.034986147382978526 0 -8.0769399234450063e-05 -0.034966387498862307 0 -4.8722277153065762e-05 -0.03499661703823681 0 -8.0769399234450063e-05 -0.034966387498862307 0 -0.00010483035594074068 -0.034998231389960957 0 -7.6594867965594613e-05 -0.034927756133728727 0 -4.8812733074413123e-05 -0.034963777735283759 0 -8.0769399234450063e-05 -0.034966387498862307 0 -0.00012027434858498456 -0.034924038845545236 0 -8.0769399234450063e-05 -0.034966387498862307 0 -0.00014878743704334043 -0.034972914077585418 0 -8.0769399234450063e-05 -0.034966387498862307 0 -0.00010483035594074068 -0.034998231389960957 0 -0.00014878743704334043 -0.034972914077585418 0 -0.00010483035594074068 -0.034998231389960957 0 -0.00016114864083322807 -0.035026999438566825 0 -0.00014878743704334043 -0.034972914077585418 0 -4.8722277153065762e-05 -0.03499661703823681 0 -0.00010483035594074068 -0.034998231389960957 0 -9.3187608704766619e-05 -0.035033369628386921 0 -0.00051370904408790477 -0.03393466841830696 0 -0.00025139247364549253 -0.03435872887185723 0 -0.00051370904408790477 -0.03393466841830696 0 -0.00063107257526144795 -0.033872933500476293 0 -0.0008440071370816901 -0.032835603450901807 0 -0.0012749535567728833 -0.032461713596848914 0 -0.0011244188386112268 -0.032735646152224906 0 -0.00010483035594074068 -0.034998231389960957 0 -9.3187608704766619e-05 -0.035033369628386921 0 -0.00016114864083322807 -0.035026999438566825 0 -0.00096488317080270622 -0.032561797354867333 0 -0.001425843857514509 -0.031824692605689237 0 -0.0012749535567728833 -0.032461713596848914 0 -0.0011760487572519875 -0.032446081013175032 0 -0.0013473776927843686 -0.032157076991206041 0 -0.0013264052398912058 -0.031270628689925681 0 -0.001584781451551197 -0.031575684777161765 0 -0.0013473776927843686 -0.032157076991206041 0 -0.00063107257526144795 -0.033872933500476293 0 -0.00096488317080270622 -0.032561797354867333 0 -0.00016114864083322807 -0.035026999438566825 0 -0.0002267633235674016 -0.035005880011723257 0 -0.00020423623442822976 -0.034982240965893543 0 -0.0002267633235674016 -0.035005880011723257 0 -0.00020423623442822976 -0.034982240965893543 0 -0.00025246323257926647 -0.034962438672184785 0 -0.00016114864083322807 -0.035026999438566825 0 -0.00020423623442822976 -0.034982240965893543 0 -0.00014878743704334043 -0.034972914077585418 0 -0.00020423623442822976 -0.034982240965893543 0 -0.00014878743704334043 -0.034972914077585418 0 -0.00020427899109322196 -0.034930280379657327 0 -0.00012027434858498456 -0.034924038845545236 0 -0.00014878743704334043 -0.034972914077585418 0 -0.00020427899109322196 -0.034930280379657327 0 -0.00020423623442822976 -0.034982240965893543 0 -0.00020427899109322196 -0.034930280379657327 0 -0.00025246323257926647 -0.034962438672184785 0 -0.00099252170020062394 -0.033255162393708904 0 -0.00096697710326096298 -0.033249309984541613 0 -0.00031442722755209586 -0.034898453063728171 0 -0.00020427899109322196 -0.034930280379657327 0 -0.00025246323257926647 -0.034962438672184785 0 -0.0016567673938213316 -0.031657008284166961 0 -0.0017046944239736232 -0.031313970210806848 0 -0.0014480198820195332 -0.031566108434953943 0 -0.0017046944239736232 -0.031313970210806848 0 -0.0014480198820195332 -0.031566108434953943 0 -0.0013619160303052831 -0.031344842551193165 0 -0.0017046944239736232 -0.031313970210806848 0 -0.0014992522606383839 -0.031179495425925713 0 -0.0013619160303052831 -0.031344842551193165 0 -0.0014992522606383839 -0.031179495425925713 0 -0.0015828390030124331 -0.031157076439382713 0 -0.0015027096995115122 -0.031073004525992112 0 -0.0017199276072650447 -0.031138073399649788 0 -0.0017046944239736232 -0.031313970210806848 0 -0.0015828390030124331 -0.031157076439382713 0 -0.0017046944239736232 -0.031313970210806848 0 -0.0014992522606383839 -0.031179495425925713 0 -0.0015828390030124331 -0.031157076439382713 0 -0.00096488317080270622 -0.032561797354867333 0 -0.00096697710326096298 -0.033249309984541613 0 -0.00096488317080270622 -0.032561797354867333 0 -0.0018671519999499315 -0.031032585687980643 0 -0.0013264052398912058 -0.031270628689925681 0 -0.0015828390030124331 -0.031157076439382713 0 -0.001584781451551197 -0.031575684777161765 0 -0.0015828390030124331 -0.031157076439382713 0 -0.0015988226432612773 -0.031291311157641125 0 -0.001584781451551197 -0.031575684777161765 0 -0.0015828390030124331 -0.031157076439382713 0 -0.0015988226432612773 -0.031291311157641125 0 -0.0015027096995115122 -0.031073004525992112 0 -0.0015988226432612773 -0.031291311157641125 0 -0.001680223817375758 -0.031536020599095479 0 -0.001584781451551197 -0.031575684777161765 0 -0.0015988226432612773 -0.031291311157641125 0 -0.001680223817375758 -0.031536020599095479 0 -0.0016027811770053598 -0.031315536905027412 0 -0.001680223817375758 -0.031536020599095479 0 -0.0016027811770053598 -0.031315536905027412 0 -0.0016930495082286502 -0.031430871833791153 0 -0.001680223817375758 -0.031536020599095479 0 -0.001584781451551197 -0.031575684777161765 0 -0.0016580560171630613 -0.031909958816993128 0 -0.001584781451551197 -0.031575684777161765 0 -0.0016580560171630613 -0.031909958816993128 0 -0.0013473776927843686 -0.032157076991206041 0 -0.0016580560171630613 -0.031909958816993128 0 -0.0018354828133241188 -0.031628735964709304 0 -0.0018946142748742043 -0.031930593429341805 0 -0.001680223817375758 -0.031536020599095479 0 -0.0018354828133241188 -0.031628735964709304 0 -0.0016930495082286502 -0.031430871833791153 0 -0.001680223817375758 -0.031536020599095479 0 -0.0016580560171630613 -0.031909958816993128 0 -0.0018354828133241188 -0.031628735964709304 0 -0.0018354828133241188 -0.031628735964709304 0 -0.002063938578690974 -0.031442505201572338 0 -0.0018946142748742043 -0.031930593429341805 0 -0.0018354828133241188 -0.031628735964709304 0 -0.002063938578690974 -0.031442505201572338 0 -0.0017436182178074858 -0.031394423940752855 0 -0.002063938578690974 -0.031442505201572338 0 -0.0023612560879472015 -0.031574347187444042 0 -0.0018946142748742043 -0.031930593429341805 0 -0.002063938578690974 -0.031442505201572338 0 -0.0023612560879472015 -0.031574347187444042 0 -0.0021837770681890798 -0.031044420529395995 0 -0.0023612560879472015 -0.031574347187444042 0 -0.0018946142748742043 -0.031930593429341805 0 -0.0018987968157143152 -0.032245261548194536 0 -0.0016580560171630613 -0.031909958816993128 0 -0.0018946142748742043 -0.031930593429341805 0 -0.0014854316321489377 -0.03239096194309312 0 -0.0014854316321489377 -0.03239096194309312 0 -0.0018987968157143152 -0.032245261548194536 0 -0.0014616373528812379 -0.032713912186548483 0 -0.0018946142748742043 -0.031930593429341805 0 -0.0014854316321489377 -0.03239096194309312 0 -0.0018987968157143152 -0.032245261548194536 0 -0.0016084133925198983 -0.032842236371924211 0 -0.0018987968157143152 -0.032245261548194536 0 -0.0014616373528812379 -0.032713912186548483 0 -0.0016084133925198983 -0.032842236371924211 0 -0.0011698537675494227 -0.033214639507562586 0 -0.0014616373528812379 -0.032713912186548483 0 -0.0011698537675494227 -0.033214639507562586 0 -0.0014616373528812379 -0.032713912186548483 0 -0.0012129454684195566 -0.032926227905427617 0 -0.0014854316321489377 -0.03239096194309312 0 -0.0012129454684195566 -0.032926227905427617 0 -0.0010776463690825003 -0.032969958775727067 0 -0.0014854316321489377 -0.03239096194309312 0 -0.0014616373528812379 -0.032713912186548483 0 -0.0012129454684195566 -0.032926227905427617 0 -0.0014854316321489377 -0.03239096194309312 0 -0.0013473776927843686 -0.032157076991206041 0 -0.0010776463690825003 -0.032969958775727067 0 -0.0016580560171630613 -0.031909958816993128 0 -0.0014854316321489377 -0.03239096194309312 0 -0.0013473776927843686 -0.032157076991206041 0 -0.0013473776927843686 -0.032157076991206041 0 -0.0011244188386112268 -0.032735646152224906 0 -0.0010776463690825003 -0.032969958775727067 0 -0.0012749535567728833 -0.032461713596848914 0 -0.0013473776927843686 -0.032157076991206041 0 -0.0011244188386112268 -0.032735646152224906 0 -0.0008440071370816901 -0.032835603450901807 0 -0.0011244188386112268 -0.032735646152224906 0 -0.00070366163867614491 -0.033410966735709348 0 -0.0011244188386112268 -0.032735646152224906 0 -0.00070366163867614491 -0.033410966735709348 0 -0.0010776463690825003 -0.032969958775727067 0 -0.0008440071370816901 -0.032835603450901807 0 -0.00070366163867614491 -0.033410966735709348 0 -0.00032371473026429989 -0.033672434766252132 0 -0.00070366163867614491 -0.033410966735709348 0 -0.0010776463690825003 -0.032969958775727067 0 -0.00049108359454809838 -0.033935932316705157 0 -0.0012129454684195566 -0.032926227905427617 0 -0.0010776463690825003 -0.032969958775727067 0 -0.00084798393343180924 -0.033515627344238796 0 -0.00079590086075488088 -0.033858757005664993 0 -0.0011698537675494227 -0.033214639507562586 0 -0.00084798393343180924 -0.033515627344238796 0 -0.0011698537675494227 -0.033214639507562586 0 -0.0012129454684195566 -0.032926227905427617 0 -0.00084798393343180924 -0.033515627344238796 0 -0.00079590086075488088 -0.033858757005664993 0 -0.00084798393343180924 -0.033515627344238796 0 -0.00036262005837794676 -0.034274244204337397 0 -0.0010776463690825003 -0.032969958775727067 0 -0.00084798393343180924 -0.033515627344238796 0 -0.00049108359454809838 -0.033935932316705157 0 -0.00084798393343180924 -0.033515627344238796 0 -0.00049108359454809838 -0.033935932316705157 0 -0.00036262005837794676 -0.034274244204337397 0 -0.00049108359454809838 -0.033935932316705157 0 -0.00036262005837794676 -0.034274244204337397 0 -1.4920209828045727e-07 -0.034999247062364916 0 -1.3490982734248937e-07 -0.034999211127410446 0 -0.00036262005837794676 -0.034274244204337397 0 -1.4920209828045727e-07 -0.034999247062364916 0 -1.4920209828045727e-07 -0.034999247062364916 0 -0.00019993627025364079 -0.034348102466183174 0 -1.8910385452092188e-08 -0.034997744222446857 0 -0.00049108359454809838 -0.033935932316705157 0 -1.4920209828045727e-07 -0.034999247062364916 0 -0.00019993627025364079 -0.034348102466183174 0 -0.00070366163867614491 -0.033410966735709348 0 -0.00049108359454809838 -0.033935932316705157 0 -0.00019993627025364079 -0.034348102466183174 0 -0.00070366163867614491 -0.033410966735709348 0 -0.00019993627025364079 -0.034348102466183174 0 -0.00032371473026429989 -0.033672434766252132 0 -0.00025139247364549253 -0.03435872887185723 0 -2.2206354456255742e-07 -0.034999674058694877 0 -0.00019993627025364079 -0.034348102466183174 0 -0.00032371473026429989 -0.033672434766252132 0 -1.8910385452092188e-08 -0.034997744222446857 0 -0.0028029665475100838 -0.026188693820317042 0 -0.0030623990733304337 -0.026796375774890246 0 -0.0029852310398401881 -0.025813617426919799 0 -0.0028029665475100838 -0.026188693820317042 0 -0.0027075800297375243 -0.025738990663431514 0 -0.0026773360428773915 -0.025976591365649376 0 -0.0028029665475100838 -0.026188693820317042 0 -0.0029852310398401881 -0.025813617426919799 0 -0.0027075800297375243 -0.025738990663431514 0 -0.0028029665475100838 -0.026188693820317042 0 -0.0026773360428773915 -0.025976591365649376 0 -0.0027489267662871605 -0.02617567961168743 0 -0.0028029665475100838 -0.026188693820317042 0 -0.0030623990733304337 -0.026796375774890246 0 -0.0027489267662871605 -0.02617567961168743 0 -0.0030623990733304337 -0.026796375774890246 0 -0.0023238677390469281 -0.028735014473696495 0 -0.0025281933208004233 -0.02954178854491063 0 -0.0030623990733304337 -0.026796375774890246 0 -0.002411971330250103 -0.027036786972958648 0 -0.0024322407726316427 -0.027613923243619908 0 -0.0030623990733304337 -0.026796375774890246 0 -0.0024322407726316427 -0.027613923243619908 0 -0.0023238677390469281 -0.028735014473696495 0 -0.0030623990733304337 -0.026796375774890246 0 -0.0025281933208004233 -0.02954178854491063 0 -0.0028255561602471961 -0.030471693687689823 0 -0.0030623990733304337 -0.026796375774890246 0 -0.0029852310398401881 -0.025813617426919799 0 -0.0034877619670920842 -0.025176841074127453 0 -0.0030985375208771068 -0.026718457370909235 0 -0.0031227953757425007 -0.028068719098063594 0 -0.0023238677390469281 -0.028735014473696495 0 -0.0025281933208004233 -0.02954178854491063 0 -0.0020568256075773565 -0.029738725203389972 0 -0.0025281933208004233 -0.02954178854491063 0 -0.0026327477267379077 -0.030073531485658129 0 -0.0028255561602471961 -0.030471693687689823 0 -0.0025281933208004233 -0.02954178854491063 0 -0.0023357362078628738 -0.029952323762600506 0 -0.0020568256075773565 -0.029738725203389972 0 -0.0026327477267379077 -0.030073531485658129 0 -0.0026977188786545085 -0.030304900111778506 0 -0.0024925008625484506 -0.030234646542541183 0 -0.0023357362078628738 -0.029952323762600506 0 -0.0021424586342543971 -0.030275428170539458 0 -0.0024925008625484506 -0.030234646542541183 0 -0.0025281933208004233 -0.02954178854491063 0 -0.0026327477267379077 -0.030073531485658129 0 -0.0023357362078628738 -0.029952323762600506 0 -0.0026327477267379077 -0.030073531485658129 0 -0.0023357362078628738 -0.029952323762600506 0 -0.0024925008625484506 -0.030234646542541183 0 -0.003158199728674886 -0.025335501466304502 0 -0.0029852310398401881 -0.025813617426919799 0 -0.0034877619670920842 -0.025176841074127453 0 -0.003158199728674886 -0.025335501466304502 0 -0.0030110640194329027 -0.025364911591281337 0 -0.0029852310398401881 -0.025813617426919799 0 -0.0030110640194329027 -0.025364911591281337 0 -0.0029852310398401881 -0.025813617426919799 0 -0.0028651676617212213 -0.025560379664248664 0 -0.0029852310398401881 -0.025813617426919799 0 -0.0027075800297375243 -0.025738990663431514 0 -0.0028651676617212213 -0.025560379664248664 0 -0.0030110640194329027 -0.025364911591281337 0 -0.0028651676617212213 -0.025560379664248664 0 -0.002803308095161593 -0.025267956996318917 0 -0.0027075800297375243 -0.025738990663431514 0 -0.0028651676617212213 -0.025560379664248664 0 -0.002803308095161593 -0.025267956996318917 0 -0.002803308095161593 -0.025267956996318917 0 -0.0025473952285111393 -0.025437223118098429 0 -0.0025919031209683846 -0.025020319706324134 0 -0.0027075800297375243 -0.025738990663431514 0 -0.002803308095161593 -0.025267956996318917 0 -0.0025473952285111393 -0.025437223118098429 0 -0.0025473952285111393 -0.025437223118098429 0 -0.002416892635416485 -0.02521197525937582 0 -0.002397270339370676 -0.02548641086280409 0 -0.0025473952285111393 -0.025437223118098429 0 -0.002416892635416485 -0.02521197525937582 0 -0.0025919031209683846 -0.025020319706324134 0 -0.0025473952285111393 -0.025437223118098429 0 -0.002397270339370676 -0.02548641086280409 0 -0.0025406302861085786 -0.025716148118189425 0 -0.002397270339370676 -0.02548641086280409 0 -0.0025406302861085786 -0.025716148118189425 0 -0.0024617207038723204 -0.025691235232636576 0 -0.0027075800297375243 -0.025738990663431514 0 -0.0025473952285111393 -0.025437223118098429 0 -0.0025406302861085786 -0.025716148118189425 0 -0.0027075800297375243 -0.025738990663431514 0 -0.0025406302861085786 -0.025716148118189425 0 -0.0026773360428773915 -0.025976591365649376 0 -0.0025406302861085786 -0.025716148118189425 0 -0.0026773360428773915 -0.025976591365649376 0 -0.0025926908270848827 -0.025890184888678992 0 -0.0025926908270848827 -0.025890184888678992 0 -0.0025601275148236348 -0.025845313536236245 0 -0.0027489267662871605 -0.02617567961168743 0 -0.0026773360428773915 -0.025976591365649376 0 -0.0025926908270848827 -0.025890184888678992 0 -0.0027489267662871605 -0.02617567961168743 0 -0.0025926908270848827 -0.025890184888678992 0 -0.0024617207038723204 -0.025691235232636576 0 -0.0025204729623490938 -0.025741413985290253 0 -0.0025406302861085786 -0.025716148118189425 0 -0.0025926908270848827 -0.025890184888678992 0 -0.0024617207038723204 -0.025691235232636576 0 -0.0025926908270848827 -0.025890184888678992 0 -0.0025204729623490938 -0.025741413985290253 0 -0.0025601275148236348 -0.025845313536236245 0 -0.0024544957337197123 -0.025669267935047958 0 -0.0025204729623490938 -0.025741413985290253 0 -0.0025601275148236348 -0.025845313536236245 0 -0.0025601275148236348 -0.025845313536236245 0 -0.0025429008138688905 -0.025969478103967193 0 -0.0027489267662871605 -0.02617567961168743 0 -0.0024519241651894735 -0.025755861832235868 0 -0.0025601275148236348 -0.025845313536236245 0 -0.0025429008138688905 -0.025969478103967193 0 -0.0030623990733304337 -0.026796375774890246 0 -0.0027489267662871605 -0.02617567961168743 0 -0.0025179599109057594 -0.026322345430639573 0 -0.0025429008138688905 -0.025969478103967193 0 -0.0027489267662871605 -0.02617567961168743 0 -0.0025179599109057594 -0.026322345430639573 0 -0.0030623990733304337 -0.026796375774890246 0 -0.002411971330250103 -0.027036786972958648 0 -0.0025179599109057594 -0.026322345430639573 0 -0.0022574876749939235 -0.025732758652135521 0 -0.0024519241651894735 -0.025755861832235868 0 -0.0025429008138688905 -0.025969478103967193 0 -0.0022574876749939235 -0.025732758652135521 0 -0.0025429008138688905 -0.025969478103967193 0 -0.0025179599109057594 -0.026322345430639573 0 -0.0010741053176778908 -0.030295773481770195 0 -0.0014912961578394893 -0.028534755009263724 0 -0.0014068215870384109 -0.028599124468199417 0 -0.0016794140512960073 -0.028598955269725106 0 -0.0015284379675786577 -0.02889237405443678 0 -0.0020035582481379086 -0.027056243500149978 0 -0.0014912961578394893 -0.028534755009263724 0 -0.0022574876749939235 -0.025732758652135521 0 -0.0025179599109057594 -0.026322345430639573 0 -0.0018692063707262052 -0.02639405210019399 0 -0.00072660120368043266 -0.031632097127184129 0 -0.00072951829671909305 -0.031400266379225203 0 -0.00048622719643362012 -0.031229205653435899 0 -0.00072660120368043266 -0.031632097127184129 0 -0.00085056271460693311 -0.03148084414311015 0 -0.00072951829671909305 -0.031400266379225203 0 -0.00085056271460693311 -0.03148084414311015 0 -0.00072951829671909305 -0.031400266379225203 0 -0.00085716650120841215 -0.03124211649750604 0 -0.00072951829671909305 -0.031400266379225203 0 -0.00085716650120841215 -0.03124211649750604 0 -0.00048622719643362012 -0.031229205653435899 0 -0.00085716650120841215 -0.03124211649750604 0 -0.00048622719643362012 -0.031229205653435899 0 -0.00058991334715190712 -0.030871592169859099 0 -0.00085716650120841215 -0.03124211649750604 0 -0.0010853146489453876 -0.030895759557967049 0 -0.00058991334715190712 -0.030871592169859099 0 -0.0014912961578394893 -0.028534755009263724 0 -0.00082905513264658402 -0.029379589304781257 0 -0.0019206335013972516 -0.026765477817915315 0 -0.001617304721938966 -0.026030941919181535 0 -0.00094392389738716007 -0.027816380831497015 0 -0.0013389531709646209 -0.027044316106433961 0 -0.0014912961578394893 -0.028534755009263724 0 -0.002411971330250103 -0.027036786972958648 0 -0.0025179599109057594 -0.026322345430639573 0 -0.0019206335013972516 -0.026765477817915315 0 -0.0025179599109057594 -0.026322345430639573 0 -0.0019206335013972516 -0.026765477817915315 0 -0.0018692063707262052 -0.02639405210019399 0 -0.00119356715580533 -0.031726973119792723 0 -0.0010456914543476934 -0.031451159901295343 0 -0.0013619160303052831 -0.031344842551193165 0 -0.00119356715580533 -0.031726973119792723 0 -0.0014480198820195332 -0.031566108434953943 0 -0.0013619160303052831 -0.031344842551193165 0 -0.0008365999830310584 -0.031979246353984456 0 -0.0010446228232317209 -0.03139632036168518 0 -0.00093222435755411994 -0.031692143814730719 0 -0.00085056271460693311 -0.03148084414311015 0 -0.0010456914543476934 -0.031451159901295343 0 -0.00085056271460693311 -0.03148084414311015 0 -0.00085716650120841215 -0.03124211649750604 0 -0.0010456914543476934 -0.031451159901295343 0 -0.00085716650120841215 -0.03124211649750604 0 -0.0010456914543476934 -0.031451159901295343 0 -0.0011590333624881457 -0.031208156933359293 0 -0.00085716650120841215 -0.03124211649750604 0 -0.0011590333624881457 -0.031208156933359293 0 -0.0010853146489453876 -0.030895759557967049 0 -0.0010456914543476934 -0.031451159901295343 0 -0.0011590333624881457 -0.031208156933359293 0 -0.0013619160303052831 -0.031344842551193165 0 -0.0014992522606383839 -0.031179495425925713 0 -0.0013619160303052831 -0.031344842551193165 0 -0.0013435881160994564 -0.031081464303386486 0 -0.0011590333624881457 -0.031208156933359293 0 -0.0013619160303052831 -0.031344842551193165 0 -0.0013435881160994564 -0.031081464303386486 0 -0.0013435881160994564 -0.031081464303386486 0 -0.0012693767393333331 -0.030719450027995216 0 -0.0015027096995115122 -0.031073004525992112 0 -0.0014992522606383839 -0.031179495425925713 0 -0.0013435881160994564 -0.031081464303386486 0 -0.0015027096995115122 -0.031073004525992112 0 -0.0010853146489453876 -0.030895759557967049 0 -0.0012693767393333331 -0.030719450027995216 0 -0.00087911544418266838 -0.030149128803210693 0 -0.0013435881160994564 -0.031081464303386486 0 -0.0010853146489453876 -0.030895759557967049 0 -0.0012693767393333331 -0.030719450027995216 0 -0.0011590333624881457 -0.031208156933359293 0 -0.0013435881160994564 -0.031081464303386486 0 -0.0010853146489453876 -0.030895759557967049 0 -0.0012693767393333331 -0.030719450027995216 0 -0.0012296742908689657 -0.030717304256729236 0 -0.0013848669963345914 -0.030963897495125556 0 -0.0012693767393333331 -0.030719450027995216 0 -0.00087911544418266838 -0.030149128803210693 0 -0.0012296742908689657 -0.030717304256729236 0 -0.0012693767393333331 -0.030719450027995216 0 -0.001478079726123981 -0.031078387805642826 0 -0.0013848669963345914 -0.030963897495125556 0 -0.0012693767393333331 -0.030719450027995216 0 -0.0015027096995115122 -0.031073004525992112 0 -0.001478079726123981 -0.031078387805642826 0 -0.0015988226432612773 -0.031291311157641125 0 -0.0015027096995115122 -0.031073004525992112 0 -0.001478079726123981 -0.031078387805642826 0 -0.0019592539698120169 -0.027924604973823465 0 -0.00094392389738716007 -0.027816380831497015 0 -0.0015280890171956607 -0.029521485927386404 0 -0.0024322407726316427 -0.027613923243619908 0 -0.0023238677390469281 -0.028735014473696495 0 -0.0019592539698120169 -0.027924604973823465 0 -0.0023238677390469281 -0.028735014473696495 0 -0.0019592539698120169 -0.027924604973823465 0 -0.0015280890171956607 -0.029521485927386404 0 -0.002411971330250103 -0.027036786972958648 0 -0.0019206335013972516 -0.026765477817915315 0 -0.0019592539698120169 -0.027924604973823465 0 -0.002411971330250103 -0.027036786972958648 0 -0.0024322407726316427 -0.027613923243619908 0 -0.0019592539698120169 -0.027924604973823465 0 -0.0019206335013972516 -0.026765477817915315 0 -0.0019592539698120169 -0.027924604973823465 0 -0.00094392389738716007 -0.027816380831497015 0 -0.0010853146489453876 -0.030895759557967049 0 -0.00058991334715190712 -0.030871592169859099 0 -0.00087911544418266838 -0.030149128803210693 0 -0.00082905513264658402 -0.029379589304781257 0 -0.0008196501959531027 -0.029911519052228264 0 -0.00094392389738716007 -0.027816380831497015 0 -0.00087911544418266838 -0.030149128803210693 0 -0.0015280890171956607 -0.029521485927386404 0 -0.00087911544418266838 -0.030149128803210693 0 -0.0012807953391398819 -0.03034521376417881 0 -0.0015280890171956607 -0.029521485927386404 0 -0.00087911544418266838 -0.030149128803210693 0 -0.0012807953391398819 -0.03034521376417881 0 -0.0012296742908689657 -0.030717304256729236 0 -0.0012807953391398819 -0.03034521376417881 0 -0.0016890249099884812 -0.030256237654039078 0 -0.0015280890171956607 -0.029521485927386404 0 -0.0016890249099884812 -0.030256237654039078 0 -0.0015280890171956607 -0.029521485927386404 0 -0.0020568256075773565 -0.029738725203389972 0 -0.0023238677390469281 -0.028735014473696495 0 -0.0015280890171956607 -0.029521485927386404 0 -0.0020568256075773565 -0.029738725203389972 0 -0.0016890249099884812 -0.030256237654039078 0 -0.0020568256075773565 -0.029738725203389972 0 -0.0021424586342543971 -0.030275428170539458 0 -0.0023357362078628738 -0.029952323762600506 0 -0.0020568256075773565 -0.029738725203389972 0 -0.0021424586342543971 -0.030275428170539458 0 -0.0021424586342543971 -0.030275428170539458 0 -0.00224164678575945 -0.030642092318299792 0 -0.0024012625864845917 -0.0303957058324641 0 -0.00224164678575945 -0.030642092318299792 0 -0.0018570566048216259 -0.030897789763738422 0 -0.0018149782499950807 -0.031207913368175653 0 -0.0016890249099884812 -0.030256237654039078 0 -0.0021424586342543971 -0.030275428170539458 0 -0.0018925212488738856 -0.030595528565626032 0 -0.0021424586342543971 -0.030275428170539458 0 -0.0018925212488738856 -0.030595528565626032 0 -0.00224164678575945 -0.030642092318299792 0 -0.0018925212488738856 -0.030595528565626032 0 -0.00224164678575945 -0.030642092318299792 0 -0.0018570566048216259 -0.030897789763738422 0 -0.0018925212488738856 -0.030595528565626032 0 -0.0018570566048216259 -0.030897789763738422 0 -0.0017012568919287597 -0.030841359651564863 0 -0.0018925212488738856 -0.030595528565626032 0 -0.0017012568919287597 -0.030841359651564863 0 -0.0014607032503899924 -0.030779661239553641 0 -0.0017012568919287597 -0.030841359651564863 0 -0.0014607032503899924 -0.030779661239553641 0 -0.0016141229172770364 -0.031052841999575302 0 -0.0018570566048216259 -0.030897789763738422 0 -0.0017012568919287597 -0.030841359651564863 0 -0.0016141229172770364 -0.031052841999575302 0 -0.0016890249099884812 -0.030256237654039078 0 -0.0018925212488738856 -0.030595528565626032 0 -0.0014607032503899924 -0.030779661239553641 0 -0.0012807953391398819 -0.03034521376417881 0 -0.0016890249099884812 -0.030256237654039078 0 -0.0014607032503899924 -0.030779661239553641 0 -0.0012807953391398819 -0.03034521376417881 0 -0.0012296742908689657 -0.030717304256729236 0 -0.0014607032503899924 -0.030779661239553641 0 -0.0012296742908689657 -0.030717304256729236 0 -0.0014174797965625129 -0.031048690677902023 0 -0.0014245606013219166 -0.031100478181169844 0 -0.0012296742908689657 -0.030717304256729236 0 -0.0014607032503899924 -0.030779661239553641 0 -0.0014174797965625129 -0.031048690677902023 0 -0.0014607032503899924 -0.030779661239553641 0 -0.0014174797965625129 -0.031048690677902023 0 -0.0016141229172770364 -0.031052841999575302 0 -0.0014174797965625129 -0.031048690677902023 0 -0.0014875126742583591 -0.03117179115803605 0 -0.0016141229172770364 -0.031052841999575302 0 -0.0014174797965625129 -0.031048690677902023 0 -0.0014245606013219166 -0.031100478181169844 0 -0.0014750454648138139 -0.031209225713609207 0 -0.0014174797965625129 -0.031048690677902023 0 -0.0014875126742583591 -0.03117179115803605 0 -0.0014750454648138139 -0.031209225713609207 0 -0.0015984291381234104 -0.031162931563339311 0 -0.0014875126742583591 -0.03117179115803605 0 -0.0016141229172770364 -0.031052841999575302 0 -0.0015984291381234104 -0.031162931563339311 0 -0.0014875126742583591 -0.03117179115803605 0 -0.0015090498884449341 -0.03118166771312653 0 -0.0015984291381234104 -0.031162931563339311 0 -0.0015090498884449341 -0.03118166771312653 0 -0.0018149782499950807 -0.031207913368175653 0 -0.0018570566048216259 -0.030897789763738422 0 -0.0016141229172770364 -0.031052841999575302 0 -0.0018149782499950807 -0.031207913368175653 0 -0.0015984291381234104 -0.031162931563339311 0 -0.0016141229172770364 -0.031052841999575302 0 -0.0018149782499950807 -0.031207913368175653 0 -0.0016027811770053598 -0.031315536905027412 0 -0.001478079726123981 -0.031078387805642826 0 -0.0015511264464944706 -0.031238758208946487 0 -0.001478079726123981 -0.031078387805642826 0 -0.0013848669963345914 -0.030963897495125556 0 -0.0015511264464944706 -0.031238758208946487 0 -0.0015988226432612773 -0.031291311157641125 0 -0.0016027811770053598 -0.031315536905027412 0 -0.001478079726123981 -0.031078387805642826 0 -0.0013848669963345914 -0.030963897495125556 0 -0.0014245606013219166 -0.031100478181169844 0 -0.0015511264464944706 -0.031238758208946487 0 -0.0012296742908689657 -0.030717304256729236 0 -0.0013848669963345914 -0.030963897495125556 0 -0.0014245606013219166 -0.031100478181169844 0 -0.0014245606013219166 -0.031100478181169844 0 -0.0015708816316222193 -0.031259506786359657 0 -0.0014750454648138139 -0.031209225713609207 0 -0.0014245606013219166 -0.031100478181169844 0 -0.0015708816316222193 -0.031259506786359657 0 -0.0015511264464944706 -0.031238758208946487 0 -0.0018354828133241188 -0.031628735964709304 0 -0.0016930495082286502 -0.031430871833791153 0 -0.0017436182178074858 -0.031394423940752855 0 -0.0015511264464944706 -0.031238758208946487 0 -0.0016930495082286502 -0.031430871833791153 0 -0.0017436182178074858 -0.031394423940752855 0 -0.0015708816316222193 -0.031259506786359657 0 -0.0015511264464944706 -0.031238758208946487 0 -0.0017436182178074858 -0.031394423940752855 0 -0.0016027811770053598 -0.031315536905027412 0 -0.0015511264464944706 -0.031238758208946487 0 -0.0016930495082286502 -0.031430871833791153 0 -0.002063938578690974 -0.031442505201572338 0 -0.0017436182178074858 -0.031394423940752855 0 -0.0017455493058883722 -0.031218708229800697 0 -0.0017455493058883722 -0.031218708229800697 0 -0.0014750454648138139 -0.031209225713609207 0 -0.0014692891058985036 -0.03110869594214833 0 -0.0015708816316222193 -0.031259506786359657 0 -0.0017436182178074858 -0.031394423940752855 0 -0.0017455493058883722 -0.031218708229800697 0 -0.0015708816316222193 -0.031259506786359657 0 -0.0017455493058883722 -0.031218708229800697 0 -0.0014750454648138139 -0.031209225713609207 0 -0.0017455493058883722 -0.031218708229800697 0 -0.0016359199097695288 -0.030953817973518379 0 -0.0014692891058985036 -0.03110869594214833 0 -0.0019105052716704258 -0.030706847999666637 0 -0.0017455493058883722 -0.031218708229800697 0 -0.0016359199097695288 -0.030953817973518379 0 -0.0016344058935214884 -0.030245519759894892 0 -0.0019105052716704258 -0.030706847999666637 0 -0.0016359199097695288 -0.030953817973518379 0 -0.0016344058935214884 -0.030245519759894892 0 -0.0016359199097695288 -0.030953817973518379 0 -0.0013544345430612878 -0.030791850362709226 0 -0.0019105052716704258 -0.030706847999666637 0 -0.0017455493058883722 -0.031218708229800697 0 -0.0021837770681890798 -0.031044420529395995 0 -0.002063938578690974 -0.031442505201572338 0 -0.0017455493058883722 -0.031218708229800697 0 -0.0021837770681890798 -0.031044420529395995 0 -0.0012848894102880809 -0.031133385549041222 0 -0.0015090498884449341 -0.03118166771312653 0 -0.0018149782499950807 -0.031207913368175653 0 -0.0016095186665503992 -0.028785036666994269 0 -0.0023740596009373372 -0.030624439196125848 0 -0.0012848894102880809 -0.031133385549041222 0 -0.0013882934939139168 -0.031155011462197055 0 -0.0012246560566424225 -0.030956045994781151 0 -0.0012848894102880809 -0.031133385549041222 0 -0.0015090498884449341 -0.03118166771312653 0 -0.0013882934939139168 -0.031155011462197055 0 -0.0014875126742583591 -0.03117179115803605 0 -0.0015090498884449341 -0.03118166771312653 0 -0.0013882934939139168 -0.031155011462197055 0 -0.0014875126742583591 -0.03117179115803605 0 -0.0014750454648138139 -0.031209225713609207 0 -0.0013882934939139168 -0.031155011462197055 0 -0.0014750454648138139 -0.031209225713609207 0 -0.0014692891058985036 -0.03110869594214833 0 -0.0013882934939139168 -0.031155011462197055 0 -0.0014692891058985036 -0.03110869594214833 0 -0.0013882934939139168 -0.031155011462197055 0 -0.0012246560566424225 -0.030956045994781151 0 -0.0014692891058985036 -0.03110869594214833 0 -0.0013544345430612878 -0.030791850362709226 0 -0.0012246560566424225 -0.030956045994781151 0 -0.0016359199097695288 -0.030953817973518379 0 -0.0014692891058985036 -0.03110869594214833 0 -0.0013544345430612878 -0.030791850362709226 0 -0.0012528990338567781 -0.030329265563789797 0 -0.0013544345430612878 -0.030791850362709226 0 -0.001155720398443502 -0.030688884106223557 0 -0.0013544345430612878 -0.030791850362709226 0 -0.001155720398443502 -0.030688884106223557 0 -0.0012246560566424225 -0.030956045994781151 0 -0.00087057486019081164 -0.030542933532535295 0 -0.001155720398443502 -0.030688884106223557 0 -0.0012246560566424225 -0.030956045994781151 0 -0.00042841693042955912 -0.030615904999808034 0 -0.0016095186665503992 -0.028785036666994269 0 -0.0011992019021831465 -0.026555514496374472 0 -0.0016095186665503992 -0.028785036666994269 0 -0.00087057486019081164 -0.030542933532535295 0 -0.0012848894102880809 -0.031133385549041222 0 -0.0012246560566424225 -0.030956045994781151 0 -0.00036166810618618462 -0.029916801903727155 0 3.9756322657940747e-05 -0.02990516400581774 0 0.00018579698062970581 -0.030802044270648681 0 -0.0024838487445332084 -0.023701391337511226 0 -0.00275709487410041 -0.023865594191758644 0 -0.0027169943587677693 -0.023776754770404772 0 -0.002569874376378217 -0.023724358186915907 0 -0.0027169943587677693 -0.023776754770404772 0 -0.0027121107921994746 -0.023760251751085405 0 -0.0027169943587677693 -0.023776754770404772 0 -0.0027121107921994746 -0.023760251751085405 0 -0.0027869048235460987 -0.023829185941502865 0 -0.0027121107921994746 -0.023760251751085405 0 -0.0027869048235460987 -0.023829185941502865 0 -0.0027657585616713419 -0.0237779862704895 0 -0.0027869048235460987 -0.023829185941502865 0 -0.0028213249970200495 -0.02389676718219037 0 -0.0028962913855475579 -0.023979520374625127 0 -0.0027169943587677693 -0.023776754770404772 0 -0.0027869048235460987 -0.023829185941502865 0 -0.0028962913855475579 -0.023979520374625127 0 -0.0027869048235460987 -0.023829185941502865 0 -0.0027657585616713419 -0.0237779862704895 0 -0.0028213249970200495 -0.02389676718219037 0 -0.0027880038715518952 -0.023809818173509599 0 -0.0027657585616713419 -0.0237779862704895 0 -0.0028213249970200495 -0.02389676718219037 0 -0.0027880038715518952 -0.023809818173509599 0 -0.0028213249970200495 -0.02389676718219037 0 -0.0028006340408113567 -0.02400004380903276 0 -0.0028006340408113567 -0.02400004380903276 0 -0.0028860185258972266 -0.024073949118483109 0 -0.0028292725667872962 -0.024186836910893891 0 -0.0028213249970200495 -0.02389676718219037 0 -0.0028006340408113567 -0.02400004380903276 0 -0.0028860185258972266 -0.024073949118483109 0 -0.0028213249970200495 -0.02389676718219037 0 -0.0028860185258972266 -0.024073949118483109 0 -0.0028962913855475579 -0.023979520374625127 0 -0.0028860185258972266 -0.024073949118483109 0 -0.0029981659450143442 -0.024172521789217877 0 -0.0029572874883728151 -0.024346763696782951 0 -0.0028860185258972266 -0.024073949118483109 0 -0.0028292725667872962 -0.024186836910893891 0 -0.0029572874883728151 -0.024346763696782951 0 -0.0028292725667872962 -0.024186836910893891 0 -0.0029572874883728151 -0.024346763696782951 0 -0.0027819464080443383 -0.024388230391988931 0 -0.0027169943587677693 -0.023776754770404772 0 -0.0028962913855475579 -0.023979520374625127 0 -0.0031908223942542814 -0.024248344674931022 0 -0.0029367734437111921 -0.028852533956190883 0 -0.002848224371210439 -0.029676512186008343 0 -0.0026771616033385366 -0.029401689207628735 0 -0.00275709487410041 -0.023865594191758644 0 -0.0027169943587677693 -0.023776754770404772 0 -0.00267817197372003 -0.024020944084477205 0 -0.0027641966662767018 -0.023266370263023035 0 -0.0030345859108877205 -0.025529839272525789 0 -0.0028860185258972266 -0.024073949118483109 0 -0.0028962913855475579 -0.023979520374625127 0 -0.0029981659450143442 -0.024172521789217877 0 -0.0028962913855475579 -0.023979520374625127 0 -0.0029981659450143442 -0.024172521789217877 0 -0.0031908223942542814 -0.024248344674931022 0 -0.0029981659450143442 -0.024172521789217877 0 -0.0031908223942542814 -0.024248344674931022 0 -0.0029572874883728151 -0.024346763696782951 0 -0.0016095186665503992 -0.028785036666994269 0 -0.0030345859108877205 -0.025529839272525789 0 -0.0031908223942542814 -0.024248344674931022 0 -0.0029572874883728151 -0.024346763696782951 0 -0.0031846463221384038 -0.024730566327548335 0 -0.0030345859108877205 -0.025529839272525789 0 -0.0031227953757425007 -0.028068719098063594 0 -0.0030345859108877205 -0.025529839272525789 0 -0.0033660648673969813 -0.024289923683541055 0 -0.002848224371210439 -0.029676512186008343 0 -0.0026771616033385366 -0.029401689207628735 0 -0.0028255561602471961 -0.030471693687689823 0 -0.0034232601357136166 -0.024221354302473661 0 -0.0034877619670920842 -0.025176841074127453 0 -0.0031846463221384038 -0.024730566327548335 0 -0.0029572874883728151 -0.024346763696782951 0 -0.0028503180393686049 -0.024737591925765769 0 -0.0027819464080443383 -0.024388230391988931 0 -0.0029572874883728151 -0.024346763696782951 0 -0.0028503180393686049 -0.024737591925765769 0 -0.0031846463221384038 -0.024730566327548335 0 -0.0028503180393686049 -0.024737591925765769 0 -0.0031494821484986 -0.025037697891758668 0 -0.0031846463221384038 -0.024730566327548335 0 -0.002803308095161593 -0.025267956996318917 0 -0.0028503180393686049 -0.024737591925765769 0 -0.0031494821484986 -0.025037697891758668 0 -0.003158199728674886 -0.025335501466304502 0 -0.0030110640194329027 -0.025364911591281337 0 -0.0031494821484986 -0.025037697891758668 0 -0.0030110640194329027 -0.025364911591281337 0 -0.002803308095161593 -0.025267956996318917 0 -0.0031494821484986 -0.025037697891758668 0 -0.002848224371210439 -0.029676512186008343 0 -0.0028255561602471961 -0.030471693687689823 0 -0.0027794578819733112 -0.030429238807692931 0 -0.003158199728674886 -0.025335501466304502 0 -0.0031494821484986 -0.025037697891758668 0 -0.0034877619670920842 -0.025176841074127453 0 -0.0023740596009373372 -0.030624439196125848 0 -0.0026880960709540864 -0.030291761047206808 0 -0.00224164678575945 -0.030642092318299792 0 -0.0018149782499950807 -0.031207913368175653 0 -0.0027794578819733112 -0.030429238807692931 0 -0.0031494821484986 -0.025037697891758668 0 -0.0034877619670920842 -0.025176841074127453 0 -0.0031846463221384038 -0.024730566327548335 0 -0.0028255561602471961 -0.030471693687689823 0 -0.0026977188786545085 -0.030304900111778506 0 -0.0027794578819733112 -0.030429238807692931 0 -0.0026327477267379077 -0.030073531485658129 0 -0.0028255561602471961 -0.030471693687689823 0 -0.0026977188786545085 -0.030304900111778506 0 -0.0026977188786545085 -0.030304900111778506 0 -0.0027794578819733112 -0.030429238807692931 0 -0.0024925008625484506 -0.030234646542541183 0 -0.0021424586342543971 -0.030275428170539458 0 -0.0024925008625484506 -0.030234646542541183 0 -0.0024012625864845917 -0.0303957058324641 0 -0.0027794578819733112 -0.030429238807692931 0 -0.0024925008625484506 -0.030234646542541183 0 -0.0024012625864845917 -0.0303957058324641 0 -0.00224164678575945 -0.030642092318299792 0 -0.0027794578819733112 -0.030429238807692931 0 -0.0024012625864845917 -0.0303957058324641 0 -0.0024310940933416876 -0.024875182176038887 0 -0.0025919031209683846 -0.025020319706324134 0 -0.0026245605440846321 -0.024548038612876986 0 -0.002416892635416485 -0.02521197525937582 0 -0.0024310940933416876 -0.024875182176038887 0 -0.0022545811686525479 -0.025169132576301375 0 -0.002416892635416485 -0.02521197525937582 0 -0.0024310940933416876 -0.024875182176038887 0 -0.0025919031209683846 -0.025020319706324134 0 -0.002803308095161593 -0.025267956996318917 0 -0.0028503180393686049 -0.024737591925765769 0 -0.0025919031209683846 -0.025020319706324134 0 -0.0028503180393686049 -0.024737591925765769 0 -0.0025919031209683846 -0.025020319706324134 0 -0.0026245605440846321 -0.024548038612876986 0 -0.0028503180393686049 -0.024737591925765769 0 -0.0026245605440846321 -0.024548038612876986 0 -0.0027819464080443383 -0.024388230391988931 0 -0.0026245605440846321 -0.024548038612876986 0 -0.0027819464080443383 -0.024388230391988931 0 -0.0027154170016634731 -0.024167051243427436 0 -0.0026245605440846321 -0.024548038612876986 0 -0.0024625804071889694 -0.0244879816264807 0 -0.0025805300691751046 -0.024258574113193196 0 -0.0024310940933416876 -0.024875182176038887 0 -0.0026245605440846321 -0.024548038612876986 0 -0.0024625804071889694 -0.0244879816264807 0 -0.0024625804071889694 -0.0244879816264807 0 -0.0025805300691751046 -0.024258574113193196 0 -0.0024352464142906203 -0.024170035410232982 0 -0.0025805300691751046 -0.024258574113193196 0 -0.0027154170016634731 -0.024167051243427436 0 -0.0026232072812601408 -0.024013267543633924 0 -0.0025805300691751046 -0.024258574113193196 0 -0.0026232072812601408 -0.024013267543633924 0 -0.0024352464142906203 -0.024170035410232982 0 -0.0028292725667872962 -0.024186836910893891 0 -0.0027819464080443383 -0.024388230391988931 0 -0.0027154170016634731 -0.024167051243427436 0 -0.0026245605440846321 -0.024548038612876986 0 -0.0025805300691751046 -0.024258574113193196 0 -0.0027154170016634731 -0.024167051243427436 0 -0.0027154170016634731 -0.024167051243427436 0 -0.0027412045367603685 -0.023897867868531507 0 -0.0026232072812601408 -0.024013267543633924 0 -0.0028006340408113567 -0.02400004380903276 0 -0.0027154170016634731 -0.024167051243427436 0 -0.0027412045367603685 -0.023897867868531507 0 -0.0028006340408113567 -0.02400004380903276 0 -0.0028292725667872962 -0.024186836910893891 0 -0.0027154170016634731 -0.024167051243427436 0 -0.0027880038715518952 -0.023809818173509599 0 -0.0028006340408113567 -0.02400004380903276 0 -0.0027412045367603685 -0.023897867868531507 0 -0.0027886230355455258 -0.023698646287695604 0 -0.0027412045367603685 -0.023897867868531507 0 -0.0026884232047825873 -0.023767306250203749 0 -0.0027886230355455258 -0.023698646287695604 0 -0.0027880038715518952 -0.023809818173509599 0 -0.0027412045367603685 -0.023897867868531507 0 -0.0026232072812601408 -0.024013267543633924 0 -0.0026884232047825873 -0.023767306250203749 0 -0.0025189514755996514 -0.023866699068762664 0 -0.0026232072812601408 -0.024013267543633924 0 -0.0025189514755996514 -0.023866699068762664 0 -0.0024352464142906203 -0.024170035410232982 0 -0.0027412045367603685 -0.023897867868531507 0 -0.0026232072812601408 -0.024013267543633924 0 -0.0026884232047825873 -0.023767306250203749 0 -0.0026130168544168881 -0.023576232773215595 0 -0.0026884232047825873 -0.023767306250203749 0 -0.0025189514755996514 -0.023866699068762664 0 -0.0026130168544168881 -0.023576232773215595 0 -0.0025189514755996514 -0.023866699068762664 0 -0.0023028328713149224 -0.023735365194459315 0 -0.0025189514755996514 -0.023866699068762664 0 -0.0023008140563404241 -0.023999490095793208 0 -0.0024352464142906203 -0.024170035410232982 0 -0.0025189514755996514 -0.023866699068762664 0 -0.0023008140563404241 -0.023999490095793208 0 -0.0023028328713149224 -0.023735365194459315 0 -0.0018782542522646284 -0.023631240493311396 0 -0.0023028328713149224 -0.023735365194459315 0 -0.0020088352647404258 -0.02402467070883493 0 -0.0023008140563404241 -0.023999490095793208 0 -0.0023028328713149224 -0.023735365194459315 0 -0.0020088352647404258 -0.02402467070883493 0 -0.0023008140563404241 -0.023999490095793208 0 -0.0020088352647404258 -0.02402467070883493 0 -0.0021208340430203258 -0.024304932671009964 0 -0.0020088352647404258 -0.02402467070883493 0 -0.0021208340430203258 -0.024304932671009964 0 -0.0017633171297462408 -0.024379480611100464 0 -0.0021208340430203258 -0.024304932671009964 0 -0.0024352464142906203 -0.024170035410232982 0 -0.0022115864484519424 -0.024620229549700383 0 -0.0023008140563404241 -0.023999490095793208 0 -0.0021208340430203258 -0.024304932671009964 0 -0.0024352464142906203 -0.024170035410232982 0 -0.0018782542522646284 -0.023631240493311396 0 -0.0020088352647404258 -0.02402467070883493 0 -0.0016598599903219799 -0.024061170911172519 0 -0.0018782542522646284 -0.023631240493311396 0 -0.0013901417141365697 -0.023804395108338462 0 -0.0016598599903219799 -0.024061170911172519 0 -0.0018420151245625161 -0.023637633156500928 0 -0.0013232782674125251 -0.023804771631713344 0 -0.0020088352647404258 -0.02402467070883493 0 -0.0017633171297462408 -0.024379480611100464 0 -0.0016598599903219799 -0.024061170911172519 0 -0.0017633171297462408 -0.024379480611100464 0 -0.0016598599903219799 -0.024061170911172519 0 -0.0012777525239235689 -0.024415093036212997 0 -0.0013901417141365697 -0.023804395108338462 0 -0.0016598599903219799 -0.024061170911172519 0 -0.0012777525239235689 -0.024415093036212997 0 -0.0016644232398386842 -0.023923378161866137 0 -0.0019612254791314598 -0.024381368639774085 0 -0.0014530181656152565 -0.024264693083545872 0 -0.0017633171297462408 -0.024379480611100464 0 -0.0012777525239235689 -0.024415093036212997 0 -0.0015927018558479205 -0.024844636912321073 0 -0.0014964712343848452 -0.024155753439484909 0 -0.0017711737694329401 -0.02461059403816112 0 -0.0017633171297462408 -0.024379480611100464 0 -0.0015927018558479205 -0.024844636912321073 0 -0.0019470748690437385 -0.024621403773191275 0 -0.0015927018558479205 -0.024844636912321073 0 -0.0019470748690437385 -0.024621403773191275 0 -0.0020301682438649089 -0.024934430060192355 0 -0.0017711737694329401 -0.02461059403816112 0 -0.0020560023954294447 -0.025046033639184711 0 -0.0015927018558479205 -0.024844636912321073 0 -0.0020301682438649089 -0.024934430060192355 0 -0.0019208337970769063 -0.025210982772724447 0 -0.0019612254791314598 -0.024381368639774085 0 -0.0018959675292719907 -0.024816627928368612 0 -0.0015983893020305394 -0.024645112164977039 0 -0.0019612254791314598 -0.024381368639774085 0 -0.0015983893020305394 -0.024645112164977039 0 -0.0014530181656152565 -0.024264693083545872 0 -0.0024310940933416876 -0.024875182176038887 0 -0.0024625804071889694 -0.0244879816264807 0 -0.0022115864484519424 -0.024620229549700383 0 -0.0024625804071889694 -0.0244879816264807 0 -0.0024352464142906203 -0.024170035410232982 0 -0.0022115864484519424 -0.024620229549700383 0 -0.0021208340430203258 -0.024304932671009964 0 -0.0022115864484519424 -0.024620229549700383 0 -0.0019470748690437385 -0.024621403773191275 0 -0.0021208340430203258 -0.024304932671009964 0 -0.0017633171297462408 -0.024379480611100464 0 -0.0019470748690437385 -0.024621403773191275 0 -0.0022115864484519424 -0.024620229549700383 0 -0.0019470748690437385 -0.024621403773191275 0 -0.0020301682438649089 -0.024934430060192355 0 -0.0022115864484519424 -0.024620229549700383 0 -0.0020301682438649089 -0.024934430060192355 0 -0.0022545811686525479 -0.025169132576301375 0 -0.0024310940933416876 -0.024875182176038887 0 -0.0022115864484519424 -0.024620229549700383 0 -0.0022545811686525479 -0.025169132576301375 0 -0.002416892635416485 -0.02521197525937582 0 -0.002397270339370676 -0.02548641086280409 0 -0.0022545811686525479 -0.025169132576301375 0 -0.002397270339370676 -0.02548641086280409 0 -0.0024617207038723204 -0.025691235232636576 0 -0.0022758779286056094 -0.025443694394041632 0 -0.002397270339370676 -0.02548641086280409 0 -0.0022545811686525479 -0.025169132576301375 0 -0.0022758779286056094 -0.025443694394041632 0 -0.0022546523205220778 -0.025393336088324128 0 -0.0020560023954294447 -0.025046033639184711 0 -0.0022758779286056094 -0.025443694394041632 0 -0.0022120261800318819 -0.024894880354543229 0 -0.0020797568946745552 -0.025264458101891665 0 -0.0020301682438649089 -0.024934430060192355 0 -0.0022545811686525479 -0.025169132576301375 0 -0.0019208337970769063 -0.025210982772724447 0 -0.0022545811686525479 -0.025169132576301375 0 -0.0022758779286056094 -0.025443694394041632 0 -0.0019208337970769063 -0.025210982772724447 0 -0.0022120261800318819 -0.024894880354543229 0 -0.0018959675292719907 -0.024816627928368612 0 -0.0020797568946745552 -0.025264458101891665 0 -0.0019612254791314598 -0.024381368639774085 0 -0.0022120261800318819 -0.024894880354543229 0 -0.0018959675292719907 -0.024816627928368612 0 -0.0018959675292719907 -0.024816627928368612 0 -0.0017178503074990923 -0.025061453834773147 0 -0.0015983893020305394 -0.024645112164977039 0 -0.0018959675292719907 -0.024816627928368612 0 -0.0017178503074990923 -0.025061453834773147 0 -0.0020797568946745552 -0.025264458101891665 0 -0.0017178503074990923 -0.025061453834773147 0 -0.0020797568946745552 -0.025264458101891665 0 -0.0018561140075319834 -0.02536527133160487 0 -0.0020797568946745552 -0.025264458101891665 0 -0.0018561140075319834 -0.02536527133160487 0 -0.002219087422391098 -0.025537433431729477 0 -0.0022758779286056094 -0.025443694394041632 0 -0.0020797568946745552 -0.025264458101891665 0 -0.002219087422391098 -0.025537433431729477 0 -0.0018561140075319834 -0.02536527133160487 0 -0.002219087422391098 -0.025537433431729477 0 -0.0016267786454260142 -0.025600332849046479 0 -0.002219087422391098 -0.025537433431729477 0 -0.002475678345982061 -0.025400497801499798 0 -0.0023896118197041191 -0.025267120675236759 0 -0.0022000189302000131 -0.025536683910803326 0 -0.0020470228355768333 -0.025479166563018279 0 -0.002219087422391098 -0.025537433431729477 0 -0.0023825214662422183 -0.025610135168371559 0 -0.0023431228785719019 -0.025574614192017082 0 -0.0025204729623490938 -0.025741413985290253 0 -0.0023825214662422183 -0.025610135168371559 0 -0.0024948320047014734 -0.025637886159626904 0 -0.0024617207038723204 -0.025691235232636576 0 -0.0025204729623490938 -0.025741413985290253 0 -0.0023825214662422183 -0.025610135168371559 0 -0.0023825214662422183 -0.025610135168371559 0 -0.0023431228785719019 -0.025574614192017082 0 -0.0024948320047014734 -0.025637886159626904 0 -0.0024617207038723204 -0.025691235232636576 0 -0.0022758779286056094 -0.025443694394041632 0 -0.0023825214662422183 -0.025610135168371559 0 -0.0022758779286056094 -0.025443694394041632 0 -0.002219087422391098 -0.025537433431729477 0 -0.0023825214662422183 -0.025610135168371559 0 -0.00085311902353478388 -0.025198651322105078 0 -0.00046487961026964891 -0.025518307374514465 0 -0.0010422435170802898 -0.025557305673128333 0 -0.00085311902353478388 -0.025198651322105078 0 -0.00051473914272911309 -0.025179918763553612 0 -0.00046487961026964891 -0.025518307374514465 0 -0.00051473914272911309 -0.025179918763553612 0 -0.00045949851821497649 -0.025420500708809895 0 -0.00029121573304267284 -0.02525945196317507 0 -0.00052142134189447464 -0.025681215073668714 0 -0.0021866121281142836 -0.024260954960681754 0 -0.0041633249230125392 -0.025258742401769736 0 -0.0039301538068094262 -0.024722691034865622 0 -0.0043213966474299099 -0.024406057278162269 0 -0.0021866121281142836 -0.024260954960681754 0 -0.0044872034169055885 -0.022663731807067815 0 -0.0041633249230125392 -0.025258742401769736 0 -0.0036267405949426735 -0.024900459615730418 0 -0.0039301538068094262 -0.024722691034865622 0 -0.0041367769789357736 -0.021419069585677377 0 -0.0041746799376663939 -0.021385649520715075 0 -0.0042059530924322451 -0.021374342731654304 0 -0.0036267405949426735 -0.024900459615730418 0 -0.0032377915284823866 -0.025302784401898704 0 -0.0033179248215242135 -0.024693755872479402 0 -0.0021866121281142836 -0.024260954960681754 0 -0.0021683604497567659 -0.02557737471055167 0 -0.0041633249230125392 -0.025258742401769736 0 -0.0036267405949426735 -0.024900459615730418 0 -0.0032377915284823866 -0.025302784401898704 0 -0.0032377915284823866 -0.025302784401898704 0 -0.0028127751453102517 -0.024985463575816852 0 -0.0033179248215242135 -0.024693755872479402 0 -0.0021683604497567659 -0.02557737471055167 0 -0.0020470228355768333 -0.025479166563018279 0 -0.0028127751453102517 -0.024985463575816852 0 -0.002475678345982061 -0.025400497801499798 0 -0.0023896118197041191 -0.025267120675236759 0 -0.0032377915284823866 -0.025302784401898704 0 -0.0028127751453102517 -0.024985463575816852 0 -0.002475678345982061 -0.025400497801499798 0 -0.0018561140075319834 -0.02536527133160487 0 -0.0016267786454260142 -0.025600332849046479 0 -0.001334257713514435 -0.025224968248687724 0 -0.0010422435170802898 -0.025557305673128333 0 -0.0016267786454260142 -0.025600332849046479 0 -0.001334257713514435 -0.025224968248687724 0 -0.00085311902353478388 -0.025198651322105078 0 -0.0010422435170802898 -0.025557305673128333 0 -0.001334257713514435 -0.025224968248687724 0 -0.00085311902353478388 -0.025198651322105078 0 -0.001334257713514435 -0.025224968248687724 0 -0.0010787979714518396 -0.024887112293105702 0 -0.001334257713514435 -0.025224968248687724 0 -0.0010787979714518396 -0.024887112293105702 0 -0.0013948684622981618 -0.024881463784286656 0 -0.0017178503074990923 -0.025061453834773147 0 -0.0018561140075319834 -0.02536527133160487 0 -0.001334257713514435 -0.025224968248687724 0 -0.0017178503074990923 -0.025061453834773147 0 -0.001334257713514435 -0.025224968248687724 0 -0.0013948684622981618 -0.024881463784286656 0 -0.0017178503074990923 -0.025061453834773147 0 -0.0013948684622981618 -0.024881463784286656 0 -0.0015983893020305394 -0.024645112164977039 0 -0.0013948684622981618 -0.024881463784286656 0 -0.0015983893020305394 -0.024645112164977039 0 -0.0012504268234055363 -0.024581613150432124 0 -0.0010787979714518396 -0.024887112293105702 0 -0.0013948684622981618 -0.024881463784286656 0 -0.0012504268234055363 -0.024581613150432124 0 -0.0010787979714518396 -0.024887112293105702 0 -0.0012504268234055363 -0.024581613150432124 0 -0.00087343149551234245 -0.024554795294579539 0 -0.00087343149551234245 -0.024554795294579539 0 -0.00074219547712144616 -0.024802930981948197 0 -0.00054632791892094518 -0.024575001203720109 0 -0.0010787979714518396 -0.024887112293105702 0 -0.00087343149551234245 -0.024554795294579539 0 -0.00074219547712144616 -0.024802930981948197 0 -0.00085311902353478388 -0.025198651322105078 0 -0.0010787979714518396 -0.024887112293105702 0 -0.00074219547712144616 -0.024802930981948197 0 -0.00085311902353478388 -0.025198651322105078 0 -0.00051473914272911309 -0.025179918763553612 0 -0.00074219547712144616 -0.024802930981948197 0 -0.00051473914272911309 -0.025179918763553612 0 -0.0003585394028596166 -0.024845046090659656 0 -0.00029121573304267284 -0.02525945196317507 0 -0.00051473914272911309 -0.025179918763553612 0 -0.00074219547712144616 -0.024802930981948197 0 -0.0003585394028596166 -0.024845046090659656 0 -0.0003585394028596166 -0.024845046090659656 0 -0.00054632791892094518 -0.024575001203720109 0 -0.00031574690162334607 -0.024344477719894161 0 -0.00074219547712144616 -0.024802930981948197 0 -0.0003585394028596166 -0.024845046090659656 0 -0.00054632791892094518 -0.024575001203720109 0 -0.00060748637561734264 -0.024322468838772843 0 -0.00030313556542772938 -0.024122297612138251 0 -0.00031574690162334607 -0.024344477719894161 0 -0.00054632791892094518 -0.024575001203720109 0 -0.00060748637561734264 -0.024322468838772843 0 -0.00031574690162334607 -0.024344477719894161 0 -0.00087343149551234245 -0.024554795294579539 0 -0.00054632791892094518 -0.024575001203720109 0 -0.00060748637561734264 -0.024322468838772843 0 -0.00087343149551234245 -0.024554795294579539 0 -0.00060748637561734264 -0.024322468838772843 0 -0.00094164979254947258 -0.024172376535071316 0 -0.00060748637561734264 -0.024322468838772843 0 -0.00052582450708887722 -0.024059934528250403 0 -0.00094164979254947258 -0.024172376535071316 0 -0.00052582450708887722 -0.024059934528250403 0 -0.00094164979254947258 -0.024172376535071316 0 -0.00074761165768104008 -0.023701997517043074 0 -0.00030313556542772938 -0.024122297612138251 0 -0.00052582450708887722 -0.024059934528250403 0 -0.00014357061832988375 -0.02399270812199461 0 -0.00060748637561734264 -0.024322468838772843 0 -0.00030313556542772938 -0.024122297612138251 0 -0.00052582450708887722 -0.024059934528250403 0 -0.0015983893020305394 -0.024645112164977039 0 -0.0012504268234055363 -0.024581613150432124 0 -0.0014530181656152565 -0.024264693083545872 0 -0.0012504268234055363 -0.024581613150432124 0 -0.00087343149551234245 -0.024554795294579539 0 -0.00094164979254947258 -0.024172376535071316 0 -0.0012504268234055363 -0.024581613150432124 0 -0.0014530181656152565 -0.024264693083545872 0 -0.00094164979254947258 -0.024172376535071316 0 -0.00094164979254947258 -0.024172376535071316 0 -0.0012385519910919124 -0.023908660884101658 0 -0.00074761165768104008 -0.023701997517043074 0 -0.0014530181656152565 -0.024264693083545872 0 -0.00094164979254947258 -0.024172376535071316 0 -0.0012385519910919124 -0.023908660884101658 0 -0.0016644232398386842 -0.023923378161866137 0 -0.0014530181656152565 -0.024264693083545872 0 -0.0012385519910919124 -0.023908660884101658 0 -0.0016644232398386842 -0.023923378161866137 0 -0.0012385519910919124 -0.023908660884101658 0 -0.0013631941355746664 -0.023494886183119984 0 -0.0014964712343848452 -0.024155753439484909 0 -0.0008969886769001306 -0.02388447047150111 0 -0.0013901417141365697 -0.023804395108338462 0 -0.0012777525239235689 -0.024415093036212997 0 -0.00095631319326873183 -0.023953674276638543 0 -0.0008969886769001306 -0.02388447047150111 0 -1.3647294434243755e-05 -0.024037408352707301 0 -0.0012385519910919124 -0.023908660884101658 0 -0.0013631941355746664 -0.023494886183119984 0 -0.00074761165768104008 -0.023701997517043074 0 -0.0003399835527480372 -0.02369026029050509 0 -0.00058832621616418824 -0.024039771859456133 0 0.00036640377404972379 -0.023672786919709508 0 -0.00058832621616418824 -0.024039771859456133 0 0.00071656495904658904 -0.024454662826433386 0 0.00036640377404972379 -0.023672786919709508 0 3.0752900442165866e-06 -0.023450710932354044 0 -0.0003399835527480372 -0.02369026029050509 0 0.00036640377404972379 -0.023672786919709508 0 -0.0013232782674125251 -0.023804771631713344 0 -0.0008969886769001306 -0.02388447047150111 0 -0.0012958992936328189 -0.023782824269465139 0 -0.00056780529032400356 -0.024016710103451175 0 -0.00084110955699390774 -0.023611043055625298 0 -0.0005314706022709893 -0.023700675077658717 0 -0.0008969886769001306 -0.02388447047150111 0 -0.0003399835527480372 -0.02369026029050509 0 -0.00056780529032400356 -0.024016710103451175 0 -0.00084110955699390774 -0.023611043055625298 0 0.001216040835632198 -0.024018509922080149 0 0.0018351373166239989 -0.024039631732041423 0 0.001996404585592409 -0.024813505861640092 0 -0.00052582450708887722 -0.024059934528250403 0 -0.00074761165768104008 -0.023701997517043074 0 -0.00014357061832988375 -0.02399270812199461 0 0.00071656495904658904 -0.024454662826433386 0 0.001216040835632198 -0.024018509922080149 0 0.001996404585592409 -0.024813505861640092 0 -1.3647294434243755e-05 -0.024037408352707301 0 0.00078030762301191121 -0.024564849777549694 0 0.00036640377404972379 -0.023672786919709508 0 0.00097484814332168704 -0.023536247027403288 0 0.001216040835632198 -0.024018509922080149 0 0.00071656495904658904 -0.024454662826433386 0 0.00036640377404972379 -0.023672786919709508 0 0.001216040835632198 -0.024018509922080149 0 0.0014588496615379691 -0.023413564492792818 0 0.00097484814332168704 -0.023536247027403288 0 0.001216040835632198 -0.024018509922080149 0 0.0014588496615379691 -0.023413564492792818 0 0.001216040835632198 -0.024018509922080149 0 0.0018351373166239989 -0.024039631732041423 0 0.0022416613893464069 -0.023666317890971782 0 0.0031379448457321221 -0.024403413343081732 0 0.0014588496615379691 -0.023413564492792818 0 0.0022128548081602091 -0.023527051465939464 0 0.0018351373166239989 -0.024039631732041423 0 0.0022128548081602091 -0.023527051465939464 0 0.0018351373166239989 -0.024039631732041423 0 0.0029137246947618821 -0.024587867074451614 0 0.0018351373166239989 -0.024039631732041423 0 0.0025885714897415728 -0.024481287564210936 0 0.001996404585592409 -0.024813505861640092 0 0.0017659154051286503 -0.024066022618531288 0 0.0031379448457321221 -0.024403413343081732 0 0.0022128548081602091 -0.023527051465939464 0 0.0030625701791897244 -0.024742510514534095 0 0.0033282464365249338 -0.023559149872826309 0 0.0030625701791897244 -0.024742510514534095 0 0.0033282464365249338 -0.023559149872826309 0 0.0042563881689514013 -0.024105289569449292 0 0.0050456510309147898 -0.022192537794653237 0 0.0045878132479542835 -0.021935222937715566 0 0.0048324634071662013 -0.022483516317448007 0 0.0042129024066728657 -0.02277809085791711 0 0.0033282464365249338 -0.023559149872826309 0 0.0042563881689514013 -0.024105289569449292 0 0.0043774855606711852 -0.022265702113244492 0 0.0045830789382509916 -0.023494952312202128 0 0.0050456510309147898 -0.022192537794653237 0 0.0051224844494647164 -0.022467912319661887 0 0.0053416160611721225 -0.022339869126771723 0 0.0050456510309147898 -0.022192537794653237 0 0.0048324634071662013 -0.022483516317448007 0 0.0051224844494647164 -0.022467912319661887 0 0.0051224844494647164 -0.022467912319661887 0 0.0053416160611721225 -0.022339869126771723 0 0.0052906717186932666 -0.022580256384682001 0 0.0050694175987712449 -0.022652590934298791 0 0.0051492300150633762 -0.022866203142431357 0 0.0052906717186932666 -0.022580256384682001 0 0.0051224844494647164 -0.022467912319661887 0 0.0050694175987712449 -0.022652590934298791 0 0.0052906717186932666 -0.022580256384682001 0 0.0048324634071662013 -0.022483516317448007 0 0.0051224844494647164 -0.022467912319661887 0 0.0050694175987712449 -0.022652590934298791 0 0.0045830789382509916 -0.023494952312202128 0 0.0042396768334708708 -0.023075959845971727 0 0.0048324634071662013 -0.022483516317448007 0 0.0050694175987712449 -0.022652590934298791 0 0.0049299345898095818 -0.022786051450182809 0 0.0030625701791897244 -0.024742510514534095 0 0.0042563881689514013 -0.024105289569449292 0 0.0043531669479121866 -0.025368720068656942 0 0.0031379448457321221 -0.024403413343081732 0 0.0042396768334708708 -0.023075959845971727 0 0.003858029156125581 -0.023575879809684449 0 0.0028534520916162504 -0.023039515310414441 0 0.0033093451125453975 -0.022727779939093799 0 0.0042396768334708708 -0.023075959845971727 0 0.0031897673740328902 -0.020030433278867103 0 0.0031897673740328902 -0.020030433278867103 0 0.0019263264225495593 -0.02346123666846494 0 0.0028534520916162504 -0.023039515310414441 0 0.0028108626597655381 -0.022545293945898905 0 0.0033093451125453975 -0.022727779939093799 0 0.0050694175987712449 -0.022652590934298791 0 0.0049299345898095818 -0.022786051450182809 0 0.0051492300150633762 -0.022866203142431357 0 0.0042396768334708708 -0.023075959845971727 0 0.004547697523048606 -0.018355030976663647 0 0.0045736928681634273 -0.02063577985136408 0 0.004482349995561896 -0.019563235236739081 0 0.0030062168447905469 -0.019812319703311172 0 0.004482349995561896 -0.019563235236739081 0 0.0030062168447905469 -0.019812319703311172 0 0.0032264988515750058 -0.019121050321949547 0 0.004547697523048606 -0.018355030976663647 0 0.0033608844726186866 -0.016800786902347251 0 0.0046911639884047026 -0.015130306351888129 0 0.0048760066776567003 -0.014548206417836872 0 0.004359043612811463 -0.014694070559672564 0 0.002956913506009057 -0.0167930879952079 0 0.0030119564562584057 -0.01661909758178667 0 0.0027315691386014924 -0.016342764317798842 0 0.0033608844726186866 -0.016800786902347251 0 0.0033201766971149333 -0.016786785044326253 0 0.0036490601130585239 -0.017067527689305972 0 0.0030119564562584057 -0.01661909758178667 0 0.0035738671396896658 -0.016250518060698705 0 0.0031897673740328902 -0.020030433278867103 0 0.0033608844726186866 -0.016800786902347251 0 0.0036490601130585239 -0.017067527689305972 0 0.0029514247723525489 -0.016807621278534437 0 0.0030119564562584057 -0.01661909758178667 0 0.0030119564562584057 -0.01661909758178667 0 0.0035738671396896658 -0.016250518060698705 0 0.0029001322561476891 -0.015981335462700575 0 0.0030119564562584057 -0.01661909758178667 0 0.0027315691386014924 -0.016342764317798842 0 0.0029001322561476891 -0.015981335462700575 0 -0.00053119862072136383 -0.024131894211864711 0 -0.0011602751216130381 -0.023443695556214308 0 -0.00051115789519464425 -0.023372864884496518 0 0.0013443366641057652 -0.021804218924582508 0 0.0024952279931051724 -0.022203662025307106 0 0.0012102569794064106 -0.020274302830797265 0 0.0019263264225495593 -0.02346123666846494 0 0.00077364995054519145 -0.020213517891671764 0 0.0031897673740328902 -0.020030433278867103 0 0.00077364995054519145 -0.020213517891671764 0 0.00077364995054519145 -0.020213517891671764 0 0.00067518567254794748 -0.020988024032416796 0 -0.00053119862072136383 -0.024131894211864711 0 -0.00051115789519464425 -0.023372864884496518 0 -0.00011215161164314286 -0.024005519657198517 0 -0.00051115789519464425 -0.023372864884496518 0 -0.00011215161164314286 -0.024005519657198517 0 0.00011901183921543676 -0.023075592756825268 0 -0.00031574690162334607 -0.024344477719894161 0 -0.00011215161164314286 -0.024005519657198517 0 -4.015417601527774e-05 -0.024591506464157423 0 -7.1760758811398526e-05 -0.024012675245989688 0 1.2697387022489115e-05 -0.023756562199161613 0 -0.00030313556542772938 -0.024122297612138251 0 -0.00031574690162334607 -0.024344477719894161 0 -0.00011215161164314286 -0.024005519657198517 0 -0.00030313556542772938 -0.024122297612138251 0 -0.00011215161164314286 -0.024005519657198517 0 -0.00014357061832988375 -0.02399270812199461 0 0.0025885714897415728 -0.024481287564210936 0 0.0030008033147900215 -0.025101014468933418 0 0.001996404585592409 -0.024813505861640092 0 -0.00053119862072136383 -0.024131894211864711 0 -0.00011215161164314286 -0.024005519657198517 0 -0.00014357061832988375 -0.02399270812199461 0 0.0031379448457321221 -0.024403413343081732 0 0.0019263264225495593 -0.02346123666846494 0 0.0019263264225495593 -0.02346123666846494 0 0.00078030762301191121 -0.024564849777549694 0 0.0034315388008149023 -0.010505392646242895 0 0.0042876637995799089 -0.010588418960140789 0 0.0040357764351344489 -0.0097139288015318393 0 0.0034315388008149023 -0.010505392646242895 0 0.0038205389334105928 -0.011347472107156907 0 0.0042876637995799089 -0.010588418960140789 0 0.0038703657304376944 -0.012391218821865691 0 0.0029269587798543772 -0.011623570347854967 0 0.0038205389334105928 -0.011347472107156907 0 0.0029269587798543772 -0.011623570347854967 0 0.0034315388008149023 -0.010505392646242895 0 0.0038205389334105928 -0.011347472107156907 0 0.0038703657304376944 -0.012391218821865691 0 0.0038205389334105928 -0.011347472107156907 0 0.0046477976910640935 -0.011525304998671203 0 0.0050323902774060776 -0.012504593318406879 0 0.0046477976910640935 -0.011525304998671203 0 0.005448627603199062 -0.011665515964668634 0 0.0038205389334105928 -0.011347472107156907 0 0.0046477976910640935 -0.011525304998671203 0 0.0042876637995799089 -0.010588418960140789 0 0.0042876637995799089 -0.010588418960140789 0 0.0053739577550260664 -0.010693576892883016 0 0.0046623845485952026 -0.0099632078916728033 0 0.0046477976910640935 -0.011525304998671203 0 0.0042876637995799089 -0.010588418960140789 0 0.0053739577550260664 -0.010693576892883016 0 0.0053739577550260664 -0.010693576892883016 0 0.005448627603199062 -0.011665515964668634 0 0.0066471379621500393 -0.010822901865300291 0 0.0053739577550260664 -0.010693576892883016 0 0.0066471379621500393 -0.010822901865300291 0 0.0056978161240731151 -0.0099365293004086124 0 0.0053739577550260664 -0.010693576892883016 0 0.0052468418229311359 -0.010097133492668574 0 0.0046623845485952026 -0.0099632078916728033 0 0.0053739577550260664 -0.010693576892883016 0 0.0056978161240731151 -0.0099365293004086124 0 0.0052468418229311359 -0.010097133492668574 0 0.0046477976910640935 -0.011525304998671203 0 0.0053739577550260664 -0.010693576892883016 0 0.005448627603199062 -0.011665515964668634 0 0.0059551087644146719 -0.02199860274996298 0 0.0056257140373634973 -0.02225559791053542 0 0.0056107016148021346 -0.022523839029834292 0 0.0060799876220371226 -0.016685242320665785 0 0.0057253058346332332 -0.017842980353272437 0 0.006150066369001163 -0.012379748865557257 0 0.005448627603199062 -0.011665515964668634 0 0.0066471379621500393 -0.010822901865300291 0 0.0055964018173672147 -0.022963359534864166 0 0.0057253058346332332 -0.017842980353272437 0 0.0066471379621500393 -0.010822901865300291 0 0.0064541064149564323 -0.0092405275314290814 0 0.0056978161240731151 -0.0099365293004086124 0 0.0057253058346332332 -0.017842980353272437 0 0.0053122937631147962 -0.011362248000318358 0 0.0061664453968555263 -0.015109778792467684 0 0.005298914702413597 -0.017842257884053723 0 0.0048653715529353748 -0.014432659534051396 0 0.004547697523048606 -0.018355030976663647 0 0.0057253058346332332 -0.017842980353272437 0 0.004547697523048606 -0.018355030976663647 0 0.0053122937631147962 -0.011362248000318358 0 0.0046911639884047026 -0.015130306351888129 0 0.004359043612811463 -0.014694070559672564 0 0.0038199098052521222 -0.014665652902364937 0 0.0033608844726186866 -0.016800786902347251 0 0.0048981232967062575 -0.012180932856144458 0 0.0064470739845150001 -0.0092973651587342013 0 0.0064055440518242081 -0.0089262634238215701 0 0.0053394057771385351 -0.0086399801054652565 0 0.0048760066776567003 -0.014548206417836872 0 0.004359043612811463 -0.014694070559672564 0 0.0037563615553043088 -0.014145201295952925 0 0.002956913506009057 -0.0167930879952079 0 0.0027315691386014924 -0.016342764317798842 0 0.0022412730596163616 -0.016520378188940671 0 0.004359043612811463 -0.014694070559672564 0 0.0038199098052521222 -0.014665652902364937 0 0.0037563615553043088 -0.014145201295952925 0 0.0053122937631147962 -0.011362248000318358 0 0.0048981232967062575 -0.012180932856144458 0 0.0027315691386014924 -0.016342764317798842 0 0.0022412730596163616 -0.016520378188940671 0 0.0025479546777341061 -0.015795339772311588 0 0.0064055440518242081 -0.0089262634238215701 0 0.0050726639478388992 -0.0083722860293352994 0 0.0053394057771385351 -0.0086399801054652565 0 0.0061293060076358288 -0.008844241650489219 0 0.0047897829568341668 -0.0083306563946019142 0 0.0055531610893614896 -0.0080987504621256867 0 0.0064541064149564323 -0.0092405275314290814 0 0.0053394057771385351 -0.0086399801054652565 0 0.005350315829508125 -0.0092103579800918191 0 0.0048981232967062575 -0.012180932856144458 0 0.0050753329494986604 -0.0080267798670152837 0 0.0053122937631147962 -0.011362248000318358 0 0.0055897058436837777 -0.0084202126273977291 0 0.0050726639478388992 -0.0083722860293352994 0 0.0053394057771385351 -0.0086399801054652565 0 0.0049994152147935841 -0.008760195849995699 0 0.0053394057771385351 -0.0086399801054652565 0 0.005350315829508125 -0.0092103579800918191 0 0.0049994152147935841 -0.008760195849995699 0 0.005350315829508125 -0.0092103579800918191 0 0.0051123457330476485 -0.0096677382961717993 0 0.0056978161240731151 -0.0099365293004086124 0 0.0064541064149564323 -0.0092405275314290814 0 0.005350315829508125 -0.0092103579800918191 0 0.0056978161240731151 -0.0099365293004086124 0 0.0051123457330476485 -0.0096677382961717993 0 0.0056978161240731151 -0.0099365293004086124 0 0.0052468418229311359 -0.010097133492668574 0 0.0042876637995799089 -0.010588418960140789 0 0.0046623845485952026 -0.0099632078916728033 0 0.0040357764351344489 -0.0097139288015318393 0 0.0051123457330476485 -0.0096677382961717993 0 0.0052468418229311359 -0.010097133492668574 0 0.0046623845485952026 -0.0099632078916728033 0 0.0046623845485952026 -0.0099632078916728033 0 0.0046016894177159581 -0.0091247692564924692 0 0.0040357764351344489 -0.0097139288015318393 0 0.0046016894177159581 -0.0091247692564924692 0 0.0039661773463852525 -0.0088704508905774384 0 0.0040357764351344489 -0.0097139288015318393 0 0.005350315829508125 -0.0092103579800918191 0 0.0051123457330476485 -0.0096677382961717993 0 0.0046016894177159581 -0.0091247692564924692 0 0.0051123457330476485 -0.0096677382961717993 0 0.0046623845485952026 -0.0099632078916728033 0 0.0046016894177159581 -0.0091247692564924692 0 0.005350315829508125 -0.0092103579800918191 0 0.0046016894177159581 -0.0091247692564924692 0 0.0049994152147935841 -0.008760195849995699 0 0.0046016894177159581 -0.0091247692564924692 0 0.0049994152147935841 -0.008760195849995699 0 0.0047231356646744785 -0.008675290523442224 0 0.0050726639478388992 -0.0083722860293352994 0 0.0047231356646744785 -0.008675290523442224 0 0.0042235079487659057 -0.0084300874767603874 0 0.0050726639478388992 -0.0083722860293352994 0 0.0049994152147935841 -0.008760195849995699 0 0.0047231356646744785 -0.008675290523442224 0 0.0046016894177159581 -0.0091247692564924692 0 0.0047231356646744785 -0.008675290523442224 0 0.0042235079487659057 -0.0084300874767603874 0 0.0046016894177159581 -0.0091247692564924692 0 0.0042235079487659057 -0.0084300874767603874 0 0.0039661773463852525 -0.0088704508905774384 0 0.0042235079487659057 -0.0084300874767603874 0 0.0039661773463852525 -0.0088704508905774384 0 0.003545520155712638 -0.0078835083275540941 0 0.0039661773463852525 -0.0088704508905774384 0 0.0033916813456338186 -0.0091092997324244817 0 0.003545520155712638 -0.0078835083275540941 0 0.0039661773463852525 -0.0088704508905774384 0 0.0033916813456338186 -0.0091092997324244817 0 0.0040357764351344489 -0.0097139288015318393 0 0.0029903026527442512 -0.0069144717851681711 0 0.0036401265986644748 -0.0078253744623887969 0 0.003317971550789286 -0.0059917986153652045 0 0.0034315388008149023 -0.010505392646242895 0 0.0033916813456338186 -0.0091092997324244817 0 0.0040357764351344489 -0.0097139288015318393 0 0.0034392895207917824 -0.010384439376479636 0 0.003487045122881833 -0.0084991843472109925 0 0.0033025901579152939 -0.006726896332564806 0 0.0032360936066240034 -0.0056668882636144524 0 0.0029774101482341769 -0.0056989388324636151 0 0.003317971550789286 -0.0059917986153652045 0 0.0032226457639396712 -0.0056167067348881824 0 0.0036003984918603492 -0.006640457057165392 0 0.0032506896291678829 -0.0074549168083361192 0 0.0032226457639396712 -0.0056167067348881824 0 0.0036003984918603492 -0.006640457057165392 0 0.0038724703703031482 -0.0072763908475620229 0 0.0039581334313771475 -0.0066287989165124154 0 0.0036003984918603492 -0.006640457057165392 0 0.0039581334313771475 -0.0066287989165124154 0 0.0036673924352652828 -0.0061969822374543003 0 0.0036003984918603492 -0.006640457057165392 0 0.0038724703703031482 -0.0072763908475620229 0 0.0032506896291678829 -0.0074549168083361192 0 0.003487045122881833 -0.0084991843472109925 0 0.0033025901579152939 -0.006726896332564806 0 0.0033916813456338186 -0.0091092997324244817 0 0.0032506896291678829 -0.0074549168083361192 0 0.003545520155712638 -0.0078835083275540941 0 0.003545520155712638 -0.0078835083275540941 0 0.0037404403968141109 -0.007608916470762399 0 0.0042564134905372494 -0.0078041066314948762 0 0.0032506896291678829 -0.0074549168083361192 0 0.003545520155712638 -0.0078835083275540941 0 0.0037404403968141109 -0.007608916470762399 0 0.0038724703703031482 -0.0072763908475620229 0 0.0032506896291678829 -0.0074549168083361192 0 0.0037404403968141109 -0.007608916470762399 0 0.0038724703703031482 -0.0072763908475620229 0 0.0037404403968141109 -0.007608916470762399 0 0.0042564134905372494 -0.0078041066314948762 0 0.0050753329494986604 -0.0080267798670152837 0 0.0035959668699848857 -0.0079742659531379656 0 0.0038724703703031482 -0.0072763908475620229 0 0.0042564134905372494 -0.0078041066314948762 0 0.0044167033840259821 -0.0070686917380107187 0 0.0050726639478388992 -0.0083722860293352994 0 0.0042235079487659057 -0.0084300874767603874 0 0.003545520155712638 -0.0078835083275540941 0 0.0047897829568341668 -0.0083306563946019142 0 0.003545520155712638 -0.0078835083275540941 0 0.0042564134905372494 -0.0078041066314948762 0 0.0047897829568341668 -0.0083306563946019142 0 0.0042564134905372494 -0.0078041066314948762 0 0.0049599833903194888 -0.0076078447143877546 0 0.0042564134905372494 -0.0078041066314948762 0 0.0044167033840259821 -0.0070686917380107187 0 0.0049599833903194888 -0.0076078447143877546 0 0.0038724703703031482 -0.0072763908475620229 0 0.0044167033840259821 -0.0070686917380107187 0 0.0039581334313771475 -0.0066287989165124154 0 0.0044167033840259821 -0.0070686917380107187 0 0.0039581334313771475 -0.0066287989165124154 0 0.0044753501676414349 -0.0064016778085562399 0 0.0044167033840259821 -0.0070686917380107187 0 0.0050989419696016672 -0.0065707801600002275 0 0.0044753501676414349 -0.0064016778085562399 0 0.0050989419696016672 -0.0065707801600002275 0 0.0059442611097539509 -0.0072921241994110412 0 0.0057377908087757517 -0.0057529231440618606 0 0.0050989419696016672 -0.0065707801600002275 0 0.0049599833903194888 -0.0076078447143877546 0 0.0059442611097539509 -0.0072921241994110412 0 0.0044167033840259821 -0.0070686917380107187 0 0.0050989419696016672 -0.0065707801600002275 0 0.0049599833903194888 -0.0076078447143877546 0 0.0049599833903194888 -0.0076078447143877546 0 0.0055531610893614896 -0.0080987504621256867 0 0.0059442611097539509 -0.0072921241994110412 0 0.0047897829568341668 -0.0083306563946019142 0 0.0049599833903194888 -0.0076078447143877546 0 0.0055531610893614896 -0.0080987504621256867 0 0.0061293060076358288 -0.008844241650489219 0 0.0055531610893614896 -0.0080987504621256867 0 0.0059442611097539509 -0.0072921241994110412 0 0.0048981232967062575 -0.012180932856144458 0 0.0041214770144093306 -0.010528899923467021 0 0.0022412730596163616 -0.016520378188940671 0 0.0025479546777341061 -0.015795339772311588 0 0.0020497321118612757 -0.015087328042999155 0 0.0025479546777341061 -0.015795339772311588 0 0.0020497321118612757 -0.015087328042999155 0 0.0027177947304449115 -0.014948473190960748 0 0.0020497321118612757 -0.015087328042999155 0 0.0018567493754432915 -0.013655844836469221 0 0.0027177947304449115 -0.014948473190960748 0 0.0041214770144093306 -0.010528899923467021 0 0.0017078430936061353 -0.013423747943174918 0 -0.0025731161328860172 -0.021251487295558105 0 -0.0019011266119807941 -0.022357035554336331 0 -0.0016627264424478854 -0.021085606283458548 0 0.0017078430936061353 -0.013423747943174918 0 0.00029954274798420672 -0.019282201619818366 0 0.0017078430936061353 -0.013423747943174918 0 0.00061608195521026428 -0.015024117367695426 0 0.00061608195521026428 -0.015024117367695426 0 -0.0020616060943840268 -0.020137715971218838 0 -0.00095299536817214012 -0.019086745229837526 0 -0.00029145927012096541 -0.018492392441244971 0 -0.0016096651766643053 -0.018542303126044428 0 -0.0025731161328860172 -0.021251487295558105 0 -0.0025966054647778855 -0.0210251655320585 0 -0.0016627264424478854 -0.021085606283458548 0 -0.00095299536817214012 -0.019086745229837526 0 -0.00029145927012096541 -0.018492392441244971 0 -0.00016942363206729353 -0.019456541632155024 0 0.0022675900365553493 -0.010650630072163471 0 0.0012271798447061513 -0.010356934374087454 0 0.0023983198267746746 -0.010111402504457483 0 0.00061608195521026428 -0.015024117367695426 0 0.0007866251237085176 -0.014716748124498805 0 0.0021242417235411031 -0.012512307339066808 0 0.003098450054290471 -0.0079208100486852714 0 0.0024867648969921362 -0.01081647069901074 0 0.0023672587385347404 -0.010814949985364034 0 0.0022675900365553493 -0.010650630072163471 0 0.0024867648969921362 -0.01081647069901074 0 0.0022675900365553493 -0.010650630072163471 0 0.0023983198267746746 -0.010111402504457483 0 0.0023165908774943791 -0.01364991735731662 0 0.0022011194974018585 -0.012729479927842765 0 0.0017013831476408584 -0.012728488187371127 0 0.0023726403378638732 -0.010811575838225009 0 0.0022675900365553493 -0.010650630072163471 0 0.0014612551058556459 -0.010758752423731218 0 0.002357714902474657 -0.0090284880553970007 0 0.0007866251237085176 -0.014716748124498805 0 0.00061608195521026428 -0.015024117367695426 0 0.0021242417235411031 -0.012512307339066808 0 0.0021242417235411031 -0.012512307339066808 0 0.0019030306282575694 -0.011857342725216477 0 0.005544290587291366 -0.0054599800457282802 0 0.0048816292824195411 -0.0057363695820742905 0 0.0051988213316470225 -0.0058873864455734519 0 0.005544290587291366 -0.0054599800457282802 0 0.0048816292824195411 -0.0057363695820742905 0 0.0043394414396628455 -0.005370356292052637 0 0.0048816292824195411 -0.0057363695820742905 0 0.0051988213316470225 -0.0058873864455734519 0 0.0048288931179169227 -0.0060792425805577281 0 0.0057377908087757517 -0.0057529231440618606 0 0.005544290587291366 -0.0054599800457282802 0 0.0051988213316470225 -0.0058873864455734519 0 0.0017078430936061353 -0.013423747943174918 0 0.0021242417235411031 -0.012512307339066808 0 0.0050989419696016672 -0.0065707801600002275 0 0.0057377908087757517 -0.0057529231440618606 0 0.0051988213316470225 -0.0058873864455734519 0 0.0050989419696016672 -0.0065707801600002275 0 0.0048288931179169227 -0.0060792425805577281 0 0.0044753501676414349 -0.0064016778085562399 0 0.0050989419696016672 -0.0065707801600002275 0 0.0051988213316470225 -0.0058873864455734519 0 0.0048288931179169227 -0.0060792425805577281 0 0.0044753501676414349 -0.0064016778085562399 0 0.0040629696936012082 -0.0060067432859074125 0 0.0044969338110445829 -0.0058853940718106229 0 0.0048288931179169227 -0.0060792425805577281 0 0.0044753501676414349 -0.0064016778085562399 0 0.0044969338110445829 -0.0058853940718106229 0 0.0039581334313771475 -0.0066287989165124154 0 0.0040629696936012082 -0.0060067432859074125 0 0.0036673924352652828 -0.0061969822374543003 0 0.0039581334313771475 -0.0066287989165124154 0 0.0044753501676414349 -0.0064016778085562399 0 0.0040629696936012082 -0.0060067432859074125 0 0.0040629696936012082 -0.0060067432859074125 0 0.0043394414396628455 -0.005370356292052637 0 0.0036083521312051266 -0.0057212139947420294 0 0.0040629696936012082 -0.0060067432859074125 0 0.0044969338110445829 -0.0058853940718106229 0 0.0043394414396628455 -0.005370356292052637 0 0.0048816292824195411 -0.0057363695820742905 0 0.0044969338110445829 -0.0058853940718106229 0 0.0043394414396628455 -0.005370356292052637 0 0.0048816292824195411 -0.0057363695820742905 0 0.0048288931179169227 -0.0060792425805577281 0 0.0044969338110445829 -0.0058853940718106229 0 0.0014612551058556459 -0.010758752423731218 0 0.0012271798447061513 -0.010356934374087454 0 0.00031302365240641367 -0.010800218102100228 0 0.0022675900365553493 -0.010650630072163471 0 0.0014612551058556459 -0.010758752423731218 0 0.0012271798447061513 -0.010356934374087454 0 0.003098450054290471 -0.0079208100486852714 0 0.0024671050289789571 -0.0069845887352076152 0 0.0026707877861329109 -0.0052746298939728084 0 0.0027138881171729461 -0.0053047458704760355 0 0.0025923239915592805 -0.00524513293837042 0 0.0012271798447061513 -0.010356934374087454 0 0.00031302365240641367 -0.010800218102100228 0 0.00091107257967812405 -0.0093153366318981558 0 0.0024671050289789571 -0.0069845887352076152 0 0.0015814061070440377 -0.0075336049999262297 0 0.0027227688312621541 -0.0053039497381674088 0 0.0026707877861329109 -0.0052746298939728084 0 0.0027138881171729461 -0.0053047458704760355 0 0.0027914440770206504 -0.0062183242529839566 0 0.0024671050289789571 -0.0069845887352076152 0 0.0043394414396628455 -0.005370356292052637 0 0.0031518910032398073 -0.0053863925622071865 0 0.0036083521312051266 -0.0057212139947420294 0 0.0031518910032398073 -0.0053863925622071865 0 0.0032226457639396712 -0.0056167067348881824 0 0.0036083521312051266 -0.0057212139947420294 0 0.0032179714731022826 -0.0051536776560377005 0 0.0024671050289789571 -0.0069845887352076152 0 0.0029774101482341769 -0.0056989388324636151 0 0.0031518910032398073 -0.0053863925622071865 0 0.0032226457639396712 -0.0056167067348881824 0 0.0032226457639396712 -0.0056167067348881824 0 0.0036083521312051266 -0.0057212139947420294 0 0.0036673924352652828 -0.0061969822374543003 0 0.0036003984918603492 -0.006640457057165392 0 0.0032226457639396712 -0.0056167067348881824 0 0.0036673924352652828 -0.0061969822374543003 0 0.0040629696936012082 -0.0060067432859074125 0 0.0036083521312051266 -0.0057212139947420294 0 0.0036673924352652828 -0.0061969822374543003 0 -0.00056716407633599308 -0.022558662617041099 0 0.00018443625535294024 -0.022099292488629282 0 -0.00040384082117132076 -0.021766081422629018 0 -0.00056716407633599308 -0.022558662617041099 0 0.00018443625535294024 -0.022099292488629282 0 0.00011901183921543676 -0.023075592756825268 0 0.0001755194813030703 -0.023909636006365472 0 1.2697387022489115e-05 -0.023756562199161613 0 -0.0003585394028596166 -0.024845046090659656 0 -8.7110244463518477e-05 -0.025042438035637733 0 -0.00029121573304267284 -0.02525945196317507 0 -0.0003585394028596166 -0.024845046090659656 0 -8.7110244463518477e-05 -0.025042438035637733 0 -4.015417601527774e-05 -0.024591506464157423 0 -0.0003585394028596166 -0.024845046090659656 0 -0.00031574690162334607 -0.024344477719894161 0 -4.015417601527774e-05 -0.024591506464157423 0 -0.00051115789519464425 -0.023372864884496518 0 -0.00056716407633599308 -0.022558662617041099 0 0.00011901183921543676 -0.023075592756825268 0 -0.0011894278336566243 -0.023320484465891415 0 -0.00091570236894572793 -0.023067418080550638 0 -0.0011302228629843541 -0.022615820252983566 0 -0.0011602751216130381 -0.023443695556214308 0 -0.00051115789519464425 -0.023372864884496518 0 -0.00091570236894572793 -0.023067418080550638 0 -0.00051115789519464425 -0.023372864884496518 0 -0.00056716407633599308 -0.022558662617041099 0 -0.00091570236894572793 -0.023067418080550638 0 -0.0011602751216130381 -0.023443695556214308 0 -0.0011894278336566243 -0.023320484465891415 0 -0.00091570236894572793 -0.023067418080550638 0 -0.00056716407633599308 -0.022558662617041099 0 -0.00091570236894572793 -0.023067418080550638 0 -0.0011302228629843541 -0.022615820252983566 0 0.0025479546777341061 -0.015795339772311588 0 0.0029001322561476891 -0.015981335462700575 0 0.0027177947304449115 -0.014948473190960748 0 -0.0011771643456532014 -0.023448103564219846 0 -0.0011894278336566243 -0.023320484465891415 0 -0.0019011266119807941 -0.022357035554336331 0 0.0035738671396896658 -0.016250518060698705 0 0.0029001322561476891 -0.015981335462700575 0 0.0027177947304449115 -0.014948473190960748 0 0.00077364995054519145 -0.020213517891671764 0 0.00029954274798420672 -0.019282201619818366 0 -0.0011894278336566243 -0.023320484465891415 0 -0.0011302228629843541 -0.022615820252983566 0 -0.0019011266119807941 -0.022357035554336331 0 0.0027315691386014924 -0.016342764317798842 0 0.0025479546777341061 -0.015795339772311588 0 0.0029001322561476891 -0.015981335462700575 0 -0.0011302228629843541 -0.022615820252983566 0 -0.0019011266119807941 -0.022357035554336331 0 -0.0010948955594275536 -0.021901803265968994 0 -0.00056716407633599308 -0.022558662617041099 0 -0.0010948955594275536 -0.021901803265968994 0 -0.00040384082117132076 -0.021766081422629018 0 -0.00056716407633599308 -0.022558662617041099 0 -0.0011302228629843541 -0.022615820252983566 0 -0.0010948955594275536 -0.021901803265968994 0 -0.0010948955594275536 -0.021901803265968994 0 -0.0016627264424478854 -0.021085606283458548 0 -0.00073550560389982773 -0.021134824409140919 0 -0.0010948955594275536 -0.021901803265968994 0 -0.00073550560389982773 -0.021134824409140919 0 -0.00040384082117132076 -0.021766081422629018 0 -0.0019011266119807941 -0.022357035554336331 0 -0.0010948955594275536 -0.021901803265968994 0 -0.0016627264424478854 -0.021085606283458548 0 -0.00095299536817214012 -0.019086745229837526 0 -0.0016096651766643053 -0.018542303126044428 0 -0.0021555396117498337 -0.019310530819449244 0 -0.0020616060943840268 -0.020137715971218838 0 -0.001680367626092297 -0.019730392078463433 0 -0.0016096651766643053 -0.018542303126044428 0 -0.0021555396117498337 -0.019310530819449244 0 -0.0028940894882784275 -0.018591833137067783 0 -0.0021555396117498337 -0.019310530819449244 0 -0.0028940894882784275 -0.018591833137067783 0 -0.0031435239049714733 -0.019401589444208958 0 -0.0031435239049714733 -0.019401589444208958 0 -0.0041504481633953547 -0.018623728898549605 0 -0.0036005484022440678 -0.019866216493083729 0 -0.001680367626092297 -0.019730392078463433 0 -0.0022381541434572543 -0.021514707517183665 0 -0.0028940894882784275 -0.018591833137067783 0 -0.0031435239049714733 -0.019401589444208958 0 -0.0041504481633953547 -0.018623728898549605 0 -0.00073550560389982773 -0.021134824409140919 0 -0.00040384082117132076 -0.021766081422629018 0 0.0001977729062231961 -0.0211533100176256 0 0.00018443625535294024 -0.022099292488629282 0 -0.00040384082117132076 -0.021766081422629018 0 0.0001977729062231961 -0.0211533100176256 0 0.0001755194813030703 -0.023909636006365472 0 -0.0022381541434572543 -0.021514707517183665 0 -0.00045949851821497649 -0.025420500708809895 0 -0.00029121573304267284 -0.02525945196317507 0 -0.00014021737524760902 -0.025412129478918397 0 -8.7110244463518477e-05 -0.025042438035637733 0 -0.00029121573304267284 -0.02525945196317507 0 -0.00014021737524760902 -0.025412129478918397 0 -0.0041367769789357736 -0.021419069585677377 0 -0.0041723758490887792 -0.021397659566021496 0 -0.0041746799376663939 -0.021385649520715075 0 -0.0021866121281142836 -0.024260954960681754 0 -0.0022381541434572543 -0.021514707517183665 0 -0.0022381541434572543 -0.021514707517183665 0 -0.0044499055380632256 -0.020525126314546911 0 -0.0041723758490887792 -0.021397659566021496 0 -0.0041746799376663939 -0.021385649520715075 0 -0.0041505710863047988 -0.021382637027556741 0 -0.0041746799376663939 -0.021385649520715075 0 -0.0041505710863047988 -0.021382637027556741 0 -0.0042059530924322451 -0.021374342731654304 0 -0.0044499055380632256 -0.020525126314546911 0 -0.0040482181305263 -0.022000559224615954 0 -0.0041505710863047988 -0.021382637027556741 0 -0.004289587767336735 -0.021631696639718711 0 -0.0042059530924322451 -0.021374342731654304 0 -0.0042799571439622736 -0.022640662240503297 0 -0.0044872034169055885 -0.022663731807067815 0 -0.0038452706134071818 -0.020649018245326084 0 -0.0029995322816166584 -0.020350285282501809 0 -0.0032968066998657728 -0.020948289520825999 0 -0.0042108593634418183 -0.020359909447134675 0 -0.0038452706134071818 -0.020649018245326084 0 -0.0037651598309874877 -0.021335138191317375 0 -0.0038073024986182589 -0.020638153974015031 0 -0.0027009489784099797 -0.020266754343214705 0 -0.0038452706134071818 -0.020649018245326084 0 -0.0032968066998657728 -0.020948289520825999 0 -0.0037651598309874877 -0.021335138191317375 0 -0.0041504481633953547 -0.018623728898549605 0 -0.0042108593634418183 -0.020359909447134675 0 -0.0036005484022440678 -0.019866216493083729 0 -0.0031435239049714733 -0.019401589444208958 0 -0.0036005484022440678 -0.019866216493083729 0 -0.0026312298374652245 -0.020286064944230759 0 -0.0038452706134071818 -0.020649018245326084 0 -0.0036005484022440678 -0.019866216493083729 0 -0.0026312298374652245 -0.020286064944230759 0 -0.0042108593634418183 -0.020359909447134675 0 -0.0038452706134071818 -0.020649018245326084 0 -0.0036005484022440678 -0.019866216493083729 0 -0.0021555396117498337 -0.019310530819449244 0 -0.0031435239049714733 -0.019401589444208958 0 -0.0026312298374652245 -0.020286064944230759 0 -0.0021555396117498337 -0.019310530819449244 0 -0.0026312298374652245 -0.020286064944230759 0 -0.0014118808695061482 -0.019885267958110152 0 -0.0029995322816166584 -0.020350285282501809 0 -0.0022194578736261486 -0.020174066494162181 0 -0.0023927951815279134 -0.020557600247796466 0 -0.0027009489784099797 -0.020266754343214705 0 -0.0023970015316823914 -0.020518746845116655 0 -0.00095299536817214012 -0.019086745229837526 0 -0.0021555396117498337 -0.019310530819449244 0 -0.0014118808695061482 -0.019885267958110152 0 -0.0023927951815279134 -0.020557600247796466 0 -0.0027813084658781075 -0.020913009876724644 0 -0.0022658604253069869 -0.021300278513250379 0 -0.0029995322816166584 -0.020350285282501809 0 -0.0023927951815279134 -0.020557600247796466 0 -0.0027813084658781075 -0.020913009876724644 0 -0.0029995322816166584 -0.020350285282501809 0 -0.0027813084658781075 -0.020913009876724644 0 -0.0032968066998657728 -0.020948289520825999 0 -0.0027813084658781075 -0.020913009876724644 0 -0.0032968066998657728 -0.020948289520825999 0 -0.0031608161391731343 -0.021489028194883443 0 -0.0027813084658781075 -0.020913009876724644 0 -0.0031608161391731343 -0.021489028194883443 0 -0.0022658604253069869 -0.021300278513250379 0 -0.0016741860722996093 -0.020191238851188429 0 -0.0015801033624535418 -0.020035993525355414 0 -0.00100793543055859 -0.019093912768092202 0 -6.3527836074816845e-05 -0.017843966919942594 0 -0.0011503916699075417 -0.017604348117676225 0 -0.0031608161391731343 -0.021489028194883443 0 -0.0022658604253069869 -0.021300278513250379 0 -0.0030764462445484887 -0.022281308850980043 0 -0.0031608161391731343 -0.021489028194883443 0 -0.0030764462445484887 -0.022281308850980043 0 -0.0037457962396541793 -0.022225551148364508 0 -0.0037457962396541793 -0.022225551148364508 0 -0.0041590875906940047 -0.022415905589327673 0 -0.0039803477815244723 -0.022529823465397263 0 -0.0037457962396541793 -0.022225551148364508 0 -0.0041590875906940047 -0.022415905589327673 0 -0.0041091219230494063 -0.02189763081528032 0 -0.0042075146050145245 -0.022429176946904123 0 -0.0042799571439622736 -0.022640662240503297 0 -0.0041590875906940047 -0.022415905589327673 0 -0.0041091219230494063 -0.02189763081528032 0 -0.004289587767336735 -0.021631696639718711 0 -0.0041590875906940047 -0.022415905589327673 0 -0.0043892464927462044 -0.02350075186640526 0 -0.0040217184997740239 -0.023029726697109926 0 -0.0041505710863047988 -0.021382637027556741 0 -0.0041091219230494063 -0.02189763081528032 0 -0.004289587767336735 -0.021631696639718711 0 -0.0042108593634418183 -0.020359909447134675 0 -0.0041091219230494063 -0.02189763081528032 0 -0.0037651598309874877 -0.021335138191317375 0 -0.0032968066998657728 -0.020948289520825999 0 -0.0031608161391731343 -0.021489028194883443 0 -0.0037651598309874877 -0.021335138191317375 0 -0.0037457962396541793 -0.022225551148364508 0 -0.0041091219230494063 -0.02189763081528032 0 -0.0037651598309874877 -0.021335138191317375 0 -0.0031608161391731343 -0.021489028194883443 0 -0.0037457962396541793 -0.022225551148364508 0 -0.0037651598309874877 -0.021335138191317375 0 0.0025896956222186424 -0.0052355214642057718 0 0.0025923239915592805 -0.00524513293837042 0 0.0024786778920770332 -0.0052780770233981054 0 0.0025896956222186424 -0.0052355214642057718 0 0.0024786778920770332 -0.0052780770233981054 0 0.002536356907340164 -0.00529503714818367 0 0.0025896956222186424 -0.0052355214642057718 0 0.0026246504294522065 -0.0052445690475486978 0 0.0025923239915592805 -0.00524513293837042 0 0.0026707877861329109 -0.0052746298939728084 0 0.0026246504294522065 -0.0052445690475486978 0 0.0025923239915592805 -0.00524513293837042 0 0.00091107257967812405 -0.0093153366318981558 0 0.0018224829404317952 -0.0095880972220924732 0 0.0020930414134774067 -0.0088022561936953528 0 0.0012271798447061513 -0.010356934374087454 0 0.0018224829404317952 -0.0095880972220924732 0 0.0030895217039439964 -0.0098754772194789911 0 0.0012271798447061513 -0.010356934374087454 0 0.00091107257967812405 -0.0093153366318981558 0 0.0018224829404317952 -0.0095880972220924732 0 0.00091107257967812405 -0.0093153366318981558 0 0.0020930414134774067 -0.0088022561936953528 0 0.0016737791942726171 -0.0075206800527440193 0 0.0015814061070440377 -0.0075336049999262297 0 0.0021330546900376526 -0.0063347666155247218 0 0.0020930414134774067 -0.0088022561936953528 0 0.0030895217039439964 -0.0098754772194789911 0 0.0028539621274066519 -0.0075701857505801563 0 0.0020930414134774067 -0.0088022561936953528 0 0.0028539621274066519 -0.0075701857505801563 0 0.0016737791942726171 -0.0075206800527440193 0 0.0007866251237085176 -0.014716748124498805 0 0.00025173132963032211 -0.013713254434988857 0 -0.0020121955936301715 -0.020427134748163225 0 -0.0019830430872097822 -0.020149259065163603 0 -0.0022861095884745613 -0.019701050829753323 0 0.0018224829404317952 -0.0095880972220924732 0 0.0020930414134774067 -0.0088022561936953528 0 0.0030895217039439964 -0.0098754772194789911 0 -0.00095299536817214012 -0.019086745229837526 0 -0.0014118808695061482 -0.019885267958110152 0 -0.00016942363206729353 -0.019456541632155024 0 -0.0023970015316823914 -0.020518746845116655 0 0.0007866251237085176 -0.014716748124498805 0 -0.0022194578736261486 -0.020174066494162181 0 -0.0020121955936301715 -0.020427134748163225 0 -0.0019830430872097822 -0.020149259065163603 0 -0.0022194578736261486 -0.020174066494162181 0 -0.0023927951815279134 -0.020557600247796466 0 -0.0019830430872097822 -0.020149259065163603 0 -0.00100793543055859 -0.019093912768092202 0 -0.0019830430872097822 -0.020149259065163603 0 -0.0022861095884745613 -0.019701050829753323 0 -0.0016741860722996093 -0.020191238851188429 0 -0.0019468348911041331 -0.020196691392866985 0 -0.0023927951815279134 -0.020557600247796466 0 -0.0022658604253069869 -0.021300278513250379 0 -0.0019830430872097822 -0.020149259065163603 0 -0.00100793543055859 -0.019093912768092202 0 -0.0017548411764445697 -0.018557701445345239 0 -0.0022861095884745613 -0.019701050829753323 0 -0.00100793543055859 -0.019093912768092202 0 -0.0017548411764445697 -0.018557701445345239 0 -0.0011503916699075417 -0.017604348117676225 0 -0.0017548411764445697 -0.018557701445345239 0 -0.0026056528472634464 -0.017827539090284741 0 -0.0011503916699075417 -0.017604348117676225 0 -0.0017548411764445697 -0.018557701445345239 0 -0.0026056528472634464 -0.017827539090284741 0 -0.0022861095884745613 -0.019701050829753323 0 0.002528730092083457 -0.005261149037481273 0 0.0025142588963968141 -0.0056782714552720973 0 0.0028539621274066519 -0.0075701857505801563 0 0.002528730092083457 -0.005261149037481273 0 0.0025142588963968141 -0.0056782714552720973 0 0.0024521185556912496 -0.0053833319409547498 0 0.0024689638203445503 -0.0057260486889302176 0 0.0021330546900376526 -0.0063347666155247218 0 0.0025142588963968141 -0.0056782714552720973 0 0.0028539621274066519 -0.0075701857505801563 0 0.0016737791942726171 -0.0075206800527440193 0 -4.3530875703201879e-05 -0.011518931410171698 0 0.00025173132963032211 -0.013713254434988857 0 0.0025142588963968141 -0.0056782714552720973 0 0.0024786778920770332 -0.0052780770233981054 0 0.0024990293392465218 -0.0054334890221449149 0 0.0024990293392465218 -0.0054334890221449149 0 0.0024941294249031776 -0.0053556988945249054 0 0.002536356907340164 -0.00529503714818367 0 0.0024786778920770332 -0.0052780770233981054 0 0.0024990293392465218 -0.0054334890221449149 0 0.002536356907340164 -0.00529503714818367 0 0.0025142588963968141 -0.0056782714552720973 0 0.0024990293392465218 -0.0054334890221449149 0 0.0024521185556912496 -0.0053833319409547498 0 0.0024521185556912496 -0.0053833319409547498 0 0.0024941294249031776 -0.0053556988945249054 0 0.0024835223596922792 -0.0053255531561932938 0 0.0024990293392465218 -0.0054334890221449149 0 0.0024521185556912496 -0.0053833319409547498 0 0.0024941294249031776 -0.0053556988945249054 0 0.0024941294249031776 -0.0053556988945249054 0 0.0024835223596922792 -0.0053255531561932938 0 0.0025182237975576653 -0.0052802036107533999 0 0.0024835223596922792 -0.0053255531561932938 0 0.0025182237975576653 -0.0052802036107533999 0 0.0025041254129971077 -0.005270713062162688 0 0.0025519053388824839 -0.0052269126182851499 0 0.0025896956222186424 -0.0052355214642057718 0 0.002536356907340164 -0.00529503714818367 0 0.0025519053388824839 -0.0052269126182851499 0 0.0025182237975576653 -0.0052802036107533999 0 0.002536356907340164 -0.00529503714818367 0 0.0024941294249031776 -0.0053556988945249054 0 0.0025182237975576653 -0.0052802036107533999 0 0.002536356907340164 -0.00529503714818367 0 0.0024808282210972842 -0.0053081787458288841 0 0.0024633223301242669 -0.0053143075695659438 0 0.0024489114159675996 -0.0053451405081974841 0 0.0024919453240381975 -0.0053038220720148764 0 0.0024808282210972842 -0.0053081787458288841 0 0.0024627878165209421 -0.0053418039033234204 0 0.0024808282210972842 -0.0053081787458288841 0 0.0024489114159675996 -0.0053451405081974841 0 0.0024627878165209421 -0.0053418039033234204 0 0.0024835223596922792 -0.0053255531561932938 0 0.0025041254129971077 -0.005270713062162688 0 0.0024633223301242669 -0.0053143075695659438 0 0.0024808282210972842 -0.0053081787458288841 0 0.0025041254129971077 -0.005270713062162688 0 0.0024633223301242669 -0.0053143075695659438 0 0.002528730092083457 -0.005261149037481273 0 0.0024633223301242669 -0.0053143075695659438 0 0.0024107165637747893 -0.0053750966571953183 0 0.002528730092083457 -0.005261149037481273 0 0.0024521185556912496 -0.0053833319409547498 0 0.0024633223301242669 -0.0053143075695659438 0 0.0024521185556912496 -0.0053833319409547498 0 0.0024835223596922792 -0.0053255531561932938 0 0.0024633223301242669 -0.0053143075695659438 0 0.0024633223301242669 -0.0053143075695659438 0 0.0024489114159675996 -0.0053451405081974841 0 0.0024107165637747893 -0.0053750966571953183 0 -4.3530875703201879e-05 -0.011518931410171698 0 -0.00010725225729757219 -0.010927189562910437 0 -0.0026056528472634464 -0.017827539090284741 0 -0.0027893590111379004 -0.016131397453738143 0 -0.0017689473131004278 -0.016744576332721795 0 -0.0026056528472634464 -0.017827539090284741 0 -0.0017689473131004278 -0.016744576332721795 0 -0.0011503916699075417 -0.017604348117676225 0 -0.0017689473131004278 -0.016744576332721795 0 -0.0011503916699075417 -0.017604348117676225 0 -0.00094345055639499201 -0.016397702529554629 0 -0.0017689473131004278 -0.016744576332721795 0 -0.0016576932516164946 -0.015796088516591061 0 -0.00094345055639499201 -0.016397702529554629 0 -0.0027893590111379004 -0.016131397453738143 0 -0.0017689473131004278 -0.016744576332721795 0 -0.0016576932516164946 -0.015796088516591061 0 -0.0016576932516164946 -0.015796088516591061 0 -0.0013606071437668283 -0.014863575000891848 0 -0.00085842644644184792 -0.015631998702049944 0 -0.0016576932516164946 -0.015796088516591061 0 -0.0013606071437668283 -0.014863575000891848 0 -0.0021936667547543648 -0.015309725286179498 0 -0.00075654071651809691 -0.013594010321498028 0 -0.0011481471815752171 -0.013102976328716182 0 -0.0024206337579817595 -0.013298354240430212 0 -0.00074108738919715657 -0.01274066632685877 0 -0.0011481471815752171 -0.013102976328716182 0 -0.00060309872280722048 -0.013402463004573891 0 -0.00075654071651809691 -0.013594010321498028 0 -0.0011481471815752171 -0.013102976328716182 0 -0.00060309872280722048 -0.013402463004573891 0 -0.0015110889203893993 -0.014949515277559455 0 -0.00079473677086512574 -0.0092232701410891686 0 -0.0013606071437668283 -0.014863575000891848 0 -0.0021936667547543648 -0.015309725286179498 0 -0.0029740080065395373 -0.014453060500161635 0 -0.00010725225729757219 -0.010927189562910437 0 -0.00079473677086512574 -0.0092232701410891686 0 -0.0027893590111379004 -0.016131397453738143 0 -0.0021936667547543648 -0.015309725286179498 0 -0.0029740080065395373 -0.014453060500161635 0 -0.0027893590111379004 -0.016131397453738143 0 -0.0016576932516164946 -0.015796088516591061 0 -0.0021936667547543648 -0.015309725286179498 0 0.0024489114159675996 -0.0053451405081974841 0 0.0024107165637747893 -0.0053750966571953183 0 0.0024312543774961367 -0.0053807934754263806 0 0.0024107165637747893 -0.0053750966571953183 0 0.0024312543774961367 -0.0053807934754263806 0 0.0023757954777278048 -0.0054373190760397079 0 0.0024312543774961367 -0.0053807934754263806 0 0.0023757954777278048 -0.0054373190760397079 0 0.0024345459638015279 -0.0054159902568781809 0 -0.00079473677086512574 -0.0092232701410891686 0 0.00049217569551966028 -0.0021693187468074865 0 0.0024833450826122834 -0.0053589057766744511 0 0.0024312543774961367 -0.0053807934754263806 0 0.0024345459638015279 -0.0054159902568781809 0 0.0012135814320735393 -0.0032385590954316442 0 0.00049217569551966028 -0.0021693187468074865 0 0.0024833450826122834 -0.0053589057766744511 0 0.0024312543774961367 -0.0053807934754263806 0 0.0024627878165209421 -0.0053418039033234204 0 0.0024489114159675996 -0.0053451405081974841 0 0.0024312543774961367 -0.0053807934754263806 0 0.0024627878165209421 -0.0053418039033234204 0 0.00079011659604003026 -0.01668379455182812 0 -0.00011282657640027035 -0.016728758579229244 0 0.00058904751340085892 -0.015986666716122217 0 0.00079011659604003026 -0.01668379455182812 0 0.00058904751340085892 -0.015986666716122217 0 0.0016139971480919131 -0.015650412946251205 0 -0.0037882717333995197 -0.022629766073714041 0 -0.0039222095245509967 -0.022482516686419804 0 -0.0039803477815244723 -0.022529823465397263 0 -0.0037882717333995197 -0.022629766073714041 0 -0.0039222095245509967 -0.022482516686419804 0 -0.0039149255931487242 -0.022392802702277784 0 -0.0014111176033752885 -0.019732832878081381 0 -0.0017594679915004 -0.018375739748200958 0 -0.0039222095245509967 -0.022482516686419804 0 -0.0039803477815244723 -0.022529823465397263 0 -0.0039127913489249927 -0.022515859149375882 0 -0.0039803477815244723 -0.022529823465397263 0 -0.0039979776580876952 -0.02254010306157753 0 -0.0039127913489249927 -0.022515859149375882 0 -0.0041590875906940047 -0.022415905589327673 0 -0.0039803477815244723 -0.022529823465397263 0 -0.0039979776580876952 -0.02254010306157753 0 -0.0037457962396541793 -0.022225551148364508 0 -0.0037882717333995197 -0.022629766073714041 0 -0.0039803477815244723 -0.022529823465397263 0 -0.0030764462445484887 -0.022281308850980043 0 -0.0037457962396541793 -0.022225551148364508 0 -0.0037882717333995197 -0.022629766073714041 0 -6.3527836074816845e-05 -0.017843966919942594 0 0.00079011659604003026 -0.01668379455182812 0 -0.00011282657640027035 -0.016728758579229244 0 -0.0015801033624535418 -0.020035993525355414 0 -0.0014111176033752885 -0.019732832878081381 0 -0.0011503916699075417 -0.017604348117676225 0 -0.00094345055639499201 -0.016397702529554629 0 -0.00011282657640027035 -0.016728758579229244 0 -6.3527836074816845e-05 -0.017843966919942594 0 -0.0011503916699075417 -0.017604348117676225 0 -0.00011282657640027035 -0.016728758579229244 0 -0.00094345055639499201 -0.016397702529554629 0 -0.00011282657640027035 -0.016728758579229244 0 -0.00020214885035079927 -0.015928406857537457 0 -0.00011282657640027035 -0.016728758579229244 0 -0.00020214885035079927 -0.015928406857537457 0 0.00058904751340085892 -0.015986666716122217 0 -0.00020214885035079927 -0.015928406857537457 0 0.00019443409958858597 -0.0152889543181588 0 -0.00085842644644184792 -0.015631998702049944 0 -0.00020214885035079927 -0.015928406857537457 0 0.00019443409958858597 -0.0152889543181588 0 0.00058904751340085892 -0.015986666716122217 0 -0.0013606071437668283 -0.014863575000891848 0 0.00019443409958858597 -0.0152889543181588 0 -0.00085842644644184792 -0.015631998702049944 0 -0.0016576932516164946 -0.015796088516591061 0 -0.00094345055639499201 -0.016397702529554629 0 -0.00085842644644184792 -0.015631998702049944 0 -0.00094345055639499201 -0.016397702529554629 0 -0.00020214885035079927 -0.015928406857537457 0 -0.00085842644644184792 -0.015631998702049944 0 0.00011031400164828057 -0.013094276539905301 0 -0.0006156481156801239 -0.013445242933524891 0 -0.0015110889203893993 -0.014949515277559455 0 0.0003141556700606671 -0.01380917249637067 0 -0.00075654071651809691 -0.013594010321498028 0 -0.00052420870633929019 -0.01352014892548749 0 -0.00060309872280722048 -0.013402463004573891 0 -0.00051336829654541262 -0.013610217046792841 0 -0.00052420870633929019 -0.01352014892548749 0 -0.00060309872280722048 -0.013402463004573891 0 -0.00075654071651809691 -0.013594010321498028 0 -0.00043594000735986901 -0.013573101674746598 0 -0.00052420870633929019 -0.01352014892548749 0 -0.00043594000735986901 -0.013573101674746598 0 -0.00052420870633929019 -0.01352014892548749 0 -0.00053724788100934656 -0.013624920715571566 0 -0.00051336829654541262 -0.013610217046792841 0 -0.00052420870633929019 -0.01352014892548749 0 -0.00053724788100934656 -0.013624920715571566 0 -0.00043594000735986901 -0.013573101674746598 0 -0.00053724788100934656 -0.013624920715571566 0 -0.00085185571754998123 -0.013611775155898443 0 -0.00056764687480480986 -0.013658688447351925 0 -0.00053724788100934656 -0.013624920715571566 0 -0.00066733377021766329 -0.013661350381792205 0 -0.00062358391056057728 -0.014107188797376869 0 -0.00079680347268057188 -0.013644506295105616 0 -0.00053724788100934656 -0.013624920715571566 0 -0.00066733377021766329 -0.013661350381792205 0 -0.00085185571754998123 -0.013611775155898443 0 0.00019443409958858597 -0.0152889543181588 0 0.00058904751340085892 -0.015986666716122217 0 0.0016139971480919131 -0.015650412946251205 0 0.0003141556700606671 -0.01380917249637067 0 -0.0017594679915004 -0.018375739748200958 0 -0.00043594000735986901 -0.013573101674746598 0 -0.00085185571754998123 -0.013611775155898443 0 -0.001215696170325265 -0.013447172190057101 0 -0.0039222095245509967 -0.022482516686419804 0 -0.0039149255931487242 -0.022392802702277784 0 -0.0038242122073954433 -0.022329079397512927 0 -0.00085185571754998123 -0.013611775155898443 0 -0.001215696170325265 -0.013447172190057101 0 -0.0013074505599174897 -0.014124132057235604 0 -0.001215696170325265 -0.013447172190057101 0 -0.0013074505599174897 -0.014124132057235604 0 -0.0022262733295199716 -0.014332071079123244 0 -0.0005916909350507615 -0.014470974419159977 0 -0.00085185571754998123 -0.013611775155898443 0 -0.0013074505599174897 -0.014124132057235604 0 -0.0011423244328227725 -0.014610891884515087 0 -0.0005916909350507615 -0.014470974419159977 0 -0.0013074505599174897 -0.014124132057235604 0 -0.0011423244328227725 -0.014610891884515087 0 -0.0016462152137665072 -0.014827712108633834 0 -0.0013074505599174897 -0.014124132057235604 0 -0.0017594679915004 -0.018375739748200958 0 -0.0031415975266017972 -0.017958892637208675 0 -0.0039133174090216823 -0.021726213482501151 0 -0.0037205952662716737 -0.021954359242912759 0 -0.0039193791236271985 -0.022136180093780548 0 -0.0016462152137665072 -0.014827712108633834 0 -0.0013074505599174897 -0.014124132057235604 0 -0.0022262733295199716 -0.014332071079123244 0 -0.0034216706395657154 -0.021625324978840229 0 -0.0036530050341650332 -0.021688052444115931 0 -0.003532624032080644 -0.021832666317892147 0 -0.0039133174090216823 -0.021726213482501151 0 -0.0036530050341650332 -0.021688052444115931 0 -0.0037205952662716737 -0.021954359242912759 0 -0.0037205952662716737 -0.021954359242912759 0 -0.003532624032080644 -0.021832666317892147 0 -0.0034669208339241121 -0.022085225852289177 0 -0.0036530050341650332 -0.021688052444115931 0 -0.0037205952662716737 -0.021954359242912759 0 -0.003532624032080644 -0.021832666317892147 0 -0.0037205952662716737 -0.021954359242912759 0 -0.003631431872430267 -0.022256466228630419 0 -0.0034669208339241121 -0.022085225852289177 0 -0.0037205952662716737 -0.021954359242912759 0 -0.003631431872430267 -0.022256466228630419 0 -0.0039193791236271985 -0.022136180093780548 0 -0.003583322365027388 -0.0222624067060474 0 -0.004048328746729106 -0.022035273455971543 0 -0.0041684519006952667 -0.022052425627682042 0 -0.0039133174090216823 -0.021726213482501151 0 -0.0039193791236271985 -0.022136180093780548 0 -0.0017594679915004 -0.018375739748200958 0 -0.004048328746729106 -0.022035273455971543 0 -0.0039222095245509967 -0.022482516686419804 0 -0.0038242122073954433 -0.022329079397512927 0 -0.0037636392894905123 -0.022448328930416258 0 -0.0039222095245509967 -0.022482516686419804 0 -0.0037636392894905123 -0.022448328930416258 0 -0.0039127913489249927 -0.022515859149375882 0 -0.003631431872430267 -0.022256466228630419 0 -0.0037636392894905123 -0.022448328930416258 0 -0.0034944793269879888 -0.022525275571122664 0 -0.003631431872430267 -0.022256466228630419 0 -0.0034944793269879888 -0.022525275571122664 0 -0.0033649031585245527 -0.022372571396777279 0 -0.003631431872430267 -0.022256466228630419 0 -0.0038242122073954433 -0.022329079397512927 0 -0.0037636392894905123 -0.022448328930416258 0 -0.0037636392894905123 -0.022448328930416258 0 -0.0034944793269879888 -0.022525275571122664 0 -0.003669738034815761 -0.022568107049835511 0 -0.0037636392894905123 -0.022448328930416258 0 -0.003669738034815761 -0.022568107049835511 0 -0.0038155891702842822 -0.022581514643028839 0 -0.0034944793269879888 -0.022525275571122664 0 -0.003669738034815761 -0.022568107049835511 0 -0.0035888950824089871 -0.022740183297736201 0 -0.003669738034815761 -0.022568107049835511 0 -0.0035888950824089871 -0.022740183297736201 0 -0.0038155891702842822 -0.022581514643028839 0 -0.0035888950824089871 -0.022740183297736201 0 -0.0038155891702842822 -0.022581514643028839 0 -0.0038857846849159978 -0.02274247035822527 0 -0.0039979776580876952 -0.02254010306157753 0 -0.0038155891702842822 -0.022581514643028839 0 -0.0038857846849159978 -0.02274247035822527 0 -0.0039979776580876952 -0.02254010306157753 0 -0.0039127913489249927 -0.022515859149375882 0 -0.0038155891702842822 -0.022581514643028839 0 -0.0037636392894905123 -0.022448328930416258 0 -0.0039127913489249927 -0.022515859149375882 0 -0.0038155891702842822 -0.022581514643028839 0 -0.00295689331614374 -0.022813953217624465 0 -0.0031821215996942183 -0.022557904583013877 0 -0.0029356628911691249 -0.022597352435552102 0 -0.00295689331614374 -0.022813953217624465 0 -0.0032324551599524085 -0.022762804472048027 0 -0.0031821215996942183 -0.022557904583013877 0 -0.00295689331614374 -0.022813953217624465 0 -0.0032324551599524085 -0.022762804472048027 0 -0.0029096503040388125 -0.022987665476676206 0 -0.0034944793269879888 -0.022525275571122664 0 -0.0032324551599524085 -0.022762804472048027 0 -0.0031821215996942183 -0.022557904583013877 0 -0.0034944793269879888 -0.022525275571122664 0 -0.0035888950824089871 -0.022740183297736201 0 -0.0032324551599524085 -0.022762804472048027 0 -0.0034944793269879888 -0.022525275571122664 0 -0.0031821215996942183 -0.022557904583013877 0 -0.0033649031585245527 -0.022372571396777279 0 -0.0031821215996942183 -0.022557904583013877 0 -0.0033649031585245527 -0.022372571396777279 0 -0.0030994034561199531 -0.022340124035289156 0 -0.0031821215996942183 -0.022557904583013877 0 -0.0030994034561199531 -0.022340124035289156 0 -0.0029356628911691249 -0.022597352435552102 0 -0.0030994034561199531 -0.022340124035289156 0 -0.0029356628911691249 -0.022597352435552102 0 -0.0028942352011322222 -0.022361746091838761 0 -0.0030022366461113338 -0.022104224321230451 0 -0.0032777763064865588 -0.022192347211224452 0 -0.0032446713986645872 -0.021909579788295552 0 -0.0030994034561199531 -0.022340124035289156 0 -0.0030022366461113338 -0.022104224321230451 0 -0.0032777763064865588 -0.022192347211224452 0 -0.0030994034561199531 -0.022340124035289156 0 -0.0030022366461113338 -0.022104224321230451 0 -0.0028942352011322222 -0.022361746091838761 0 -0.0033649031585245527 -0.022372571396777279 0 -0.0032777763064865588 -0.022192347211224452 0 -0.0034669208339241121 -0.022085225852289177 0 -0.003631431872430267 -0.022256466228630419 0 -0.0033649031585245527 -0.022372571396777279 0 -0.0034669208339241121 -0.022085225852289177 0 -0.0033649031585245527 -0.022372571396777279 0 -0.0030994034561199531 -0.022340124035289156 0 -0.0032777763064865588 -0.022192347211224452 0 -0.0032777763064865588 -0.022192347211224452 0 -0.0034669208339241121 -0.022085225852289177 0 -0.0032446713986645872 -0.021909579788295552 0 -0.0034216706395657154 -0.021625324978840229 0 -0.003532624032080644 -0.021832666317892147 0 -0.0032446713986645872 -0.021909579788295552 0 -0.003532624032080644 -0.021832666317892147 0 -0.0034669208339241121 -0.022085225852289177 0 -0.0032446713986645872 -0.021909579788295552 0 -0.0031801874567766028 -0.021617508750215078 0 -0.0034216706395657154 -0.021625324978840229 0 -0.0032446713986645872 -0.021909579788295552 0 -0.0030022366461113338 -0.022104224321230451 0 -0.0030391468857605738 -0.021861500595522301 0 -0.0028543772172604925 -0.021906541907618409 0 -0.0030022366461113338 -0.022104224321230451 0 -0.0032446713986645872 -0.021909579788295552 0 -0.0030391468857605738 -0.021861500595522301 0 -0.0031801874567766028 -0.021617508750215078 0 -0.0032446713986645872 -0.021909579788295552 0 -0.0030391468857605738 -0.021861500595522301 0 -0.0031801874567766028 -0.021617508750215078 0 -0.0030391468857605738 -0.021861500595522301 0 -0.002934608126436926 -0.021675691087555193 0 -0.002934608126436926 -0.021675691087555193 0 -0.0028543772172604925 -0.021906541907618409 0 -0.0027934537033753519 -0.021709713234681634 0 -0.0030391468857605738 -0.021861500595522301 0 -0.002934608126436926 -0.021675691087555193 0 -0.0028543772172604925 -0.021906541907618409 0 -0.0028543772172604925 -0.021906541907618409 0 -0.0026621301064483189 -0.021820549877737835 0 -0.0027210382428004827 -0.022164466450919115 0 -0.0027143117196514279 -0.021532899283980861 0 -0.0026621301064483189 -0.021820549877737835 0 -0.0027934537033753519 -0.021709713234681634 0 -0.0028543772172604925 -0.021906541907618409 0 -0.0026621301064483189 -0.021820549877737835 0 -0.0027934537033753519 -0.021709713234681634 0 -0.0024942300082600065 -0.021585446391854266 0 -0.0027143117196514279 -0.021532899283980861 0 -0.0026621301064483189 -0.021820549877737835 0 -0.0024942300082600065 -0.021585446391854266 0 -0.0026621301064483189 -0.021820549877737835 0 -0.0025050209865315927 -0.021988002187503877 0 -0.0024942300082600065 -0.021585446391854266 0 -0.0025050209865315927 -0.021988002187503877 0 -0.0022085726160909051 -0.021890051587165584 0 -0.0026621301064483189 -0.021820549877737835 0 -0.0025050209865315927 -0.021988002187503877 0 -0.0027210382428004827 -0.022164466450919115 0 -0.0024090495409089252 -0.022345198160484549 0 -0.0027210382428004827 -0.022164466450919115 0 -0.0026999531274365129 -0.022590227264326846 0 -0.0025050209865315927 -0.021988002187503877 0 -0.0024090495409089252 -0.022345198160484549 0 -0.0027210382428004827 -0.022164466450919115 0 -0.0025050209865315927 -0.021988002187503877 0 -0.0024090495409089252 -0.022345198160484549 0 -0.0022085726160909051 -0.021890051587165584 0 -0.0030022366461113338 -0.022104224321230451 0 -0.0028543772172604925 -0.021906541907618409 0 -0.0027210382428004827 -0.022164466450919115 0 -0.0030022366461113338 -0.022104224321230451 0 -0.0028942352011322222 -0.022361746091838761 0 -0.0027210382428004827 -0.022164466450919115 0 -0.0028942352011322222 -0.022361746091838761 0 -0.0027210382428004827 -0.022164466450919115 0 -0.0026999531274365129 -0.022590227264326846 0 -0.0022692347339559071 -0.021352769949163217 0 -0.0017348330281515992 -0.021711315746769325 0 -0.0022085726160909051 -0.021890051587165584 0 -0.0017348330281515992 -0.021711315746769325 0 -0.0022085726160909051 -0.021890051587165584 0 -0.0018929290036806159 -0.022234997540392824 0 -0.0024090495409089252 -0.022345198160484549 0 -0.0022085726160909051 -0.021890051587165584 0 -0.0018929290036806159 -0.022234997540392824 0 -0.0024090495409089252 -0.022345198160484549 0 -0.0018929290036806159 -0.022234997540392824 0 -0.002134615618625465 -0.022634667254181385 0 -0.0012956897646248247 -0.022157597722834398 0 -0.0018929290036806159 -0.022234997540392824 0 -0.0016949526574753439 -0.022734892819587748 0 -0.0016332158263566718 -0.022506804642438309 0 -0.0020089214043052836 -0.023134111040787157 0 -0.0012956897646248247 -0.022157597722834398 0 -0.0017348330281515992 -0.021711315746769325 0 -0.0018929290036806159 -0.022234997540392824 0 -0.0018929290036806159 -0.022234997540392824 0 -0.0016949526574753439 -0.022734892819587748 0 -0.002134615618625465 -0.022634667254181385 0 -0.0016949526574753439 -0.022734892819587748 0 -0.002134615618625465 -0.022634667254181385 0 -0.0022118193007921874 -0.022972871733431158 0 -0.0024090495409089252 -0.022345198160484549 0 -0.002134615618625465 -0.022634667254181385 0 -0.0024319451650760978 -0.02281645777463406 0 -0.002134615618625465 -0.022634667254181385 0 -0.0022118193007921874 -0.022972871733431158 0 -0.0024319451650760978 -0.02281645777463406 0 -0.0016949526574753439 -0.022734892819587748 0 -0.0022118193007921874 -0.022972871733431158 0 -0.0022501926347354355 -0.023489036075489231 0 -0.0022118193007921874 -0.022972871733431158 0 -0.0024319451650760978 -0.02281645777463406 0 -0.0024302153029001016 -0.02317390732221743 0 -0.0022118193007921874 -0.022972871733431158 0 -0.0024302153029001016 -0.02317390732221743 0 -0.0022501926347354355 -0.023489036075489231 0 -0.0020089214043052836 -0.023134111040787157 0 -0.0022336435316995243 -0.023471892095657108 0 -0.0023202977850232541 -0.023555564025880424 0 -0.0022244304019575427 -0.023737650891290665 0 -0.0022501926347354355 -0.023489036075489231 0 -0.0029356628911691249 -0.022597352435552102 0 -0.0026999531274365129 -0.022590227264326846 0 -0.0028046568749014998 -0.022894600480494041 0 -0.0029356628911691249 -0.022597352435552102 0 -0.0028942352011322222 -0.022361746091838761 0 -0.0026999531274365129 -0.022590227264326846 0 -0.0024090495409089252 -0.022345198160484549 0 -0.0026999531274365129 -0.022590227264326846 0 -0.0024319451650760978 -0.02281645777463406 0 -0.0026999531274365129 -0.022590227264326846 0 -0.0024319451650760978 -0.02281645777463406 0 -0.0025938842536135406 -0.022970429999782715 0 -0.0025938842536135406 -0.022970429999782715 0 -0.0028046568749014998 -0.022894600480494041 0 -0.0025645510565587386 -0.023411237325739454 0 -0.0025938842536135406 -0.022970429999782715 0 -0.0024302153029001016 -0.02317390732221743 0 -0.0025645510565587386 -0.023411237325739454 0 -0.0024319451650760978 -0.02281645777463406 0 -0.0025938842536135406 -0.022970429999782715 0 -0.0024302153029001016 -0.02317390732221743 0 -0.0028117289136655125 -0.022872928923310009 0 -0.0029281089033884682 -0.023620508559291872 0 -0.0026999531274365129 -0.022590227264326846 0 -0.0025938842536135406 -0.022970429999782715 0 -0.0028046568749014998 -0.022894600480494041 0 -0.00295689331614374 -0.022813953217624465 0 -0.0029356628911691249 -0.022597352435552102 0 -0.0028046568749014998 -0.022894600480494041 0 -0.00295689331614374 -0.022813953217624465 0 -0.0028046568749014998 -0.022894600480494041 0 -0.0028271889641224876 -0.022982688114861226 0 -0.0022925487631269888 -0.022963009543138971 0 -0.0017717088609186227 -0.022965704295398928 0 -0.0020271362629248812 -0.023616054884076001 0 -0.0028046568749014998 -0.022894600480494041 0 -0.0028271889641224876 -0.022982688114861226 0 -0.0027407121772980072 -0.022984293128989641 0 -0.0024630442678004335 -0.022997204642789964 0 -0.0029281089033884682 -0.023620508559291872 0 -0.0024302153029001016 -0.02317390732221743 0 -0.0025645510565587386 -0.023411237325739454 0 -0.0022501926347354355 -0.023489036075489231 0 -0.0029281089033884682 -0.023620508559291872 0 -0.0027131448235269487 -0.024262020482429387 0 -0.0017717088609186227 -0.022965704295398928 0 -0.0020271362629248812 -0.023616054884076001 0 -0.0013815721774429288 -0.023529305150492969 0 -0.0020271362629248812 -0.023616054884076001 0 -0.0026104689560715712 -0.023821974851367601 0 -0.0025435817764342082 -0.023380705622771881 0 -0.0022925487631269888 -0.022963009543138971 0 -0.0020271362629248812 -0.023616054884076001 0 -0.0025435817764342082 -0.023380705622771881 0 -0.0028309275406083506 -0.024660528673946792 0 -0.0021759096774847005 -0.024166392740771654 0 -0.0034352257606590142 -0.024343054975941889 0 -0.0021759096774847005 -0.024166392740771654 0 -0.0022244304019575427 -0.023737650891290665 0 -0.002194952388821299 -0.023621905416816306 0 -0.0021128425525737083 -0.02411974691440311 0 -0.002928634153405297 -0.024033015035589481 0 -0.0022244304019575427 -0.023737650891290665 0 -0.002194952388821299 -0.023621905416816306 0 -0.0022501926347354355 -0.023489036075489231 0 -0.0028309275406083506 -0.024660528673946792 0 -0.0034352257606590142 -0.024343054975941889 0 -0.003281794965595265 -0.024711358998050652 0 -0.0034352257606590142 -0.024343054975941889 0 -0.003281794965595265 -0.024711358998050652 0 -0.0036297987385051898 -0.024778299831148608 0 -0.0044731968733347765 -0.024385300276653553 0 -0.0034352257606590142 -0.024343054975941889 0 -0.0036297987385051898 -0.024778299831148608 0 -0.0029281089033884682 -0.023620508559291872 0 -0.002928634153405297 -0.024033015035589481 0 -0.0025645510565587386 -0.023411237325739454 0 -0.002194952388821299 -0.023621905416816306 0 -0.0022501926347354355 -0.023489036075489231 0 -0.0044731968733347765 -0.024385300276653553 0 -0.0040288121819722043 -0.025030840733303278 0 -0.0036297987385051898 -0.024778299831148608 0 -0.0040288121819722043 -0.025030840733303278 0 -0.0032189251977160411 -0.025062868026779688 0 -0.0035530782716077544 -0.025709942842301593 0 -0.0040288121819722043 -0.025030840733303278 0 -0.0036297987385051898 -0.024778299831148608 0 -0.0032189251977160411 -0.025062868026779688 0 -0.002501247074731182 -0.025331964967660801 0 -0.0028309275406083506 -0.024660528673946792 0 -0.0032189251977160411 -0.025062868026779688 0 -0.002501247074731182 -0.025331964967660801 0 -0.0032189251977160411 -0.025062868026779688 0 -0.0035530782716077544 -0.025709942842301593 0 -0.003281794965595265 -0.024711358998050652 0 -0.0036297987385051898 -0.024778299831148608 0 -0.0032189251977160411 -0.025062868026779688 0 -0.0028309275406083506 -0.024660528673946792 0 -0.003281794965595265 -0.024711358998050652 0 -0.0032189251977160411 -0.025062868026779688 0 -0.0028095426817944112 -0.025536272450560261 0 -0.0024712934533618514 -0.02506761387882887 0 -0.002501247074731182 -0.025331964967660801 0 -0.0025309729535065587 -0.025528007203480901 0 -0.0026591405386946999 -0.025515118571054353 0 -0.0025309729535065587 -0.025528007203480901 0 -0.0026591405386946999 -0.025515118571054353 0 -0.0024948320047014734 -0.025637886159626904 0 -0.0013815721774429288 -0.023529305150492969 0 -0.0010105040962286875 -0.024064614367703949 0 -0.0016266663345704266 -0.024316678921879793 0 -0.0024712934533618514 -0.02506761387882887 0 -0.0018228483108564991 -0.024841633789358077 0 -0.0027131448235269487 -0.024262020482429387 0 -0.0024712934533618514 -0.02506761387882887 0 -0.0023728205256129853 -0.025630972912473394 0 -0.0023431228785719019 -0.025574614192017082 0 -0.002304067296459527 -0.02547825754327715 0 -0.0023728205256129853 -0.025630972912473394 0 -0.0023431228785719019 -0.025574614192017082 0 -0.0024948320047014734 -0.025637886159626904 0 -0.0024712934533618514 -0.02506761387882887 0 -0.0024425614526013906 -0.025751217909300201 0 -0.0020271362629248812 -0.023616054884076001 0 -0.0021950196649189744 -0.024112509071132025 0 -0.0026104689560715712 -0.023821974851367601 0 -0.0020271362629248812 -0.023616054884076001 0 -0.0021950196649189744 -0.024112509071132025 0 -0.0016266663345704266 -0.024316678921879793 0 -0.0020271362629248812 -0.023616054884076001 0 -0.0013815721774429288 -0.023529305150492969 0 -0.0016266663345704266 -0.024316678921879793 0 -0.002219087422391098 -0.025537433431729477 0 -0.0023431228785719019 -0.025574614192017082 0 -0.002304067296459527 -0.02547825754327715 0 -0.002219087422391098 -0.025537433431729477 0 -0.002304067296459527 -0.02547825754327715 0 -0.0023896118197041191 -0.025267120675236759 0 -0.0021950196649189744 -0.024112509071132025 0 -0.0016266663345704266 -0.024316678921879793 0 -0.0022187092094345592 -0.024588508559925473 0 -0.0018228483108564991 -0.024841633789358077 0 -0.0023745756437580498 -0.024948480391307284 0 -0.0021950196649189744 -0.024112509071132025 0 -0.0022187092094345592 -0.024588508559925473 0 -0.002541294142504957 -0.024271728849042599 0 -0.0027819939084734696 -0.025009689396833623 0 -0.0023745756437580498 -0.024948480391307284 0 -0.0028127751453102517 -0.024985463575816852 0 -0.0022187092094345592 -0.024588508559925473 0 -0.002541294142504957 -0.024271728849042599 0 -0.0028127751453102517 -0.024985463575816852 0 -0.002541294142504957 -0.024271728849042599 0 -0.0029985329557367193 -0.024192561698329944 0 -0.0021950196649189744 -0.024112509071132025 0 -0.002541294142504957 -0.024271728849042599 0 -0.0026104689560715712 -0.023821974851367601 0 -0.0026104689560715712 -0.023821974851367601 0 -0.0029985329557367193 -0.024192561698329944 0 -0.0030581147145092792 -0.02350895123028518 0 -0.002541294142504957 -0.024271728849042599 0 -0.0026104689560715712 -0.023821974851367601 0 -0.0029985329557367193 -0.024192561698329944 0 -0.0029985329557367193 -0.024192561698329944 0 -0.0035406864108987988 -0.0241339046447114 0 -0.0033636958767496112 -0.023757611492853055 0 -0.0029985329557367193 -0.024192561698329944 0 -0.0033636958767496112 -0.023757611492853055 0 -0.0030581147145092792 -0.02350895123028518 0 -0.0028127751453102517 -0.024985463575816852 0 -0.0029985329557367193 -0.024192561698329944 0 -0.0033179248215242135 -0.024693755872479402 0 -0.0029985329557367193 -0.024192561698329944 0 -0.0033179248215242135 -0.024693755872479402 0 -0.0035406864108987988 -0.0241339046447114 0 -0.0036267405949426735 -0.024900459615730418 0 -0.0033179248215242135 -0.024693755872479402 0 -0.0036562408249971251 -0.024582223881095197 0 -0.0036267405949426735 -0.024900459615730418 0 -0.0036562408249971251 -0.024582223881095197 0 -0.0039301538068094262 -0.024722691034865622 0 -0.0036562408249971251 -0.024582223881095197 0 -0.0039005703050972187 -0.024332115723916692 0 -0.0035406864108987988 -0.0241339046447114 0 -0.0033179248215242135 -0.024693755872479402 0 -0.0036562408249971251 -0.024582223881095197 0 -0.0035406864108987988 -0.0241339046447114 0 -0.0036562408249971251 -0.024582223881095197 0 -0.0039301538068094262 -0.024722691034865622 0 -0.0039005703050972187 -0.024332115723916692 0 -0.0039301538068094262 -0.024722691034865622 0 -0.0039005703050972187 -0.024332115723916692 0 -0.0043213966474299099 -0.024406057278162269 0 -0.0039005703050972187 -0.024332115723916692 0 -0.0043213966474299099 -0.024406057278162269 0 -0.0039760618698274968 -0.023890773512111912 0 -0.0043892464927462044 -0.02350075186640526 0 -0.0043213966474299099 -0.024406057278162269 0 -0.0039760618698274968 -0.023890773512111912 0 -0.0039760618698274968 -0.023890773512111912 0 -0.0036772341667616879 -0.023610625846614941 0 -0.0039578531758719705 -0.023427009847537716 0 -0.0039005703050972187 -0.024332115723916692 0 -0.0039760618698274968 -0.023890773512111912 0 -0.0035406864108987988 -0.0241339046447114 0 -0.0039760618698274968 -0.023890773512111912 0 -0.0035406864108987988 -0.0241339046447114 0 -0.0036772341667616879 -0.023610625846614941 0 -0.0035406864108987988 -0.0241339046447114 0 -0.0033636958767496112 -0.023757611492853055 0 -0.0036772341667616879 -0.023610625846614941 0 -0.0033636958767496112 -0.023757611492853055 0 -0.0036772341667616879 -0.023610625846614941 0 -0.0034693924286380083 -0.02333942550392594 0 -0.0034693924286380083 -0.02333942550392594 0 -0.0037741940916342655 -0.023167766968183547 0 -0.0035983924243952409 -0.022978527963741748 0 -0.0036772341667616879 -0.023610625846614941 0 -0.0034693924286380083 -0.02333942550392594 0 -0.0037741940916342655 -0.023167766968183547 0 -0.0043892464927462044 -0.02350075186640526 0 -0.0039578531758719705 -0.023427009847537716 0 -0.0040217184997740239 -0.023029726697109926 0 -0.0043892464927462044 -0.02350075186640526 0 -0.0039760618698274968 -0.023890773512111912 0 -0.0039578531758719705 -0.023427009847537716 0 -0.0036772341667616879 -0.023610625846614941 0 -0.0039578531758719705 -0.023427009847537716 0 -0.0037741940916342655 -0.023167766968183547 0 -0.0039578531758719705 -0.023427009847537716 0 -0.0037741940916342655 -0.023167766968183547 0 -0.0040217184997740239 -0.023029726697109926 0 -0.0041590875906940047 -0.022415905589327673 0 -0.0039979776580876952 -0.02254010306157753 0 -0.0038857846849159978 -0.02274247035822527 0 -0.0041590875906940047 -0.022415905589327673 0 -0.0040217184997740239 -0.023029726697109926 0 -0.0038857846849159978 -0.02274247035822527 0 -0.0037741940916342655 -0.023167766968183547 0 -0.0038857846849159978 -0.02274247035822527 0 -0.0035983924243952409 -0.022978527963741748 0 -0.0037741940916342655 -0.023167766968183547 0 -0.0040217184997740239 -0.023029726697109926 0 -0.0038857846849159978 -0.02274247035822527 0 -0.0034693924286380083 -0.02333942550392594 0 -0.0035983924243952409 -0.022978527963741748 0 -0.0033168787255626743 -0.023035215195481948 0 -0.0035888950824089871 -0.022740183297736201 0 -0.0038857846849159978 -0.02274247035822527 0 -0.0035983924243952409 -0.022978527963741748 0 -0.0035888950824089871 -0.022740183297736201 0 -0.0035983924243952409 -0.022978527963741748 0 -0.0033168787255626743 -0.023035215195481948 0 -0.0035888950824089871 -0.022740183297736201 0 -0.0032324551599524085 -0.022762804472048027 0 -0.0033168787255626743 -0.023035215195481948 0 -0.0032324551599524085 -0.022762804472048027 0 -0.0033168787255626743 -0.023035215195481948 0 -0.0029096503040388125 -0.022987665476676206 0 -0.0033168787255626743 -0.023035215195481948 0 -0.0029096503040388125 -0.022987665476676206 0 -0.0030581147145092792 -0.02350895123028518 0 -0.00295689331614374 -0.022813953217624465 0 -0.0028271889641224876 -0.022982688114861226 0 -0.0029096503040388125 -0.022987665476676206 0 -0.0024630442678004335 -0.022997204642789964 0 -0.0028904452685483925 -0.022987345120883074 0 -0.0022925487631269888 -0.022963009543138971 0 -0.0029096503040388125 -0.022987665476676206 0 -0.0025435817764342082 -0.023380705622771881 0 -0.0026104689560715712 -0.023821974851367601 0 -0.0025435817764342082 -0.023380705622771881 0 -0.0030581147145092792 -0.02350895123028518 0 -0.0029096503040388125 -0.022987665476676206 0 -0.0025435817764342082 -0.023380705622771881 0 -0.0030581147145092792 -0.02350895123028518 0 -0.0033636958767496112 -0.023757611492853055 0 -0.0034693924286380083 -0.02333942550392594 0 -0.0030581147145092792 -0.02350895123028518 0 -0.0034693924286380083 -0.02333942550392594 0 -0.0033168787255626743 -0.023035215195481948 0 -0.0030581147145092792 -0.02350895123028518 0 
</DataArray>
</PointData>
<CellData Scalars="region_id,cross_section_updated," Vectors="" Tensors="stress,">
<DataArray type="Float64" Name="region_id" format="ascii">
5 5 5 5 5 5 5 6 5 6 5 5 5 5 5 5 5 5 5 6 5 5 5 5 5 5 5 5 5 5 5 6 5 5 6 5 5 6 5 5 5 5 5 5 5 5 5 5 5 6 5 5 5 5 5 5 5 5 5 5 5 5 5 6 5 5 5 5 5 5 5 5 5 5 5 5 5 5 5 6 5 5 5 6 5 5 5 5 5 6 5 5 5 5 5 5 5 5 5 5 5 5 5 5 5 5 5 5 5 5 5 6 5 6 5 5 5 5 5 5 5 5 5 5 5 5 5 6 5 6 5 6 5 5 5 6 5 5 5 5 5 5 5 6 5 5 5 5 5 5 5 5 5 5 5 5 5 5 5 5 5 5 5 5 5 5 5 5 5 5 5 5 5 5 5 5 5 6 5 6 5 6 5 5 6 5 5 5 5 5 5 5 6 5 5 5 5 5 5 5 6 5 5 5 5 5 5 5 5 5 5 5 6 5 5 6 5 5 5 5 5 5 5 5 5 5 5 5 5 5 5 5 5 5 5 5 5 5 5 5 5 5 5 5 5 5 5 5 5 5 5 6 5 5 5 5 5 6 5 5 5 5 5 5 5 5 5 5 5 5 5 5 5 5 6 5 5 5 5 5 5 5 5 6 5 5 5 5 5 6 5 5 5 5 5 5 5 5 5 5 5 5 6 5 5 5 5 6 5 5 5 6 5 5 5 5 5 5 5 5 5 5 5 5 5 5 5 5 5 5 5 5 5 5 5 5 5 5 5 5 5 5 5 5 5 5 5 6 5 6 5 5 5 5 5 5 5 5 5 5 5 5 5 5 5 5 5 5 6 5 5 5 5 5 5 5 5 5 5 5 5 5 5 5 5 5 5 5 6 6 5 5 6 5 5 5 5 5 5 6 5 5 5 5 5 5 6 5 5 6 5 6 5 5 5 5 5 5 6 5 5 6 5 5 5 5 5 5 5 5 5 5 5 5 5 5 5 5 5 5 5 5 5 5 6 5 5 5 5 5 6 5 5 5 5 5 5 5 5 5 5 5 5 5 5 5 5 5 5 5 5 5 5 6 5 5 5 6 5 5 5 5 5 5 5 5 5 6 5 6 5 5 6 5 5 5 6 5 6 5 5 5 5 5 6 5 5 5 5 6 5 6 6 5 5 5 5 5 5 5 5 5 6 5 5 6 5 5 5 5 5 6 5 5 5 5 6 5 5 5 6 5 6 5 6 5 5 5 5 5 5 5 5 5 5 5 5 6 5 5 5 6 5 5 5 5 5 5 5 5 5 5 5 5 6 5 5 5 5 5 6 5 5 6 5 5 6 5 5 5 5 5 5 5 5 5 5 5 5 5 5 5 5 5 6 5 6 5 6 5 6 5 5 5 5 6 5 5 5 5 6 5 5 5 5 6 5 5 5 5 5 6 5 5 6 5 6 6 6 5 5 5 5 5 5 5 5 5 5 5 5 5 5 5 5 5 5 6 5 5 5 5 5 5 5 5 5 6 5 5 5 5 5 6 5 5 5 5 5 5 5 6 5 5 6 6 5 5 5 5 5 6 5 6 5 5 5 5 5 5 5 6 5 5 6 5 5 5 5 5 5 6 5 6 5 5 6 5 5 5 5 5 5 5 5 5 5 5 5 5 5 5 5 5 5 5 5 5 5 6 5 5 5 5 5 5 5 6 5 5 5 6 5 6 5 5 5 6 5 5 5 6 5 5 5 5 5 5 5 5 5 6 5 5 5 5 5 5 5 5 6 5 6 6 6 5 5 6 5 6 5 5 5 5 5 5 5 5 5 5 5 5 5 5 5 5 5 5 5 5 5 5 5 5 5 6 6 6 5 5 5 5 5 5 5 5 5 5 5 5 5 5 5 5 5 5 5 5 5 5 5 5 5 5 5 5 5 6 5 5 5 5 5 6 5 5 5 6 5 5 6 6 5 6 5 5 5 5 5 5 6 5 5 5 5 5 6 5 6 5 5 5 6 5 6 5 6 5 5 5 5 5 6 5 5 5 6 5 5 5 5 5 5 5 5 6 5 5 5 5 5 5 6 5 5 5 5 5 5 5 5 6 5 5 6 5 5 5 5 5 5 6 5 6 5 6 5 5 5 5 5 5 5 5 5 5 5 6 6 6 5 5 6 5 5 5 5 5 6 6 5 5 6 6 6 5 5 5 5 5 5 5 5 5 5 5 5 5 5 5 5 5 5 5 5 5 5 5 5 5 5 5 5 5 5 5 5 5 6 5 5 5 5 5 5 5 6 5 5 5 5 5 5 6 5 5 5 5 5 5 5 5 5 5 5 5 5 5 5 5 5 5 5 5 5 5 5 5 5 5 5 5 5 5 5 5 5 5 5 5 5 5 5 5 5 5 5 5 5 5 5 5 5 5 5 5 5 5 6 5 5 5 6 5 5 6 5 5 5 5 5 5 6 5 5 5 5 5 5 5 5 5 5 6 5 5 5 5 6 5 5 5 5 5 5 5 5 5 5 5 5 5 5 5 5 5 5 5 5 5 5 5 5 6 5 5 5 5 6 5 5 5 5 5 5 5 5 5 5 5 5 5 5 5 5 5 5 5 5 5 5 5 5 5 5 5 5 5 5 5 5 5 5 5 5 5 5 6 5 5 5 5 5 6 5 5 5 6 6 5 5 5 5 5 5 5 5 5 6 5 5 5 6 5 5 5 5 5 5 6 5 5 5 5 5 5 5 5 5 5 6 6 5 5 5 5 5 5 5 5 5 6 5 5 6 5 5 5 6 6 5 5 6 5 5 6 6 5 5 5 6 5 5 5 5 5 6 5 5 5 5 5 5 5 5 5 6 5 5 5 5 5 5 5 5 5 5 5 5 5 5 5 6 5 5 5 5 5 5 6 5 5 5 5 5 5 5 5 5 5 5 5 5 5 5 5 6 6 5 5 5 5 5 5 5 5 5 5 5 5 5 5 5 5 5 5 5 5 5 5 5 5 5 5 5 5 5 5 5 5 5 5 5 5 5 5 5 5 5 5 5 5 6 5 6 5 5 5 6 5 5 5 5 5 5 5 5 5 6 5 5 6 5 5 5 5 5 6 5 5 5 5 5 5 5 6 5 5 6 5 5 5 5 5 5 6 5 5 5 5 5 5 5 5 5 5 5 5 6 5 5 5 5 5 5 5 5 5 5 5 5 5 5 5 5 5 5 5 5 5 5 5 5 5 5 5 5 5 5 5 5 5 5 5 5 5 5 5 5 5 5 5 5 5 5 5 5 5 5 5 5 5 5 5 5 5 5 5 5 5 5 5 5 5 5 5 5 5 5 5 5 5 5 5 5 5 5 5 5 5 5 5 5 5 5 5 5 5 6 5 5 5 5 5 5 5 5 5 5 5 6 5 5 5 6 5 5 5 5 5 5 5 5 5 5 5 5 5 5 5 5 5 5 5 5 5 5 5 5 5 5 5 5 5 5 5 5 5 5 5 5 5 5 5 5 5 5 5 5 5 5 5 5 5 5 5 5 5 5 5 5 5 5 5 5 5 5 5 5 5 5 5 5 5 5 5 5 5 5 5 5 5 5 5 5 5 5 5 5 5 5 5 5 5 5 5 5 5 5 5 5 5 5 5 5 5 5 5 5 5 5 5 5 5 5 5 5 6 5 5 5 5 5 5 5 5 5 5 6 5 5 5 5 6 5 5 5 6 6 5 5 5 5 5 5 5 5 5 5 5 5 5 5 5 5 5 5 5 6 6 5 5 6 5 5 5 5 5 5 6 5 5 5 5 5 6 5 5 5 5 5 5 6 5 5 5 5 5 5 6 5 6 5 5 5 5 5 5 5 5 5 5 5 5 5 5 5 5 5 6 5 5 5 5 5 5 5 6 5 5 5 5 5 6 5 5 5 5 5 5 5 6 5 5 5 6 5 5 6 5 5 5 5 5 5 5 5 5 5 5 5 5 5 6 5 5 5 5 5 5 5 5 6 5 5 5 5 5 5 6 5 5 5 5 5 6 5 5 5 5 5 5 5 5 5 5 5 5 5 5 5 5 5 5 5 6 5 5 5 6 5 6 5 5 5 5 5 5 5 5 5 5 5 5 5 5 5 5 5 5 5 5 5 5 5 5 5 6 5 5 6 5 5 5 5 5 5 5 5 6 5 5 5 5 5 5 5 5 5 5 5 6 5 5 5 5 5 5 5 5 5 5 5 5 5 5 5 5 5 6 5 5 5 5 5 5 5 5 5 5 6 5 5 5 5 5 5 5 5 6 5 5 5 5 5 5 6 5 5 5 5 5 5 5 5 5 5 5 5 5 5 5 5 5 5 5 5 5 5 5 5 5 5 5 5 5 6 5 6 5 5 5 5 5 5 5 6 5 6 5 5 5 5 5 5 5 5 5 5 5 5 5 5 6 5 6 5 5 5 5 5 5 6 5 5 5 5 5 5 5 5 5 6 5 6 5 5 5 5 5 5 5 5 6 5 5 6 5 5 5 5 5 6 5 5 5 5 6 6 5 6 6 5 5 5 5 6 5 5 5 5 5 5 5 5 5 5 5 5 5 5 5 5 5 5 5 5 5 6 6 5 5 5 5 5 6 5 5 5 6 5 5 5 5 5 5 5 6 5 5 5 5 5 6 5 5 5 6 5 5 5 5 5 5 5 5 5 6 5 5 5 5 5 5 6 6 5 5 5 5 5 5 6 5 5 5 5 5 5 5 5 5 5 5 5 5 6 5 5 5 5 5 6 5 5 6 5 5 5 5 5 5 5 6 5 5 5 5 6 5 5 5 5 5 5 5 5 5 5 5 5 5 5 5 5 5 5 5 5 5 5 5 5 5 5 5 5 5 5 5 6 5 5 5 6 5 5 6 5 5 5 5 5 5 6 6 5 5 5 5 6 5 5 5 5 5 5 5 6 5 5 5 5 5 5 5 6 5 5 5 5 5 5 5 5 5 5 5 5 5 5 5 6 5 5 6 5 5 5 5 5 5 5 5 5 6 5 6 5 5 6 5 5 5 5 5 5 5 5 5 5 5 5 5 5 5 5 6 5 5 5 5 5 6 5 5 5 5 5 5 5 5 5 5 5 6 5 5 5 5 5 5 5 6 5 5 5 5 6 5 5 5 5 5 6 5 5 6 5 5 5 5 5 5 6 5 6 6 5 6 5 5 6 6 5 6 5 6 5 5 5 5 5 5 5 6 5 5 5 5 5 5 5 5 5 5 5 5 5 5 5 5 5 5 5 5 5 5 5 6 5 5 5 5 5 5 5 5 5 5 5 5 5 5 6 5 6 5 5 5 5 5 5 5 5 5 5 5 5 5 5 5 5 5 5 5 5 5 5 5 5 5 5 5 5 5 5 5 5 5 5 5 5 5 5 5 6 5 5 5 5 5 5 5 5 5 5 5 6 5 5 5 5 5 5 5 5 5 5 5 5 5 5 5 5 5 5 5 5 5 5 5 5 5 5 5 6 5 5 5 5 5 5 5 5 5 6 5 5 5 5 6 5 5 5 5 5 5 5 5 5 5 5 5 5 5 6 5 5 5 5 6 5 5 5 5 5 5 5 5 5 5 5 5 6 5 5 5 5 5 5 6 5 5 5 5 5 5 5 5 5 5 6 5 5 5 5 5 5 5 5 5 5 5 5 5 5 5 5 5 5 5 5 5 5 5 5 5 5 5 5 5 5 5 5 5 5 6 5 5 5 5 6 6 5 5 6 5 5 5 5 6 5 5 5 5 5 5 5 5 5 5 5 5 5 5 5 5 6 5 5 5 6 5 5 5 5 5 6 5 5 6 5 5 5 5 5 5 5 5 5 5 5 5 5 5 5 5 5 6 5 5 5 5 5 5 5 5 5 5 5 6 5 5 5 6 5 5 5 5 6 6 5 5 5 5 5 5 5 5 5 5 5 5 5 5 5 6 5 5 5 5 5 5 5 5 5 5 5 6 5 5 5 5 5 6 5 5 5 5 5 5 5 5 5 6 5 5 5 5 5 5 5 5 5 5 5 5 5 5 5 5 5 5 5 5 5 5 5 5 5 6 5 5 5 5 5 5 6 5 5 5 5 5 5 5 5 5 5 5 5 5 5 5 5 5 5 5 5 5 5 5 5 5 5 5 5 5 5 5 5 5 5 5 5 5 5 5 5 5 5 5 5 5 5 5 5 5 5 5 5 5 5 5 5 5 5 5 6 5 5 5 5 5 5 5 6 5 5 5 6 5 6 5 5 5 5 5 6 6 5 5 5 5 5 5 5 5 6 5 5 5 5 5 5 5 6 5 6 5 5 6 6 5 5 5 6 5 5 5 5 5 5 5 5 6 5 5 5 5 6 5 5 5 5 5 5 5 5 5 5 5 5 5 5 5 6 5 5 5 5 6 6 5 5 5 5 6 5 5 5 5 5 6 5 5 5 5 5 5 5 5 5 5 5 5 6 5 5 5 5 5 5 5 5 6 5 6 5 5 5 5 5 5 5 5 5 5 5 5 5 5 5 5 6 5 5 5 5 5 5 5 6 5 6 5 5 5 6 5 5 5 5 5 5 5 5 5 5 5 5 5 5 5 5 5 5 5 5 5 5 5 5 5 5 5 5 5 5 5 6 5 5 5 5 5 5 5 6 5 5 5 6 5 5 5 5 5 6 5 5 5 5 5 6 5 5 5 5 6 5 5 5 6 5 5 6 5 5 5 5 6 5 5 6 5 5 5 6 5 5 5 5 5 6 5 5 5 5 5 5 5 6 5 5 5 5 5 5 5 5 5 5 5 5 6 5 5 5 6 5 5 6 5 5 6 5 5 5 6 5 5 6 6 5 5 5 5 6 5 5 5 5 5 5 5 5 6 5 5 5 5 5 6 6 5 5 5 5 6 5 5 5 5 5 5 5 6 5 5 5 5 5 5 5 5 5 6 5 5 6 5 5 5 5 6 6 5 6 5 5 5 5 5 6 5 5 6 5 5 6 5 6 5 5 5 5 5 5 6 5 5 5 5 5 5 5 5 5 5 5 5 5 5 6 5 5 5 5 5 5 5 5 6 5 5 5 5 5 5 5 5 5 5 5 5 5 6 5 5 5 5 5 5 5 5 5 5 6 5 5 5 6 5 6 5 5 5 5 6 5 5 5 5 5 6 5 5 5 5 5 5 5 5 5 5 5 5 5 5 5 5 5 5 5 5 5 6 5 5 5 5 5 5 5 5 5 5 5 5 5 5 6 5 6 5 5 6 5 5 6 5 6 5 5 5 5 5 6 5 6 5 5 6 5 6 5 5 5 5 6 6 5 5 5 5 5 5 5 5 6 5 5 5 5 6 5 6 5 5 5 5 5 5 5 5 5 5 6 5 5 6 6 5 5 5 5 6 5 5 5 5 5 5 5 5 5 5 5 5 5 6 5 6 5 5 5 6 5 5 5 6 5 5 5 5 5 5 6 5 5 5 5 5 5 5 6 5 5 5 6 5 5 5 5 5 5 5 5 5 5 5 5 5 5 5 5 5 5 5 6 5 5 6 5 5 5 5 5 5 5 5 5 5 5 5 5 5 5 5 5 5 5 5 5 5 5 5 6 5 6 6 5 5 5 6 5 6 5 5 6 5 5 5 5 5 6 5 5 5 5 5 6 5 6 5 5 5 5 5 6 5 5 5 5 5 5 5 5 5 6 5 5 6 5 5 6 5 5 6 5 6 5 5 5 5 5 5 6 6 5 5 5 6 6 6 6 5 5 5 6 5 5 5 5 5 5 5 6 5 5 5 5 5 5 5 5 5 6 5 5 5 6 5 5 5 5 5 5 5 5 5 6 5 5 6 5 5 6 5 5 5 5 5 5 5 5 5 5 5 5 5 5 5 5 5 5 5 5 5 5 5 5 5 5 5 5 5 5 5 5 5 5 5 5 5 5 5 5 5 6 5 6 5 5 5 5 5 5 5 6 6 5 5 5 5 5 5 6 5 5 5 5 5 5 5 5 5 5 5 5 5 5 5 5 5 5 6 5 6 6 5 5 5 5 5 6 5 5 5 5 6 5 5 5 5 5 5 5 5 5 5 6 5 5 6 5 6 5 5 6 6 5 5 6 5 5 5 5 5 5 5 5 6 5 5 6 5 6 5 6 5 5 5 6 5 5 6 5 6 5 5 5 5 5 5 5 5 5 5 5 5 6 6 5 6 5 5 5 5 5 5 5 5 5 5 5 5 5 5 5 5 5 5 5 5 5 6 5 5 5 5 5 5 5 5 5 6 5 5 5 5 6 5 5 5 5 5 5 5 5 5 5 5 5 5 5 5 5 5 5 5 5 5 5 5 5 5 5 5 5 5 5 5 6 5 5 5 6 5 6 5 5 5 5 6 5 6 5 5 6 6 6 6 5 5 5 6 6 5 5 5 5 5 5 5 6 5 5 5 5 5 5 5 5 5 5 6 5 5 5 5 5 5 5 5 5 5 5 5 5 5 5 5 5 5 5 5 5 5 5 6 5 6 5 5 5 5 5 5 6 5 5 5 5 5 5 5 6 5 6 6 5 5 5 6 5 6 6 5 6 5 5 5 5 5 5 5 5 5 5 5 5 5 5 5 5 5 5 5 5 5 5 5 5 5 5 5 5 5 5 5 5 5 5 5 5 5 6 5 6 5 6 5 5 5 5 6 5 5 5 6 5 6 6 6 5 5 6 5 5 5 5 6 5 5 6 5 6 6 5 5 5 5 5 5 5 5 5 5 5 5 5 5 5 6 5 5 5 5 6 5 5 5 6 5 5 6 5 6 5 6 6 5 6 5 6 5 5 5 5 6 6 5 6 6 5 5 5 5 5 6 5 5 5 5 6 5 5 6 5 6 5 5 6 5 5 5 6 5 6 6 6 5 6 5 5 6 5 5 5 5 5 5 5 5 5 6 5 5 5 5 5 5 5 5 5 5 5 6 5 5 5 6 5 5 5 6 6 5 6 5 6 5 6 5 5 6 5 6 5 5 6 5 5 5 6 5 6 5 5 5 5 5 5 5 5 5 5 6 6 6 6 5 5 6 5 5 5 5 5 5 5 5 5 5 5 5 5 6 5 5 5 5 5 6 5 5 5 5 5 5 5 5 5 6 6 5 5 5 5 5 6 5 5 5 5 6 5 6 5 5 5 6 6 5 5 5 5 5 5 5 5 5 5 5 5 5 5 5 5 5 5 5 5 5 5 5 5 5 5 5 5 5 6 6 5 5 5 5 5 5 5 5 5 5 6 5 5 6 5 5 6 5 5 6 5 5 5 5 6 6 5 5 5 5 5 6 5 5 5 5 5 5 5 5 5 5 6 5 5 5 6 5 5 5 5 5 5 6 6 5 5 5 5 5 5 5 5 5 5 5 5 5 5 5 5 5 5 5 5 5 5 5 5 5 5 5 5 5 5 5 5 5 5 5 6 5 5 5 5 5 5 5 5 5 5 5 5 5 5 5 5 5 5 5 5 5 5 5 6 5 5 5 5 5 5 5 5 6 5 5 5 5 5 5 5 6 6 5 6 5 5 5 6 5 5 5 6 5 5 5 5 5 5 5 6 5 5 5 5 5 5 5 5 5 5 5 5 5 5 5 5 5 5 5 5 5 5 5 5 5 5 5 5 5 5 6 5 5 5 5 6 5 5 5 6 5 5 5 5 5 5 5 6 5 6 5 5 5 5 5 5 5 5 5 6 5 5 5 5 5 5 5 5 5 5 5 5 5 5 5 5 5 6 5 5 5 5 5 6 5 5 6 5 6 5 5 5 6 5 5 5 6 5 5 5 5 6 5 5 5 6 5 5 5 5 6 5 5 5 5 5 5 5 5 6 5 6 5 5 5 5 5 5 5 5 5 5 5 5 5 5 5 5 5 5 5 5 5 5 5 5 5 5 5 5 5 5 5 5 5 5 5 5 5 5 6 5 5 6 5 5 5 6 6 5 5 5 5 5 5 5 6 5 5 5 5 6 5 5 5 5 5 5 5 5 5 5 5 5 5 5 5 5 5 5 5 5 5 5 5 5 5 5 5 5 5 5 5 5 5 5 5 5 6 5 5 6 5 5 5 5 5 5 5 5 5 5 5 5 5 6 5 5 5 5 5 5 5 6 5 6 5 5 5 5 5 5 5 5 5 5 5 5 5 5 5 5 5 5 5 5 5 5 5 5 5 5 5 5 5 5 5 5 5 5 5 5 5 5 5 5 5 5 5 5 5 5 5 5 5 5 5 5 5 5 5 5 5 5 5 5 5 5 5 5 5 5 5 5 5 5 5 5 5 5 5 5 5 5 5 6 6 5 5 5 5 5 5 5 5 5 5 5 5 5 5 5 6 5 6 5 5 6 5 5 5 5 5 6 5 5 5 5 5 5 5 5 5 5 5 5 5 5 5 5 5 5 5 5 5 5 5 5 5 5 5 5 5 5 5 5 5 5 5 5 5 5 5 5 5 5 5 5 5 5 5 5 6 5 5 5 5 6 6 5 5 5 5 5 5 5 5 6 5 5 5 5 5 5 6 5 5 5 5 5 5 5 5 5 5 5 5 5 5 5 5 5 5 5 5 5 5 5 6 5 5 5 5 5 5 5 5 5 5 5 5 5 6 6 5 5 5 5 5 5 6 5 6 5 5 5 5 5 5 5 5 5 5 5 5 5 5 5 5 5 5 5 5 5 5 5 5 5 5 5 5 6 5 6 5 5 5 5 5 5 5 5 5 5 5 5 6 5 5 5 5 5 5 5 5 5 5 5 5 5 5 5 5 5 5 5 5 5 5 5 5 5 5 5 5 5 5 5 5 5 5 5 5 5 5 5 5 5 5 5 5 5 5 5 5 5 5 5 5 5 5 5 5 5 6 5 6 5 5 5 5 5 5 5 5 5 5 6 5 5 5 5 5 5 5 5 5 5 5 5 5 5 5 5 5 5 5 5 5 5 5 5 5 5 5 5 5 5 5 5 5 5 5 5 5 5 5 5 5 6 5 5 5 6 5 5 5 5 5 5 5 5 5 5 5 5 5 5 5 5 5 5 5 5 5 5 5 5 5 5 5 5 5 5 5 5 5 5 5 5 5 5 5 6 5 5 5 5 5 6 6 5 5 5 5 5 5 5 5 5 5 5 5 6 5 5 5 6 5 5 5 5 5 5 5 5 5 5 5 5 5 5 5 5 5 5 5 5 5 5 5 5 5 5 5 5 5 5 5 5 5 5 5 5 5 5 5 5 5 5 5 5 5 5 5 5 5 5 5 5 5 5 5 5 5 5 5 5 5 5 5 5 5 5 5 5 5 5 5 5 5 5 5 6 5 5 5 5 5 6 5 5 5 5 5 5 5 5 5 5 5 5 5 5 6 5 5 6 5 5 6 6 5 5 6 6 5 5 5 5 5 5 5 5 6 5 5 5 5 5 5 5 5 5 5 5 5 5 5 5 5 5 5 5 5 5 5 5 5 5 5 5 5 5 5 5 5 5 5 5 5 5 5 5 5 5 5 5 5 5 5 5 5 5 6 5 5 5 6 5 5 5 5 5 5 5 6 5 5 6 5 5 5 6 5 5 5 5 5 5 5 6 5 6 5 6 5 5 5 5 5 5 5 5 5 5 5 6 5 5 5 6 5 6 5 5 5 6 5 5 5 5 5 5 5 5 5 6 5 5 5 5 5 5 6 5 5 5 5 6 5 5 5 5 5 5 5 5 6 5 5 5 5 5 5 5 5 5 5 5 5 6 5 5 5 5 5 5 5 5 5 5 5 5 5 5 5 5 5 5 5 5 5 5 5 6 5 5 5 5 5 5 5 5 5 5 5 5 5 5 5 5 5 5 5 5 5 5 5 5 5 5 5 5 5 5 5 5 5 5 5 5 5 5 5 5 5 5 5 5 5 5 5 5 5 5 5 5 5 5 5 6 5 5 5 5 5 5 5 6 5 5 5 5 5 5 5 5 6 6 5 5 6 5 5 6 5 5 5 6 5 6 5 6 5 5 6 5 5 5 5 5 5 5 5 5 5 5 5 5 5 5 5 6 5 5 5 5 5 5 5 6 5 5 5 5 5 5 5 5 6 5 6 5 5 6 6 5 6 5 5 5 5 5 5 5 5 5 6 6 5 5 5 5 5 5 5 5 5 5 5 5 5 6 5 6 5 5 5 6 5 5 5 5 6 5 6 5 6 5 5 5 5 6 5 5 5 5 5 5 6 5 5 5 5 5 6 5 5 5 6 5 5 5 5 5 5 5 5 5 5 5 6 5 5 5 5 5 5 6 5 5 5 5 5 5 5 5 5 6 6 5 5 5 6 6 5 5 5 5 5 5 5 5 5 5 5 5 5 5 5 5 5 5 5 5 5 5 5 5 5 5 5 5 5 5 5 5 5 5 5 5 5 5 5 5 5 5 6 5 5 5 5 6 5 5 5 5 5 5 5 5 5 6 5 5 6 5 6 5 5 5 5 5 5 5 5 5 5 5 5 5 5 5 5 5 6 5 5 5 5 5 5 5 5 5 5 5 6 5 6 6 5 5 6 5 5 6 5 5 6 5 5 5 5 5 5 5 5 5 5 5 5 5 5 6 5 5 5 5 5 5 5 5 5 6 5 5 6 5 5 5 5 5 5 5 5 5 6 6 5 5 5 5 5 6 5 5 5 5 5 6 6 5 5 5 5 5 5 5 5 5 5 5 5 5 5 5 5 5 5 5 5 5 5 5 5 5 5 5 5 5 6 5 5 6 5 5 6 5 6 5 5 6 5 6 5 5 5 5 5 5 5 5 5 5 5 5 5 5 5 5 5 5 5 5 5 5 5 5 5 5 5 5 5 5 6 5 5 5 5 5 5 5 5 5 5 5 5 5 5 6 5 5 6 5 5 5 5 5 5 5 5 5 5 5 5 5 5 5 5 5 5 5 5 5 5 5 5 5 6 5 6 5 5 5 5 5 5 5 6 5 5 6 5 5 5 6 5 5 5 5 5 5 5 5 5 5 5 5 5 5 5 6 5 5 5 5 5 5 5 5 6 5 5 6 5 5 5 5 6 5 5 6 5 5 5 5 6 5 5 5 6 5 5 6 5 6 5 5 5 5 5 5 5 5 5 5 5 5 5 5 5 5 5 5 6 5 5 5 5 5 5 5 5 5 6 5 5 6 5 5 5 5 5 6 5 5 6 5 5 5 5 5 5 5 5 6 5 5 6 5 6 5 5 6 5 5 5 5 5 5 5 6 5 5 6 5 5 6 6 6 5 5 5 6 5 5 6 5 5 5 6 5 6 5 5 6 6 6 5 6 5 6 5 5 5 5 5 5 5 5 6 6 5 5 5 5 5 5 5 6 5 5 6 5 5 6 5 5 5 5 6 5 5 5 5 5 5 5 5 5 5 5 5 5 5 5 6 5 5 6 5 5 6 5 5 5 6 5 5 6 5 6 5 5 5 5 5 5 5 5 5 5 5 6 5 5 5 5 5 6 5 5 5 6 5 5 5 6 5 5 6 5 6 5 5 5 5 5 5 5 5 5 5 6 5 5 5 6 5 6 5 5 6 6 5 6 5 5 5 6 5 5 5 6 5 5 6 5 5 5 6 5 6 5 5 5 5 5 5 5 5 5 6 5 5 6 5 5 6 5 5 5 5 5 6 5 5 5 5 5 5 6 5 5 5 5 5 5 5 5 6 5 5 6 5 5 5 5 5 5 5 5 6 5 6 6 5 5 5 6 5 5 5 5 5 5 5 5 5 5 5 5 5 6 5 5 6 5 5 6 5 5 5 6 6 5 5 5 5 6 6 5 5 5 5 5 5 6 5 6 5 5 5 5 5 5 5 5 6 5 5 5 5 5 5 5 5 5 5 5 5 5 5 5 5 5 5 5 5 5 5 5 5 5 5 5 5 5 5 5 5 5 5 5 5 5 5 5 5 6 6 5 5 5 5 6 5 5 5 5 5 5 5 5 5 5 6 5 5 5 5 5 5 5 5 6 5 5 5 5 5 5 5 5 5 5 5 5 5 5 5 6 5 5 5 5 5 5 5 5 5 5 6 5 5 5 5 6 5 5 5 6 5 5 6 5 5 6 5 6 6 5 6 5 5 5 5 6 6 5 5 5 5 5 5 5 5 5 5 5 5 5 5 5 5 5 5 5 5 5 5 5 5 5 5 5 5 5 5 5 5 6 5 5 5 5 5 5 5 5 5 5 5 5 5 5 5 5 5 5 5 5 5 5 6 6 5 5 5 5 5 5 5 5 6 5 5 5 5 5 5 5 6 5 5 5 5 5 6 5 5 5 5 5 5 5 5 5 5 5 5 5 5 5 5 5 5 5 5 5 5 5 5 5 5 5 5 5 5 5 6 5 5 5 5 5 5 6 5 5 6 5 5 5 5 5 5 5 5 5 5 6 5 5 5 5 5 5 6 5 5 5 6 5 5 5 5 5 5 5 6 5 5 5 6 6 5 5 5 5 5 5 6 5 5 5 5 5 6 5 5 5 6 5 5 5 5 6 5 5 5 6 5 5 5 5 5 5 5 5 5 5 5 5 5 5 5 6 5 6 5 5 5 5 5 5 5 5 6 5 5 5 6 6 5 5 5 5 5 5 6 6 5 5 5 5 5 5 5 5 6 5 5 5 5 5 5 5 5 5 5 6 5 5 6 5 5 6 6 5 5 5 5 5 5 5 6 5 5 5 6 6 6 5 5 5 5 5 5 5 5 5 6 5 5 5 5 5 6 5 5 5 5 5 5 5 6 5 5 5 6 5 5 5 5 5 5 5 5 5 5 5 5 5 5 6 5 5 5 5 5 5 5 5 6 5 5 6 5 5 6 5 5 5 5 5 5 6 5 5 6 5 5 5 5 5 5 5 5 5 5 5 5 6 5 5 6 5 5 5 5 5 6 6 5 5 5 6 5 5 5 5 6 5 5 6 5 5 5 5 5 5 5 5 5 5 5 5 6 5 5 5 5 5 5 6 5 5 6 5 6 6 5 5 5 5 5 5 5 5 5 5 5 5 5 5 5 6 5 6 5 5 5 5 5 6 5 5 5 5 6 5 6 5 5 5 5 5 5 5 5 5 5 5 5 5 5 5 5 6 5 5 6 5 5 5 5 5 5 5 5 5 5 5 5 6 5 5 5 5 5 5 6 5 5 5 5 6 5 5 5 5 5 6 5 5 6 5 5 5 5 5 5 5 5 6 5 5 6 5 5 5 5 5 5 5 5 5 5 5 5 5 5 5 5 6 5 5 5 5 5 5 5 5 5 6 5 6 5 5 5 5 5 5 5 6 5 6 5 5 5 6 6 5 5 5 5 5 5 6 5 5 5 6 6 5 5 5 5 5 5 5 5 5 5 5 5 5 5 5 6 5 5 5 5 6 5 5 6 5 5 5 5 5 5 5 5 6 5 5 5 5 5 6 5 5 6 5 5 5 5 5 6 5 5 5 5 5 5 5 5 5 5 5 5 5 6 5 5 5 5 6 5 5 6 6 5 5 5 5 5 6 5 5 6 5 5 6 5 5 6 5 5 5 5 5 5 5 5 5 5 5 5 5 5 5 6 5 5 5 5 5 5 6 5 5 5 5 5 6 5 5 5 5 5 5 5 6 5 6 5 5 5 6 5 5 5 5 6 5 5 5 5 5 5 5 5 6 5 5 5 5 6 5 5 5 5 5 5 5 6 5 5 5 5 5 5 5 5 5 5 5 5 5 5 6 5 5 5 5 5 5 6 5 5 5 5 5 5 5 6 5 5 5 5 5 5 6 5 5 5 6 5 5 6 5 5 5 5 6 5 5 5 5 6 5 5 5 5 5 5 5 6 6 5 5 5 5 5 6 5 5 5 5 5 5 5 5 6 5 5 5 5 5 5 5 5 6 5 5 5 5 5 5 5 5 5 5 5 5 5 5 5 5 5 5 5 5 5 5 5 6 5 6 5 5 5 5 6 6 5 5 5 5 5 5 5 5 5 5 6 5 5 6 5 6 5 6 5 5 6 5 5 6 5 6 5 6 6 5 6 6 5 6 5 5 5 5 6 5 5 6 5 5 6 5 6 5 5 5 6 5 5 5 6 5 5 5 5 5 5 5 5 5 5 5 5 5 5 5 5 5 5 5 5 5 5 5 5 5 5 5 5 5 5 5 5 5 5 5 5 5 5 5 5 5 5 6 5 5 5 5 6 5 5 5 5 5 5 5 5 5 6 5 5 5 5 5 5 5 5 5 5 5 5 5 5 5 5 5 5 5 5 5 5 5 5 5 5 5 5 5 5 5 5 5 5 5 5 5 5 5 5 5 5 5 5 5 5 5 5 5 5 5 5 6 5 5 5 5 5 5 5 5 5 5 5 6 5 5 5 5 5 6 6 5 5 5 6 5 6 5 5 6 5 5 5 5 5 5 5 5 5 5 5 6 5 6 5 5 5 5 5 5 6 5 5 5 5 5 5 5 5 5 5 5 5 6 5 5 5 5 6 5 5 5 5 5 5 5 5 5 6 5 5 6 5 5 5 6 5 5 5 5 5 6 5 5 5 5 5 5 5 5 5 5 5 5 6 5 5 5 5 5 5 5 5 5 5 5 5 6 5 5 5 5 5 5 5 5 5 5 5 5 5 5 5 5 5 5 6 5 5 5 6 5 5 5 5 5 5 5 5 5 5 5 6 5 5 6 5 5 5 5 5 5 5 5 5 5 5 5 5 5 5 5 5 5 5 5 5 5 5 5 5 5 5 5 5 5 5 5 5 5 5 6 5 5 5 5 5 6 5 6 5 5 5 5 5 5 5 6 6 5 5 5 5 5 5 6 5 6 5 5 5 5 5 5 5 5 5 5 5 5 5 5 5 6 5 5 6 5 5 5 6 5 5 5 5 6 6 5 5 5 5 5 5 6 5 5 5 5 6 5 5 5 5 5 5 5 5 5 5 5 5 5 5 5 5 5 5 5 5 5 5 5 5 5 5 5 6 5 5 5 5 6 5 6 5 5 5 5 5 5 5 5 5 5 5 5 5 6 5 5 6 5 5 5 5 5 5 5 5 5 5 5 5 5 6 5 5 5 6 5 6 5 5 5 5 5 5 6 5 6 5 5 5 5 5 5 5 6 5 5 5 5 5 6 5 5 5 5 5 5 5 5 5 6 5 5 5 6 5 6 5 5 5 5 6 5 5 5 5 6 6 5 5 5 5 6 5 5 6 5 5 5 5 5 5 5 6 5 5 5 6 5 5 5 5 5 5 5 5 5 6 5 5 6 5 5 6 5 5 5 6 5 6 6 5 5 6 6 5 5 5 6 5 5 5 6 5 6 6 6 5 5 5 5 5 5 5 6 5 5 5 6 5 5 5 5 6 5 5 5 5 6 5 5 5 6 6 5 5 5 5 6 5 5 5 5 5 5 5 5 5 5 5 5 5 6 5 5 5 5 6 5 5 6 5 5 5 5 5 5 5 6 5 6 5 5 5 5 5 5 5 6 5 5 6 5 5 5 5 6 6 6 5 5 5 5 5 5 5 5 5 5 5 6 5 5 5 5 6 5 5 5 5 5 5 5 5 5 5 5 5 5 5 5 5 5 5 5 5 5 5 5 5 5 5 5 5 5 5 5 5 5 5 5 5 5 6 6 5 6 5 5 5 5 5 5 5 5 6 6 5 5 5 5 5 5 5 5 5 5 5 6 6 6 5 6 5 5 5 6 6 5 5 6 6 5 5 5 5 6 5 5 5 5 6 5 5 5 5 5 6 5 5 5 6 5 6 5 5 5 5 6 5 5 5 5 5 6 5 6 5 5 5 5 5 6 5 6 5 5 5 5 5 5 5 6 5 6 5 5 5 5 5 5 5 5 5 5 5 5 5 5 5 5 5 5 5 5 5 5 5 5 6 5 5 5 5 5 6 6 5 5 5 5 5 6 5 5 5 5 5 5 6 5 5 5 5 5 5 5 5 5 5 5 5 5 5 5 5 5 5 5 5 5 5 5 6 5 5 5 6 5 6 5 5 5 5 6 6 5 6 5 6 5 5 5 5 5 5 5 5 5 5 5 5 5 5 5 5 5 5 5 5 5 5 6 5 5 5 5 6 5 5 5 5 5 5 5 5 5 6 5 5 5 5 5 5 5 5 5 5 5 5 5 5 5 5 5 5 5 5 5 5 6 5 5 5 5 5 6 5 5 5 5 6 5 5 5 6 5 5 6 5 5 5 5 5 6 5 6 6 5 5 5 5 5 5 6 5 5 6 5 6 5 5 6 5 5 5 6 5 5 5 5 5 6 5 5 6 5 5 6 5 5 5 5 5 6 5 5 5 5 5 5 5 5 5 5 5 6 6 5 6 5 5 6 5 5 5 6 5 6 5 5 6 5 5 5 6 5 5 5 5 6 6 5 5 5 5 5 5 5 6 5 5 5 5 5 5 6 5 5 5 5 5 5 5 5 5 5 5 5 5 5 5 5 5 5 5 5 5 5 5 5 5 5 5 5 5 5 5 6 6 5 5 5 5 5 5 5 5 5 5 5 5 5 5 5 5 5 5 5 5 5 5 5 5 5 5 5 5 5 5 5 5 5 5 5 5 5 5 5 5 5 5 5 5 5 6 5 5 5 5 5 5 5 5 5 5 5 5 5 5 5 6 5 5 5 5 5 5 6 6 5 5 5 5 5 5 6 6 6 5 5 5 6 5 6 5 5 5 5 5 5 5 5 5 5 5 5 5 5 6 5 5 5 5 5 6 5 6 5 6 5 5 5 5 5 5 5 5 5 5 5 5 5 5 6 5 5 6 5 5 5 5 5 5 5 5 5 5 5 6 5 5 6 5 5 6 5 5 5 5 5 5 5 5 5 5 5 5 5 5 5 5 5 5 5 5 5 5 6 5 5 6 6 5 6 5 6 5 5 5 6 6 5 5 6 5 6 5 5 6 6 5 5 5 5 5 5 6 5 5 5 5 5 5 6 5 5 6 5 6 5 5 5 5 5 5 5 5 6 5 5 5 6 5 5 5 5 6 5 5 5 5 5 5 5 5 5 5 6 5 5 5 5 6 5 5 6 5 5 6 5 5 6 5 5 5 5 5 5 5 5 6 5 5 6 5 5 5 5 5 5 5 5 5 5 6 5 6 5 5 5 5 6 5 5 5 5 5 5 5 5 5 5 5 5 5 5 5 5 5 5 5 5 6 5 6 5 5 5 5 5 5 5 5 5 5 5 6 5 6 6 5 5 5 5 5 5 5 5 5 5 5 6 5 5 5 5 5 5 6 5 6 5 6 5 5 5 6 6 5 6 5 6 5 5 6 5 5 5 6 5 5 5 5 6 5 5 5 5 6 6 5 5 5 5 5 6 5 5 5 5 5 5 5 5 5 5 5 5 6 5 5 5 5 5 5 5 5 5 5 5 6 5 5 5 5 5 6 5 5 5 5 5 6 5 5 5 5 5 6 5 5 6 5 5 5 6 5 6 5 6 5 5 5 6 5 5 6 6 5 5 5 5 5 5 6 5 5 5 5 6 5 5 5 5 5 5 5 5 5 5 5 5 5 5 5 5 6 5 5 6 5 5 5 5 5 6 5 5 5 5 6 5 6 5 5 5 5 5 5 5 5 5 5 6 6 6 5 6 5 5 5 5 5 5 5 5 5 5 5 5 5 6 5 5 5 5 5 5 5 5 5 5 5 5 6 6 5 5 5 6 5 6 5 5 5 5 5 5 5 5 5 5 5 5 5 6 5 6 5 5 5 5 5 5 5 6 5 5 5 5 5 5 5 6 5 5 5 5 5 5 5 5 5 5 5 5 5 5 5 5 5 5 5 5 5 5 5 5 5 6 6 5 5 5 5 5 5 5 5 5 5 5 5 5 5 6 5 5 6 5 5 5 5 5 5 5 5 5 5 5 5 5 5 5 5 5 5 5 5 5 5 5 6 5 6 5 5 5 5 5 6 5 5 5 5 5 5 5 5 5 5 5 5 5 5 5 5 5 5 5 5 5 5 5 6 5 5 5 5 5 5 6 5 5 5 5 5 5 5 6 5 5 5 6 5 5 5 5 5 5 6 5 5 5 5 5 6 5 5 5 5 5 5 5 5 5 6 5 5 5 6 5 5 5 5 5 5 6 5 5 5 6 5 5 5 5 5 5 5 5 5 5 5 6 5 6 5 5 5 6 5 5 6 6 5 5 5 5 5 5 5 6 5 5 5 6 5 5 6 6 5 6 5 5 5 6 5 5 5 5 5 5 5 5 6 6 5 5 5 5 6 5 5 5 5 5 5 5 5 5 5 5 5 5 5 5 5 5 5 5 5 5 5 5 5 5 5 5 5 5 5 5 5 6 5 5 5 5 5 5 6 5 5 5 5 5 5 5 5 5 6 5 5 5 5 5 5 5 5 5 5 5 5 5 5 5 5 5 5 5 5 5 5 5 5 5 6 5 5 5 5 5 5 5 5 5 5 5 5 6 5 5 5 6 5 5 5 5 5 5 5 5 5 5 5 5 5 5 5 5 5 5 5 5 5 5 6 5 5 6 5 6 5 5 5 5 5 5 6 5 5 5 5 5 5 5 5 5 5 5 5 5 5 5 5 5 5 5 5 6 5 5 5 6 5 5 5 5 5 6 5 5 5 5 6 5 5 6 5 5 5 5 5 5 5 5 5 5 5 5 5 5 5 5 5 6 6 5 5 5 5 5 5 5 5 5 5 5 5 5 6 5 6 5 5 5 5 5 5 5 5 5 5 5 5 5 5 5 5 5 5 5 5 5 5 5 5 5 5 5 6 5 5 5 5 5 5 6 5 5 5 5 5 5 5 5 5 6 5 5 5 5 6 5 5 5 5 5 5 5 5 5 5 5 5 5 5 5 5 5 5 5 5 5 5 5 5 6 5 5 6 6 5 5 5 5 5 5 5 5 5 6 5 5 5 5 6 5 5 5 5 5 6 5 5 5 6 5 5 6 6 6 5 5 5 5 6 5 5 6 6 5 6 5 5 5 6 5 5 6 6 5 5 5 5 5 5 5 5 5 5 5 5 5 6 5 5 5 5 5 5 5 6 5 5 5 5 5 5 5 5 6 5 5 5 5 5 5 5 5 5 5 5 5 5 5 5 5 5 5 5 5 5 5 5 5 5 5 6 5 5 5 5 5 5 5 5 5 5 5 5 6 5 5 5 5 5 5 5 5 5 5 5 5 6 5 5 5 5 5 5 5 5 5 5 5 5 5 5 5 5 5 5 5 5 5 5 5 5 5 5 5 5 5 5 5 5 5 5 5 5 6 5 5 5 5 5 6 5 6 5 6 6 5 5 5 5 5 5 5 6 5 5 5 5 5 5 5 5 5 5 5 5 5 5 5 5 5 5 5 5 6 5 5 5 5 6 5 6 5 5 5 5 5 5 5 5 5 6 5 5 5 5 5 5 6 5 5 6 5 5 5 5 5 5 6 5 5 5 5 5 5 5 5 5 5 5 5 5 5 5 5 5 5 5 5 5 5 5 5 5 5 5 5 5 5 5 5 5 5 5 5 6 5 5 5 5 6 5 5 5 5 5 6 5 6 5 5 5 5 5 5 5 5 5 5 5 5 5 5 5 5 5 5 5 5 5 5 5 5 5 5 5 5 6 6 5 5 5 5 5 5 5 5 5 5 5 5 6 5 5 5 5 5 5 5 5 5 5 5 5 5 5 6 5 5 6 5 5 5 5 5 5 6 5 5 5 5 5 6 5 5 5 5 6 5 6 5 5 5 5 5 5 5 5 5 5 6 5 6 6 5 5 5 5 6 5 5 6 5 5 5 6 5 5 5 5 5 5 5 5 5 6 5 6 5 5 5 5 5 5 6 5 6 5 5 5 6 5 5 5 5 5 5 5 5 6 5 5 5 5 5 6 6 5 5 5 5 6 6 6 5 5 6 5 5 5 5 5 5 5 5 5 6 5 5 5 5 6 6 6 5 5 5 5 5 5 6 5 5 6 5 5 5 5 5 5 5 5 5 6 5 6 5 6 5 5 5 5 5 5 6 5 5 5 6 6 5 5 5 5 5 5 5 5 5 5 5 5 5 5 5 5 5 5 5 5 6 5 5 5 5 5 5 5 5 6 5 6 5 6 5 5 5 6 5 5 5 5 5 5 6 5 5 5 6 5 5 5 5 5 6 5 5 5 5 6 5 5 5 6 5 5 6 5 5 6 5 5 5 5 5 6 5 6 5 5 5 5 5 5 5 5 5 5 5 5 5 5 6 5 5 6 6 5 5 5 5 5 5 5 5 5 5 5 5 5 5 5 6 5 5 5 5 5 5 5 5 5 5 5 5 5 5 5 5 5 5 5 5 5 5 5 5 5 5 5 5 5 6 5 5 5 5 5 5 5 6 5 5 5 5 5 6 5 5 5 5 5 6 5 5 5 5 5 5 5 5 5 5 6 5 6 5 5 5 5 5 5 5 5 5 5 5 5 5 6 5 5 5 5 5 5 6 5 5 5 5 5 5 5 5 5 5 5 5 5 5 5 5 5 5 5 5 5 5 5 5 6 6 5 5 6 5 5 6 5 5 5 5 5 5 6 5 5 5 5 5 5 5 6 6 5 5 5 5 5 5 5 5 5 5 5 5 5 5 5 5 5 5 5 5 5 5 5 5 5 5 5 5 5 5 5 5 5 5 5 5 5 5 5 5 5 5 5 5 6 5 5 5 5 5 5 5 5 5 5 5 6 5 5 5 5 5 5 5 5 5 5 5 5 5 5 5 5 5 5 5 5 5 5 5 5 5 5 5 5 5 5 5 5 5 5 5 6 5 6 5 5 5 5 5 5 5 6 5 6 5 5 5 5 6 5 5 5 5 5 5 5 5 5 5 5 5 5 5 5 5 5 5 5 5 5 5 5 5 6 5 5 5 5 5 5 5 5 5 5 5 5 5 5 5 5 5 5 5 5 5 5 5 5 5 5 5 5 5 5 5 5 5 5 5 5 5 5 5 5 5 5 5 5 5 5 5 5 5 5 5 5 5 6 5 5 5 5 5 5 5 5 5 5 5 6 6 5 5 5 5 5 5 5 5 5 5 5 5 5 5 5 5 5 5 5 5 6 5 5 5 6 5 6 6 5 5 5 5 5 5 5 5 5 5 6 5 5 5 5 5 5 5 5 5 5 5 5 5 5 5 5 5 5 5 5 5 5 5 5 5 5 5 5 5 5 5 5 5 5 5 5 5 5 5 5 5 5 5 6 5 5 5 5 5 6 5 5 6 5 5 5 5 5 5 5 5 5 5 5 5 5 6 5 5 5 5 5 5 5 5 5 5 5 5 6 5 5 5 5 5 5 5 5 5 6 5 6 5 5 5 6 5 5 6 5 5 5 5 5 5 5 5 5 5 5 5 5 5 5 5 5 5 5 5 5 5 5 5 5 5 5 5 5 5 5 5 5 5 5 5 6 5 6 5 5 5 5 6 5 6 5 5 5 5 6 5 5 5 5 6 5 5 5 6 5 5 5 5 6 5 5 5 5 5 5 6 5 5 6 5 6 6 5 5 6 5 5 6 5 5 6 5 6 5 5 5 5 5 6 6 6 5 5 5 6 5 5 5 5 6 6 5 5 5 5 5 5 5 5 5 5 5 5 5 5 5 6 5 6 5 6 5 6 6 5 6 5 5 5 5 6 5 5 5 5 6 6 5 5 5 5 5 5 5 5 5 5 5 5 5 5 5 5 5 5 5 5 5 5 6 6 5 5 5 5 5 6 5 5 5 5 5 6 5 5 5 5 5 5 5 5 5 5 5 5 5 5 6 5 5 5 6 5 6 6 6 5 5 5 5 6 6 5 5 5 5 6 6 6 5 5 5 5 6 5 5 5 5 5 5 5 5 5 5 5 5 5 6 5 5 6 5 6 5 5 6 5 5 5 5 5 5 6 5 5 5 5 5 5 5 5 5 5 5 5 6 5 5 5 5 5 5 5 5 5 6 5 5 5 6 5 5 5 6 5 5 5 6 6 5 5 6 5 6 5 5 6 5 5 5 5 5 5 5 5 6 5 5 5 5 5 5 6 5 5 5 5 5 6 5 5 5 5 5 5 5 5 5 5 5 5 5 5 5 6 5 5 6 5 5 5 6 5 5 5 6 5 5 5 5 5 5 5 6 5 6 5 5 5 5 5 5 5 5 5 5 5 5 5 5 5 5 5 5 5 5 6 5 5 5 5 5 5 5 5 5 5 6 5 6 5 5 5 5 5 6 5 6 5 5 5 5 5 5 6 5 5 5 5 5 5 6 5 5 5 5 5 5 5 5 5 6 6 5 5 5 5 5 5 5 6 5 5 6 5 5 5 5 5 5 5 6 5 5 5 5 5 5 5 5 6 5 6 5 5 5 5 5 5 5 5 5 5 5 5 5 5 5 5 5 5 5 5 5 5 5 5 5 5 5 5 5 5 5 5 5 5 5 5 5 5 5 5 5 5 5 5 5 5 5 5 5 5 5 5 5 5 5 5 6 5 5 5 5 5 5 5 5 6 5 5 5 5 5 5 5 5 6 5 5 5 5 5 6 5 6 5 5 5 5 5 6 5 5 5 5 6 5 5 5 5 5 5 5 5 6 5 5 5 6 6 5 5 6 5 5 5 5 5 5 6 5 6 5 5 5 5 5 5 5 5 5 5 5 5 5 5 5 5 5 5 5 5 5 5 5 5 5 5 5 5 5 5 5 5 5 5 5 5 5 5 5 6 5 5 5 5 5 
</DataArray>
<DataArray type="Float64" Name="stress" NumberOfComponents="9" format="ascii">
-275.17530990841658 -963.22626397940621 0 -963.22626397940621 3497.498056026694 0 0 0 0 -104.68233992445428 -467.36586980046923 0 -467.36586980046923 3103.0818836797916 0 0 0 0 0.31171768720220383 -179.3881794543031 0 -179.3881794543031 1418.7925621039103 0 0 0 0 -91.113862510942681 -208.67453326506438 0 -208.67453326506438 2441.5435891793313 0 0 0 0 217.92259457064483 -611.8310077771348 0 -611.8310077771348 690.42712952425063 0 0 0 0 180.8449749558533 -252.59516451736999 0 -252.59516451736999 502.48099969529721 0 0 0 0 -181.5847534168102 -337.48103987083596 0 -337.48103987083596 122.4664557074866 0 0 0 0 0.057863820697246826 -5.3880887668559012 0 -5.3880887668559012 15.22865048673799 0 0 0 0 57.981954165203916 -192.77857922859403 0 -192.77857922859403 -307.64451033053774 0 0 0 0 2.5799592362737043 -2.6271775417279741 0 -2.6271775417279741 3.4205538366945802 0 0 0 0 -263.30294665300391 382.6003546547654 0 382.6003546547654 2425.4772941241899 0 0 0 0 43.900149154555322 -881.01410405927163 0 -881.01410405927163 2327.0223573599046 0 0 0 0 948.2540946329085 -1590.8321944062191 0 -1590.8321944062191 2594.6710667203934 0 0 0 0 -128.1410164332319 -506.03493921773406 0 -506.03493921773406 2242.8506032408477 0 0 0 0 -1154.8278479957769 194.49572014857404 0 194.49572014857404 2775.1676136641399 0 0 0 0 130.53710721323083 -1927.2526818199913 0 -1927.2526818199913 6532.357972046826 0 0 0 0 -71.211555108443406 -1280.6834423758846 0 -1280.6834423758846 4535.0068860521133 0 0 0 0 -1757.022391906386 1268.1545585527419 0 1268.1545585527419 2540.1958899751044 0 0 0 0 -1890.9969035056529 1900.5858228688812 0 1900.5858228688812 408.45559733701521 0 0 0 0 -4.7024256899979289 0.86889560207589511 0 0.86889560207589511 15.821353802101839 0 0 0 0 -873.41708746827408 158.11519550340745 0 158.11519550340745 -483.19849658119711 0 0 0 0 -758.64910052502944 170.98213597873655 0 170.98213597873655 1174.4871606127708 0 0 0 0 -738.40770530358122 204.27709243838763 0 204.27709243838763 685.06633597808104 0 0 0 0 -579.31502592137554 -113.19769635055309 0 -113.19769635055309 411.09962987589824 0 0 0 0 -325.75715611090038 -615.76774209922587 0 -615.76774209922587 1345.8389202247199 0 0 0 0 -941.07813067861866 90.23946017446724 0 90.23946017446724 967.8471326479339 0 0 0 0 -403.54182492439031 -625.64909037243342 0 -625.64909037243342 603.02776811222066 0 0 0 0 -806.73699831287968 -168.74281546242128 0 -168.74281546242128 312.88412248095847 0 0 0 0 -90.562605536364345 -490.63025242959702 0 -490.63025242959702 284.88303879792511 0 0 0 0 454.81915573334675 -1178.6994398532188 0 -1178.6994398532188 1551.0192717050813 0 0 0 0 -1458.4963453761366 271.38736815733864 0 271.38736815733864 291.02021912958298 0 0 0 0 -11.938012478750824 2.1078405857000035 0 2.1078405857000035 34.706110844997625 0 0 0 0 -647.45944081892412 -61.195049126741651 0 -61.195049126741651 171.40344488823212 0 0 0 0 75.122847128347729 63.833773516511428 0 63.833773516511428 643.6449561341251 0 0 0 0 -12.419756870512852 -2.955734886158254 0 -2.955734886158254 40.936514794098912 0 0 0 0 -492.83596804101626 -106.46686298654458 0 -106.46686298654458 57.728463031220599 0 0 0 0 123.90853472795118 -167.46605238232587 0 -167.46605238232587 -2.7712352056842064 0 0 0 0 18.627427258388895 -24.78854937060845 0 -24.78854937060845 28.02780847218682 0 0 0 0 -585.42396854805406 -135.25320818585169 0 -135.25320818585169 -95.831468072923599 0 0 0 0 -606.21511507443029 -245.82667642735032 0 -245.82667642735032 24.886221126478631 0 0 0 0 16.155207464602483 257.28575398940302 0 257.28575398940302 2927.311991398281 0 0 0 0 45.833355926745526 790.50381101537641 0 790.50381101537641 955.4146178101073 0 0 0 0 -230.34438686662645 240.32800833955116 0 240.32800833955116 1044.7831383095254 0 0 0 0 -15.284701196914739 -0.055247066440642811 0 -0.055247066440642811 1020.7592946086043 0 0 0 0 102.69878873468865 -21.351077720297326 0 -21.351077720297326 213.59687031246722 0 0 0 0 328.04349821902383 296.6873644502848 0 296.6873644502848 -40.433167610637611 0 0 0 0 133.39524445842324 -836.09019167112274 0 -836.09019167112274 364.71033831778914 0 0 0 0 -146.35151932507006 -464.56454343674341 0 -464.56454343674341 -19.966457012735191 0 0 0 0 -262.27461630935341 -493.621956339608 0 -493.621956339608 294.18557292574042 0 0 0 0 9.2382417046442029 -10.758590969230013 0 -10.758590969230013 11.168373393794241 0 0 0 0 -29.42809630792317 -456.96914043666038 0 -456.96914043666038 -585.03057288455602 0 0 0 0 188.29180790752616 -875.48872346449934 0 -875.48872346449934 201.31199367852241 0 0 0 0 337.35193802836568 -83.509743039343448 0 -83.509743039343448 2951.5323105670395 0 0 0 0 161.54237770065856 -1260.0809485872887 0 -1260.0809485872887 -337.6733353485979 0 0 0 0 188.55884836857786 -937.18598239991115 0 -937.18598239991115 135.09625121735735 0 0 0 0 274.78729290856336 -1669.2086680955326 0 -1669.2086680955326 1054.7191746161261 0 0 0 0 160.7138373861539 -1145.7314202223852 0 -1145.7314202223852 1043.5201743337238 0 0 0 0 -41.982962216989861 180.48335633786337 0 180.48335633786337 173.76504232627485 0 0 0 0 -498.167291470458 -522.15016458254468 0 -522.15016458254468 863.15646299818764 0 0 0 0 -354.76245872290974 -1115.2893895334164 0 -1115.2893895334164 2833.7635276448273 0 0 0 0 -496.19293851236171 616.45498040823441 0 616.45498040823441 1991.921112183496 0 0 0 0 241.45445243642934 435.31842519951169 0 435.31842519951169 823.09149741537112 0 0 0 0 671.42591990989695 -1219.5223352981193 0 -1219.5223352981193 2556.0290756131544 0 0 0 0 -1.86792647349011 -15.633411454845231 0 -15.633411454845231 5.3431850320138281 0 0 0 0 10.225277981195177 -3.5023475638663513 0 -3.5023475638663513 -29.108947160071693 0 0 0 0 5.973539028937239 -16.137919960106956 0 -16.137919960106956 -37.082830041341367 0 0 0 0 -3.5553775480375407 -9.7032567858404946 0 -9.7032567858404946 -5.9621507827978348 0 0 0 0 69.856146014451042 -51.77587176389352 0 -51.77587176389352 -13.206312318674463 0 0 0 0 3.8688075451028396 -50.872573546572312 0 -50.872573546572312 -2.7651038643962238 0 0 0 0 12.295453396950506 8.0105978861247422 0 8.0105978861247422 -8.0757399275316857 0 0 0 0 -118.71896725297483 -368.65152874664636 0 -368.65152874664636 1527.9079242983862 0 0 0 0 -194.41266909075853 -386.78818026732188 0 -386.78818026732188 1713.8857234892785 0 0 0 0 -96.951757462843545 -347.9130887005449 0 -347.9130887005449 1505.7765351724811 0 0 0 0 -295.68124522953713 -112.16231574096719 0 -112.16231574096719 1664.1693605371256 0 0 0 0 -4.4417555574784728 -434.94114568806253 0 -434.94114568806253 2165.0864343056601 0 0 0 0 -209.84824096393459 12.552644058603619 0 12.552644058603619 2460.221775092883 0 0 0 0 713.69354254784503 -1656.701530362363 0 -1656.701530362363 4335.3779569662584 0 0 0 0 -56.971972691836072 -465.64586115862767 0 -465.64586115862767 2609.7909086226136 0 0 0 0 1636.6492619192636 -1652.7140271010576 0 -1652.7140271010576 269.65679703082424 0 0 0 0 -3.1250005435429609 -0.62719353434187042 0 -0.62719353434187042 9.7925208633159002 0 0 0 0 1941.2173993750202 -2735.5021964839252 0 -2735.5021964839252 3393.93221986141 0 0 0 0 1306.4763920554806 -2163.7672320895999 0 -2163.7672320895999 3051.1370816837298 0 0 0 0 1404.2869101559727 -1662.6489926344584 0 -1662.6489926344584 2545.1144649883499 0 0 0 0 -0.28972790856578357 -1.4585641125480322 0 -1.4585641125480322 0.19589726234938354 0 0 0 0 511.86138797294529 -1016.03901158394 0 -1016.03901158394 1497.9541103522643 0 0 0 0 312.9048973617796 -693.75439717862173 0 -693.75439717862173 1371.6169103792345 0 0 0 0 -54.566626957706148 -701.40176802928909 0 -701.40176802928909 2394.9512044640433 0 0 0 0 264.86634232030906 -758.80077439403976 0 -758.80077439403976 1600.8794854223306 0 0 0 0 374.13859615516606 -676.31040662773739 0 -676.31040662773739 1128.9902483570695 0 0 0 0 -2.3617467822470815 -6.531686280513199 0 -6.531686280513199 -3.0549653438590667 0 0 0 0 -4.1044952926686165 -2.4765870006958721 0 -2.4765870006958721 -6.0824892706878018 0 0 0 0 -7.0917943310819282 -10.666864483828249 0 -10.666864483828249 -13.624969145545037 0 0 0 0 -0.14514928664721083 -2.6269405129423831 0 -2.6269405129423831 -6.119418542002677 0 0 0 0 354.0642115078449 -715.64761856527912 0 -715.64761856527912 1107.1488403873791 0 0 0 0 36.410677746535271 -428.84539255905838 0 -428.84539255905838 1195.429847338266 0 0 0 0 226.21352932438992 -439.51587295282661 0 -439.51587295282661 527.01424485608004 0 0 0 0 -37.339783340794774 -289.90392748808517 0 -289.90392748808517 1195.3389041687769 0 0 0 0 0.064900578105482359 -55.994798297651869 0 -55.994798297651869 698.71881450789442 0 0 0 0 26.007262450574345 -170.12761762506125 0 -170.12761762506125 726.02476811385714 0 0 0 0 -191.70639537994776 -68.196402290297556 0 -68.196402290297556 1369.8899382606032 0 0 0 0 -128.74619589372091 -241.16210772514751 0 -241.16210772514751 1178.2729013484204 0 0 0 0 -168.43018539733782 -14.669066621001548 0 -14.669066621001548 1475.0469086225203 0 0 0 0 -285.32481350934307 -14.283895627091624 0 -14.283895627091624 1342.1330869660305 0 0 0 0 33.600881439997224 -27.013334169751033 0 -27.013334169751033 937.9306559647739 0 0 0 0 -51.63027973032559 -236.07475475876345 0 -236.07475475876345 895.87108219918446 0 0 0 0 -85.662480366664795 -64.472947272189458 0 -64.472947272189458 769.46816737300833 0 0 0 0 -85.713388620584325 -61.696339428446663 0 -61.696339428446663 973.90772317061783 0 0 0 0 227.59129452937358 -183.95612434816121 0 -183.95612434816121 675.81934435003495 0 0 0 0 150.64848687022396 48.127499634214473 0 48.127499634214473 118.90763043973129 0 0 0 0 -369.45248447557958 135.2275755519222 0 135.2275755519222 290.84805784786658 0 0 0 0 -98.599406362191147 130.1317009870836 0 130.1317009870836 201.76573029742576 0 0 0 0 2.1737893279229894 -3.3933332802744758 0 -3.3933332802744758 13.702511592732094 0 0 0 0 -17.65019284015915 -475.76748729447718 0 -475.76748729447718 1457.1817033377233 0 0 0 0 0.026377975679423862 1.3019391893970038 0 1.3019391893970038 3.4860452313009205 0 0 0 0 -37.711715184159715 -361.98147206348222 0 -361.98147206348222 846.97856014580611 0 0 0 0 -187.23516462151366 272.05786763592914 0 272.05786763592914 -118.24587435007561 0 0 0 0 -170.18613504588251 135.56999871526932 0 135.56999871526932 769.43199132999143 0 0 0 0 161.97569108385954 24.036072822029382 0 24.036072822029382 649.27518869515188 0 0 0 0 299.36600796316026 207.22006563567265 0 207.22006563567265 577.90393365635828 0 0 0 0 305.95932565192066 679.43323680512549 0 679.43323680512549 1413.7921083853435 0 0 0 0 176.15497634483205 136.80983685147658 0 136.80983685147658 656.29625962933278 0 0 0 0 177.72123237618212 235.06727960338415 0 235.06727960338415 792.0075267943248 0 0 0 0 -209.46002462608561 469.25489047365954 0 469.25489047365954 1944.1194686917806 0 0 0 0 -172.84545320399218 507.80696645798889 0 507.80696645798889 1511.7672118023329 0 0 0 0 448.70011278838865 2042.714583943045 0 2042.714583943045 3497.352926287469 0 0 0 0 1.8254378901370814 1061.2994944740167 0 1061.2994944740167 2940.0605919821828 0 0 0 0 3698.7144650882833 -1940.1839974795562 0 -1940.1839974795562 1124.4246327303554 0 0 0 0 2.4450927047175983 0.058599440416961412 0 0.058599440416961412 34.975264284004538 0 0 0 0 2166.2564341336865 1706.9073305402617 0 1706.9073305402617 1519.0408865563513 0 0 0 0 2.7488130402328466 -4.7968945529138054 0 -4.7968945529138054 0.48378134262776484 0 0 0 0 1598.7404563442296 1228.7851615503714 0 1228.7851615503714 597.87607722502435 0 0 0 0 -0.69705306482958052 1.2449217942564301 0 1.2449217942564301 38.977607009234106 0 0 0 0 -18.708199259497256 27.253225597253731 0 27.253225597253731 13.065830839215778 0 0 0 0 -97.918697818746523 114.27967655968678 0 114.27967655968678 380.19913804755925 0 0 0 0 313.98092220822105 22.78519254517596 0 22.78519254517596 152.92065467615612 0 0 0 0 -5.5139774424549737 -8.6900614746520048 0 -8.6900614746520048 49.255630692350621 0 0 0 0 649.85104269806106 421.82340135383856 0 421.82340135383856 348.32959005608427 0 0 0 0 183.37889989324481 79.806984521284903 0 79.806984521284903 442.210813201772 0 0 0 0 399.64670722858887 0.88437661966236192 0 0.88437661966236192 109.52851142563304 0 0 0 0 81.793726089343636 -166.89456117887312 0 -166.89456117887312 -0.16123423447311325 0 0 0 0 191.23099352005647 97.871535350629529 0 97.871535350629529 12.039568428270286 0 0 0 0 -754.91702482520486 -788.65569103499001 0 -788.65569103499001 3501.1461313269738 0 0 0 0 -60.45216821024178 -15.71314169616744 0 -15.71314169616744 92.888870278846298 0 0 0 0 -9.3205661663999635 -7.8399747061137788 0 -7.8399747061137788 35.742092698656364 0 0 0 0 937.25880697889488 -353.17147568087239 0 -353.17147568087239 30.293025141058024 0 0 0 0 624.48493568347385 -324.92425471732713 0 -324.92425471732713 199.5569457606689 0 0 0 0 964.11978416821239 -684.99591645937471 0 -684.99591645937471 312.53071546775755 0 0 0 0 644.0184803566757 -743.38565407869828 0 -743.38565407869828 645.09091096532939 0 0 0 0 1166.0007003843302 -1106.6418830405928 0 -1106.6418830405928 751.30486460882094 0 0 0 0 1061.4948788883523 -922.90875153154047 0 -922.90875153154047 821.87899121423834 0 0 0 0 768.84072276052439 -220.42250891718504 0 -220.42250891718504 425.68789282851503 0 0 0 0 1562.5012877349736 -587.80562760362955 0 -587.80562760362955 203.1597392886033 0 0 0 0 995.22564783626331 -622.79608297717641 0 -622.79608297717641 301.6255709540128 0 0 0 0 1146.076309640112 -155.39069336965622 0 -155.39069336965622 256.88380678919202 0 0 0 0 787.38016760905316 -1658.867219561087 0 -1658.867219561087 2338.7564545396599 0 0 0 0 2204.7668895579095 -712.11553086434287 0 -712.11553086434287 148.47421439007121 0 0 0 0 1744.9190527140552 -1729.7413919283317 0 -1729.7413919283317 1431.4771329209325 0 0 0 0 1665.3748317119844 -2386.4730420523483 0 -2386.4730420523483 3493.7152946517963 0 0 0 0 997.47212046370009 -1328.6834023002066 0 -1328.6834023002066 2054.6092738774169 0 0 0 0 230.03098487674768 -931.41931417539672 0 -931.41931417539672 1937.2189607170185 0 0 0 0 129.29248491099077 -645.13031702448643 0 -645.13031702448643 1160.8020800083032 0 0 0 0 -475.70897616517618 -631.75384216048406 0 -631.75384216048406 2853.9539818279263 0 0 0 0 148.55159057274489 -543.89408212793569 0 -543.89408212793569 637.24931848094275 0 0 0 0 151.74737021085889 -654.3759391820422 0 -654.3759391820422 1164.5314269729424 0 0 0 0 622.4586115607658 -654.24330713668678 0 -654.24330713668678 420.77611957272165 0 0 0 0 518.96738753069417 -915.84698343627497 0 -915.84698343627497 724.596286656757 0 0 0 0 115.33760804187204 -810.01144487806232 0 -810.01144487806232 741.21810700595961 0 0 0 0 338.46915806094887 -680.75447586011433 0 -680.75447586011433 419.18780644594972 0 0 0 0 255.24814496258148 -805.95067147030204 0 -805.95067147030204 407.89002127052754 0 0 0 0 200.49377048456034 -763.62956073997702 0 -763.62956073997702 404.48746447858866 0 0 0 0 530.5603269763717 -701.56136398910166 0 -701.56136398910166 399.1969738538246 0 0 0 0 436.91758007941695 -616.40004470780332 0 -616.40004470780332 321.95801050729642 0 0 0 0 141.72904253097363 -535.86082662537228 0 -535.86082662537228 357.80605467049463 0 0 0 0 42.698813750777617 -817.4295734528132 0 -817.4295734528132 403.04897010275408 0 0 0 0 165.08761527451281 -638.07403742633687 0 -638.07403742633687 626.74584154020704 0 0 0 0 -147.44760642839663 -276.40521603489105 0 -276.40521603489105 995.94558503705048 0 0 0 0 -138.47402995122326 -200.22522030273285 0 -200.22522030273285 503.85138463416661 0 0 0 0 -4.7369353782402346 -14.873329760235322 0 -14.873329760235322 4.2890875292058865 0 0 0 0 -37.037343211222833 -31.623417138987861 0 -31.623417138987861 30.856144714180118 0 0 0 0 -18.700674054615305 -14.44833319769964 0 -14.44833319769964 8.493521705375322 0 0 0 0 73.18744608077418 -125.13070587085167 0 -125.13070587085167 144.62101871793129 0 0 0 0 -13.728189247382408 -20.139040242090417 0 -20.139040242090417 11.748633316972928 0 0 0 0 169.86773811460921 -48.046810821426334 0 -48.046810821426334 -94.683968775745598 0 0 0 0 17.181053783313018 -86.119481508256285 0 -86.119481508256285 180.10999639082092 0 0 0 0 6.7499498369599529 -1.3737483116846079 0 -1.3737483116846079 3.0154481976775003 0 0 0 0 100.56807265912812 117.52868715771911 0 117.52868715771911 135.54827564154402 0 0 0 0 -954.33928637550707 35.560027418621758 0 35.560027418621758 1058.3746985382895 0 0 0 0 -62.113846583859413 -307.77953410619375 0 -307.77953410619375 641.54921802523495 0 0 0 0 195.48508988253639 99.257709523444646 0 99.257709523444646 -397.08427658419532 0 0 0 0 -65.737676963693275 -259.59351996909027 0 -259.59351996909027 -239.42310582434584 0 0 0 0 -313.93331348455649 -148.46606609079026 0 -148.46606609079026 89.012661604981986 0 0 0 0 46.51863199617037 -9.8645717426552437 0 -9.8645717426552437 66.152139376936248 0 0 0 0 -11.90690687724204 -13.92355002069997 0 -13.92355002069997 23.859011757837237 0 0 0 0 12.321401774539027 -152.60669803744531 0 -152.60669803744531 34.217749173564698 0 0 0 0 -46.939755109856378 -14.172653857072874 0 -14.172653857072874 75.593237300839974 0 0 0 0 358.47582716424677 -342.35304559986253 0 -342.35304559986253 169.80300032309469 0 0 0 0 294.22762086695138 -276.86281937760214 0 -276.86281937760214 169.07905343212769 0 0 0 0 556.14980730729235 -454.11063366104645 0 -454.11063366104645 213.92927362339105 0 0 0 0 694.64620769149133 -397.10711624284158 0 -397.10711624284158 150.46325460579828 0 0 0 0 -29.713870558781309 -11.064263898319041 0 -11.064263898319041 62.96536397372256 0 0 0 0 -0.12317128458026838 -2.5649983200180642 0 -2.5649983200180642 80.712337968375294 0 0 0 0 -79.46220018056556 -107.70954640759555 0 -107.70954640759555 134.19047774837964 0 0 0 0 -8.4966491877967201 -44.170284052052011 0 -44.170284052052011 112.93334101219443 0 0 0 0 202.66957077588074 -84.624911471204541 0 -84.624911471204541 95.657116699912876 0 0 0 0 223.74733571668457 -56.174426424335252 0 -56.174426424335252 27.210702073498396 0 0 0 0 216.77858831255921 23.894102902902205 0 23.894102902902205 160.15851338578068 0 0 0 0 137.60136366206345 -43.228331085766513 0 -43.228331085766513 79.930165910671349 0 0 0 0 164.10330070184705 -52.015071800589794 0 -52.015071800589794 70.837454235319456 0 0 0 0 145.00062423914528 -39.004164824165855 0 -39.004164824165855 70.383906267234124 0 0 0 0 137.3186970484021 -47.430000012915116 0 -47.430000012915116 69.820049974687208 0 0 0 0 139.62672429582278 -35.174765066000873 0 -35.174765066000873 65.545155736494053 0 0 0 0 119.39248830115389 -43.600064069862128 0 -43.600064069862128 90.306232414921396 0 0 0 0 -0.29331915202624986 -0.66707759647708054 0 -0.66707759647708054 119.72711044664663 0 0 0 0 122.62553923801624 -25.331437395652756 0 -25.331437395652756 131.24767536111176 0 0 0 0 132.26622790145302 25.324083841609536 0 25.324083841609536 117.08788920682127 0 0 0 0 -0.73929166960629178 2.8360793460978173 0 2.8360793460978173 152.90447132376897 0 0 0 0 108.84988657307008 33.163330217688781 0 33.163330217688781 134.00534668344335 0 0 0 0 111.86158704193031 33.782961379725748 0 33.782961379725748 109.38938410872788 0 0 0 0 103.9843352644632 51.85550647850323 0 51.85550647850323 74.307519698166288 0 0 0 0 145.73656876002417 -5.5284973427696968 0 -5.5284973427696968 68.791159246138704 0 0 0 0 126.87960226863288 -21.378848069985906 0 -21.378848069985906 73.198062443931121 0 0 0 0 137.7567176476673 19.770914183398418 0 19.770914183398418 26.266146930462128 0 0 0 0 127.15079946665301 17.869516060669412 0 17.869516060669412 48.16046690409712 0 0 0 0 121.43800164354454 71.224659734951274 0 71.224659734951274 9.7190047307085479 0 0 0 0 64.987120981283454 111.69612163920465 0 111.69612163920465 77.089665285155206 0 0 0 0 56.447657001537962 71.396141499949636 0 71.396141499949636 9.4935663129144814 0 0 0 0 94.674318455466107 145.28855969878396 0 145.28855969878396 -23.72894425886625 0 0 0 0 203.89748525211752 43.784395399417917 0 43.784395399417917 19.914861134915554 0 0 0 0 282.11175985928315 -23.500339914400683 0 -23.500339914400683 33.782675032860425 0 0 0 0 193.28768350156855 1.3678237826152326 0 1.3678237826152326 29.29706741314294 0 0 0 0 192.92600676885522 78.408484911024971 0 78.408484911024971 119.69224418779777 0 0 0 0 288.68009616171412 25.324678431894426 0 25.324678431894426 134.75912311362117 0 0 0 0 4.0234398181474944 131.27886202140508 0 131.27886202140508 240.26714466490284 0 0 0 0 65.636853457489735 185.49319921957067 0 185.49319921957067 287.55693838615116 0 0 0 0 4.0204947158551931 131.59833969763713 0 131.59833969763713 206.29519947606241 0 0 0 0 43.943493262315229 156.43016698595852 0 156.43016698595852 167.04415499002062 0 0 0 0 -24.781547484770499 123.25476881053328 0 123.25476881053328 212.30858433067624 0 0 0 0 103.21713224228441 209.80772231020092 0 209.80772231020092 201.43550467590103 0 0 0 0 47.087061463821215 131.69303079721794 0 131.69303079721794 122.38858214982611 0 0 0 0 46.037972141043838 142.62098142097602 0 142.62098142097602 122.61958886801585 0 0 0 0 80.393884871802527 129.05369194933064 0 129.05369194933064 54.922647765517468 0 0 0 0 64.883225119059716 102.9512825075617 0 102.9512825075617 84.939484017450013 0 0 0 0 48.35416371761653 133.15355451571304 0 133.15355451571304 118.27765430476575 0 0 0 0 28.735059693990479 129.58727992563945 0 129.58727992563945 135.18278619052217 0 0 0 0 24.389605710267915 109.05056911980864 0 109.05056911980864 155.31129850844445 0 0 0 0 34.520661910168656 96.171849048616423 0 96.171849048616423 131.48157237117994 0 0 0 0 69.695875841930842 80.307518233909377 0 80.307518233909377 137.62006664612272 0 0 0 0 73.314311777700823 68.388034934156167 0 68.388034934156167 107.54191186528055 0 0 0 0 94.967545011742232 19.637652139010243 0 19.637652139010243 157.86338105489995 0 0 0 0 -12.901483416483643 65.030318618471938 0 65.030318618471938 171.59020887720544 0 0 0 0 -1099.4786467603003 191.4595560945163 0 191.4595560945163 696.21491238533054 0 0 0 0 -0.92307244961942503 7.5537610382163676 0 7.5537610382163676 173.0107376737009 0 0 0 0 30.11377940225205 49.929314104920195 0 49.929314104920195 161.0999401127774 0 0 0 0 -14.934227693806861 68.020772212435986 0 68.020772212435986 179.31648955703713 0 0 0 0 -27.879435698883526 89.637920757162647 0 89.637920757162647 161.2723837847916 0 0 0 0 -17.446288917851206 106.10727308938908 0 106.10727308938908 179.16674749784579 0 0 0 0 -96.077678902948492 96.641613269857771 0 96.641613269857771 219.39400411704628 0 0 0 0 -0.86233654766820433 10.810699307069136 0 10.810699307069136 182.38826283267608 0 0 0 0 -165.39698656698897 34.264711039604663 0 34.264711039604663 197.32064036055453 0 0 0 0 -994.56023524967475 116.99036041016734 0 116.99036041016734 333.64318759531307 0 0 0 0 -655.59226009142913 -85.858515653424547 0 -85.858515653424547 197.59909877931204 0 0 0 0 -717.17568876703035 -15.942450931019266 0 -15.942450931019266 164.97206498726928 0 0 0 0 106.0240256856242 -298.92307869327851 0 -298.92307869327851 252.63999321742449 0 0 0 0 206.59652641278308 95.946847512808745 0 95.946847512808745 -37.942940213630209 0 0 0 0 63.89600150408387 63.701165389153175 0 63.701165389153175 162.32337396458024 0 0 0 0 -11.183506496484597 346.96810785240814 0 346.96810785240814 129.60560071219516 0 0 0 0 779.52788250855519 -604.62535013609158 0 -604.62535013609158 68.702515584169305 0 0 0 0 86.0864803016525 -208.19654800050193 0 -208.19654800050193 403.93614973136573 0 0 0 0 252.73653593657582 -554.10635688524235 0 -554.10635688524235 410.91292780278309 0 0 0 0 -127.41940585392513 -102.66923650755052 0 -102.66923650755052 993.16249559173593 0 0 0 0 -115.7456475209442 -25.321075206637033 0 -25.321075206637033 550.18221539491788 0 0 0 0 -1023.8826606190889 -276.10288255408068 0 -276.10288255408068 -160.86582247252227 0 0 0 0 -230.71615934023566 -135.89050506617059 0 -135.89050506617059 533.43650846346281 0 0 0 0 -788.06903837144455 1.3173161881131819 0 1.3173161881131819 112.75018084008479 0 0 0 0 -1.4156649455624799 0.96589379552588639 0 0.96589379552588639 2.505230350904128 0 0 0 0 -762.79483646545577 204.85472846150515 0 204.85472846150515 133.92612669727532 0 0 0 0 -515.40527970999392 -145.89435256250727 0 -145.89435256250727 533.64552596543217 0 0 0 0 -153.20611603007001 34.106649660141557 0 34.106649660141557 137.68355695530772 0 0 0 0 109.26751843124634 -323.82079090582556 0 -323.82079090582556 71.411522451177007 0 0 0 0 -1083.9528512975974 256.51078853859417 0 256.51078853859417 271.71290848686476 0 0 0 0 -122.69641719043443 -574.04196389425488 0 -574.04196389425488 -88.968564571507159 0 0 0 0 -167.8940013884112 63.932378800753213 0 63.932378800753213 -412.09002495037566 0 0 0 0 184.24113407020809 -204.51351500858436 0 -204.51351500858436 209.47345792737906 0 0 0 0 -2.8523013631734875 1.1356878822114354 0 1.1356878822114354 22.377568022041487 0 0 0 0 273.46168296870883 -317.9494805141876 0 -317.9494805141876 166.36107371903199 0 0 0 0 550.99640562955392 -257.57751878265117 0 -257.57751878265117 158.39494650650886 0 0 0 0 55.505664590200922 -181.93437948433711 0 -181.93437948433711 381.77578450131114 0 0 0 0 46.275750633412372 -202.43829019676195 0 -202.43829019676195 395.29752104010549 0 0 0 0 -31.472362273741055 130.80585146600788 0 130.80585146600788 101.13210739187343 0 0 0 0 1.0183218280444795 1.2363851272534276 0 1.2363851272534276 6.4762292497067619 0 0 0 0 822.99596365763159 -610.60877609012823 0 -610.60877609012823 204.9630531486473 0 0 0 0 224.71692705937221 259.43522426506388 0 259.43522426506388 129.96366817774833 0 0 0 0 -311.81485579115406 433.40793609077809 0 433.40793609077809 457.82972271833569 0 0 0 0 -66.149931455433716 -9.7253303433499241 0 -9.7253303433499241 66.742597716700402 0 0 0 0 -47.51879493438355 -2.543247121902823 0 -2.543247121902823 48.375168952799868 0 0 0 0 -38.49131716957902 36.194359234374133 0 36.194359234374133 170.5598825893976 0 0 0 0 -34.247634126700632 -50.064103013784916 0 -50.064103013784916 126.84493580793787 0 0 0 0 -131.89261233787033 10.009977161571442 0 10.009977161571442 208.41397708961449 0 0 0 0 -90.294500071485345 105.01972203834157 0 105.01972203834157 375.62703246579622 0 0 0 0 -553.98662421607332 38.197439073424903 0 38.197439073424903 371.86926753218268 0 0 0 0 -206.14442256215534 -165.66241461424579 0 -165.66241461424579 255.61435422275099 0 0 0 0 5.7344819350331022 -83.193849847058118 0 -83.193849847058118 304.5468325078109 0 0 0 0 3.3748431765537337 -1.356659133329174 0 -1.356659133329174 0.61868950794538691 0 0 0 0 -2.3060564994602828 -267.87015189991507 0 -267.87015189991507 778.8704008390032 0 0 0 0 1172.5777493100195 -14.101581240422092 0 -14.101581240422092 -88.156569370232319 0 0 0 0 3.9879150889933044 -79.328946593668661 0 -79.328946593668661 480.74630067913677 0 0 0 0 45.900324665593189 -229.70319759761333 0 -229.70319759761333 385.05194062372902 0 0 0 0 0.056683382399372206 0.61689996481257481 0 0.61689996481257481 1.963844619149711 0 0 0 0 195.01570085531512 -56.175073236918251 0 -56.175073236918251 162.79491022451111 0 0 0 0 55.953863674668696 -202.0285035980196 0 -202.0285035980196 232.55219053354813 0 0 0 0 137.71574734310843 -249.26971531043773 0 -249.26971531043773 487.31553609437833 0 0 0 0 0.60108482399210095 -0.14857503554293316 0 -0.14857503554293316 0.52117680928122923 0 0 0 0 68.130888771011769 -125.90124069897138 0 -125.90124069897138 180.86775399838371 0 0 0 0 98.811129569431614 -35.704025384853594 0 -35.704025384853594 224.777954634048 0 0 0 0 60.036553782777901 -75.304017504266085 0 -75.304017504266085 358.03404758882243 0 0 0 0 -68.212227000483608 78.545050978296786 0 78.545050978296786 230.93837545765564 0 0 0 0 184.65577501093969 -28.184242897354125 0 -28.184242897354125 448.81880497719976 0 0 0 0 126.53744714409925 5.1833084680802131 0 5.1833084680802131 444.97587429429404 0 0 0 0 138.48209056008847 158.27756726373445 0 158.27756726373445 674.34169758780627 0 0 0 0 120.54037887416234 75.355727678703261 0 75.355727678703261 354.57156116003171 0 0 0 0 84.014918719276011 223.62007500750042 0 223.62007500750042 467.91638606089691 0 0 0 0 397.88958560979529 306.51789739006199 0 306.51789739006199 431.59155797540734 0 0 0 0 228.18918400632592 236.82012423455853 0 236.82012423455853 416.62050784187159 0 0 0 0 228.93962974668912 234.67410001029839 0 234.67410001029839 306.00048421256361 0 0 0 0 277.5453711766454 257.75440282019554 0 257.75440282019554 237.54148371485644 0 0 0 0 172.46032285367937 269.33784221511451 0 269.33784221511451 340.3253437683743 0 0 0 0 294.48778309638669 325.76137844502227 0 325.76137844502227 334.9612389535323 0 0 0 0 -18.664664062205702 227.18730586902529 0 227.18730586902529 325.21553651231807 0 0 0 0 141.26434015357904 162.10506250582694 0 162.10506250582694 236.85429850665969 0 0 0 0 54.805549536848389 132.2957955021393 0 132.2957955021393 253.00093842354545 0 0 0 0 37.921994731522773 131.44328736768512 0 131.44328736768512 339.89864615464376 0 0 0 0 -110.57305060637282 67.656474319817789 0 67.656474319817789 373.9382494383608 0 0 0 0 -368.52739286487622 40.081472582831339 0 40.081472582831339 292.21192908228841 0 0 0 0 -137.95649420725613 144.25465799008816 0 144.25465799008816 244.5924087143394 0 0 0 0 -210.62522995063637 212.96289023535064 0 212.96289023535064 223.56661014025667 0 0 0 0 -378.12998291058557 113.46016838021023 0 113.46016838021023 293.52998213739193 0 0 0 0 -125.26198022545168 89.528100707659178 0 89.528100707659178 290.86672740624635 0 0 0 0 -380.23232938679575 131.94153124298464 0 131.94153124298464 131.10918472521007 0 0 0 0 -721.17809895323671 68.780899126060831 0 68.780899126060831 300.20984216085344 0 0 0 0 -435.83177265296592 191.0467804824093 0 191.0467804824093 177.37946078278765 0 0 0 0 -804.11466807171996 38.777672476924636 0 38.777672476924636 273.69211286694917 0 0 0 0 -341.91711294078988 8.1560960335866639 0 8.1560960335866639 119.36788951954804 0 0 0 0 -342.05750509428253 8.4242898209922714 0 8.4242898209922714 308.30465835450013 0 0 0 0 -173.03531600511633 -135.78358890188247 0 -135.78358890188247 278.17026094153698 0 0 0 0 -274.01848226971617 97.482564629946864 0 97.482564629946864 95.291128437689622 0 0 0 0 -90.335366899665587 52.8377981228914 0 52.8377981228914 173.51458188896504 0 0 0 0 -116.41425696782187 37.414492211330071 0 37.414492211330071 191.90498729744286 0 0 0 0 -0.80052402522354982 13.117892865110445 0 13.117892865110445 185.80040357554935 0 0 0 0 -229.05456755297155 13.020157823322734 0 13.020157823322734 230.06995411838579 0 0 0 0 0.26463182814404551 14.629174935177542 0 14.629174935177542 183.91290762404336 0 0 0 0 -217.94809412044964 -3.5813154145028534 0 -3.5813154145028534 216.32794998571626 0 0 0 0 -106.2320782636009 -1.0436663469208725 0 -1.0436663469208725 160.00766767721871 0 0 0 0 -103.95906369092063 -40.535703043969988 0 -40.535703043969988 207.73020814358824 0 0 0 0 -71.408055382710813 -24.653465301427786 0 -24.653465301427786 173.90977774165731 0 0 0 0 -141.95851516652931 -41.466469862229133 0 -41.466469862229133 206.75417506084341 0 0 0 0 -36.288534781293606 -12.529212974885013 0 -12.529212974885013 228.73111859066194 0 0 0 0 -67.003906145284219 -50.002716082673487 0 -50.002716082673487 270.7305942612511 0 0 0 0 19.2391066788324 -61.523163418496551 0 -61.523163418496551 188.42471925470181 0 0 0 0 19.969662716139364 -69.704559619289739 0 -69.704559619289739 247.86177179967854 0 0 0 0 78.825371228497005 -129.01790758696916 0 -129.01790758696916 221.0605829559936 0 0 0 0 -32.919433374010609 -37.020803698041618 0 -37.020803698041618 406.31807999981538 0 0 0 0 3.342611540701796 71.971229580673025 0 71.971229580673025 323.8948240883874 0 0 0 0 -105.25933135537426 4.3817375225735304 0 4.3817375225735304 289.56814689066232 0 0 0 0 -77.384998094566498 94.534794815997884 0 94.534794815997884 275.54305835329433 0 0 0 0 -33.186653342053319 73.626534323822852 0 73.626534323822852 229.4013646199819 0 0 0 0 -34.166678819356306 66.98548066292642 0 66.98548066292642 345.9981628824753 0 0 0 0 118.340360768625 70.763449538935674 0 70.763449538935674 35.144149160085362 0 0 0 0 69.466836624895564 -232.63552628871912 0 -232.63552628871912 611.29616392540629 0 0 0 0 0.66115989083744287 0.99601520009625233 0 0.99601520009625233 2.0605677029358844 0 0 0 0 60.864049458177476 134.0092690657475 0 134.0092690657475 73.38083961036682 0 0 0 0 -2.6685367772731752 -40.741764991515083 0 -40.741764991515083 16.131298110489297 0 0 0 0 -25.458774091412188 15.949964973449823 0 15.949964973449823 144.81733961613782 0 0 0 0 -0.93712294361108661 -143.23082697625796 0 -143.23082697625796 369.35160455200821 0 0 0 0 81.024148895164899 -114.5604007935035 0 -114.5604007935035 137.18157799206074 0 0 0 0 7.0315598571420885 -14.811561617942061 0 -14.811561617942061 522.08312026201747 0 0 0 0 51.085057460451623 74.820846954127774 0 74.820846954127774 684.25071179973202 0 0 0 0 153.36471220408836 49.974969219620107 0 49.974969219620107 571.98758341056237 0 0 0 0 0.020080656077678276 -12.723179947861354 0 -12.723179947861354 514.58422542507105 0 0 0 0 20.614608391525209 -72.084462196253298 0 -72.084462196253298 623.85197530228038 0 0 0 0 25.271651207267404 39.363836570562853 0 39.363836570562853 411.57974078619009 0 0 0 0 14.139675591986148 -20.429606638143014 0 -20.429606638143014 237.24131646004389 0 0 0 0 -8.6438841724267306 190.99941762694834 0 190.99941762694834 628.42160948191304 0 0 0 0 73.733778920930774 -138.80603103354588 0 -138.80603103354588 308.29933475902362 0 0 0 0 63.529621248523696 -145.08831827080576 0 -145.08831827080576 350.67676610655326 0 0 0 0 20.989664405163225 -106.55156247427294 0 -106.55156247427294 429.27378991780279 0 0 0 0 73.139485780316761 -227.80221807485941 0 -227.80221807485941 411.20448673628562 0 0 0 0 3.5329000041783303 -82.938986110806582 0 -82.938986110806582 691.76488142166636 0 0 0 0 -14.446311466346202 -129.62403372147674 0 -129.62403372147674 398.26100997782487 0 0 0 0 -0.32363990225180883 -0.60546223197857785 0 -0.60546223197857785 -0.074343799233560048 0 0 0 0 -2.151477656469317 -1.1979945988287852 0 -1.1979945988287852 1.6968934666225692 0 0 0 0 108.2869910934413 -80.093081825732952 0 -80.093081825732952 84.153443077484553 0 0 0 0 -39.259061532346777 -12.898652130337723 0 -12.898652130337723 10.962884570937604 0 0 0 0 0.90067309540940965 2.5630894843571355 0 2.5630894843571355 5.3229624885519797 0 0 0 0 96.236141323319771 -237.61726595707296 0 -237.61726595707296 298.54425230262859 0 0 0 0 112.03957907802399 -310.19603859416384 0 -310.19603859416384 667.27388952939873 0 0 0 0 41.105177898468561 -113.84182044256522 0 -113.84182044256522 458.5084825984959 0 0 0 0 165.39328817840368 -138.47050819676042 0 -138.47050819676042 324.47529767034575 0 0 0 0 -2.7132328866606485 1.1906841907839407 0 1.1906841907839407 11.225210939170211 0 0 0 0 71.811277493111646 -96.476045290621187 0 -96.476045290621187 359.49009931915498 0 0 0 0 -1.545762128571178 -0.12595098649707381 0 -0.12595098649707381 2.3133260776686484 0 0 0 0 1.0392344583624435 -0.23872363763803151 0 -0.23872363763803151 -5.1113374340784503 0 0 0 0 -2.9821762766921438 -8.1026483019377338 0 -8.1026483019377338 15.026990329075488 0 0 0 0 -0.85024895964352254 -5.7231643446284579 0 -5.7231643446284579 0.26881287628202699 0 0 0 0 -0.51993424899137608 -0.49232844627840677 0 -0.49232844627840677 7.5494427791418275 0 0 0 0 3.1662394548882276 -7.7969941319679492 0 -7.7969941319679492 1.2671951380980317 0 0 0 0 197.65610596328054 -147.85679275873554 0 -147.85679275873554 63.738475857324374 0 0 0 0 2.3353981796302214 -1.0221170216081816 0 -1.0221170216081816 -0.47766984896672682 0 0 0 0 -15.420220543702115 62.4066148548809 0 62.4066148548809 254.01138634979725 0 0 0 0 73.434387052776003 31.817701125706662 0 31.817701125706662 -32.19814879707701 0 0 0 0 1.0740822342960583 -0.96220762318833408 0 -0.96220762318833408 1.0317158655172278 0 0 0 0 -4.6761227683782991 -91.556494781482797 0 -91.556494781482797 157.03601017541951 0 0 0 0 1.2914095168766773 -0.86809912634896591 0 -0.86809912634896591 -0.21555239690744088 0 0 0 0 8.5274722033864236 -5.6108569330062892 0 -5.6108569330062892 -0.92053562570072245 0 0 0 0 2.7698166674890672 -10.847876220890612 0 -10.847876220890612 -5.434997682620633 0 0 0 0 5.1999769802323499 -3.2355426243884722 0 -3.2355426243884722 -1.578012833109824 0 0 0 0 -37.634903641563916 -129.60063256600188 0 -129.60063256600188 585.33145758094906 0 0 0 0 44.816806109256163 -141.69457264684752 0 -141.69457264684752 198.36782366246916 0 0 0 0 49.096198090687949 -121.92684726138395 0 -121.92684726138395 277.50399420731446 0 0 0 0 5.1517115185882307 -3.1894223512708493 0 -3.1894223512708493 0.75086713680389394 0 0 0 0 -80.828895709797564 17.231719697578228 0 17.231719697578228 138.92766073659732 0 0 0 0 71.81848138484952 -117.81837545943563 0 -117.81837545943563 132.80928667473927 0 0 0 0 1.7995031400483836 -1.6121882629731772 0 -1.6121882629731772 0.48629428866690105 0 0 0 0 201.93387867277596 -112.69040646134818 0 -112.69040646134818 -136.73230574177433 0 0 0 0 62.552490068114423 -140.44553562944702 0 -140.44553562944702 239.17784111513174 0 0 0 0 166.61271112169777 -46.377416720497422 0 -46.377416720497422 275.84373057825724 0 0 0 0 9.5157693418363198 -141.71359760837549 0 -141.71359760837549 337.4758961621701 0 0 0 0 32.605504689607415 -45.386168049197295 0 -45.386168049197295 197.71317020102288 0 0 0 0 100.04160002079533 -172.18895689946658 0 -172.18895689946658 74.370900107474881 0 0 0 0 110.26041660871257 -118.61506307475065 0 -118.61506307475065 325.69992495988845 0 0 0 0 52.161782841268035 12.871945819881148 0 12.871945819881148 274.04981780842354 0 0 0 0 78.304075403741038 -58.921899436631065 0 -58.921899436631065 351.12252200387593 0 0 0 0 63.476036511238163 7.9245490213434095 0 7.9245490213434095 474.58886173130304 0 0 0 0 58.198862675787083 -5.4377387276545051 0 -5.4377387276545051 457.97101798651056 0 0 0 0 55.633988172475242 -87.594071981286106 0 -87.594071981286106 308.23290845625161 0 0 0 0 42.976827193272143 34.833981127700099 0 34.833981127700099 614.09612625495356 0 0 0 0 94.867408275204184 -25.876887107458515 0 -25.876887107458515 540.0933618604904 0 0 0 0 101.48446672770943 53.364526290875801 0 53.364526290875801 464.23257852701317 0 0 0 0 266.64561641998023 -17.180426838160201 0 -17.180426838160201 617.98350885868422 0 0 0 0 74.194106992275294 -22.813444778606254 0 -22.813444778606254 465.82491848862264 0 0 0 0 68.908472033238795 52.200389369689219 0 52.200389369689219 458.12867121685122 0 0 0 0 206.00065750584332 144.40738655450696 0 144.40738655450696 645.51270841056248 0 0 0 0 260.63803744444414 -52.478835050198541 0 -52.478835050198541 469.7582733961508 0 0 0 0 173.95282024602531 40.648254695553078 0 40.648254695553078 897.85490935956477 0 0 0 0 376.12727317415579 481.91233106944128 0 481.91233106944128 684.8090072183295 0 0 0 0 0.17930431577890577 -0.76166214108397412 0 -0.76166214108397412 5.214000421216781 0 0 0 0 -17.723720673384804 38.466477416528505 0 38.466477416528505 738.88501338995047 0 0 0 0 21.255155135450821 -122.65968997878826 0 -122.65968997878826 171.41580608699587 0 0 0 0 26.958767772347638 -96.09957345863404 0 -96.09957345863404 -6.3356194631487597 0 0 0 0 361.02162185733732 425.07562678655086 0 425.07562678655086 480.19448085108888 0 0 0 0 6.8220756886700435 -322.00869550700554 0 -322.00869550700554 527.94718981355254 0 0 0 0 0.014396563912838445 -0.36027652433504898 0 -0.36027652433504898 4.2472765234019789 0 0 0 0 35.960827537758917 251.16014433831151 0 251.16014433831151 691.63353376741725 0 0 0 0 -41.540750540218042 128.50051421709941 0 128.50051421709941 788.34724973951234 0 0 0 0 -33.64574209765621 -12.71746278743376 0 -12.71746278743376 919.43918948817009 0 0 0 0 71.807523703263826 30.57601905415504 0 30.57601905415504 8.7166758730454603 0 0 0 0 53.633541673695618 -136.69183520505976 0 -136.69183520505976 318.32902539957286 0 0 0 0 38.41173589753005 -29.438215716385457 0 -29.438215716385457 55.185871923349623 0 0 0 0 -51.394943170911489 -57.078019833817962 0 -57.078019833817962 524.95776404655771 0 0 0 0 37.087221500890422 147.71529455047857 0 147.71529455047857 807.21137552041182 0 0 0 0 -56.184701237982452 0.49015250507000019 0 0.49015250507000019 624.80334030206723 0 0 0 0 1.271203961741449 -24.220285304796562 0 -24.220285304796562 511.85240052180598 0 0 0 0 1.985418204836165 13.165546699274273 0 13.165546699274273 563.16502516565379 0 0 0 0 113.62309912288271 92.174130420808069 0 92.174130420808069 550.06734522049373 0 0 0 0 62.494823517538237 91.43515771960665 0 91.43515771960665 628.03742224345365 0 0 0 0 -19.246472278567072 -7.4781796290390048 0 -7.4781796290390048 574.76023631850694 0 0 0 0 -6.2438073624354331 6.5022185574052855 0 6.5022185574052855 579.44510586738033 0 0 0 0 -19.086584280154597 -62.041959447175032 0 -62.041959447175032 528.90061449423956 0 0 0 0 0.025370817316776713 -33.153993615022046 0 -33.153993615022046 485.36918247905123 0 0 0 0 -6.7350489345798223 -22.401120092417841 0 -22.401120092417841 337.14144776371541 0 0 0 0 15.798876885145646 -23.897547636493982 0 -23.897547636493982 332.51281233313784 0 0 0 0 -32.161023241909966 -72.232597955280653 0 -72.232597955280653 444.4590790374059 0 0 0 0 -0.011012191288191834 -4.076047113218241 0 -4.076047113218241 -0.091340331040555611 0 0 0 0 -15.013796882123309 97.548453697832883 0 97.548453697832883 356.80770312428285 0 0 0 0 -0.049165981343158791 0.015869286969369512 0 0.015869286969369512 1.0797400736099121 0 0 0 0 42.453335350132335 43.390869877093792 0 43.390869877093792 39.189627006126102 0 0 0 0 37.999869745541559 6.7518810389865394 0 6.7518810389865394 -7.1200704105576733 0 0 0 0 -11.185580141371624 -33.475866751898138 0 -33.475866751898138 17.840516393769576 0 0 0 0 0.21247134697893566 -0.60854263589590118 0 -0.60854263589590118 1.6002881382074179 0 0 0 0 -13.67525282938151 -5.0783766079839552 0 -5.0783766079839552 0.03197822271977202 0 0 0 0 7.0735630302697103 -0.08333603575010784 0 -0.08333603575010784 85.183724876420456 0 0 0 0 59.418854431765055 5.1085621575712139 0 5.1085621575712139 81.841946275162627 0 0 0 0 18.02667972008976 33.840817998388957 0 33.840817998388957 56.599645001533645 0 0 0 0 20.306429978269094 -0.26629415750358021 0 -0.26629415750358021 44.934922171785729 0 0 0 0 28.668674411631358 33.210059268269106 0 33.210059268269106 5.7136077550749178 0 0 0 0 -7.8380681430838308 16.763186468531785 0 16.763186468531785 -1.6389254561654525 0 0 0 0 -4.3799678013924392 30.423039064588011 0 30.423039064588011 -12.648423752587405 0 0 0 0 12.404730713893532 5.4760829364768142 0 5.4760829364768142 -21.913321963656927 0 0 0 0 -6.3309589614313797 5.77177869329347 0 5.77177869329347 8.9320166319201633 0 0 0 0 -5.7077414868540473 0.65232703154470073 0 0.65232703154470073 26.611200961371651 0 0 0 0 -4.6602410621431147 7.4937898671205971 0 7.4937898671205971 7.1167928427651361 0 0 0 0 0.014878022456412197 -15.823577878152719 0 -15.823577878152719 0.85708754608640447 0 0 0 0 -6.5051777770718324 -0.88084847291065671 0 -0.88084847291065671 8.3178035590681247 0 0 0 0 -0.84795437194674894 0.75111180119469623 0 0.75111180119469623 1.961613396502969 0 0 0 0 -3.3783171369050891 -7.2915299658707227 0 -7.2915299658707227 -10.324609362518459 0 0 0 0 -3.6844381899444532 15.614345222100383 0 15.614345222100383 13.154239361259897 0 0 0 0 -0.002077898142118157 -0.76577887637314535 0 -0.76577887637314535 2.0437288657412864 0 0 0 0 -0.18172200137859543 0.093773776224423955 0 0.093773776224423955 0.35816934011654666 0 0 0 0 0.00083529980097690238 -0.76988582355261315 0 -0.76988582355261315 2.0484902845928445 0 0 0 0 -0.021592329811402355 -0.53822889538611207 0 -0.53822889538611207 0.79430719196048472 0 0 0 0 -39.775716684551597 -72.309182413635426 0 -72.309182413635426 -112.10609978542925 0 0 0 0 -0.65456877731103769 -124.64730657968175 0 -124.64730657968175 -44.175884562078863 0 0 0 0 -33.592934753372816 -46.263953296864202 0 -46.263953296864202 -2.9894706519844476 0 0 0 0 -169.64334396022429 -81.128765307148569 0 -81.128765307148569 7.4078223085562058 0 0 0 0 -76.701867134225608 -161.69063050311524 0 -161.69063050311524 -21.642839831649326 0 0 0 0 0.48810316998764147 -4.5267856043648464 0 -4.5267856043648464 7.0006746728537337 0 0 0 0 -5.7369037570682622 -11.1933056179696 0 -11.1933056179696 2.2743007679018774 0 0 0 0 -10.034001615103307 -0.036517411484965123 0 -0.036517411484965123 11.452633266140765 0 0 0 0 -4.9172275496318889 -0.5463162610976724 0 -0.5463162610976724 7.0271636014804244 0 0 0 0 -10.047142670818971 -0.94124417065177113 0 -0.94124417065177113 21.294868563578348 0 0 0 0 0.35244739606370756 -2.1299956829862907 0 -2.1299956829862907 5.1990577707425132 0 0 0 0 -10.32216307210274 -4.0272521328297444 0 -4.0272521328297444 8.6142415245994925 0 0 0 0 -0.82390805161905023 -2.4704939937288444 0 -2.4704939937288444 12.036682496068806 0 0 0 0 -2.3740673712034592 -0.13804669592087748 0 -0.13804669592087748 5.4587263795358183 0 0 0 0 -5.8352109631573512 -3.6114617089187959 0 -3.6114617089187959 5.5460403160541318 0 0 0 0 -5.6507918930280994 -5.3002593513883767 0 -5.3002593513883767 24.495279658898653 0 0 0 0 -5.9901841138798773 -3.8652263285039226 0 -3.8652263285039226 23.188745823366389 0 0 0 0 -3.183759030761621 1.4036866236901915 0 1.4036866236901915 23.434509148079087 0 0 0 0 -7.8656777737672883 -8.0127200663118856 0 -8.0127200663118856 17.920755701132293 0 0 0 0 -5.6435955327187912 -8.4337792906517279 0 -8.4337792906517279 17.87724023971532 0 0 0 0 -7.5259777007813682 -11.516182310500881 0 -11.516182310500881 12.883363777200429 0 0 0 0 -3.7904229766231765 -4.3153735125015373 0 -4.3153735125015373 10.260040001841844 0 0 0 0 6.2883087815512226 -9.7352600716549205 0 -9.7352600716549205 -7.951211098319618 0 0 0 0 -0.27614665403996153 -2.335296983862321 0 -2.335296983862321 -1.4338752095035261 0 0 0 0 -7.9147906168191184 -4.8360360861188383 0 -4.8360360861188383 9.5895525569212623 0 0 0 0 2.7297947009647032 -45.623148564067378 0 -45.623148564067378 12.494866693456061 0 0 0 0 -5.4989690177180996 -7.4697362683398012 0 -7.4697362683398012 -3.9958238009648426 0 0 0 0 18.598525249423801 -33.033657010662864 0 -33.033657010662864 18.046002943156054 0 0 0 0 42.973169079619765 -56.43146589040407 0 -56.43146589040407 14.825493383028515 0 0 0 0 36.571397949526272 -42.657175677322812 0 -42.657175677322812 -14.453772810797091 0 0 0 0 25.276988410434114 -0.34580745856510475 0 -0.34580745856510475 -2.556370923484792 0 0 0 0 41.074660854810645 -33.116381548737991 0 -33.116381548737991 5.5330545001634164 0 0 0 0 0.83338292685100868 -2.7453818624897792 0 -2.7453818624897792 1.2199660945936444 0 0 0 0 -113.46547722548189 -121.83962312715812 0 -121.83962312715812 -81.410618737121695 0 0 0 0 -295.36663202498391 -194.73778080820921 0 -194.73778080820921 -7.2810876423820901 0 0 0 0 -0.002433163433963677 -4.7274689940568351 0 -4.7274689940568351 -3.112007166382682 0 0 0 0 -186.70782631668928 -101.43195021971769 0 -101.43195021971769 -243.4573917020316 0 0 0 0 0.0097716649165588976 -0.43339075410479211 0 -0.43339075410479211 0.23340237816557874 0 0 0 0 -252.34021748049673 -211.23347949002346 0 -211.23347949002346 -22.118356066275737 0 0 0 0 -45.621294667017878 -1.0417634307814296 0 -1.0417634307814296 -15.104476547072409 0 0 0 0 -5.9235455254627141 -6.3486070312210359 0 -6.3486070312210359 2.4084503051708452 0 0 0 0 -0.032322720600341248 -3.2110219454080209 0 -3.2110219454080209 4.9999404777950076 0 0 0 0 -243.83878729542855 18.022424141077863 0 18.022424141077863 19.818112080916762 0 0 0 0 -4.4245807623210327 -6.5258273705799184 0 -6.5258273705799184 5.6637142508428298 0 0 0 0 -136.50604839202856 -185.47371608711546 0 -185.47371608711546 -252.19701493193861 0 0 0 0 -0.82164349522948665 -1.7469375125191107 0 -1.7469375125191107 0.8109292685024343 0 0 0 0 -88.134524801300813 45.87161562233814 0 45.87161562233814 216.04258100234438 0 0 0 0 10.324794878713647 11.721689145721029 0 11.721689145721029 45.901840839040233 0 0 0 0 -24.954060327090566 6.3918811559976803 0 6.3918811559976803 66.205935401492752 0 0 0 0 -24.735546488528144 11.04519233177416 0 11.04519233177416 71.304108290845761 0 0 0 0 -12.458078963698881 -0.33169814631401096 0 -0.33169814631401096 68.820500427507795 0 0 0 0 -43.737379632649208 6.2730148480695789 0 6.2730148480695789 70.826123750244733 0 0 0 0 -22.320811531742038 12.138496290368494 0 12.138496290368494 60.142803272989113 0 0 0 0 -44.337367060125644 9.462566139845876 0 9.462566139845876 55.712192794398106 0 0 0 0 -77.022845711871128 9.78438515686139 0 9.78438515686139 76.765605271531967 0 0 0 0 -51.571142893409494 -3.859282129604253 0 -3.859282129604253 78.87710533020072 0 0 0 0 -50.019145409303036 -1.129789113193965 0 -1.129789113193965 80.006442432946642 0 0 0 0 -33.550467255803028 4.0014739419566467 0 4.0014739419566467 69.604686761577341 0 0 0 0 -7.5602566704040157 2.5950972167188873 0 2.5950972167188873 61.955562324124628 0 0 0 0 -7.6090701549092046 10.24495836681308 0 10.24495836681308 61.199314609431894 0 0 0 0 -49.152463972385476 9.3187346259655897 0 9.3187346259655897 72.667523957999947 0 0 0 0 -26.333447572147634 -3.6230613853913383 0 -3.6230613853913383 70.326112626033137 0 0 0 0 0.018384858722886754 9.0021314273886475 0 9.0021314273886475 10.698740842626478 0 0 0 0 -107.10937955438112 -57.201901276079298 0 -57.201901276079298 50.57405477607972 0 0 0 0 -110.39931955293196 -22.884914915222907 0 -22.884914915222907 27.89628783408989 0 0 0 0 -52.392276992130235 -47.350667295251242 0 -47.350667295251242 49.611778517893981 0 0 0 0 -95.619003703263843 -63.259260581995477 0 -63.259260581995477 51.650965000480937 0 0 0 0 -97.311813374696612 -62.36967181377986 0 -62.36967181377986 95.954882460515364 0 0 0 0 -8.9445092347473292 -102.3612374179429 0 -102.3612374179429 13.170104874501703 0 0 0 0 -50.809000144136007 -60.829410870865104 0 -60.829410870865104 39.698621222050861 0 0 0 0 -53.635494925010292 -69.647595439027327 0 -69.647595439027327 46.773179819618235 0 0 0 0 -27.555301926684024 -27.610175537840405 0 -27.610175537840405 64.852618760131008 0 0 0 0 -4.8723815254970759 -31.55418620560522 0 -31.55418620560522 53.469606265003677 0 0 0 0 -24.780548097484825 -43.642886189001729 0 -43.642886189001729 60.115010183231789 0 0 0 0 -47.49995201650745 -51.344277479787706 0 -51.344277479787706 39.542338735423982 0 0 0 0 -6.2139516620636286 5.1006034661220241 0 5.1006034661220241 59.198564454014843 0 0 0 0 25.887699454956419 33.383182146826584 0 33.383182146826584 -21.213997752827709 0 0 0 0 -61.302578501795324 -32.911046057939529 0 -32.911046057939529 68.681659857582417 0 0 0 0 -48.935018209143891 0.078135922143701464 0 0.078135922143701464 128.81130594382557 0 0 0 0 -33.746578613215206 -31.631547944707563 0 -31.631547944707563 67.253487061781925 0 0 0 0 -8.2501938401387633 -4.4720507893434842 0 -4.4720507893434842 36.70660388165561 0 0 0 0 -12.101967398320792 -8.1955588730494924 0 -8.1955588730494924 5.6448563198195387 0 0 0 0 -4.6119223483150193 2.2201776800502557 0 2.2201776800502557 29.874237249387079 0 0 0 0 -17.41193624941252 -6.5352271689735062 0 -6.5352271689735062 49.241681515981327 0 0 0 0 -4.2568110883817525 -0.073751501537344666 0 -0.073751501537344666 36.523422492225166 0 0 0 0 -39.390969463626334 -4.8033026282500941 0 -4.8033026282500941 57.660361000715056 0 0 0 0 -24.795816518768788 -1.032915607040195 0 -1.032915607040195 45.326723090169253 0 0 0 0 -1.588353225451522 0.40950513932389754 0 0.40950513932389754 14.18152179186653 0 0 0 0 -28.483255964267983 -12.503101306559984 0 -12.503101306559984 63.013380259086262 0 0 0 0 -17.789706290625872 23.84988332647481 0 23.84988332647481 48.307116004099953 0 0 0 0 -48.147323508148844 9.4076920763598082 0 9.4076920763598082 61.871874894073699 0 0 0 0 -80.954418431413387 -13.319521404599072 0 -13.319521404599072 109.10297144116339 0 0 0 0 -48.734574095874223 -2.8100260797727969 0 -2.8100260797727969 56.464648483131441 0 0 0 0 19.606266869958858 92.071699437143252 0 92.071699437143252 115.84230038527312 0 0 0 0 -46.828392987210123 33.377451225351251 0 33.377451225351251 83.386238092876738 0 0 0 0 50.901779194960397 25.363173910725891 0 25.363173910725891 17.17126931801613 0 0 0 0 16.15723309883154 12.145234424287082 0 12.145234424287082 16.401492436008994 0 0 0 0 29.656915701618971 61.245944061312912 0 61.245944061312912 64.674833174693049 0 0 0 0 -4.8976751199735418 24.656986596768547 0 24.656986596768547 44.878420419656322 0 0 0 0 -6.5953620121622407 28.872034120191529 0 28.872034120191529 36.167444595892448 0 0 0 0 0.9738368022422037 21.907933384565695 0 21.907933384565695 32.117459885761491 0 0 0 0 0.25612060605453735 15.076167273364263 0 15.076167273364263 17.900591480101866 0 0 0 0 20.454666983030563 31.669838582216471 0 31.669838582216471 29.323085107105726 0 0 0 0 -6.7171200827275186 7.5315572020772379 0 7.5315572020772379 23.095210088409658 0 0 0 0 -5.6412368181699826 1.8117626346461293 0 1.8117626346461293 29.712334929921781 0 0 0 0 -1.2866413129795835 6.7345625998913548 0 6.7345625998913548 27.429313047407788 0 0 0 0 -4.7149280713392727 19.485635966615519 0 19.485635966615519 35.114115504526126 0 0 0 0 7.3540213311569627 13.674903524157202 0 13.674903524157202 13.515439250748386 0 0 0 0 -10.623576076197921 33.568435779227912 0 33.568435779227912 14.264784925719141 0 0 0 0 -3.8473228335156344 8.3241255588676495 0 8.3241255588676495 12.479130785819564 0 0 0 0 -49.499408561925691 29.638129592429323 0 29.638129592429323 28.6034102427584 0 0 0 0 1.0025838551827984 2.1225845009716906 0 2.1225845009716906 12.501812414746666 0 0 0 0 7.1996848854093756 -2.656124047247431 0 -2.656124047247431 -11.289765285589965 0 0 0 0 30.846822436608392 17.506697612399876 0 17.506697612399876 -19.279312975166249 0 0 0 0 84.852114455407587 10.346897390925733 0 10.346897390925733 -9.5408246050501475 0 0 0 0 -10.520406785650209 -52.506072850956116 0 -52.506072850956116 26.954386113765395 0 0 0 0 0.11801521782086993 -1.9287006921764132 0 -1.9287006921764132 9.1683836642011443 0 0 0 0 -107.10829513334085 -15.379777263777214 0 -15.379777263777214 103.08343869418604 0 0 0 0 0.84776505152991888 37.541039386171178 0 37.541039386171178 17.795374533845461 0 0 0 0 -0.27585160945545795 12.246808176205377 0 12.246808176205377 2.8436746699590003 0 0 0 0 -10.453615673198641 28.237436776358663 0 28.237436776358663 5.9318146845325828 0 0 0 0 2.0617640387673766 10.387808886110918 0 10.387808886110918 9.8810365244456904 0 0 0 0 16.765551708441535 17.934335936079151 0 17.934335936079151 4.3486014127483941 0 0 0 0 -6.521024014881263 34.826288217620458 0 34.826288217620458 11.498738947339007 0 0 0 0 52.712613809854162 80.0544989203554 0 80.0544989203554 75.867348830164701 0 0 0 0 15.957930259382579 29.525052608427359 0 29.525052608427359 8.9958960650255904 0 0 0 0 -0.52105014235970637 -1.3724883902874012 0 -1.3724883902874012 13.642668480714292 0 0 0 0 -35.288475144532555 71.291638377893833 0 71.291638377893833 90.01836576169444 0 0 0 0 16.534466120736852 -16.328690518705116 0 -16.328690518705116 10.1044760383229 0 0 0 0 -0.3473698553984832 0.73334273678483441 0 0.73334273678483441 7.8530115751782432 0 0 0 0 -76.672871165878206 7.5114536783476069 0 7.5114536783476069 34.804041051480453 0 0 0 0 368.90141204485298 303.14271059734529 0 303.14271059734529 231.58633772016037 0 0 0 0 0.19503067638345542 1.566182352824903 0 1.566182352824903 2.8361237833952373 0 0 0 0 241.49298239088876 273.99901398675138 0 273.99901398675138 257.03123020245403 0 0 0 0 327.20761296096271 248.85668296254516 0 248.85668296254516 226.28745635255473 0 0 0 0 2.0737211445942076 -0.2702039945623369 0 -0.2702039945623369 1.4798943230153156 0 0 0 0 -60.107126877079736 -4.7009703546646051 0 -4.7009703546646051 21.291079367314524 0 0 0 0 -1.9364403747613661 -0.65209174307045714 0 -0.65209174307045714 17.220951618400221 0 0 0 0 -0.5715166320303865 10.360770819704697 0 10.360770819704697 3.6336921422056321 0 0 0 0 -2.6412941430163044 8.884139083898134 0 8.884139083898134 5.9297330756841689 0 0 0 0 -5.400807170180542 7.8150093554722844 0 7.8150093554722844 7.2581666793266777 0 0 0 0 166.83221134635323 -14.85009176186577 0 -14.85009176186577 15.497860677729477 0 0 0 0 101.29693781926021 -12.65161355602504 0 -12.65161355602504 -17.132334024820011 0 0 0 0 -75.180434443280774 0.68606964852369856 0 0.68606964852369856 3.7196782154424 0 0 0 0 160.87002160488737 344.20571104709234 0 344.20571104709234 128.50989972810203 0 0 0 0 83.810595084628403 237.86248437210452 0 237.86248437210452 14.960689240993815 0 0 0 0 56.274615252975764 105.59066008839 0 105.59066008839 -25.951332563796313 0 0 0 0 82.916937346706675 125.52849993123709 0 125.52849993123709 -11.542842967028264 0 0 0 0 350.05522131208363 128.18529008910991 0 128.18529008910991 -36.728917227403144 0 0 0 0 -15.677479568594208 246.30458961661498 0 246.30458961661498 75.085060242417967 0 0 0 0 7.4474408790570124 114.26815451564107 0 114.26815451564107 287.72871698210656 0 0 0 0 253.56104366380782 235.91325166458955 0 235.91325166458955 214.85797862894833 0 0 0 0 -177.2608543348706 169.33973186284857 0 169.33973186284857 173.26814065917279 0 0 0 0 -138.4075385353658 250.24456915729388 0 250.24456915729388 263.3332287683279 0 0 0 0 -361.75858596467833 175.10117149477082 0 175.10117149477082 195.239734797251 0 0 0 0 -364.93419947428742 238.46531968554518 0 238.46531968554518 45.198685350056621 0 0 0 0 -432.19910990530207 147.98725294363248 0 147.98725294363248 179.15188029466663 0 0 0 0 -248.66246007641803 -107.10547587728433 0 -107.10547587728433 199.46807230552076 0 0 0 0 -2.0159027291636242 -1.1154081881622915 0 -1.1154081881622915 54.332741343073387 0 0 0 0 -108.78917966688005 253.40001249987836 0 253.40001249987836 -41.678860839369008 0 0 0 0 -405.93002460534922 116.94469201420543 0 116.94469201420543 178.57568059652112 0 0 0 0 -64.292413282424377 177.0923854599132 0 177.0923854599132 52.314230065967422 0 0 0 0 43.474925137410082 176.96860679490055 0 176.96860679490055 43.644367545253772 0 0 0 0 -87.784628027507097 73.582115244091256 0 73.582115244091256 193.46641239139717 0 0 0 0 -140.61529070076654 147.18790298382737 0 147.18790298382737 143.56331919440709 0 0 0 0 37.515913295615519 96.617497584687953 0 96.617497584687953 154.81709860145929 0 0 0 0 -183.49624359286918 -1.9411925098684151 0 -1.9411925098684151 198.5886854165874 0 0 0 0 -71.470272752602796 -47.886604441795498 0 -47.886604441795498 152.81209376009065 0 0 0 0 -2.3120064996322727 -11.090137999970395 0 -11.090137999970395 156.58691955239061 0 0 0 0 -73.515269226010787 22.772161700897414 0 22.772161700897414 190.43034875301237 0 0 0 0 -97.264504085319459 17.21859216352459 0 17.21859216352459 205.22546635176695 0 0 0 0 5.7656842707583564 47.55564110186242 0 47.55564110186242 325.00919056655721 0 0 0 0 -118.23543638262254 54.977434328135132 0 54.977434328135132 254.43601323047187 0 0 0 0 70.808947277044354 97.63988294997398 0 97.63988294997398 187.63468567026575 0 0 0 0 -0.11421019120404274 -1.0367623217001096 0 -1.0367623217001096 2.7548137653639913 0 0 0 0 73.475757926562437 242.23986462383618 0 242.23986462383618 314.55764383701762 0 0 0 0 -67.701367887141885 -58.823779835016467 0 -58.823779835016467 6.9575535346666584 0 0 0 0 -230.58092116328544 300.76464762585238 0 300.76464762585238 184.05719448294258 0 0 0 0 -92.370055293715268 -152.63769945651438 0 -152.63769945651438 38.276199706106127 0 0 0 0 -187.10768800122264 4.8799255787453149 0 4.8799255787453149 18.561951592955666 0 0 0 0 21.10049317796188 79.836904637886619 0 79.836904637886619 -10.131829515394202 0 0 0 0 -447.19422147420346 -15.612937246391084 0 -15.612937246391084 112.64014877623413 0 0 0 0 -0.60282711187201676 2.4556606104629779 0 2.4556606104629779 5.3888102785010688 0 0 0 0 -19.111819495069653 4.6326241026508796 0 4.6326241026508796 25.245511685148813 0 0 0 0 10.614478698453468 16.176273933135235 0 16.176273933135235 13.942406896778266 0 0 0 0 -1.5621888990448953 1.7300792366393551 0 1.7300792366393551 -0.16987691253899584 0 0 0 0 -1.4680024356700794 4.7783740311944243 0 4.7783740311944243 -1.7495735276717141 0 0 0 0 -1.9393974390540052 114.69624791717433 0 114.69624791717433 -4.5047994032211136 0 0 0 0 -75.801386920475124 63.238556923213764 0 63.238556923213764 -34.978017637942685 0 0 0 0 41.34658136193184 204.3274554415766 0 204.3274554415766 -8.2420518325379817 0 0 0 0 123.51650978239581 135.18567322721356 0 135.18567322721356 13.587999025679892 0 0 0 0 -42.09148914123989 214.55928988920641 0 214.55928988920641 33.824730001913849 0 0 0 0 -3.2149310174327548 12.449256161328179 0 12.449256161328179 11.771990268076721 0 0 0 0 2.8915298376377905 -44.476270580402343 0 -44.476270580402343 267.32960242807667 0 0 0 0 -36.051740979428914 -0.15142410014184549 0 -0.15142410014184549 2.8237626329276955 0 0 0 0 -61.394669414511156 70.274558911995427 0 70.274558911995427 45.486633188869746 0 0 0 0 41.104235479883243 -68.416751847065825 0 -68.416751847065825 127.13896910439507 0 0 0 0 -5.972383799283989 -39.457964099627134 0 -39.457964099627134 125.78071776304762 0 0 0 0 -8.4896777601717019 -50.165476778732682 0 -50.165476778732682 148.8250524426112 0 0 0 0 -21.518045029529731 -73.875625999949989 0 -73.875625999949989 190.11666863019764 0 0 0 0 -43.457200083154135 -47.030616643021858 0 -47.030616643021858 157.9663966891967 0 0 0 0 -33.914791804983906 -68.893570146410639 0 -68.893570146410639 321.7306216450379 0 0 0 0 -13.480912729795669 5.9997990612884706 0 5.9997990612884706 3.9904263633690817 0 0 0 0 -42.577903004803375 -53.453675784840016 0 -53.453675784840016 383.35995769996953 0 0 0 0 -33.227898657443802 -30.116167905700422 0 -30.116167905700422 134.54437879335205 0 0 0 0 -44.879174960867289 10.483532805620584 0 10.483532805620584 1.3895556543187393 0 0 0 0 -21.958424340155034 100.64625813550083 0 100.64625813550083 139.1529616147875 0 0 0 0 -66.499716121614711 20.555721182131492 0 20.555721182131492 280.26542536998022 0 0 0 0 -71.717854801820067 40.510696106426622 0 40.510696106426622 245.25858033831173 0 0 0 0 -67.000184195065913 -36.823282563502289 0 -36.823282563502289 164.71703234560846 0 0 0 0 -45.286709019995612 -50.072049064793646 0 -50.072049064793646 172.70119450437778 0 0 0 0 -115.1286172911789 -23.69717319096344 0 -23.69717319096344 192.38371139476112 0 0 0 0 -6.2923848915878473 16.553671451809876 0 16.553671451809876 178.069485899798 0 0 0 0 -81.033023305946585 -4.0439530706094047 0 -4.0439530706094047 195.04858664167114 0 0 0 0 -56.40482842082131 9.5532983823119935 0 9.5532983823119935 49.256010884421165 0 0 0 0 -99.511152536339068 17.550159269496362 0 17.550159269496362 231.3050244666149 0 0 0 0 -129.14321280708265 29.267591010262208 0 29.267591010262208 236.45969478116604 0 0 0 0 -9.0404201244655304 -13.282234060197744 0 -13.282234060197744 179.68846617052606 0 0 0 0 -88.689369143756267 24.36317861299176 0 24.36317861299176 182.36474207595165 0 0 0 0 -96.287870298801863 -54.38125026315538 0 -54.38125026315538 168.32729966451006 0 0 0 0 -119.54045930734537 -53.195156205030798 0 -53.195156205030798 192.54277053833357 0 0 0 0 -118.92830246456685 -57.180382086560599 0 -57.180382086560599 173.95371334424999 0 0 0 0 -119.4382190283759 -42.854172717103211 0 -42.854172717103211 200.15767609325121 0 0 0 0 -42.504840663248615 -35.805119761258538 0 -35.805119761258538 157.93942924338626 0 0 0 0 -58.131389567843144 -24.767599505496037 0 -24.767599505496037 188.08427523304272 0 0 0 0 -15.657423216829557 -33.354455445257827 0 -33.354455445257827 218.42000466578611 0 0 0 0 -58.148183942223113 -24.466305929290684 0 -24.466305929290684 228.020875538974 0 0 0 0 -17.593992334797804 -79.201586080129346 0 -79.201586080129346 205.16043663112396 0 0 0 0 6.9202568880409672 7.5509418433684914 0 7.5509418433684914 259.57079959291877 0 0 0 0 -14.276937649685806 -43.370507855850974 0 -43.370507855850974 287.29735984606668 0 0 0 0 -57.074626937956054 14.252355769451242 0 14.252355769451242 252.24149593978291 0 0 0 0 -74.371168076739195 -5.3704632564695203 0 -5.3704632564695203 241.1609623499462 0 0 0 0 -18.393949341703774 -18.506557452641573 0 -18.506557452641573 262.85959219920915 0 0 0 0 1.6884756082035892 -6.3803237452557369 0 -6.3803237452557369 353.45294502523029 0 0 0 0 -13.805866048577627 -31.189693419864852 0 -31.189693419864852 313.79915395029093 0 0 0 0 30.78232087523611 -102.39663125795778 0 -102.39663125795778 260.4055521028813 0 0 0 0 19.773949189589985 -38.208858607438742 0 -38.208858607438742 252.83788256304979 0 0 0 0 59.78983876867278 -84.471584609096681 0 -84.471584609096681 305.1202259071797 0 0 0 0 -13.628007188592619 -124.82724576040982 0 -124.82724576040982 399.12465650725062 0 0 0 0 124.86347892244339 -227.32918646255257 0 -227.32918646255257 370.74110058438237 0 0 0 0 -4.31716135381469 -0.14352488762467885 0 -0.14352488762467885 3.1999619322722737 0 0 0 0 -62.756368643766109 -97.475380720014073 0 -97.475380720014073 384.33201736606861 0 0 0 0 -13.524762388244199 -42.248931748395989 0 -42.248931748395989 332.94220075016347 0 0 0 0 -45.375301910201415 -20.355478156576282 0 -20.355478156576282 351.3065974295605 0 0 0 0 -17.77700807320241 -82.865693760363683 0 -82.865693760363683 388.42894259552122 0 0 0 0 60.244592817027296 138.81985808321042 0 138.81985808321042 -57.864996549906209 0 0 0 0 -0.39699231950544345 49.591413051861309 0 49.591413051861309 11.802954806087655 0 0 0 0 27.930099759025325 -462.35923263829318 0 -462.35923263829318 -267.85204873175098 0 0 0 0 -11.456005762149047 -3.5585388331551826 0 -3.5585388331551826 -0.56702798904487395 0 0 0 0 -66.425531367133772 -8.6111777546866506 0 -8.6111777546866506 83.203169553555199 0 0 0 0 31.733546999924329 110.86636407389415 0 110.86636407389415 58.93934336116854 0 0 0 0 -36.420263720878665 -73.456510932564925 0 -73.456510932564925 142.77079707352823 0 0 0 0 -5.2252381075040653 -1.3330541006751417 0 -1.3330541006751417 0.42959159625144139 0 0 0 0 56.386977519734501 -103.13086892353749 0 -103.13086892353749 223.87286533173028 0 0 0 0 -7.5146011121569813 -1.011144788472464 0 -1.011144788472464 1.8534884842910344 0 0 0 0 68.262390026951834 -145.60420667197832 0 -145.60420667197832 219.71286534057117 0 0 0 0 -60.006975549262279 -140.41692364037226 0 -140.41692364037226 -45.549139717710204 0 0 0 0 30.30224246257081 383.60750485443032 0 383.60750485443032 -36.211983877881721 0 0 0 0 -13.488243534224949 -4.4104722270887038 0 -4.4104722270887038 2.1234210263235695 0 0 0 0 -0.7418941869000264 -1.6262532242872112 0 -1.6262532242872112 269.60572216786386 0 0 0 0 -1.2142736430323566 -12.751970038749278 0 -12.751970038749278 67.133042857291002 0 0 0 0 7.4101709898714034 -82.29239707859233 0 -82.29239707859233 133.68013920161684 0 0 0 0 -8.6814306358045883 -6.7303002327864334 0 -6.7303002327864334 10.458248903934418 0 0 0 0 29.794261822105909 -65.764139270861051 0 -65.764139270861051 138.68686123114276 0 0 0 0 -1.902983673124254 -87.581622374884319 0 -87.581622374884319 147.03639587888028 0 0 0 0 12.739686305994837 -108.94985860626912 0 -108.94985860626912 197.13423135358607 0 0 0 0 95.60853686417704 -108.29292934010664 0 -108.29292934010664 146.30573339130206 0 0 0 0 11.925768713553225 -60.597165685258005 0 -60.597165685258005 186.45800850748492 0 0 0 0 -9.261205845119548 -59.535050805256105 0 -59.535050805256105 169.94922086657607 0 0 0 0 -10.664824069859606 -67.488106471202627 0 -67.488106471202627 143.77942930912832 0 0 0 0 -97.040917048048868 -62.976122325355391 0 -62.976122325355391 179.6813816680733 0 0 0 0 -105.80820109956471 27.614559206510876 0 27.614559206510876 100.12003546282358 0 0 0 0 -4.4812542717814168 -11.116772410524177 0 -11.116772410524177 35.698413717292624 0 0 0 0 -57.977650763930797 -43.485946197390149 0 -43.485946197390149 148.51959850179264 0 0 0 0 -40.65654765392901 -27.657035786822235 0 -27.657035786822235 143.03374573549809 0 0 0 0 -21.820248002570224 -66.073464076333039 0 -66.073464076333039 141.05851414550852 0 0 0 0 16.448411388322711 -80.464388574597251 0 -80.464388574597251 116.00801345721266 0 0 0 0 -1.977146572789934 -47.133962076994067 0 -47.133962076994067 107.70762060121342 0 0 0 0 24.201101201725578 -64.132385990462353 0 -64.132385990462353 100.46367503849615 0 0 0 0 2.9268705938811763 -36.469999601948075 0 -36.469999601948075 59.761791894554335 0 0 0 0 -21.715528854228978 -12.938876002976031 0 -12.938876002976031 45.151329647691455 0 0 0 0 -0.64992923412625458 -16.230193517726896 0 -16.230193517726896 58.874069308220726 0 0 0 0 -3.2988894199625065 -10.792286816191336 0 -10.792286816191336 43.417500252573518 0 0 0 0 1.3012333753690157 -24.096925237687174 0 -24.096925237687174 28.452194942658949 0 0 0 0 -11.123535384495987 -10.510307933411468 0 -10.510307933411468 25.604748316659879 0 0 0 0 -5.455918087343413 -18.688757743276568 0 -18.688757743276568 44.016839730590192 0 0 0 0 -2.1128063174364797 -22.31502082683437 0 -22.31502082683437 54.747944940492744 0 0 0 0 2.1434895185375353 -20.778166704258183 0 -20.778166704258183 55.119900955483899 0 0 0 0 -6.008468135200836 -5.1945479496580731 0 -5.1945479496580731 33.643535642780733 0 0 0 0 -3.6570673067035386 -5.030651475826744 0 -5.030651475826744 46.765392769535538 0 0 0 0 -10.467102603018027 4.513716095632816 0 4.513716095632816 25.120983243443774 0 0 0 0 22.829452148369455 -68.748558187151502 0 -68.748558187151502 210.62091662593593 0 0 0 0 94.018292631051736 -210.75634492188692 0 -210.75634492188692 264.2013633147144 0 0 0 0 7.6480678380903555 -112.92080469311622 0 -112.92080469311622 318.10401838633697 0 0 0 0 5.7965779776095587 -132.15601054841682 0 -132.15601054841682 258.08491635127575 0 0 0 0 37.246035545002087 -100.83557313059282 0 -100.83557313059282 253.42975396579823 0 0 0 0 33.22067610398517 -133.89583415551169 0 -133.89583415551169 197.75780916570511 0 0 0 0 44.539151879944257 -113.52899712257931 0 -113.52899712257931 256.20897252255236 0 0 0 0 19.017434157860407 -133.91591021611384 0 -133.91591021611384 244.3607273203088 0 0 0 0 10.333813734647265 -143.20169451141555 0 -143.20169451141555 281.19574003640446 0 0 0 0 -14.209359101529117 -54.850503853158443 0 -54.850503853158443 317.47738036650117 0 0 0 0 -15.496723996478067 -76.430745684808699 0 -76.430745684808699 467.53320727223763 0 0 0 0 -35.904701774328714 -75.65754339605337 0 -75.65754339605337 363.98454836486053 0 0 0 0 113.91071439181337 -27.651263581383773 0 -27.651263581383773 286.33881020404806 0 0 0 0 105.2810667936792 -168.68935919938667 0 -168.68935919938667 305.49405842322449 0 0 0 0 37.114017922860512 -62.805762560674339 0 -62.805762560674339 240.11566201366804 0 0 0 0 -20.062700628077437 -78.065801510529127 0 -78.065801510529127 270.88273996942735 0 0 0 0 -60.161899261591316 -68.90068867624359 0 -68.90068867624359 261.71099845888966 0 0 0 0 -22.679414774871475 -46.827824474429235 0 -46.827824474429235 274.6891320120194 0 0 0 0 -67.369538022081542 -55.660764462656516 0 -55.660764462656516 302.6040023799651 0 0 0 0 -34.6695163501156 -91.892389345506672 0 -91.892389345506672 259.61150652696961 0 0 0 0 1.4101314871295472 -104.64319587941281 0 -104.64319587941281 186.5229748467973 0 0 0 0 -43.767451390878705 -64.212696228030836 0 -64.212696228030836 232.97518475836114 0 0 0 0 29.605048859317321 -43.569037450419273 0 -43.569037450419273 107.50802787744396 0 0 0 0 152.75517725774262 -202.99541073030559 0 -202.99541073030559 143.74915415827127 0 0 0 0 1.5813763174792257 -16.082431545004511 0 -16.082431545004511 39.407523202484299 0 0 0 0 -10.637288004860892 0.79830431595063089 0 0.79830431595063089 12.783603165774139 0 0 0 0 -3.9246130173794924 0.91153872278358961 0 0.91153872278358961 6.1031444975323268 0 0 0 0 -4.3535334205851868 -8.6174823090796338 0 -8.6174823090796338 5.3327473949971136 0 0 0 0 -3.3741941316911834 -74.397422360445489 0 -74.397422360445489 112.97358142078883 0 0 0 0 -17.529936609120341 -6.3620026325297658 0 -6.3620026325297658 77.831501010427019 0 0 0 0 -47.901252998120981 -21.459201272286009 0 -21.459201272286009 157.03846582515689 0 0 0 0 -55.092426455528766 -25.172406380217581 0 -25.172406380217581 214.4660357809189 0 0 0 0 -39.588210461370181 -50.074533079750836 0 -50.074533079750836 163.31211533400165 0 0 0 0 -46.265532750154307 -41.58457992095282 0 -41.58457992095282 201.51550261295051 0 0 0 0 -44.487933276548574 -69.887568876853038 0 -69.887568876853038 218.75865754303959 0 0 0 0 -69.136406609275582 -48.129224222677294 0 -48.129224222677294 260.23333060223376 0 0 0 0 -68.002964448772218 -60.317233944988402 0 -60.317233944988402 282.72354908240959 0 0 0 0 -77.882722661182925 -53.187855087948265 0 -53.187855087948265 285.02043135574422 0 0 0 0 -65.280023517640075 -50.642961557525268 0 -50.642961557525268 277.06561608695483 0 0 0 0 -74.206443119102914 -50.048281971998222 0 -50.048281971998222 284.2602988462022 0 0 0 0 -69.8185146526057 -51.05795229623709 0 -51.05795229623709 278.55181270636967 0 0 0 0 -36.573718528434256 -8.9943719426810276 0 -8.9943719426810276 278.75208208322147 0 0 0 0 -67.106720589864381 -60.324135569710506 0 -60.324135569710506 317.4040347689006 0 0 0 0 -17.110208478265122 -53.44393032737571 0 -53.44393032737571 295.11623098082055 0 0 0 0 -2.6204868983195411 -119.25525613791524 0 -119.25525613791524 376.60637111702817 0 0 0 0 -11.108275876698826 -11.459649962293042 0 -11.459649962293042 336.90719137601263 0 0 0 0 -34.348488014860777 -31.911973808921175 0 -31.911973808921175 241.80947378665587 0 0 0 0 -14.583390281844913 -40.62046077667037 0 -40.62046077667037 235.42644500972528 0 0 0 0 -56.54079211512385 -41.913875977649695 0 -41.913875977649695 234.72719338716706 0 0 0 0 -26.994806826707645 -23.225993646599818 0 -23.225993646599818 168.7197937737219 0 0 0 0 -30.832571233258932 18.032996639420162 0 18.032996639420162 169.35140356663032 0 0 0 0 -23.370158778972836 -38.955501296040893 0 -38.955501296040893 56.03471660210198 0 0 0 0 -36.581196547966101 5.0838104651193134 0 5.0838104651193134 205.28615788920433 0 0 0 0 11.489701284173861 -33.643496417855204 0 -33.643496417855204 163.04474886864773 0 0 0 0 -109.57644869487967 38.484853188812849 0 38.484853188812849 103.31198526631124 0 0 0 0 45.022329398306965 35.021129861241207 0 35.021129861241207 -30.177148335184029 0 0 0 0 122.67248449476199 75.225929304786405 0 75.225929304786405 32.9078086251684 0 0 0 0 -0.34302888454723923 1.3887711115056316 0 1.3887711115056316 2.107874344756965 0 0 0 0 -226.91851619107194 -65.887958621347934 0 -65.887958621347934 82.793233936143224 0 0 0 0 -145.02855019280832 -22.884795792720979 0 -22.884795792720979 93.284569209758047 0 0 0 0 -100.13136876366093 -45.900619163163356 0 -45.900619163163356 9.3821834406699054 0 0 0 0 -44.971043940229038 4.4844614616449689 0 4.4844614616449689 21.538655957279843 0 0 0 0 7.1167038797721034 72.331397548965469 0 72.331397548965469 150.0165343648514 0 0 0 0 -1.1930019966770118 -1.3631393861526107 0 -1.3631393861526107 12.589392757145134 0 0 0 0 -31.303937380818752 13.560594620859774 0 13.560594620859774 130.60631891249795 0 0 0 0 -23.523022806351946 47.661306489520939 0 47.661306489520939 161.18352653474722 0 0 0 0 5.249826185296115 40.164015436494083 0 40.164015436494083 122.34557902290544 0 0 0 0 -0.28172286998281848 -4.8541524163446326 0 -4.8541524163446326 73.187353265274083 0 0 0 0 -6.7699275623217545 -18.038092363498436 0 -18.038092363498436 64.931971207588504 0 0 0 0 19.88734441145175 -52.346212309044859 0 -52.346212309044859 107.22813040940673 0 0 0 0 2.8416704115909055 -14.113021937493979 0 -14.113021937493979 81.306602436171715 0 0 0 0 4.8466429404885805 -17.775238218255211 0 -17.775238218255211 64.046539045297465 0 0 0 0 16.527840666543625 -42.606009629751497 0 -42.606009629751497 104.8759029613575 0 0 0 0 1.1188300477871937 -1.6200777105309783 0 -1.6200777105309783 6.013735655176248 0 0 0 0 -109.12266158696866 30.950299522046407 0 30.950299522046407 21.470563929300695 0 0 0 0 14.584358703857106 -57.893475498423868 0 -57.893475498423868 134.82273352440097 0 0 0 0 25.479680846617157 -33.914665552980296 0 -33.914665552980296 125.07452465924143 0 0 0 0 10.763808815969242 -45.069168622365396 0 -45.069168622365396 118.03943805745803 0 0 0 0 -9.6345999938157547 -37.266168756483239 0 -37.266168756483239 108.84197881523869 0 0 0 0 -6.7354177343822812 -33.690616560408671 0 -33.690616560408671 111.28110593432211 0 0 0 0 -5.0636243704109996 -19.65720859141107 0 -19.65720859141107 70.648938421647756 0 0 0 0 0.13062413346870017 -49.308401316331583 0 -49.308401316331583 123.81328598299297 0 0 0 0 -4.0834801317905658 -31.976496322822641 0 -31.976496322822641 112.81252054129436 0 0 0 0 -7.0197364519972325 -36.971659403270678 0 -36.971659403270678 105.97037197183818 0 0 0 0 -12.365894332599055 -23.892949982997379 0 -23.892949982997379 98.904921452631243 0 0 0 0 -6.1676520598593925 -30.764683348708786 0 -30.764683348708786 102.26874925906304 0 0 0 0 -16.074367196442026 -13.115915582278715 0 -13.115915582278715 68.37834712417893 0 0 0 0 -20.277978744503343 -22.710714800166897 0 -22.710714800166897 105.30748479365138 0 0 0 0 1.1810635911143628 -7.7027176372896804 0 -7.7027176372896804 11.458131685094884 0 0 0 0 3.1228517797317181 -21.825381743619801 0 -21.825381743619801 91.437538361315092 0 0 0 0 21.903437161918191 -73.659032081930491 0 -73.659032081930491 155.44653277474572 0 0 0 0 -5.3827262799823075 0.30090563221165212 0 0.30090563221165212 29.368519106639724 0 0 0 0 -4.1315029674022385 12.394368930259553 0 12.394368930259553 -0.19058618939209282 0 0 0 0 -18.721468109673879 -25.70781425194582 0 -25.70781425194582 106.56330764219456 0 0 0 0 -8.8310711094562748 -11.796777572460357 0 -11.796777572460357 66.897033332217092 0 0 0 0 -24.636338168139503 -25.574832774430888 0 -25.574832774430888 106.63732590852305 0 0 0 0 -25.887671873637807 19.704325682285411 0 19.704325682285411 23.871893272934557 0 0 0 0 -9.5272252295133057 5.2975659843161793 0 5.2975659843161793 25.360334740311373 0 0 0 0 -19.449588182498701 -26.858615132514387 0 -26.858615132514387 104.81233151978813 0 0 0 0 -18.79892339304206 -26.944436689780559 0 -26.944436689780559 103.99206661095377 0 0 0 0 -18.159899972853964 -26.135763112804852 0 -26.135763112804852 104.79926008475013 0 0 0 0 -19.427944985959584 -27.25139972506804 0 -27.25139972506804 104.64051091263536 0 0 0 0 -25.473152375408382 13.299349077322205 0 13.299349077322205 29.330784868883796 0 0 0 0 -12.589317364547242 -32.811022841240629 0 -32.811022841240629 105.52533147716895 0 0 0 0 -32.490049991232809 -15.826132226735353 0 -15.826132226735353 275.13735498007736 0 0 0 0 48.961113201054104 -117.9025134978001 0 -117.9025134978001 216.80239410407376 0 0 0 0 -20.236752759228651 -1.0821866289771265 0 -1.0821866289771265 50.69742195947876 0 0 0 0 67.281452499351872 -87.772518285491969 0 -87.772518285491969 241.86650588393968 0 0 0 0 6.0208882762413509 -59.458411036895995 0 -59.458411036895995 124.55345102847787 0 0 0 0 -7.3836603084819217 -17.197094128932804 0 -17.197094128932804 114.47625732726374 0 0 0 0 -12.863728499309218 -68.53800371667603 0 -68.53800371667603 148.90049271659518 0 0 0 0 16.345979314560282 2.0956429275829578 0 2.0956429275829578 58.151213814213406 0 0 0 0 37.824894371168043 -169.56815293950694 0 -169.56815293950694 243.65578150424699 0 0 0 0 82.702402352458193 -60.559573137063126 0 -60.559573137063126 110.63120460315258 0 0 0 0 -128.91940795158519 149.13216629642557 0 149.13216629642557 -39.796797708653685 0 0 0 0 0.66665581784601535 0.49844722161374477 0 0.49844722161374477 -0.99212016968849071 0 0 0 0 -84.190126030970987 -23.10572967218468 0 -23.10572967218468 264.73476059997847 0 0 0 0 -58.353674154383043 39.960753845589352 0 39.960753845589352 177.20081625293824 0 0 0 0 -27.231554326889338 12.208172677874245 0 12.208172677874245 72.836678777166526 0 0 0 0 -90.134598454435988 -5.3076814642772661 0 -5.3076814642772661 69.459591944672866 0 0 0 0 -27.056965279785345 55.268413346439047 0 55.268413346439047 -24.100733581304667 0 0 0 0 24.200285715704922 -97.645184440887533 0 -97.645184440887533 191.41474894103158 0 0 0 0 0.49826578885276263 -0.88833327182308608 0 -0.88833327182308608 -0.76266939244516152 0 0 0 0 3.1127394943719082 -29.008276516527985 0 -29.008276516527985 19.120858461625176 0 0 0 0 -26.113890293259828 -76.047720308997668 0 -76.047720308997668 196.37415462291392 0 0 0 0 4.0899496736060428 -26.833662029775951 0 -26.833662029775951 41.00031361693982 0 0 0 0 -68.081532712987098 -32.072742550901239 0 -32.072742550901239 153.05495218024589 0 0 0 0 -37.556530925383498 -34.280236875343689 0 -34.280236875343689 56.819001880823635 0 0 0 0 -34.481506263252868 -48.712556133978069 0 -48.712556133978069 78.385210454871412 0 0 0 0 8.5463943980230397 -69.016380171495257 0 -69.016380171495257 87.892223147762707 0 0 0 0 14.811835809125114 -99.678549696953269 0 -99.678549696953269 157.21594577369979 0 0 0 0 -10.465160411692313 -19.094786727567644 0 -19.094786727567644 23.470333405804922 0 0 0 0 -10.736090591043649 -52.671774797723629 0 -52.671774797723629 46.013000253908103 0 0 0 0 -16.449903073868086 -40.72161845114897 0 -40.72161845114897 23.408234549002373 0 0 0 0 -20.78818020086565 3.369586217050454 0 3.369586217050454 10.619731449010544 0 0 0 0 -0.54974343279536697 -34.976864774158457 0 -34.976864774158457 52.616821247871485 0 0 0 0 -0.739779280987932 -33.738708628210588 0 -33.738708628210588 52.915598029154353 0 0 0 0 -4.2010275418233505 -29.569026651799504 0 -29.569026651799504 54.681353473268246 0 0 0 0 46.392870145433335 -77.478998280261294 0 -77.478998280261294 161.42667999309197 0 0 0 0 -11.66990933707666 -99.516251780034509 0 -99.516251780034509 188.00554759400256 0 0 0 0 93.507143585109588 -77.596831448638113 0 -77.596831448638113 157.34492370371299 0 0 0 0 -0.96174037428980341 -0.65980551909710528 0 -0.65980551909710528 -1.101353638062875 0 0 0 0 10.447499458568927 -24.323830065808579 0 -24.323830065808579 56.548692839409341 0 0 0 0 -35.817766657383849 3.0744101204224279 0 3.0744101204224279 46.394881541927163 0 0 0 0 53.111373464374083 -72.246278254810022 0 -72.246278254810022 155.44674480694266 0 0 0 0 -12.196668988971869 -0.020114288421453352 0 -0.020114288421453352 22.911603011388905 0 0 0 0 6.5059696759308281 -35.935095089254901 0 -35.935095089254901 72.124068930264912 0 0 0 0 83.091038048100017 -142.65965224897809 0 -142.65965224897809 130.86328473873436 0 0 0 0 41.419920847740286 -115.42547090391599 0 -115.42547090391599 192.21607148170006 0 0 0 0 59.479348858531012 -144.46838046951598 0 -144.46838046951598 129.00674773068749 0 0 0 0 78.089067556196824 -109.08486247836845 0 -109.08486247836845 188.61732304911129 0 0 0 0 63.464036770012171 -148.81319744345819 0 -148.81319744345819 129.37209863410681 0 0 0 0 61.354122807293606 -120.38720873639249 0 -120.38720873639249 114.15255630168758 0 0 0 0 88.661741308453202 -74.861501193907316 0 -74.861501193907316 80.302815931841906 0 0 0 0 88.737403058426366 -68.059077294247686 0 -68.059077294247686 -47.742844125416013 0 0 0 0 41.347593532344035 -151.14171949929005 0 -151.14171949929005 71.700833000308194 0 0 0 0 117.8020956786022 -92.908181293445523 0 -92.908181293445523 68.246168624966231 0 0 0 0 -25.351055792972243 -19.312732084902862 0 -19.312732084902862 52.902061765645129 0 0 0 0 -0.60505530983517986 7.0632975327882264 0 7.0632975327882264 52.275426358689856 0 0 0 0 80.986511187173576 -53.536285484519908 0 -53.536285484519908 14.321918674291844 0 0 0 0 90.961465311705524 -100.2837136761882 0 -100.2837136761882 114.82816611971793 0 0 0 0 291.29940419404772 -609.86384631363308 0 -609.86384631363308 886.42724880499009 0 0 0 0 13.243144653464611 -16.461370595650706 0 -16.461370595650706 19.321966741047532 0 0 0 0 185.31117041842134 -12.98309443386006 0 -12.98309443386006 383.98500346740911 0 0 0 0 1296.2406140139628 -758.63480962078756 0 -758.63480962078756 378.61388039906313 0 0 0 0 214.13563583414361 -237.68425894249231 0 -237.68425894249231 132.12941679748474 0 0 0 0 106.11673588150234 -129.29680066856963 0 -129.29680066856963 152.8528369357864 0 0 0 0 418.52533193339877 -137.39884757544496 0 -137.39884757544496 476.61899780237582 0 0 0 0 1.1918264673956429 -0.04671513977238817 0 -0.04671513977238817 -0.20638805215037337 0 0 0 0 5.1545875441271782 -10.200161266378814 0 -10.200161266378814 20.211040359514129 0 0 0 0 -3.1457299200656053 -30.223568290777621 0 -30.223568290777621 43.949003131812788 0 0 0 0 12.493094227174424 -35.540196043166361 0 -35.540196043166361 37.680848255819001 0 0 0 0 5.4020719873454439 -22.824290001556491 0 -22.824290001556491 12.615667618619511 0 0 0 0 -8.8373342991071269 -20.348895966077094 0 -20.348895966077094 23.523632885943357 0 0 0 0 8.4277960721345835 -11.542639603322243 0 -11.542639603322243 -0.43562682637480066 0 0 0 0 -129.85364940540421 -12.657082128203911 0 -12.657082128203911 -48.165774942946882 0 0 0 0 159.33112505337203 -194.8585370417768 0 -194.8585370417768 66.330137212367845 0 0 0 0 181.20133820257433 -270.96159986616567 0 -270.96159986616567 241.44771400078025 0 0 0 0 60.648128463390208 -177.32976104194449 0 -177.32976104194449 366.69840679147455 0 0 0 0 -53.540295180031535 -89.43863278911158 0 -89.43863278911158 319.78158929610436 0 0 0 0 -41.150903596233547 -52.242715612213942 0 -52.242715612213942 188.32980540607969 0 0 0 0 69.352963329967452 -112.95763362461503 0 -112.95763362461503 217.24297488680168 0 0 0 0 -104.33680577366249 -122.5186979177015 0 -122.5186979177015 232.26245333562974 0 0 0 0 -57.239147422346832 -71.68274210405616 0 -71.68274210405616 234.67244290014787 0 0 0 0 -67.24762645651208 -96.079547349250788 0 -96.079547349250788 210.08434384380234 0 0 0 0 -86.769239280642068 -74.646054855977127 0 -74.646054855977127 278.63346884072962 0 0 0 0 -60.373263427976781 -127.8236218717102 0 -127.8236218717102 113.43790221004747 0 0 0 0 -150.06920005472057 -263.966314470621 0 -263.966314470621 -70.855262684690388 0 0 0 0 -95.134772297406016 -100.92344937752932 0 -100.92344937752932 102.36030313589436 0 0 0 0 1.6864001551111869 -69.3135766004998 0 -69.3135766004998 -119.7340292841327 0 0 0 0 -17.255882955381821 -104.81698746301845 0 -104.81698746301845 90.512455466348911 0 0 0 0 -80.149910631003877 -206.61258032126352 0 -206.61258032126352 -4.5005120464920765 0 0 0 0 -83.21937669464387 -82.067049683770165 0 -82.067049683770165 202.22826592792262 0 0 0 0 -56.826015737265152 -143.70099894788291 0 -143.70099894788291 145.06320981339377 0 0 0 0 -48.463728983049805 -58.71158727612783 0 -58.71158727612783 253.56574582464236 0 0 0 0 -36.790229452271888 -106.26740473015343 0 -106.26740473015343 215.66441051871516 0 0 0 0 -0.56313310719997389 -85.048731977440184 0 -85.048731977440184 185.62999707960989 0 0 0 0 15.60047253232915 -104.85595910586562 0 -104.85595910586562 134.89580301725073 0 0 0 0 -4.4615015163005864 -136.83917010885898 0 -136.83917010885898 176.25139283713361 0 0 0 0 18.56951717123593 -103.76789062809985 0 -103.76789062809985 206.53753375331871 0 0 0 0 49.631037661987648 -114.40645891732856 0 -114.40645891732856 153.16532406857732 0 0 0 0 11.560582911822166 -140.9403670726233 0 -140.9403670726233 210.67437328447704 0 0 0 0 11.842541482357774 -153.14380177619023 0 -153.14380177619023 124.39938478012482 0 0 0 0 1.0386426384211518 -113.88446647551973 0 -113.88446647551973 -9.4758345585669304 0 0 0 0 24.84876800148777 -107.16593025172187 0 -107.16593025172187 85.021499561065866 0 0 0 0 37.060144382892759 -128.76981683299891 0 -128.76981683299891 -16.188303422015451 0 0 0 0 -19.059188964253735 -148.76849230378252 0 -148.76849230378252 95.686061052445439 0 0 0 0 296.33315001909978 -440.58247507431224 0 -440.58247507431224 581.89401649166393 0 0 0 0 54.563507549244058 -23.776874378103244 0 -23.776874378103244 11.905115326250371 0 0 0 0 39.508746063438593 -120.71693858106664 0 -120.71693858106664 -27.990148996985226 0 0 0 0 -16.918461576265145 -244.66320396813171 0 -244.66320396813171 903.43988038331736 0 0 0 0 31.285322077919773 -467.15593352144788 0 -467.15593352144788 1370.6987649188668 0 0 0 0 -105.44308685555188 -215.22067381414672 0 -215.22067381414672 1689.9319105222294 0 0 0 0 -233.92162257633754 -670.47185065821395 0 -670.47185065821395 1636.8734724065444 0 0 0 0 31.80041938314389 -211.11317100223823 0 -211.11317100223823 -383.71722126610985 0 0 0 0 -77.147500361404127 -340.188252371212 0 -340.188252371212 2018.382503441826 0 0 0 0 34.888695625144194 -16.795255986472412 0 -16.795255986472412 3.6936857027755252 0 0 0 0 -113.51826798559887 -476.05359097507608 0 -476.05359097507608 1940.8797212741156 0 0 0 0 243.38411208742582 -299.11630652568419 0 -299.11630652568419 1846.5434179306467 0 0 0 0 -65.645582620445566 -992.95447714506008 0 -992.95447714506008 3846.7225539106385 0 0 0 0 417.37639007303005 -771.61395193315911 0 -771.61395193315911 2284.6626814678675 0 0 0 0 220.6959738502124 -110.21322259781437 0 -110.21322259781437 2430.979253558151 0 0 0 0 613.1702274025929 -225.19691682951816 0 -225.19691682951816 -832.5607879809977 0 0 0 0 12.209002396219105 -5.3729687457263395 0 -5.3729687457263395 3.0920467449930236 0 0 0 0 293.6926706819113 -171.56092284633996 0 -171.56092284633996 868.85755009563582 0 0 0 0 553.07657275066231 -417.97177996823302 0 -417.97177996823302 1034.8207479788398 0 0 0 0 266.60970273173643 -574.40620192997812 0 -574.40620192997812 1662.8454656386311 0 0 0 0 556.88525449472581 -443.79947378234647 0 -443.79947378234647 1542.5146593842946 0 0 0 0 539.44125882009757 -294.77155588613823 0 -294.77155588613823 1145.592022608238 0 0 0 0 1154.1107954665513 -647.81694168307149 0 -647.81694168307149 1566.1693761577026 0 0 0 0 205.61762028517296 -359.01152488882508 0 -359.01152488882508 1777.926536779778 0 0 0 0 163.86663418897797 -522.86179024930698 0 -522.86179024930698 1742.9583707962302 0 0 0 0 -184.04500871536038 -354.85866583194729 0 -354.85866583194729 1693.2349185910716 0 0 0 0 231.07054026025889 -438.59224678229111 0 -438.59224678229111 1267.3727238816937 0 0 0 0 397.68973242253287 -310.93716933938776 0 -310.93716933938776 719.79015006124246 0 0 0 0 -35.061882453861472 -280.77763493093516 0 -280.77763493093516 1237.7378517904071 0 0 0 0 -29.232309444728344 -174.35947403488535 0 -174.35947403488535 838.75764074170729 0 0 0 0 -320.99464501819966 -283.90258186084975 0 -283.90258186084975 1515.8317198822278 0 0 0 0 -414.09943563269917 -297.08432573141181 0 -297.08432573141181 1513.9978691304568 0 0 0 0 -89.858117121205623 -510.22548489404107 0 -510.22548489404107 1792.852037597142 0 0 0 0 -214.09909916377899 -542.92730547913834 0 -542.92730547913834 1784.6984577393887 0 0 0 0 -163.20027097683896 -832.3849323231243 0 -832.3849323231243 2004.7312471408659 0 0 0 0 6.9905078881083682 -800.4392335343 0 -800.4392335343 1372.5542468112571 0 0 0 0 -476.0384578412195 -580.56677785341162 0 -580.56677785341162 2196.3855614036365 0 0 0 0 -722.5591117737622 -162.65777371050353 0 -162.65777371050353 1831.267315905483 0 0 0 0 -305.56841806983994 -211.0772409108431 0 -211.0772409108431 1150.9536503496784 0 0 0 0 -695.15121394689868 -95.7063771068606 0 -95.7063771068606 1404.9272944278346 0 0 0 0 -671.26944569951957 36.79642193132895 0 36.79642193132895 1391.2884803633788 0 0 0 0 -471.75698393083985 147.77502946611639 0 147.77502946611639 490.42394452533335 0 0 0 0 -500.22572515600768 77.099462908907299 0 77.099462908907299 974.05618777171185 0 0 0 0 -247.2979517622407 -178.16450628502207 0 -178.16450628502207 93.186641367217817 0 0 0 0 -498.05972331080011 -358.86748299652754 0 -358.86748299652754 -104.28293115014094 0 0 0 0 -656.593423602244 -376.11774150883866 0 -376.11774150883866 -154.14386646256753 0 0 0 0 -493.66244544299479 -430.42547024102532 0 -430.42547024102532 -19.673121328956768 0 0 0 0 -297.48368153153933 -287.93418618199939 0 -287.93418618199939 -80.282438920577988 0 0 0 0 -276.67390056144905 -291.69260406755348 0 -291.69260406755348 -61.418097516119815 0 0 0 0 -555.82694359460311 -266.32222584228475 0 -266.32222584228475 195.44990806515852 0 0 0 0 -154.95572093906776 -305.09076403745712 0 -305.09076403745712 317.76517111064459 0 0 0 0 -259.60550330769297 -161.36491003687388 0 -161.36491003687388 140.53353834422887 0 0 0 0 -76.211995603101059 -235.07617634364942 0 -235.07617634364942 -70.527145819884026 0 0 0 0 -246.66845216934234 -367.33916841268365 0 -367.33916841268365 34.248497096843494 0 0 0 0 -81.563288051744166 -268.42699594401347 0 -268.42699594401347 139.59081942071862 0 0 0 0 97.831716165474063 -174.78974725630906 0 -174.78974725630906 96.325355151551776 0 0 0 0 -273.8785446031743 -247.05093655563542 0 -247.05093655563542 587.59316763198876 0 0 0 0 -100.0470562394803 -62.630987176118651 0 -62.630987176118651 389.48585173294668 0 0 0 0 -77.38291792588916 -244.80173088521406 0 -244.80173088521406 836.03352297133824 0 0 0 0 123.79791704496347 -184.70761705880795 0 -184.70761705880795 678.80817657259468 0 0 0 0 161.01893294328056 -143.900427725388 0 -143.900427725388 389.34766882310214 0 0 0 0 85.47711172012896 -259.31007460017281 0 -259.31007460017281 386.35268651130355 0 0 0 0 201.20253886311366 -129.66488073893197 0 -129.66488073893197 241.20115496371 0 0 0 0 265.97078716792385 -267.93187936863251 0 -267.93187936863251 109.71297027400578 0 0 0 0 286.16786158169452 -131.03179448939045 0 -131.03179448939045 206.48118972949669 0 0 0 0 352.42683006782863 -236.40083102266362 0 -236.40083102266362 265.90496243552479 0 0 0 0 339.56867652987273 -111.7599892156345 0 -111.7599892156345 452.10086151078576 0 0 0 0 325.81139462287865 -285.18748431017593 0 -285.18748431017593 389.41091176153714 0 0 0 0 486.65830119185739 -258.24280547047238 0 -258.24280547047238 546.95850571726623 0 0 0 0 439.26239280958225 -1178.6747079841662 0 -1178.6747079841662 1547.2842901660333 0 0 0 0 765.94606202119166 -1531.4795030061923 0 -1531.4795030061923 1822.4697777101974 0 0 0 0 -5.1636388717717026 13.516670776758659 0 13.516670776758659 37.068069664940651 0 0 0 0 262.09840600664666 167.68029337918415 0 167.68029337918415 120.38755732960999 0 0 0 0 795.70804070321083 -1476.2069319079164 0 -1476.2069319079164 1692.6851280462179 0 0 0 0 213.00542273316751 -532.26312040395715 0 -532.26312040395715 321.16314985833014 0 0 0 0 0.24263003698020214 -0.63810954074615722 0 -0.63810954074615722 4.5700311116934245 0 0 0 0 318.25755261978702 -496.17232370613783 0 -496.17232370613783 320.31903919138131 0 0 0 0 135.54451285558207 -483.31928159305971 0 -483.31928159305971 365.66195604641689 0 0 0 0 -8.7516980001942954 20.426552209919748 0 20.426552209919748 44.951517932874367 0 0 0 0 -21.404151743154216 -19.666327416358399 0 -19.666327416358399 235.36618264307981 0 0 0 0 141.69831071343287 -201.87404391770542 0 -201.87404391770542 1495.776721329159 0 0 0 0 153.05306810697675 -869.44908319389287 0 -869.44908319389287 1572.9122444632667 0 0 0 0 917.73460591544426 37.334326241645613 0 37.334326241645613 2463.1064815327991 0 0 0 0 1738.2042969859931 -1866.5267884396671 0 -1866.5267884396671 2256.7467400736423 0 0 0 0 53.373584351553291 -937.30974796532973 0 -937.30974796532973 1762.03936413466 0 0 0 0 1.9341268544032519 -7.6968508648008616 0 -7.6968508648008616 22.586513795920439 0 0 0 0 -1102.7846597018033 446.65530308310554 0 446.65530308310554 1825.3950982247552 0 0 0 0 -1110.0994235369017 -531.09691418143484 0 -531.09691418143484 3546.8057429300497 0 0 0 0 1869.8517906945794 -2071.3722080452499 0 -2071.3722080452499 1481.9207623309558 0 0 0 0 211.26767821990234 -1187.6102521800785 0 -1187.6102521800785 1976.0127779560135 0 0 0 0 328.94717356726869 -1662.6429755505305 0 -1662.6429755505305 3596.9044715105847 0 0 0 0 -4.7166778200031558 421.17224103181798 0 421.17224103181798 380.41172550389433 0 0 0 0 765.04911314770288 -1921.7292233793341 0 -1921.7292233793341 1949.9488038408499 0 0 0 0 1062.364705670552 -1126.7439197790782 0 -1126.7439197790782 458.5914134317718 0 0 0 0 -460.71675331872439 179.91367252682539 0 179.91367252682539 -478.87238018857897 0 0 0 0 -1124.594276709704 -704.12002669983485 0 -704.12002669983485 83.509100586743443 0 0 0 0 2.7526251274578319 -16.031686997198662 0 -16.031686997198662 53.399928111065435 0 0 0 0 -1500.0545791962504 -542.41972559260466 0 -542.41972559260466 258.31601073533238 0 0 0 0 -261.8495098023771 -288.70689623621365 0 -288.70689623621365 159.3974209825974 0 0 0 0 -1105.8132020889198 -158.95844809868868 0 -158.95844809868868 -4.6915315635415027 0 0 0 0 -237.84794230684838 -1083.8050603483789 0 -1083.8050603483789 -222.04111147328513 0 0 0 0 2.2627122168111216 -2.4324038808196065 0 -2.4324038808196065 -1.4381830422300936 0 0 0 0 -200.30928345943153 -1269.4822277485546 0 -1269.4822277485546 504.68743517337134 0 0 0 0 -497.85219166396746 28.888995380679262 0 28.888995380679262 -710.64906074928149 0 0 0 0 -107.00103815359307 -209.93518867816601 0 -209.93518867816601 64.681077243480104 0 0 0 0 458.06186338308544 -679.90433160896646 0 -679.90433160896646 350.2183649448998 0 0 0 0 444.2404823087486 -701.9268453333616 0 -701.9268453333616 1259.5459763229883 0 0 0 0 203.49120642191883 -1215.0576375505916 0 -1215.0576375505916 950.93246725885547 0 0 0 0 -22.367855294812671 -920.66766362894123 0 -920.66766362894123 1176.8176002596156 0 0 0 0 363.34967515592143 -987.65381606828305 0 -987.65381606828305 1268.6836013317952 0 0 0 0 474.94975260653405 -1480.7943601597235 0 -1480.7943601597235 1475.4246637990873 0 0 0 0 403.74644396542044 -1176.8398606028495 0 -1176.8398606028495 1007.1384734519816 0 0 0 0 1029.0767802532919 -1232.4246762328657 0 -1232.4246762328657 1884.2391007820552 0 0 0 0 782.44169290936952 -1523.4077238394093 0 -1523.4077238394093 1583.0543372092652 0 0 0 0 488.42791467506322 -1366.3088541339239 0 -1366.3088541339239 1758.3063023367285 0 0 0 0 618.95563920532368 -1038.1936984799686 0 -1038.1936984799686 1789.3772062365897 0 0 0 0 988.89034504159281 -1144.3294883901253 0 -1144.3294883901253 1452.4549491968501 0 0 0 0 610.54159224471186 -1189.6476202084086 0 -1189.6476202084086 1089.948786485038 0 0 0 0 731.17244723756721 -657.01491202746547 0 -657.01491202746547 839.57756207764032 0 0 0 0 661.67105163999258 -587.98739330029639 0 -587.98739330029639 1666.5437594452997 0 0 0 0 1017.6381892377722 -751.02401021928381 0 -751.02401021928381 1506.7650970880786 0 0 0 0 1017.5557822542414 -649.53474741798709 0 -649.53474741798709 1692.450409917481 0 0 0 0 840.48377188496124 -1140.9176027503709 0 -1140.9176027503709 2476.5452497048827 0 0 0 0 927.13024511028016 -111.11677924238029 0 -111.11677924238029 1906.3504487516475 0 0 0 0 760.41073585791673 -1065.2355625888231 0 -1065.2355625888231 3406.4939256721955 0 0 0 0 -287.80526916098097 3.7984836686664494 0 3.7984836686664494 565.03449669254769 0 0 0 0 -1.0109859345773167 4.2352292150715698 0 4.2352292150715698 14.686972377006668 0 0 0 0 -760.74866778550768 578.77657569763687 0 578.77657569763687 1070.465661417591 0 0 0 0 -59.720680781828378 1119.1537408400691 0 1119.1537408400691 586.41049080088851 0 0 0 0 1790.4020891154851 -1510.5174609376336 0 -1510.5174609376336 1716.6207385263115 0 0 0 0 1552.7558358754286 -2293.7741493533249 0 -2293.7741493533249 2910.0653475092186 0 0 0 0 -0.47867618338955165 1.3383297593727406 0 1.3383297593727406 6.4595877101683072 0 0 0 0 213.17094115613236 -906.27570518325956 0 -906.27570518325956 -362.63465926672325 0 0 0 0 100.98199818195008 -102.18473347934923 0 -102.18473347934923 360.14482041113661 0 0 0 0 -624.76172881519187 33.514172944625898 0 33.514172944625898 601.42041179072112 0 0 0 0 -740.76421390210328 319.50297461511491 0 319.50297461511491 242.97989579802379 0 0 0 0 -744.75272774622863 245.52303348733403 0 245.52303348733403 381.64164068145328 0 0 0 0 -343.98668574657495 10.777137107230374 0 10.777137107230374 170.70328399723803 0 0 0 0 -439.85052307513297 235.45518488422749 0 235.45518488422749 -253.0086606546538 0 0 0 0 -358.77300512116085 -9.556852150017221 0 -9.556852150017221 262.12730989590636 0 0 0 0 -198.88846747225034 -145.13031618454261 0 -145.13031618454261 83.632286568383279 0 0 0 0 -325.93137209989618 -209.09434663403954 0 -209.09434663403954 158.19579010934831 0 0 0 0 -328.02756270576174 -208.66326602606568 0 -208.66326602606568 170.55613685987191 0 0 0 0 -147.45085247990028 -238.9325949846243 0 -238.9325949846243 -218.16156884408247 0 0 0 0 13.366370809777436 114.21419167983549 0 114.21419167983549 201.09833774750587 0 0 0 0 13.485906490504021 -51.627870021817216 0 -51.627870021817216 264.1246936325515 0 0 0 0 -73.282516125366328 -166.74002457871393 0 -166.74002457871393 314.14553531704587 0 0 0 0 -172.69577892773214 -64.57943375557079 0 -64.57943375557079 209.16911086092114 0 0 0 0 -28.195339260509627 -81.888383666882874 0 -81.888383666882874 622.10964951657661 0 0 0 0 -193.84351416670833 55.289420289394911 0 55.289420289394911 526.30056596267968 0 0 0 0 -200.92289484737012 -26.103197102987906 0 -26.103197102987906 233.87472287809214 0 0 0 0 -0.17194905272049255 -174.13331309231216 0 -174.13331309231216 728.12698174329125 0 0 0 0 47.049061308710179 135.55886014885073 0 135.55886014885073 764.72900472806214 0 0 0 0 -71.592687350916094 47.207562725670869 0 47.207562725670869 1124.6780927573818 0 0 0 0 -247.5291958982607 239.93728622419439 0 239.93728622419439 1056.5928335277422 0 0 0 0 579.24375675750071 -749.41663414998766 0 -749.41663414998766 1945.4294846279263 0 0 0 0 -507.40069539042588 -93.257066910264257 0 -93.257066910264257 2315.3737700170022 0 0 0 0 -134.39993054263527 -66.012606283093191 0 -66.012606283093191 1702.946212512732 0 0 0 0 -54.992389093230486 19.842476420861203 0 19.842476420861203 1181.7156537244955 0 0 0 0 -55.861154536258255 -328.11021188224549 0 -328.11021188224549 1187.0222741024154 0 0 0 0 125.50289846311057 -114.09684992179245 0 -114.09684992179245 1027.0087283410212 0 0 0 0 15.103500778707314 -300.2412881229593 0 -300.2412881229593 744.79996939377452 0 0 0 0 121.43070507930474 -75.397571647597943 0 -75.397571647597943 1011.6506295863219 0 0 0 0 -38.161723149525869 -158.69915059128107 0 -158.69915059128107 1227.9639050727965 0 0 0 0 54.601933163787976 -138.86487297341955 0 -138.86487297341955 834.41802727717732 0 0 0 0 -155.15853880213268 -266.54548273999535 0 -266.54548273999535 1157.6240521381987 0 0 0 0 -0.095128920294584057 -244.44808126100179 0 -244.44808126100179 869.21674583532149 0 0 0 0 -171.85643355623489 44.186273221705051 0 44.186273221705051 595.45510985419241 0 0 0 0 -163.25551396748443 -264.43785745487503 0 -264.43785745487503 762.19413639322738 0 0 0 0 -79.294339949074029 35.539366788689222 0 35.539366788689222 -4.5700680387817556 0 0 0 0 -0.8067453463252483 -2.2500446123156621 0 -2.2500446123156621 0.62980283985055507 0 0 0 0 13.458168183754651 -6.5754544351839286 0 -6.5754544351839286 450.61245149294336 0 0 0 0 -0.10823282369709834 -144.84448945600889 0 -144.84448945600889 312.76607688844524 0 0 0 0 -91.367947003046183 5.2311520901566837 0 5.2311520901566837 67.175017247602227 0 0 0 0 -17.540780827479693 1.1732556172864861 0 1.1732556172864861 882.67947218572408 0 0 0 0 348.8652823832557 -147.09553428856634 0 -147.09553428856634 18.141830479857163 0 0 0 0 -0.42502109838351521 -1.3496734254215426 0 -1.3496734254215426 3.5033176938661654 0 0 0 0 244.77056515171944 -312.2539185682399 0 -312.2539185682399 334.31704899424221 0 0 0 0 91.494329347830671 -118.2660202164152 0 -118.2660202164152 54.201375039236154 0 0 0 0 167.54868258970282 44.064893604858298 0 44.064893604858298 25.617620907913079 0 0 0 0 0.18558317401974556 -3.0821722776480271 0 -3.0821722776480271 -1.4544220077870875 0 0 0 0 0.83154790248950339 -4.2436429924964401 0 -4.2436429924964401 7.7494426220719106 0 0 0 0 -5.2742298771745482 -26.518012398733845 0 -26.518012398733845 -40.96658883044438 0 0 0 0 40.082200050679603 -42.781039538618643 0 -42.781039538618643 -35.440953713536146 0 0 0 0 11.969601861322985 47.879947147903295 0 47.879947147903295 -216.74890793010127 0 0 0 0 -33.798257522475765 -54.793740135435655 0 -54.793740135435655 51.279357848014115 0 0 0 0 -54.947800146269785 -13.024843996798154 0 -13.024843996798154 18.082583942676138 0 0 0 0 -61.543525313553815 -20.164775277538865 0 -20.164775277538865 13.884062825993169 0 0 0 0 -35.356223581800343 -38.535540887984098 0 -38.535540887984098 -0.39384067044738913 0 0 0 0 0.020760986872398628 -47.991289145622432 0 -47.991289145622432 3.6002148413972463 0 0 0 0 -26.919400105685718 -24.794667524674878 0 -24.794667524674878 -8.3893406441420666 0 0 0 0 1.2000825522268417 -2.4346563805895443 0 -2.4346563805895443 4.6719897671709418 0 0 0 0 -30.489897284224526 -32.638742569313763 0 -32.638742569313763 -61.104171693310491 0 0 0 0 -130.67469077729345 -63.874228941014735 0 -63.874228941014735 -4.5276661439052077 0 0 0 0 -150.95803876160221 -118.43770551851776 0 -118.43770551851776 -73.213245850653038 0 0 0 0 0.54436868190308552 -1.315068618121785 0 -1.315068618121785 1.7773052117457837 0 0 0 0 -18.255279243848612 -14.964231411733635 0 -14.964231411733635 -8.3392836423299741 0 0 0 0 -0.039952628642656446 -19.248579816587682 0 -19.248579816587682 -14.577048649531207 0 0 0 0 158.7306546732284 -137.15974952557735 0 -137.15974952557735 -113.23689352549263 0 0 0 0 -103.5158785135236 -133.40075681856979 0 -133.40075681856979 -89.5302586369653 0 0 0 0 -245.01055608434262 -182.2825952397252 0 -182.2825952397252 -38.575425852395711 0 0 0 0 -188.61961885414235 -82.714999305520905 0 -82.714999305520905 -13.389942402875022 0 0 0 0 0.40467208929171727 -0.58008191314505098 0 -0.58008191314505098 0.83914670636096389 0 0 0 0 233.0870441545444 25.659664855025767 0 25.659664855025767 -29.870264967830735 0 0 0 0 -47.863143422372104 -128.90312426710443 0 -128.90312426710443 -32.629403774553793 0 0 0 0 -8.5775527402020089 -75.076137734446093 0 -75.076137734446093 15.802927614502551 0 0 0 0 4.5648506953752985 -200.8822890043084 0 -200.8822890043084 -120.85164300772158 0 0 0 0 -124.36591818362831 -95.518811325528077 0 -95.518811325528077 -33.633871328750502 0 0 0 0 -119.07163850830466 -117.89352017929923 0 -117.89352017929923 -206.3846611512854 0 0 0 0 -245.00168487684095 -138.28076028301439 0 -138.28076028301439 19.948600808274932 0 0 0 0 -144.37286927237164 -78.109530565838213 0 -78.109530565838213 11.351832064499831 0 0 0 0 -140.9199873117459 -66.472001366048062 0 -66.472001366048062 35.904381356667727 0 0 0 0 -66.785541604435821 -72.0157946881518 0 -72.0157946881518 36.246151691055275 0 0 0 0 -6.2283284993739159 4.5377165799951058 0 4.5377165799951058 41.923428534347437 0 0 0 0 -2.6778936061839751 -4.0521634354275307 0 -4.0521634354275307 27.54408627566886 0 0 0 0 -33.649966872963887 0.97976583849231247 0 0.97976583849231247 28.565789814689197 0 0 0 0 -102.49649765377853 -13.581128870100656 0 -13.581128870100656 38.582481623525382 0 0 0 0 -160.19471000055603 0.67186005001440208 0 0.67186005001440208 45.035354758059839 0 0 0 0 -36.023515459967726 -4.347518969727389 0 -4.347518969727389 54.515627649147063 0 0 0 0 -44.755931161433097 -17.195159664253879 0 -17.195159664253879 39.939683424410759 0 0 0 0 -45.143684758365822 -20.556684766001126 0 -20.556684766001126 28.095376707613468 0 0 0 0 -44.807187912021149 -17.763911224355979 0 -17.763911224355979 40.264586426921596 0 0 0 0 -44.565464117163998 -26.638490001198079 0 -26.638490001198079 59.444461241917452 0 0 0 0 -14.693854736953654 -8.1636771377743571 0 -8.1636771377743571 29.928283790999558 0 0 0 0 -10.293631820053598 -8.762687621757081 0 -8.762687621757081 35.047618491802439 0 0 0 0 -45.864079304220922 -28.232610585677321 0 -28.232610585677321 69.666942911106162 0 0 0 0 -60.732091105334241 10.163404232877838 0 10.163404232877838 29.310027430852642 0 0 0 0 -9.0255870211289437 -9.5102198790443424 0 -9.5102198790443424 23.949968754936602 0 0 0 0 -39.578196516812369 -25.386592698007007 0 -25.386592698007007 45.389129660470644 0 0 0 0 -56.215148571306599 -10.076427281368524 0 -10.076427281368524 3.4821906317883986 0 0 0 0 -20.18665877772537 -22.280702518313774 0 -22.280702518313774 32.915622534243084 0 0 0 0 -3.4911584653057526 -2.4179946182624654 0 -2.4179946182624654 28.939118016901261 0 0 0 0 -1.6056929938904272 -1.0378490827171163 0 -1.0378490827171163 5.7852711084736441 0 0 0 0 -232.43567285581702 49.968179375027375 0 49.968179375027375 46.353536292954232 0 0 0 0 -238.68863623836478 -233.19979747277102 0 -233.19979747277102 -181.01982135591606 0 0 0 0 -0.65654266537110217 -4.2848964165578742 0 -4.2848964165578742 3.1550398528349888 0 0 0 0 -209.25250564001385 -159.14582930324832 0 -159.14582930324832 -39.776712861581473 0 0 0 0 -16.120631770806085 -54.457042091504263 0 -54.457042091504263 -44.386407531128498 0 0 0 0 -7.0122502829610518 -15.324776765457898 0 -15.324776765457898 31.744627551981125 0 0 0 0 -20.30344218418249 -15.916510147002214 0 -15.916510147002214 30.39309230934391 0 0 0 0 -16.567033040141268 -21.389676130445878 0 -21.389676130445878 26.765546061767964 0 0 0 0 9.8614267062457657 -21.058069687125681 0 -21.058069687125681 -1.498110070329858 0 0 0 0 -295.8625432525314 0.36182439086405793 0 0.36182439086405793 220.39322156092385 0 0 0 0 -0.85213107997825333 -1.751918993437485 0 -1.751918993437485 19.623977418177162 0 0 0 0 10.454274958469796 -16.106600728260673 0 -16.106600728260673 24.190118161190185 0 0 0 0 -272.90361454256436 -245.46039682802075 0 -245.46039682802075 352.68770713239792 0 0 0 0 -6.1160979729174869 46.49524044811551 0 46.49524044811551 -26.032500792356586 0 0 0 0 153.39742796867222 -78.902393963115173 0 -78.902393963115173 14.588287496357225 0 0 0 0 -284.84168344201771 -130.03455873805069 0 -130.03455873805069 -48.62538748555744 0 0 0 0 -0.32647697109576068 -0.043695669312850072 0 -0.043695669312850072 1.6753020716534479 0 0 0 0 -447.26170850917947 -162.14338401904752 0 -162.14338401904752 154.49198481440544 0 0 0 0 -160.61489901511595 -219.86009026833926 0 -219.86009026833926 182.68137936380299 0 0 0 0 -201.96643918856626 -152.13240690288512 0 -152.13240690288512 79.328181948178099 0 0 0 0 -41.447759894268984 -116.32570385965664 0 -116.32570385965664 64.41054061910836 0 0 0 0 -269.87950096445002 -179.00869038994279 0 -179.00869038994279 103.28861937971669 0 0 0 0 -157.8232519700814 -148.2083871585055 0 -148.2083871585055 89.631552053215273 0 0 0 0 19.760610760876716 -212.22657508576231 0 -212.22657508576231 207.892119793858 0 0 0 0 99.95466380576454 -72.227739718713565 0 -72.227739718713565 110.54092854336341 0 0 0 0 19.557030004012177 -164.43127882131375 0 -164.43127882131375 74.663246370113484 0 0 0 0 0.40328456169272542 -0.69860395878538384 0 -0.69860395878538384 -1.7393996947319863 0 0 0 0 9.5362602751617942 -203.85628086293946 0 -203.85628086293946 -70.813232744520064 0 0 0 0 -131.29464922139596 -72.824766328776604 0 -72.824766328776604 -187.20111791101226 0 0 0 0 -286.28809627215333 -169.78883258467613 0 -169.78883258467613 -22.908546895720065 0 0 0 0 -152.66851650558601 -146.55141092147096 0 -146.55141092147096 -30.339227012445917 0 0 0 0 154.86544884297837 -108.75220112710304 0 -108.75220112710304 85.38161149384905 0 0 0 0 -34.911149353412839 17.901865462208661 0 17.901865462208661 55.245003772792188 0 0 0 0 -5.5948007000183679 -98.839257271369661 0 -98.839257271369661 145.23679957677814 0 0 0 0 -62.273520047911006 -74.663764104909205 0 -74.663764104909205 167.003433398786 0 0 0 0 -104.1750151767119 -166.50904512990019 0 -166.50904512990019 289.31165558853172 0 0 0 0 -0.12385980849285261 -89.106449727868494 0 -89.106449727868494 170.93390678412106 0 0 0 0 -21.824816410112817 -157.96062568484922 0 -157.96062568484922 282.43617732795246 0 0 0 0 202.89185962195734 -142.50540493206609 0 -142.50540493206609 106.72502733214787 0 0 0 0 106.48960360426645 -177.98941157636364 0 -177.98941157636364 243.21158832536457 0 0 0 0 300.17555234318388 -157.74236117849068 0 -157.74236117849068 54.973711258558978 0 0 0 0 153.26618047447846 -17.036027766251209 0 -17.036027766251209 12.679803190856546 0 0 0 0 1.68087986007186 -7.4372450504929901 0 -7.4372450504929901 13.719936589390358 0 0 0 0 -444.74308320541149 -134.84808833364605 0 -134.84808833364605 213.51468849824596 0 0 0 0 -15.947489189063617 -112.9260739539186 0 -112.9260739539186 -27.384458181360969 0 0 0 0 178.02883144999942 269.94570315671626 0 269.94570315671626 204.83484742673318 0 0 0 0 215.82144739958221 -4.0305608152993955 0 -4.0305608152993955 -148.51048815745889 0 0 0 0 -250.42097899503233 -73.433899386473058 0 -73.433899386473058 1407.2093747961189 0 0 0 0 962.91445211388373 -1100.9997977174708 0 -1100.9997977174708 929.0474878915702 0 0 0 0 1.8624862875290065 -5.6767723810221256 0 -5.6767723810221256 7.0921451767245003 0 0 0 0 221.96330093142751 -1291.7706054890805 0 -1291.7706054890805 2374.6230245161678 0 0 0 0 386.76340116437677 -722.13454536365316 0 -722.13454536365316 668.84035718516679 0 0 0 0 243.93553144104226 -387.69893849422806 0 -387.69893849422806 1051.1838680090586 0 0 0 0 196.23352225281542 0.22345703185919774 0 0.22345703185919774 22.934850089674001 0 0 0 0 -94.502219658473223 -113.11755601833465 0 -113.11755601833465 138.44025841079201 0 0 0 0 173.58969247919094 112.17408625274948 0 112.17408625274948 53.962070213652623 0 0 0 0 -216.15310040428994 -235.76447993664988 0 -235.76447993664988 -203.31726766544671 0 0 0 0 -156.77408130407093 34.861860199898729 0 34.861860199898729 -148.32979463445372 0 0 0 0 -10.372253589332104 -187.58965833361799 0 -187.58965833361799 -203.72433917415765 0 0 0 0 -70.073695382496226 -77.461646390162059 0 -77.461646390162059 -243.09833454534419 0 0 0 0 50.503812908975306 -141.62414773216005 0 -141.62414773216005 -305.5246449084334 0 0 0 0 9.4645021526221171 -50.246607078405304 0 -50.246607078405304 -35.914759154657077 0 0 0 0 -3.7668644562181726 -106.7367270957584 0 -106.7367270957584 1.1069182153332804 0 0 0 0 -11.267376700958266 -140.27862778876261 0 -140.27862778876261 -88.281798151379917 0 0 0 0 -174.44273943918597 -71.392202903371071 0 -71.392202903371071 34.652374759309168 0 0 0 0 -21.529923730671726 -27.996301007293368 0 -27.996301007293368 17.411782596745979 0 0 0 0 11.876613895391593 -1.6296723675788982 0 -1.6296723675788982 6.4415164655257087 0 0 0 0 22.542531716123193 -24.454192528332449 0 -24.454192528332449 21.332708672011151 0 0 0 0 106.40623916327604 112.01856713544839 0 112.01856713544839 443.90823632805768 0 0 0 0 -10.956695647430024 -203.54763758724221 0 -203.54763758724221 -255.85366717175509 0 0 0 0 -17.554888909439796 -28.388008215481932 0 -28.388008215481932 72.319964687285392 0 0 0 0 105.87839017667648 113.34142723741024 0 113.34142723741024 442.35367387413862 0 0 0 0 -51.036818112152105 -189.72729859220271 0 -189.72729859220271 -210.3333102090146 0 0 0 0 -66.254426633830008 -157.22037615112276 0 -157.22037615112276 -197.97073991392972 0 0 0 0 2.6725983493670356 -178.00166257790261 0 -178.00166257790261 -226.5469867550346 0 0 0 0 -3.8488802803331055 -130.91242760110617 0 -130.91242760110617 -191.8452220208892 0 0 0 0 -25.941408036545909 -97.257958293288539 0 -97.257958293288539 -211.65184294625215 0 0 0 0 36.876099259694456 -111.04156829027488 0 -111.04156829027488 -210.844557295301 0 0 0 0 5.3474144731662818 -163.00302820673642 0 -163.00302820673642 -138.33023741736542 0 0 0 0 21.385628714269842 -58.702105983058573 0 -58.702105983058573 -15.752672858528967 0 0 0 0 7.9498721729414683 -152.56998434236539 0 -152.56998434236539 27.084864084550645 0 0 0 0 7.7265170719983871 -95.89234552482958 0 -95.89234552482958 -77.437500957887096 0 0 0 0 -113.88105095504579 -146.04014353418097 0 -146.04014353418097 -75.539258622913621 0 0 0 0 -10.482809370587347 -114.61541897835559 0 -114.61541897835559 -256.15666016395579 0 0 0 0 -19.170591000489367 -128.7369520152206 0 -128.7369520152206 -134.45611083289259 0 0 0 0 20.548265860746142 -157.51757732292572 0 -157.51757732292572 -115.13025451233261 0 0 0 0 -52.597388941219833 -115.66717567275555 0 -115.66717567275555 43.780714803746378 0 0 0 0 -13.477019756017398 -185.16229990456304 0 -185.16229990456304 -68.188256870576879 0 0 0 0 -27.254223978556183 -150.34158017230766 0 -150.34158017230766 194.30267327025649 0 0 0 0 -23.750184694566997 -81.275971046663471 0 -81.275971046663471 31.328187128503487 0 0 0 0 11.202347918871965 -98.821251982313697 0 -98.821251982313697 27.515708109036495 0 0 0 0 -0.64306371600468992 -151.4927414295089 0 -151.4927414295089 256.29139299718372 0 0 0 0 49.922168979010166 -80.772106376691227 0 -80.772106376691227 28.631091242545381 0 0 0 0 20.114353013075743 -97.596372313830216 0 -97.596372313830216 219.32777553072083 0 0 0 0 217.04393520670055 -159.58631255030195 0 -159.58631255030195 238.74394826068601 0 0 0 0 -134.66521271809688 -44.826098533936602 0 -44.826098533936602 606.37081010362817 0 0 0 0 13.368001904764242 -211.6160732249009 0 -211.6160732249009 532.71045027340006 0 0 0 0 -45.540709928296565 -82.344112784972822 0 -82.344112784972822 256.00585133527733 0 0 0 0 -63.007443981347024 -53.017608466234378 0 -53.017608466234378 447.12821214468568 0 0 0 0 -137.86181608723564 7.1349769435837516 0 7.1349769435837516 454.63207476776915 0 0 0 0 29.725459121989843 -33.26559070649455 0 -33.26559070649455 226.51822559579159 0 0 0 0 -68.052637980941654 -51.503507241704938 0 -51.503507241704938 210.42665134626441 0 0 0 0 -72.220373168926017 -110.50192007717487 0 -110.50192007717487 273.51253111847109 0 0 0 0 -0.41277833194544655 -45.473597646201597 0 -45.473597646201597 225.63986949546234 0 0 0 0 74.291900180603989 -94.999290004285285 0 -94.999290004285285 3.5813338806074171 0 0 0 0 169.83369307117709 32.821238786856611 0 32.821238786856611 242.09653679640178 0 0 0 0 -96.753498090907669 -9.4406823997487663 0 -9.4406823997487663 628.85961897928792 0 0 0 0 -108.08708265390123 -174.26912346826066 0 -174.26912346826066 453.05136535816564 0 0 0 0 -106.15456024916625 -91.823336459172424 0 -91.823336459172424 309.94090734336351 0 0 0 0 -173.95264446114743 -251.91195804280142 0 -251.91195804280142 398.85565711485833 0 0 0 0 -131.73458942354046 -172.5471022545089 0 -172.5471022545089 242.40044930015574 0 0 0 0 -141.528487908854 -64.558291781540902 0 -64.558291781540902 131.60427133050689 0 0 0 0 -1.7662016761647088 -1.9006198946820287 0 -1.9006198946820287 5.591224003244804 0 0 0 0 40.706112015333929 -332.68929043889148 0 -332.68929043889148 500.67198329036182 0 0 0 0 -1.7187698572506243 5.9055116000619261 0 5.9055116000619261 7.6104898624535338 0 0 0 0 -226.3277607056807 -7.6371928510525322 0 -7.6371928510525322 176.96971714153187 0 0 0 0 -443.37004389226058 207.33213897069072 0 207.33213897069072 19.230634769333847 0 0 0 0 -622.77708090169472 -49.618400351617311 0 -49.618400351617311 -89.638522996810934 0 0 0 0 -1.6918086519994517 2.1538788322254447 0 2.1538788322254447 12.320455509677089 0 0 0 0 -179.16509497274819 -68.234731505566742 0 -68.234731505566742 -139.9584398247971 0 0 0 0 -122.69750079155529 -147.52006968477144 0 -147.52006968477144 312.09319720098574 0 0 0 0 -169.43678780599294 -17.75813354816637 0 -17.75813354816637 40.186772252403898 0 0 0 0 -368.03351500629651 -215.79756280756555 0 -215.79756280756555 94.319964628404705 0 0 0 0 -344.29825574667484 -133.80315356546635 0 -133.80315356546635 294.99803983597667 0 0 0 0 -184.60633806911937 -167.66246777442939 0 -167.66246777442939 121.17708914350078 0 0 0 0 -25.552034709934674 94.274622536169659 0 94.274622536169659 99.153215877704497 0 0 0 0 -16.225881514197681 -16.993111935862544 0 -16.993111935862544 56.122927505839471 0 0 0 0 101.7819184463433 215.09360257704157 0 215.09360257704157 176.60507852108276 0 0 0 0 -27.602807258236837 23.999728986349709 0 23.999728986349709 13.305187909966357 0 0 0 0 -65.179344700125512 4.399451797700749 0 4.399451797700749 114.95853791323589 0 0 0 0 -10.172516092112346 26.38649185329632 0 26.38649185329632 2.4790096888682456 0 0 0 0 -53.575781646137074 24.698926952479596 0 24.698926952479596 8.9730709145923804 0 0 0 0 -132.62695891485419 34.651683858211982 0 34.651683858211982 81.119680843512469 0 0 0 0 -45.579378849345176 42.970501377880282 0 42.970501377880282 81.807908644688723 0 0 0 0 -35.13889084391667 31.063469861339399 0 31.063469861339399 75.396965148938762 0 0 0 0 -71.856982773877462 90.091195749169856 0 90.091195749169856 7.7562186372720134 0 0 0 0 -51.702371730803861 -2.0281765614909091 0 -2.0281765614909091 23.992769782405958 0 0 0 0 -3.2193319533168605 0.20034590148208764 0 0.20034590148208764 1.5804135390137617 0 0 0 0 -511.6209133918037 132.52826221424766 0 132.52826221424766 167.04277625519171 0 0 0 0 -511.26049618774596 125.91181226627668 0 125.91181226627668 264.98199565205141 0 0 0 0 -94.97947040375584 206.0337202479277 0 206.0337202479277 140.76031228527427 0 0 0 0 -282.30358908091284 165.65209487073844 0 165.65209487073844 119.76911425340222 0 0 0 0 -271.11627584604821 75.943938718612117 0 75.943938718612117 252.28590968978824 0 0 0 0 -471.12920043690247 221.99590432587138 0 221.99590432587138 138.80093429611588 0 0 0 0 -10.562186401036342 4.7788703596679625 0 4.7788703596679625 72.770555229191814 0 0 0 0 -3.6915890377599894 14.092934156261832 0 14.092934156261832 76.723441847971287 0 0 0 0 -44.633586036157794 46.503156879545713 0 46.503156879545713 84.908590149387237 0 0 0 0 -305.94218960039325 11.139737758690899 0 11.139737758690899 64.063851033555693 0 0 0 0 0.90140602542723514 -3.2154659333823403 0 -3.2154659333823403 -0.56871898353446682 0 0 0 0 317.29625769563791 397.86492689871375 0 397.86492689871375 -101.95426890755698 0 0 0 0 130.35861941229086 78.196661036388832 0 78.196661036388832 140.98220607778785 0 0 0 0 -579.91029039751265 70.832083078719734 0 70.832083078719734 133.77736063570046 0 0 0 0 110.69680355762648 291.85126778317135 0 291.85126778317135 -0.32982160587562248 0 0 0 0 -127.31228959628368 -153.8332898610056 0 -153.8332898610056 170.94457245058584 0 0 0 0 810.31149597217336 232.737678213045 0 232.737678213045 81.682358483267308 0 0 0 0 0.671388156144058 -1.412531559018511 0 -1.412531559018511 3.8241346211156895 0 0 0 0 214.20916887157 354.17069555420494 0 354.17069555420494 543.66325809928094 0 0 0 0 -87.598307921135074 165.03202167061772 0 165.03202167061772 280.17657991051965 0 0 0 0 77.832102516014857 78.937358979652345 0 78.937358979652345 174.3229899388898 0 0 0 0 -90.257713415508988 207.59627870489203 0 207.59627870489203 267.62616837095993 0 0 0 0 26.841196025319732 -68.156189500099572 0 -68.156189500099572 255.09634307850502 0 0 0 0 52.846099528969717 -176.53655598089608 0 -176.53655598089608 630.27708554141827 0 0 0 0 256.3065789868524 -70.360284233722268 0 -70.360284233722268 433.79758213316381 0 0 0 0 77.409587363623359 -172.13030328459718 0 -172.13030328459718 244.76854582834494 0 0 0 0 146.10327283632523 -310.97770067873716 0 -310.97770067873716 488.56798677197366 0 0 0 0 47.187538987718654 -273.59331843248947 0 -273.59331843248947 359.03935415391607 0 0 0 0 -120.30333038968411 -245.29495704928331 0 -245.29495704928331 434.47892910907103 0 0 0 0 -309.97084040681466 243.50300256597347 0 243.50300256597347 660.67622154959827 0 0 0 0 1.1767431960459187 -4.2904815225385775 0 -4.2904815225385775 5.7680737715789405 0 0 0 0 331.11762379640459 -366.8577016146919 0 -366.8577016146919 441.53716056608391 0 0 0 0 117.47207939229202 5.4987511301151244 0 5.4987511301151244 858.40314418889466 0 0 0 0 261.05518963026407 214.97611767736817 0 214.97611767736817 604.04617839457205 0 0 0 0 -140.14266519910507 -132.46776594534458 0 -132.46776594534458 852.0375634622942 0 0 0 0 276.65937286273572 -224.8227624747783 0 -224.8227624747783 549.80881768862309 0 0 0 0 147.21293040749151 -193.7189989855251 0 -193.7189989855251 306.34165588752512 0 0 0 0 -59.300123953099501 -67.53718851415033 0 -67.53718851415033 485.92796820810327 0 0 0 0 -47.240555686288644 78.116271393824718 0 78.116271393824718 566.79894667399276 0 0 0 0 92.150912180811247 45.292502349464485 0 45.292502349464485 -29.347859271962079 0 0 0 0 10.540503631033062 136.02670141685667 0 136.02670141685667 63.838429913343134 0 0 0 0 -0.8117351811933986 -4.9678703838653746 0 -4.9678703838653746 172.85260481161822 0 0 0 0 -112.2161144456295 -8.662730378760898 0 -8.662730378760898 178.6736834937692 0 0 0 0 -14.50727454880689 -75.859920852613868 0 -75.859920852613868 62.429876545764273 0 0 0 0 -42.902136663349665 -28.147143005160615 0 -28.147143005160615 183.27207324726623 0 0 0 0 27.195836365696778 -19.207170579757076 0 -19.207170579757076 90.861573863541707 0 0 0 0 -19.828779414753399 -93.237564294584445 0 -93.237564294584445 209.11715738849307 0 0 0 0 -27.409852925100495 -71.828995880416187 0 -71.828995880416187 219.15758144133724 0 0 0 0 11.699298328582415 -135.58415938732242 0 -135.58415938732242 216.09832154636388 0 0 0 0 -101.08027425605314 -77.779429722337227 0 -77.779429722337227 591.39326721512771 0 0 0 0 -48.762356563654521 -79.511626309038547 0 -79.511626309038547 400.36831557728874 0 0 0 0 -25.729085168190068 -136.14739154632116 0 -136.14739154632116 400.16113275766611 0 0 0 0 -83.930137253222711 -6.4150985939013481 0 -6.4150985939013481 519.72087522344373 0 0 0 0 -90.523902478068976 -48.720262415037723 0 -48.720262415037723 401.65231975913423 0 0 0 0 -48.755481583570145 -50.77090429917007 0 -50.77090429917007 401.6910708971651 0 0 0 0 -20.053530292748462 -21.570592056417809 0 -21.570592056417809 223.45854294173478 0 0 0 0 33.799741697539957 -33.469897597395175 0 -33.469897597395175 82.121938352647703 0 0 0 0 5.0153614809498777 7.8302684035370476 0 7.8302684035370476 220.8714571131768 0 0 0 0 0.85628289931139534 40.233458915914525 0 40.233458915914525 261.68985070720737 0 0 0 0 13.856501715695913 8.0279010602389462 0 8.0279010602389462 127.02491757500684 0 0 0 0 -26.443832891824286 78.665184146448155 0 78.665184146448155 156.26018856021983 0 0 0 0 -17.263791061063898 2.5976570174061635 0 2.5976570174061635 245.67916797552607 0 0 0 0 -14.281764836081038 -26.30172181224043 0 -26.30172181224043 325.23697503661242 0 0 0 0 17.164591621904947 88.759842553859926 0 88.759842553859926 235.15302900745155 0 0 0 0 -10.227079606323173 -5.6430226515694812 0 -5.6430226515694812 116.3422266743728 0 0 0 0 10.303998944888917 62.319003611453809 0 62.319003611453809 445.78368490557477 0 0 0 0 0.32216206974794659 -65.053377183687189 0 -65.053377183687189 535.64659619123267 0 0 0 0 -41.087383710247764 9.1546915087201342 0 9.1546915087201342 408.28597002120659 0 0 0 0 -54.823330557817144 7.3834059098735452 0 7.3834059098735452 526.88837645173771 0 0 0 0 -30.559207788324557 -26.161051993192814 0 -26.161051993192814 411.49712140162046 0 0 0 0 3.7073355023508157 -52.69939284359134 0 -52.69939284359134 534.19020627060672 0 0 0 0 -63.90202773002818 -31.886069668678829 0 -31.886069668678829 597.44980575641966 0 0 0 0 54.19240919056665 -45.277131164832099 0 -45.277131164832099 541.7492059404467 0 0 0 0 -7.4921021580739762 -30.691647923908022 0 -30.691647923908022 635.26255545209278 0 0 0 0 56.623553762106553 -181.71768594035166 0 -181.71768594035166 679.1964884239178 0 0 0 0 40.3008858316052 -174.56275190204997 0 -174.56275190204997 734.51199609292962 0 0 0 0 32.486780374743716 -94.870022633043845 0 -94.870022633043845 540.37751578218013 0 0 0 0 -29.225033334810632 42.843880850490677 0 42.843880850490677 547.5008029121891 0 0 0 0 -189.79525930357261 -12.250011934955182 0 -12.250011934955182 580.55494418113085 0 0 0 0 -47.292428830059634 -26.377508878518711 0 -26.377508878518711 519.3404844407778 0 0 0 0 -107.598306664539 25.453660646518983 0 25.453660646518983 552.25025027782704 0 0 0 0 430.61236959511189 -172.499374491661 0 -172.499374491661 419.25757040781173 0 0 0 0 405.60907293408218 -60.497480655081745 0 -60.497480655081745 651.20244484244904 0 0 0 0 302.86099461560116 -185.900476188006 0 -185.900476188006 216.32931425561401 0 0 0 0 404.68745370953525 -42.519478152760712 0 -42.519478152760712 316.46352874313015 0 0 0 0 334.2376320676085 -39.717237278004177 0 -39.717237278004177 110.6817715798461 0 0 0 0 180.18928729688832 -122.59223119644594 0 -122.59223119644594 331.60220200073491 0 0 0 0 353.96916575709838 -56.908297601323284 0 -56.908297601323284 348.60370199452154 0 0 0 0 323.45156019592559 -4.4844330630858167 0 -4.4844330630858167 562.28923355025472 0 0 0 0 190.08796242761446 -81.046947120219556 0 -81.046947120219556 399.14265766034077 0 0 0 0 162.14374761246836 -47.680436669637857 0 -47.680436669637857 606.93760654159269 0 0 0 0 143.79415289265182 37.757156777861383 0 37.757156777861383 343.49845205141173 0 0 0 0 96.421472049252316 -72.972132207898539 0 -72.972132207898539 164.24708328242559 0 0 0 0 -10.040106745135745 65.200115413608728 0 65.200115413608728 320.35970215126326 0 0 0 0 37.456951817045592 35.24619664556667 0 35.24619664556667 76.93708624910505 0 0 0 0 62.710596465435174 -55.267676918989309 0 -55.267676918989309 353.90861337241768 0 0 0 0 72.626350041210571 32.408401829414288 0 32.408401829414288 557.99044145098014 0 0 0 0 122.59059277669076 -94.274381951312535 0 -94.274381951312535 574.27987834665964 0 0 0 0 25.311803364743355 -81.827404431840478 0 -81.827404431840478 769.06765475944849 0 0 0 0 95.048048716268113 -104.80717343994547 0 -104.80717343994547 717.1029767782311 0 0 0 0 58.78636320441683 -248.12856266270683 0 -248.12856266270683 912.27879862624832 0 0 0 0 126.10599939951135 -195.59187809654759 0 -195.59187809654759 879.24067271848617 0 0 0 0 143.30987974847267 -111.40181251613467 0 -111.40181251613467 1090.9530253735938 0 0 0 0 335.67665006774405 -119.55542842714203 0 -119.55542842714203 856.41321898799288 0 0 0 0 156.53586689444455 4.7560285767613095 0 4.7560285767613095 740.19013869851187 0 0 0 0 326.05250872578836 11.975840956445609 0 11.975840956445609 627.15552768390262 0 0 0 0 183.46264807678472 -118.27274406306151 0 -118.27274406306151 871.00415833570878 0 0 0 0 355.76287420564859 -154.67181514035474 0 -154.67181514035474 657.80915063999055 0 0 0 0 417.18697387585598 -0.56376131975412136 0 -0.56376131975412136 897.54331690617255 0 0 0 0 300.54625834363424 -118.67666665282741 0 -118.67666665282741 1292.3021893120458 0 0 0 0 484.33601833751709 -417.97531061194604 0 -417.97531061194604 1255.1700277374966 0 0 0 0 553.79046302586721 -132.70655552671815 0 -132.70655552671815 937.40989551656821 0 0 0 0 518.44853051838254 -191.49770328537124 0 -191.49770328537124 1450.3876722307064 0 0 0 0 986.45285258137665 -145.86315509112319 0 -145.86315509112319 1447.5551048513621 0 0 0 0 779.42698957747552 -254.90517666187588 0 -254.90517666187588 1056.7226768244873 0 0 0 0 458.28978521271347 -105.48301545621507 0 -105.48301545621507 1000.9040871494763 0 0 0 0 516.97608392173652 -227.96471451481375 0 -227.96471451481375 749.37696144303482 0 0 0 0 753.66239733310613 -1171.9527447877826 0 -1171.9527447877826 628.81466176739195 0 0 0 0 1102.3678962146023 177.45695053227246 0 177.45695053227246 1664.865568874593 0 0 0 0 1060.391826108329 -831.98762941639143 0 -831.98762941639143 -24.884530720746625 0 0 0 0 -2.1750429862307676 -0.3559402287752107 0 -0.3559402287752107 6.3836977723451866 0 0 0 0 584.17963962152498 -1008.2980923364776 0 -1008.2980923364776 1957.0139499940205 0 0 0 0 451.35059058137722 -226.24904007367149 0 -226.24904007367149 2034.1640947399137 0 0 0 0 608.63994355479497 -775.87967644634637 0 -775.87967644634637 1053.9079600936748 0 0 0 0 235.31094336366596 -356.57915871873047 0 -356.57915871873047 1469.7373925770953 0 0 0 0 350.28185226446931 -618.0248983251804 0 -618.0248983251804 874.94391512775564 0 0 0 0 365.71447643368492 -570.93172290357688 0 -570.93172290357688 884.98888011253075 0 0 0 0 251.65401767579897 -419.19605127434988 0 -419.19605127434988 1025.7147615909953 0 0 0 0 136.02900063976085 -328.07921826924576 0 -328.07921826924576 989.00565538609226 0 0 0 0 142.19100631346191 -356.11343580004905 0 -356.11343580004905 798.05223123339238 0 0 0 0 163.71932277368069 -419.94273148509819 0 -419.94273148509819 659.43273927814153 0 0 0 0 251.25744825307174 -477.06389482698614 0 -477.06389482698614 688.08776781829511 0 0 0 0 -2.9565318641910281 -0.61178420442458048 0 -0.61178420442458048 4.9157546548187696 0 0 0 0 119.42414143803217 -328.11778971920648 0 -328.11778971920648 702.32483207274345 0 0 0 0 748.0658937113044 -608.60709514043265 0 -608.60709514043265 1134.4587358523713 0 0 0 0 730.99710443438016 -706.79707322265494 0 -706.79707322265494 679.77624059602385 0 0 0 0 -3.7933686802569753 -0.24779125759559406 0 -0.24779125759559406 8.1617835189601919 0 0 0 0 459.00347754875384 -842.35992708965932 0 -842.35992708965932 354.09138409527077 0 0 0 0 462.69344818738227 -882.37085873720571 0 -882.37085873720571 783.06403303577827 0 0 0 0 270.3154018624773 -559.30734684454001 0 -559.30734684454001 830.45789077899099 0 0 0 0 434.98854952710462 -482.27873663190258 0 -482.27873663190258 717.82912794401818 0 0 0 0 235.93815311745948 -298.19410881234944 0 -298.19410881234944 391.24718375880548 0 0 0 0 239.62782257170875 -378.40013862455817 0 -378.40013862455817 502.139538468502 0 0 0 0 82.938195874799931 -114.46310188571806 0 -114.46310188571806 315.44462814053622 0 0 0 0 267.62840291811699 -238.54410204388842 0 -238.54410204388842 200.28121920053673 0 0 0 0 689.00042221855256 -694.121989331652 0 -694.121989331652 295.62590759231534 0 0 0 0 474.48107457802325 -353.63192298049398 0 -353.63192298049398 -147.70424354444549 0 0 0 0 241.50986032121887 -286.23749144569956 0 -286.23749144569956 183.08323114819723 0 0 0 0 388.69760418248916 -558.17154601715083 0 -558.17154601715083 452.63616280808492 0 0 0 0 -63.610755108963076 165.45210160134229 0 165.45210160134229 131.41368770777626 0 0 0 0 54.621648343875677 -131.54887198303913 0 -131.54887198303913 30.441629433102207 0 0 0 0 49.994183600468261 -133.74699776769239 0 -133.74699776769239 403.36070696745446 0 0 0 0 47.182409627644006 -40.030185588730092 0 -40.030185588730092 321.10489042918198 0 0 0 0 165.21519942873283 -326.48253647605452 0 -326.48253647605452 463.0508802818913 0 0 0 0 56.839688888150789 -151.93826682410031 0 -151.93826682410031 613.35091648669186 0 0 0 0 122.69570140010592 -359.69218083321903 0 -359.69218083321903 704.12893483663083 0 0 0 0 111.03516057885031 -331.54398310573561 0 -331.54398310573561 839.69980909836158 0 0 0 0 174.53987901296432 -503.97124051106584 0 -503.97124051106584 811.34532310050781 0 0 0 0 157.65863095111126 -449.95868467873152 0 -449.95868467873152 653.55615507906259 0 0 0 0 108.21904223007797 -355.13305357166246 0 -355.13305357166246 752.71551859923784 0 0 0 0 192.93431688681295 -404.23394196572644 0 -404.23394196572644 610.15463726151211 0 0 0 0 150.72431484176764 -505.39615951227825 0 -505.39615951227825 749.87880148502518 0 0 0 0 176.36213833417358 -490.88405383868303 0 -490.88405383868303 546.14924423521734 0 0 0 0 159.89336819139163 -524.05898588552327 0 -524.05898588552327 741.0927373526938 0 0 0 0 92.872855089757081 -543.62205865591386 0 -543.62205865591386 843.91079687306774 0 0 0 0 180.61119006744491 -467.90245678818428 0 -467.90245678818428 795.54733144868806 0 0 0 0 62.545287277961052 -470.17472524116965 0 -470.17472524116965 1030.9664477324768 0 0 0 0 119.82278952757588 -353.74669643318703 0 -353.74669643318703 846.82028836128666 0 0 0 0 60.453987364306158 -456.69038819018533 0 -456.69038819018533 954.10683361866541 0 0 0 0 101.84395633585973 -521.08696536591015 0 -521.08696536591015 892.43781525004306 0 0 0 0 49.067751755205563 -495.18714392001129 0 -495.18714392001129 886.61448052412015 0 0 0 0 44.363196622104056 -518.04505422163493 0 -518.04505422163493 1037.2914847564098 0 0 0 0 2.1787017775700406 -503.46757190886274 0 -503.46757190886274 1077.2209357230604 0 0 0 0 37.336030002029929 -645.73314845754066 0 -645.73314845754066 1197.4191949914602 0 0 0 0 27.986815194953351 -588.28059761841723 0 -588.28059761841723 904.80600593282725 0 0 0 0 229.96134831736435 -805.33878386224023 0 -805.33878386224023 818.00869418850925 0 0 0 0 209.36038981722817 -574.68815222657759 0 -574.68815222657759 509.81602975205169 0 0 0 0 196.3663715094101 -622.39029276607835 0 -622.39029276607835 753.94517831117992 0 0 0 0 247.70691486699343 -78.53565804223399 0 -78.53565804223399 -119.47337087655615 0 0 0 0 885.38833631014495 -727.62729448528626 0 -727.62729448528626 84.174260428502748 0 0 0 0 239.99347116917716 -860.80095644463472 0 -860.80095644463472 1110.1791301581834 0 0 0 0 379.91941508987838 -941.58005648423568 0 -941.58005648423568 1135.6380724427436 0 0 0 0 -91.205816616078664 -598.69042018782784 0 -598.69042018782784 1627.0635783964826 0 0 0 0 4.8386458437953479 -561.33058359294955 0 -561.33058359294955 1380.4184575804102 0 0 0 0 643.00129113325602 -734.0746102877747 0 -734.0746102877747 2637.1663862870482 0 0 0 0 8.7483043252004791 -861.52919054469385 0 -861.52919054469385 2316.9351563069649 0 0 0 0 480.07776719002777 -1172.5753526830231 0 -1172.5753526830231 1654.4654598540947 0 0 0 0 -111.95702517880454 -175.51714086390712 0 -175.51714086390712 1895.1278115942405 0 0 0 0 -106.177500633401 53.564229157385853 0 53.564229157385853 1249.7913819504174 0 0 0 0 -15.971669794400441 -231.40308651154191 0 -231.40308651154191 1400.5537374113469 0 0 0 0 14.465990599340785 -117.23174397884941 0 -117.23174397884941 1046.4844694046769 0 0 0 0 174.16520409720579 -97.828753497491562 0 -97.828753497491562 600.6381184435013 0 0 0 0 181.26648627704981 -280.17951235399232 0 -280.17951235399232 625.67837274735393 0 0 0 0 147.98271488320825 -251.55094115400425 0 -251.55094115400425 717.8353927780845 0 0 0 0 138.33938279437552 -150.38973157037981 0 -150.38973157037981 1051.9733327788999 0 0 0 0 178.366343475539 -211.59941376098504 0 -211.59941376098504 472.0769345228473 0 0 0 0 192.76024972754055 -234.89503813657484 0 -234.89503813657484 694.66041906597093 0 0 0 0 245.39091949319402 -381.22750698150958 0 -381.22750698150958 468.42438291836879 0 0 0 0 197.32568216775053 -400.633918711148 0 -400.633918711148 440.14192922478105 0 0 0 0 237.43071117382897 -406.32803041241277 0 -406.32803041241277 390.42141748406721 0 0 0 0 211.34919705614766 -375.62300283476361 0 -375.62300283476361 670.45448475989906 0 0 0 0 211.10114640849997 -381.95948001007127 0 -381.95948001007127 534.70229916071912 0 0 0 0 216.4911249026045 -449.06047444507567 0 -449.06047444507567 503.17211178303114 0 0 0 0 123.0176597639047 -354.28750003095774 0 -354.28750003095774 683.37597473238566 0 0 0 0 113.03361560062795 -370.6954362414599 0 -370.6954362414599 919.99602163948293 0 0 0 0 123.79160390994366 -270.34419935552796 0 -270.34419935552796 970.10464771286934 0 0 0 0 7.167887851190244 -320.22607438424893 0 -320.22607438424893 990.00890901018283 0 0 0 0 32.663596574400842 -410.21926293414799 0 -410.21926293414799 921.9764983378991 0 0 0 0 21.30429188687549 -391.99337129251944 0 -391.99337129251944 1195.2047701196643 0 0 0 0 39.81188887703081 -435.63699997853837 0 -435.63699997853837 994.77717426813979 0 0 0 0 44.868120336479251 -439.8016456770838 0 -439.8016456770838 935.9887868364458 0 0 0 0 101.27499586997556 -471.95254418333207 0 -471.95254418333207 933.90770930764529 0 0 0 0 203.5612500532402 -557.70002449430103 0 -557.70002449430103 908.8697644988606 0 0 0 0 280.40103201167858 -551.44600511373574 0 -551.44600511373574 430.21067748455971 0 0 0 0 309.75516486101469 -673.84371425983772 0 -673.84371425983772 699.00293798140774 0 0 0 0 138.78391303755234 -509.97820193755797 0 -509.97820193755797 874.15582907894714 0 0 0 0 108.91623245776714 -416.54754607959694 0 -416.54754607959694 734.30053203267744 0 0 0 0 142.8021006944104 -507.11691151708601 0 -507.11691151708601 753.79131483823585 0 0 0 0 149.57397918774677 -476.25431617503637 0 -476.25431617503637 724.70980906622935 0 0 0 0 209.58507777364866 -423.39751299587078 0 -423.39751299587078 540.41239536266221 0 0 0 0 156.86026458771562 -500.40310173489343 0 -500.40310173489343 682.90089675633862 0 0 0 0 200.01222191963348 -472.26828257105444 0 -472.26828257105444 506.78310653043445 0 0 0 0 242.16221211374068 -440.31530058959106 0 -440.31530058959106 350.92675305251032 0 0 0 0 160.89805167284521 -393.89699220932744 0 -393.89699220932744 399.28760989445527 0 0 0 0 252.83135901026435 -393.9303990915505 0 -393.9303990915505 265.72044004778581 0 0 0 0 155.52827446918911 -242.49780686749773 0 -242.49780686749773 159.80261489684199 0 0 0 0 -16.636989017841188 -191.13641880441719 0 -191.13641880441719 244.71101696418555 0 0 0 0 90.643544327076597 -271.36620143494292 0 -271.36620143494292 293.05437279850776 0 0 0 0 210.24013390589801 -401.48970581429967 0 -401.48970581429967 314.88116994015581 0 0 0 0 114.52607688243143 -371.25826755012531 0 -371.25826755012531 365.93763881381528 0 0 0 0 241.50960364379739 -398.58795626985193 0 -398.58795626985193 371.09187474817372 0 0 0 0 183.16743741974369 -394.06428626386514 0 -394.06428626386514 422.92524117651192 0 0 0 0 240.21298658612568 -390.74010839528455 0 -390.74010839528455 452.00189124871349 0 0 0 0 211.9922432975352 -390.08450361988071 0 -390.08450361988071 609.51615221853353 0 0 0 0 233.21926573178598 -444.33325931069885 0 -444.33325931069885 427.83905001898529 0 0 0 0 231.44834604163137 -455.69115891001138 0 -455.69115891001138 480.44907707151287 0 0 0 0 232.9391637097292 -460.24549100469085 0 -460.24549100469085 467.79559605578106 0 0 0 0 233.37170942028843 -456.46940454296418 0 -456.46940454296418 411.5030400777805 0 0 0 0 223.59845215657415 -434.28659221131602 0 -434.28659221131602 488.05522268764616 0 0 0 0 57.152507696491739 21.364123381645186 0 21.364123381645186 161.99660525743093 0 0 0 0 -23.361157808647476 25.463177387500764 0 25.463177387500764 269.25755907736311 0 0 0 0 53.119640101493133 -76.886857909885293 0 -76.886857909885293 299.59368331016776 0 0 0 0 116.52143514446766 -263.04087833678113 0 -263.04087833678113 548.00203215744114 0 0 0 0 36.205049650454384 -40.939432059716637 0 -40.939432059716637 438.69534357984958 0 0 0 0 111.32214778811067 -125.88241764350096 0 -125.88241764350096 362.95951646650792 0 0 0 0 23.404145758975574 -118.31121273335521 0 -118.31121273335521 579.35880032550813 0 0 0 0 18.206242796999504 -21.93918142392431 0 -21.93918142392431 379.35244272093223 0 0 0 0 118.3246689520015 84.735849563343209 0 84.735849563343209 82.975132433595718 0 0 0 0 -256.50884457788015 135.25214636319652 0 135.25214636319652 498.81404449128968 0 0 0 0 0.64835204963811277 -4.3372504573856911 0 -4.3372504573856911 6.7529600541429602 0 0 0 0 108.40000678491197 -37.904775009432342 0 -37.904775009432342 -45.117483356356388 0 0 0 0 84.626391734559547 -516.48501679252286 0 -516.48501679252286 1214.6227892980314 0 0 0 0 198.7398590593898 -537.88930204556527 0 -537.88930204556527 1192.5892146718106 0 0 0 0 915.33629149051194 -850.54839447385893 0 -850.54839447385893 626.84502181427524 0 0 0 0 478.81704116857145 -381.38621082092959 0 -381.38621082092959 143.12009090952051 0 0 0 0 72.511651060837721 -120.77672140356663 0 -120.77672140356663 190.60237388792302 0 0 0 0 -24.712860276109495 -196.36441942062993 0 -196.36441942062993 153.57420218989319 0 0 0 0 -4.3650535196829878 -40.776754289108794 0 -40.776754289108794 55.231864890643919 0 0 0 0 -113.13022912315137 52.798466140600794 0 52.798466140600794 12.636135590360936 0 0 0 0 -119.25115891251789 -90.319214476785419 0 -90.319214476785419 82.711283038635884 0 0 0 0 0.7539769021407694 -6.1225521170819395 0 -6.1225521170819395 15.855486220663323 0 0 0 0 -146.62365881390258 -131.09884583604901 0 -131.09884583604901 37.950620277872076 0 0 0 0 10.686449055834601 -148.90503737286417 0 -148.90503737286417 -44.981912759927681 0 0 0 0 77.182750595475227 -31.794696401608235 0 -31.794696401608235 -0.67927791576948948 0 0 0 0 -0.77870150254420878 -33.028302509086643 0 -33.028302509086643 78.649756167812711 0 0 0 0 -3.0370883407373768 0.11711493757943003 0 0.11711493757943003 0.67405856245190421 0 0 0 0 -5.2031437714304047 -34.547523778895993 0 -34.547523778895993 1.5934029579657363 0 0 0 0 134.51959668548443 112.05897922325676 0 112.05897922325676 -184.28316490275029 0 0 0 0 -64.001462091401208 -12.185119013463009 0 -12.185119013463009 -4.2188032280755579 0 0 0 0 -10.982348293422419 -5.962459478872141 0 -5.962459478872141 -3.0464579022115572 0 0 0 0 -6.9964944482015596 -1.7911905565082833 0 -1.7911905565082833 -0.16802726517735778 0 0 0 0 -52.638822189132043 -51.0347878012617 0 -51.0347878012617 -60.686655683508434 0 0 0 0 -11.687720637472012 -35.812462077188684 0 -35.812462077188684 -62.253579026249099 0 0 0 0 31.388555125824496 -27.689433666469995 0 -27.689433666469995 -30.422740430638441 0 0 0 0 41.279568731235486 37.28954494746722 0 37.28954494746722 -49.961075399914989 0 0 0 0 29.720036806275857 28.59996663264792 0 28.59996663264792 63.313739859644556 0 0 0 0 24.17725498100117 -37.9903712424275 0 -37.9903712424275 103.45814207961666 0 0 0 0 5.9317859148686694 34.605456083401805 0 34.605456083401805 100.86180760896968 0 0 0 0 -55.732597426008397 -21.301468167363055 0 -21.301468167363055 425.31832971096992 0 0 0 0 -78.34619094064692 -88.655940173892304 0 -88.655940173892304 464.48087864021727 0 0 0 0 18.288364084875866 -62.63497601310155 0 -62.63497601310155 266.46183024366474 0 0 0 0 -175.19425010984833 -174.73448056705456 0 -174.73448056705456 401.17191905740765 0 0 0 0 56.635476222217676 -267.87470407180081 0 -267.87470407180081 613.56826840585563 0 0 0 0 -148.41938734821088 -102.67520955542568 0 -102.67520955542568 517.85552798988647 0 0 0 0 84.548308569304481 -176.35885801584664 0 -176.35885801584664 450.29265301290434 0 0 0 0 -46.875591873371377 -1.6279295556414581 0 -1.6279295556414581 462.01295331811025 0 0 0 0 -33.019390768570702 -36.713673434971497 0 -36.713673434971497 550.68643722651177 0 0 0 0 -400.44493968704137 126.90784282051754 0 126.90784282051754 893.04115160719448 0 0 0 0 -107.49363808050111 -363.87651082476805 0 -363.87651082476805 1195.2732684747098 0 0 0 0 605.89796438618623 -708.25086258572537 0 -708.25086258572537 606.24036032444565 0 0 0 0 -4.6734561262668981 -4.2257918096542468 0 -4.2257918096542468 2.4322266593288333 0 0 0 0 -14.244669153549111 -10.442150678467002 0 -10.442150678467002 -2.6800140816241651 0 0 0 0 90.641685660076291 30.238510147433772 0 30.238510147433772 -162.64837680372148 0 0 0 0 -146.69218674400054 -158.52201050917938 0 -158.52201050917938 57.557641547837193 0 0 0 0 -3.8325532163570979 -6.7439152776550948 0 -6.7439152776550948 19.835448862111221 0 0 0 0 -221.80907674110131 17.279361013837388 0 17.279361013837388 90.193644257306005 0 0 0 0 138.33671076264545 -276.37017306205234 0 -276.37017306205234 429.4948344239383 0 0 0 0 -185.51163763159275 2.5336836146161659 0 2.5336836146161659 10.157087907005916 0 0 0 0 -150.43319739426624 24.955677857014962 0 24.955677857014962 -45.472946062589472 0 0 0 0 -187.67838657832681 9.3661933622042852 0 9.3661933622042852 102.60469651328458 0 0 0 0 -152.69387927814205 57.029226811064291 0 57.029226811064291 33.187353113600693 0 0 0 0 -12.951926510202812 -3.9974123107787563 0 -3.9974123107787563 5.447573977694617 0 0 0 0 -162.7754267496166 180.77774014269744 0 180.77774014269744 -81.29801317093461 0 0 0 0 250.25636424517279 -657.49792546385288 0 -657.49792546385288 623.00118807064973 0 0 0 0 13.134051733227878 -168.94243072145582 0 -168.94243072145582 818.48741494621572 0 0 0 0 501.34899274650979 -540.3241438726327 0 -540.3241438726327 311.67083351128167 0 0 0 0 15.685077041573777 -330.81136275274912 0 -330.81136275274912 1175.671992411415 0 0 0 0 0.7045451034880128 2.9823860086829956 0 2.9823860086829956 10.463641355138947 0 0 0 0 562.86409161413667 623.89442638831497 0 623.89442638831497 378.81731521215715 0 0 0 0 -47.16763576340918 306.4647304778664 0 306.4647304778664 498.42661637527453 0 0 0 0 -485.82592856931126 -204.12897656789573 0 -204.12897656789573 402.66046611640922 0 0 0 0 -110.01684061849267 83.828698638944843 0 83.828698638944843 139.28916513292643 0 0 0 0 236.08381185256189 -823.75049290795505 0 -823.75049290795505 70.381418840479455 0 0 0 0 -165.69796491267812 -209.1287103180257 0 -209.1287103180257 -102.07607455705238 0 0 0 0 -7.6562891013508194 0.16904297163503657 0 0.16904297163503657 0.22222875929122399 0 0 0 0 -27.234296395626188 121.43923009406353 0 121.43923009406353 342.44468065086767 0 0 0 0 -22.736770243070907 -49.083950225092849 0 -49.083950225092849 76.69231416524417 0 0 0 0 -140.23884756581447 13.667655348717744 0 13.667655348717744 70.124936670682473 0 0 0 0 -192.60911284814892 49.875351132872311 0 49.875351132872311 59.06491351556906 0 0 0 0 -27.041495967391363 -15.578144817518478 0 -15.578144817518478 10.596024295555253 0 0 0 0 -124.09227465845376 125.27232768111026 0 125.27232768111026 -44.517323441389635 0 0 0 0 3.8839738229795335 6.9091360139071014 0 6.9091360139071014 10.787144347951269 0 0 0 0 -50.174936237296379 -24.571380194068297 0 -24.571380194068297 417.75737319964901 0 0 0 0 -22.389036216395926 -0.087817629398948327 0 -0.087817629398948327 0.35485424441979196 0 0 0 0 -103.32148349139248 6.0070733906650275 0 6.0070733906650275 130.29080849762113 0 0 0 0 97.234086073713286 -18.407272664742777 0 -18.407272664742777 531.80715231626164 0 0 0 0 272.98346192432518 -244.5369695367267 0 -244.5369695367267 370.070680271936 0 0 0 0 237.53930101681999 -177.91417008610006 0 -177.91417008610006 671.68678933655247 0 0 0 0 186.89358573286518 -138.83990552387331 0 -138.83990552387331 645.97565249466788 0 0 0 0 243.23082277915819 -236.24380094544904 0 -236.24380094544904 570.91438606664451 0 0 0 0 202.57240393819836 -389.19154904326206 0 -389.19154904326206 409.18587755766202 0 0 0 0 114.37934972504615 -237.3470720858495 0 -237.3470720858495 425.3256481643848 0 0 0 0 -1.6719447212249179 -293.65842855206574 0 -293.65842855206574 327.60334336256346 0 0 0 0 110.34472026605465 -269.52611622847326 0 -269.52611622847326 223.60764282248419 0 0 0 0 -85.73554775618004 -63.860785482916981 0 -63.860785482916981 133.67359140445842 0 0 0 0 -94.588495715713862 -61.221306335618465 0 -61.221306335618465 145.40335747897916 0 0 0 0 -221.0079745950087 311.14699268454024 0 311.14699268454024 -284.48127875550563 0 0 0 0 -229.47383975292189 111.15110080481099 0 111.15110080481099 159.97036130623746 0 0 0 0 -396.01582011684354 123.85770363970551 0 123.85770363970551 384.78635594507432 0 0 0 0 -124.04237619420934 -245.33292028052165 0 -245.33292028052165 722.58064397280395 0 0 0 0 118.21043952804212 -288.75416393990599 0 -288.75416393990599 697.16965585559046 0 0 0 0 -4.7453067452579223 0.010903064238085847 0 0.010903064238085847 1.761807447146019 0 0 0 0 360.09878355204592 -17.059037188469574 0 -17.059037188469574 1007.3827089019105 0 0 0 0 -300.48244574597925 -273.48555899937492 0 -273.48555899937492 612.34687661796852 0 0 0 0 -363.48589059477513 68.248071568634259 0 68.248071568634259 1030.3285327580807 0 0 0 0 -314.55519309909084 185.1036690819692 0 185.1036690819692 843.6447613733144 0 0 0 0 259.879019702969 148.97654431211231 0 148.97654431211231 447.82824274576342 0 0 0 0 451.73554617062644 -135.87838324255608 0 -135.87838324255608 532.70584287483507 0 0 0 0 389.85504843810429 126.74056629645202 0 126.74056629645202 759.06851353030834 0 0 0 0 5.694183289157122 3.3629987336539315 0 3.3629987336539315 2.6445734304223691 0 0 0 0 48.236596150664809 -7.4572712328663329 0 -7.4572712328663329 1055.5201190631733 0 0 0 0 116.81984439036751 70.462331246766553 0 70.462331246766553 1028.5648025152223 0 0 0 0 241.75523471555789 -318.67693369110566 0 -318.67693369110566 346.01435980558017 0 0 0 0 200.96892127826578 -165.92400932692181 0 -165.92400932692181 594.20095481040698 0 0 0 0 -17.212481223846737 150.4460037003555 0 150.4460037003555 751.54664158805099 0 0 0 0 13.951221459058594 7.0577385203416583 0 7.0577385203416583 3.8374089530125204 0 0 0 0 151.16619493708322 -116.62833362255424 0 -116.62833362255424 498.68839405338622 0 0 0 0 13.533245015926695 -28.682237605607952 0 -28.682237605607952 281.38522003922662 0 0 0 0 -7.1682275017137727 -65.393149034345697 0 -65.393149034345697 827.54936573702798 0 0 0 0 278.06675827028994 -168.8142482688927 0 -168.8142482688927 801.84588703906411 0 0 0 0 88.423543218450163 -32.845618109252428 0 -32.845618109252428 926.02114559098118 0 0 0 0 -61.107928380308294 -127.89540438614131 0 -127.89540438614131 956.4081975398658 0 0 0 0 98.685038039053325 -118.59809406276418 0 -118.59809406276418 555.74274450843768 0 0 0 0 15.968684076986346 8.112067126911704 0 8.112067126911704 4.2897938174786781 0 0 0 0 5.1205328024034316 -210.39113138769869 0 -210.39113138769869 932.80378192156422 0 0 0 0 57.887358210285129 -279.33993367629046 0 -279.33993367629046 969.07289440977002 0 0 0 0 -205.42200154863622 -551.15235422643582 0 -551.15235422643582 1820.2424756629298 0 0 0 0 0.50162186330355496 1.9047949360759446 0 1.9047949360759446 3.2531133663744569 0 0 0 0 341.52817791149437 -329.65665632372657 0 -329.65665632372657 1112.0506582567141 0 0 0 0 392.35620086617973 -493.54955145900112 0 -493.54955145900112 710.84325650386018 0 0 0 0 -1.9156432289856653 1.1698892732422994 0 1.1698892732422994 9.9667579469165446 0 0 0 0 850.0112233815189 -1156.1307757477398 0 -1156.1307757477398 1552.6697367039342 0 0 0 0 188.14545853633717 -323.77851057893349 0 -323.77851057893349 963.61881822259147 0 0 0 0 106.83458888321366 -74.282332844508346 0 -74.282332844508346 875.09624411946425 0 0 0 0 190.27188891424976 -107.96528667894449 0 -107.96528667894449 887.34770161584311 0 0 0 0 55.109966713784615 -101.15820675660143 0 -101.15820675660143 1054.086882921285 0 0 0 0 273.29554577313411 -427.87729031759591 0 -427.87729031759591 1202.4781645882704 0 0 0 0 256.14822031161839 -337.57962817477073 0 -337.57962817477073 743.31197199759845 0 0 0 0 183.44564839147642 -286.57267154399233 0 -286.57267154399233 728.13304562107078 0 0 0 0 249.34995420362975 -414.45549756161927 0 -414.45549756161927 496.38608147643026 0 0 0 0 203.5364445127816 -462.17965930332684 0 -462.17965930332684 372.25362442717233 0 0 0 0 173.88981673272428 -419.75227898791491 0 -419.75227898791491 497.86589320979601 0 0 0 0 191.10436457325613 -308.29089481309165 0 -308.29089481309165 392.79982855381422 0 0 0 0 444.98285583093184 -436.89803122277408 0 -436.89803122277408 427.94897370094986 0 0 0 0 236.81842497074535 -404.60534329534994 0 -404.60534329534994 769.93396861448491 0 0 0 0 -3.1914172655718858 4.8368013789661504 0 4.8368013789661504 20.970931788619339 0 0 0 0 462.82200168563577 -519.08449250119884 0 -519.08449250119884 707.31917686445331 0 0 0 0 269.80381480978576 -578.1484549917368 0 -578.1484549917368 465.38895579086966 0 0 0 0 -27.937176934151012 -199.45636736899723 0 -199.45636736899723 370.33976509000422 0 0 0 0 603.96361985113072 -682.91969510146737 0 -682.91969510146737 440.36903775095925 0 0 0 0 471.39360424309598 -1053.0943641725044 0 -1053.0943641725044 1610.3859405488911 0 0 0 0 124.12138889381004 -113.15875600439176 0 -113.15875600439176 1193.0510527318911 0 0 0 0 50.100406116414888 -557.46244494560233 0 -557.46244494560233 1366.4128174930847 0 0 0 0 379.76793412995357 -568.9591733147281 0 -568.9591733147281 -1139.4721550291142 0 0 0 0 7.9124588321408709 -3.9025588066652688 0 -3.9025588066652688 2.2754577486501937 0 0 0 0 -69.663166567108419 -322.3309894604572 0 -322.3309894604572 2910.5841795569249 0 0 0 0 361.48796174188965 -1309.8240095267984 0 -1309.8240095267984 1539.6493589370366 0 0 0 0 473.04142864879941 -1138.5295944136851 0 -1138.5295944136851 342.19014637142209 0 0 0 0 585.15498593417215 -1127.5841176756221 0 -1127.5841176756221 1685.4506168461085 0 0 0 0 1103.5906084046746 -1262.1730453942873 0 -1262.1730453942873 2345.5346540330847 0 0 0 0 759.97142775984776 -1720.0134782208443 0 -1720.0134782208443 1773.3741638361644 0 0 0 0 -2.8582731347986652 1.1976352837383786 0 1.1976352837383786 12.872373204134718 0 0 0 0 111.7070713572466 -934.78622527851985 0 -934.78622527851985 1700.0860190027015 0 0 0 0 -111.5975504365865 226.50188024421175 0 226.50188024421175 501.19473812565411 0 0 0 0 817.27491471373833 -1537.2640453063686 0 -1537.2640453063686 1518.7799801242172 0 0 0 0 214.40830304663109 -166.4089956373964 0 -166.4089956373964 107.54467225313419 0 0 0 0 230.17837796601225 -388.99301717456819 0 -388.99301717456819 192.09020502995554 0 0 0 0 -3.8518725563062262 5.1555190651703064 0 5.1555190651703064 23.23375508949016 0 0 0 0 685.60589879209658 -220.17534984876374 0 -220.17534984876374 703.66107523054234 0 0 0 0 189.39025652946839 -215.81457476433025 0 -215.81457476433025 521.60620633191866 0 0 0 0 131.21070925999084 -18.509203191639244 0 -18.509203191639244 432.95129138571656 0 0 0 0 287.31086402901383 -139.11369363148333 0 -139.11369363148333 445.29282301746275 0 0 0 0 258.3847698710124 -65.338054476527759 0 -65.338054476527759 268.77427729033298 0 0 0 0 276.00996474964268 -5.1398062737489454 0 -5.1398062737489454 375.18915209703846 0 0 0 0 181.17386847445596 36.393782073444527 0 36.393782073444527 475.36736260087491 0 0 0 0 166.2720440817684 80.599519850697106 0 80.599519850697106 346.64400965782625 0 0 0 0 186.54037549747591 128.65324861623594 0 128.65324861623594 439.26263693294459 0 0 0 0 113.79176281359105 131.15970099976403 0 131.15970099976403 451.52119461493567 0 0 0 0 90.165834079432898 127.11314667997067 0 127.11314667997067 451.81781783764018 0 0 0 0 100.14324025453425 93.881104902451625 0 93.881104902451625 472.67800487788918 0 0 0 0 132.28831810419069 114.03927997820938 0 114.03927997820938 442.26495676278137 0 0 0 0 43.99991795191545 56.954403034090319 0 56.954403034090319 591.11175940890098 0 0 0 0 65.584537674600142 119.00834091143042 0 119.00834091143042 458.15338568063089 0 0 0 0 82.087253002919397 -32.694621375492943 0 -32.694621375492943 628.53297758771805 0 0 0 0 135.1339948345194 -58.52994940652934 0 -58.52994940652934 577.35622454625263 0 0 0 0 104.17890327701207 -102.54603270194002 0 -102.54603270194002 659.90194240135315 0 0 0 0 83.668068473602034 28.569133508946834 0 28.569133508946834 522.76844198597973 0 0 0 0 10.50143818476478 4.1634390968828399 0 4.1634390968828399 -10.577430411828658 0 0 0 0 30.355503859163036 -7.2401252709896653 0 -7.2401252709896653 753.05863225835128 0 0 0 0 48.17730287069935 -25.618542316238745 0 -25.618542316238745 564.2537718485728 0 0 0 0 121.27306638859227 -31.470076597503066 0 -31.470076597503066 564.36406940290749 0 0 0 0 29.257663528144562 -19.307222270492993 0 -19.307222270492993 10.489825910886452 0 0 0 0 21.154789236736178 -122.47015648032902 0 -122.47015648032902 1234.3355870887299 0 0 0 0 19.962064584276817 -13.803156136104555 0 -13.803156136104555 4.6726721777542366 0 0 0 0 -14.168028732095991 -241.11291237767 0 -241.11291237767 -520.83353081138921 0 0 0 0 119.46122721108532 -446.14567147814523 0 -446.14567147814523 684.83826319477157 0 0 0 0 102.66247254062364 -195.00502779311682 0 -195.00502779311682 558.12164992163889 0 0 0 0 118.16049075646151 -300.20945414541347 0 -300.20945414541347 923.65993828212413 0 0 0 0 215.8595288950055 -497.87908688996959 0 -497.87908688996959 557.04499378534092 0 0 0 0 177.07005475069127 -480.95163151762063 0 -480.95163151762063 698.57332813961057 0 0 0 0 376.21006405538719 -595.99482826546955 0 -595.99482826546955 602.00110821952057 0 0 0 0 379.50119625758634 -505.66713415335653 0 -505.66713415335653 443.79874095808646 0 0 0 0 325.31432517272424 -407.93978882832289 0 -407.93978882832289 482.13525510792897 0 0 0 0 393.01121756531029 -445.97805586145842 0 -445.97805586145842 478.8338480583916 0 0 0 0 289.39702142521128 -109.86275259625472 0 -109.86275259625472 307.97220840443151 0 0 0 0 488.38875400217512 -278.63847205774255 0 -278.63847205774255 140.4168167620337 0 0 0 0 427.20712525680392 -307.63931411074736 0 -307.63931411074736 255.17131902504116 0 0 0 0 656.45669178619733 -545.17241866654581 0 -545.17241866654581 20.589493580409908 0 0 0 0 806.07961307806181 -1209.8768839107697 0 -1209.8768839107697 950.35060032769798 0 0 0 0 572.61004442657736 -863.93236108450719 0 -863.93236108450719 922.31775195270166 0 0 0 0 233.53196922604002 -513.16249053357205 0 -513.16249053357205 1065.1718673098235 0 0 0 0 177.8163257451688 -879.73625749842813 0 -879.73625749842813 2187.7935134160289 0 0 0 0 193.77737759890078 -317.00783930554644 0 -317.00783930554644 302.66504573221027 0 0 0 0 -505.33094155876643 218.83120706529553 0 218.83120706529553 687.40718244913296 0 0 0 0 112.27733599949715 -489.04443937438919 0 -489.04443937438919 945.40650144282699 0 0 0 0 60.388173930037738 -389.56013130733299 0 -389.56013130733299 892.87730212577844 0 0 0 0 159.08800593703927 -627.51878429896942 0 -627.51878429896942 1407.2660284971498 0 0 0 0 -29.89526890758134 -487.65887285437748 0 -487.65887285437748 1505.9010701773263 0 0 0 0 12.098741282492938 -460.90459491889624 0 -460.90459491889624 1512.3265537671541 0 0 0 0 1.9466084318030283 1.7606069818718311 0 1.7606069818718311 3.6467498822927737 0 0 0 0 397.08612655500929 -234.47665702211361 0 -234.47665702211361 1085.481370038764 0 0 0 0 -46.776353360031862 -449.54934003884955 0 -449.54934003884955 1472.8974085065852 0 0 0 0 0.87876073642288333 0.38491722299219333 0 0.38491722299219333 2.4531259466250503 0 0 0 0 -17.979639001307987 -285.65428959430483 0 -285.65428959430483 1346.5338695022911 0 0 0 0 -9.6592415156992502 -267.00371781661215 0 -267.00371781661215 1089.9100548354154 0 0 0 0 131.44220437703621 -66.336807264288382 0 -66.336807264288382 471.16863249061498 0 0 0 0 1264.6873984588733 -46.385040432283859 0 -46.385040432283859 1098.2619476116906 0 0 0 0 512.73144818018341 129.99505773947544 0 129.99505773947544 1908.3664464437097 0 0 0 0 339.9739649567864 -308.24897700588463 0 -308.24897700588463 1069.484454095591 0 0 0 0 1136.666569618525 33.550876548214092 0 33.550876548214092 464.66203887819938 0 0 0 0 918.37384686084988 9.9829927036598747 0 9.9829927036598747 1127.4977137970582 0 0 0 0 6.1929908274967005 2.9589558168511658 0 2.9589558168511658 2.5452927828620489 0 0 0 0 867.81713589930473 -194.8070781101892 0 -194.8070781101892 320.82014988904302 0 0 0 0 301.84234181408419 324.17016036363202 0 324.17016036363202 1429.121534374377 0 0 0 0 534.21169532491081 -0.026580067153645359 0 -0.026580067153645359 471.86761722028677 0 0 0 0 752.39618801572033 305.67243098474637 0 305.67243098474637 319.29948178072664 0 0 0 0 574.27269162451103 179.69472251560364 0 179.69472251560364 261.78775051070988 0 0 0 0 -48.472570583241577 338.85958739840498 0 338.85958739840498 71.1732587961842 0 0 0 0 203.09007280919195 -118.25575170643424 0 -118.25575170643424 -63.048970924603054 0 0 0 0 398.66210053474242 160.98573198973827 0 160.98573198973827 260.34621656471609 0 0 0 0 -102.42561255427563 -127.38953829187358 0 -127.38953829187358 438.12399940448813 0 0 0 0 68.588410710639891 -70.949406330867532 0 -70.949406330867532 759.89878017810952 0 0 0 0 36.294912335503966 48.640639537600919 0 48.640639537600919 607.07122648283621 0 0 0 0 14.091412853149219 7.229031183327578 0 7.229031183327578 4.2702346036509802 0 0 0 0 -30.588489359745381 -33.064773405639244 0 -33.064773405639244 739.63829218939918 0 0 0 0 -36.905396864068734 23.693470850070298 0 23.693470850070298 480.92829734939369 0 0 0 0 44.370705285920508 -115.65854750862945 0 -115.65854750862945 339.05019112975788 0 0 0 0 142.70162712228284 11.522955528904276 0 11.522955528904276 408.22400430993275 0 0 0 0 419.3072633504737 16.796156293477907 0 16.796156293477907 345.25961086328448 0 0 0 0 198.110562957914 219.38222200549626 0 219.38222200549626 643.60338305909499 0 0 0 0 -171.23794149777814 -439.18445122907178 0 -439.18445122907178 270.6307089344773 0 0 0 0 -110.64244146808471 -299.94320536134455 0 -299.94320536134455 590.47277195326024 0 0 0 0 100.18461247715095 -192.76987322151581 0 -192.76987322151581 384.19181214203127 0 0 0 0 -20.891959844351845 -328.89534420205837 0 -328.89534420205837 288.92689226464427 0 0 0 0 203.07312185145486 -230.17497431806441 0 -230.17497431806441 422.36262118532977 0 0 0 0 90.707886203370123 -194.72138415255881 0 -194.72138415255881 -158.82699792298445 0 0 0 0 104.03671563579519 -110.01964160247917 0 -110.01964160247917 295.02550451814557 0 0 0 0 60.388798551948469 290.07306374033061 0 290.07306374033061 468.5927726252412 0 0 0 0 453.76654899773075 218.68203316881591 0 218.68203316881591 223.73282538073909 0 0 0 0 43.357345439729002 31.857885809592233 0 31.857885809592233 88.307688831066116 0 0 0 0 -195.16417409346013 112.04870688406299 0 112.04870688406299 740.11883408112226 0 0 0 0 2.1955739652483537 3.4747671131617857 0 3.4747671131617857 4.5421825630531174 0 0 0 0 453.614633549345 210.20005103329291 0 210.20005103329291 -181.32963890225074 0 0 0 0 -51.199826848347527 176.16538709236011 0 176.16538709236011 -61.28153562719308 0 0 0 0 -84.384555511536973 42.438531451881317 0 42.438531451881317 517.8567334092113 0 0 0 0 370.55066373278737 -70.780849626555209 0 -70.780849626555209 -56.075136551696232 0 0 0 0 197.9118244791664 -383.4521385312928 0 -383.4521385312928 397.30409667626509 0 0 0 0 337.66330966843077 -292.76065976863902 0 -292.76065976863902 -83.703950996910862 0 0 0 0 76.576861682486566 106.97354246406394 0 106.97354246406394 510.13949502840842 0 0 0 0 -119.66429283275886 61.539335514566119 0 61.539335514566119 536.49620609430349 0 0 0 0 330.198505862513 -204.4672256416211 0 -204.4672256416211 586.85056738884305 0 0 0 0 78.837282307106648 110.59967431262157 0 110.59967431262157 198.30538853916096 0 0 0 0 1.2656327323643846 -2.4485698009796337 0 -2.4485698009796337 5.0904520429129434 0 0 0 0 55.136644399867464 232.81270293896523 0 232.81270293896523 298.41623526680632 0 0 0 0 -43.076573393968147 104.66909685188512 0 104.66909685188512 591.04018486368295 0 0 0 0 -68.202386704467017 37.939728761180959 0 37.939728761180959 547.02510030658595 0 0 0 0 -36.435054471006481 70.844821350799066 0 70.844821350799066 237.10618331154546 0 0 0 0 -36.51453829049774 -14.101884556061123 0 -14.101884556061123 231.34457529600331 0 0 0 0 16.195181323783334 28.537014528427875 0 28.537014528427875 23.335589015179721 0 0 0 0 92.792466027316777 58.269005268786714 0 58.269005268786714 231.8091774640834 0 0 0 0 17.697224357584901 -86.370017774841472 0 -86.370017774841472 94.824060041102712 0 0 0 0 0.52471074556816566 -0.14290633952064979 0 -0.14290633952064979 0.0055651867320989368 0 0 0 0 110.69721961077971 -183.8743483297294 0 -183.8743483297294 62.39034629420712 0 0 0 0 88.274372473293511 17.314747010143037 0 17.314747010143037 -135.81239280428417 0 0 0 0 -190.47079897087627 14.786113633388595 0 14.786113633388595 -49.03760898886685 0 0 0 0 -66.377909050262701 -73.859544079679836 0 -73.859544079679836 50.820177761284867 0 0 0 0 -476.87472579936576 -413.04051722321447 0 -413.04051722321447 120.44052803232626 0 0 0 0 133.4185839341408 -453.60348464448725 0 -453.60348464448725 -92.023915520803712 0 0 0 0 0.91594274296448963 -4.6013254607949641 0 -4.6013254607949641 12.384224365711148 0 0 0 0 -43.411239202234412 14.758589871697041 0 14.758589871697041 14.24772653709806 0 0 0 0 6.0198969649106857 -8.5996239907835843 0 -8.5996239907835843 8.3480673241283512 0 0 0 0 -22.015679578307754 21.07359562949523 0 21.07359562949523 -22.706777288469311 0 0 0 0 8.2077226447828071 14.648779785342299 0 14.648779785342299 8.4812026604668063 0 0 0 0 94.343634894061609 -195.96508938939587 0 -195.96508938939587 91.715773905405513 0 0 0 0 292.98727373268071 -96.110837907146561 0 -96.110837907146561 141.87565040665504 0 0 0 0 90.625556279455623 -7.5183422878581041 0 -7.5183422878581041 -194.59511587385168 0 0 0 0 290.43137993013647 -136.55133608209326 0 -136.55133608209326 -191.84096897488416 0 0 0 0 462.77994613176725 8.4635006272765168 0 8.4635006272765168 -69.803309678844926 0 0 0 0 315.56544583481514 131.62743732034414 0 131.62743732034414 241.92495678571322 0 0 0 0 -11.068794948148138 -159.87596409710204 0 -159.87596409710204 -14.391400499876909 0 0 0 0 297.90438260122937 57.996176115155322 0 57.996176115155322 170.57537662685718 0 0 0 0 323.74707668535734 43.197755587842039 0 43.197755587842039 43.164564535554746 0 0 0 0 344.89526661731497 105.3433204863577 0 105.3433204863577 144.21655743352312 0 0 0 0 228.98992309015921 73.557287907880891 0 73.557287907880891 136.19563049263797 0 0 0 0 158.06175364394016 -8.7160050793240771 0 -8.7160050793240771 405.12136250305412 0 0 0 0 449.76027322517712 380.30999616577628 0 380.30999616577628 446.95157506936812 0 0 0 0 403.01611503445929 65.282335062171114 0 65.282335062171114 17.571191428954307 0 0 0 0 253.9045543373004 -50.363132014218081 0 -50.363132014218081 -25.05713597826616 0 0 0 0 210.42182321780911 101.69546400467971 0 101.69546400467971 96.267431821386708 0 0 0 0 701.88484824402167 107.42018317744078 0 107.42018317744078 8.188279444005957 0 0 0 0 364.87760065607381 -40.803373094065137 0 -40.803373094065137 190.79717885546415 0 0 0 0 449.07931189421038 303.58636334882158 0 303.58636334882158 306.35687840876017 0 0 0 0 662.38301198731097 381.92900831201223 0 381.92900831201223 56.419232810609174 0 0 0 0 233.11038814791209 12.560507250960654 0 12.560507250960654 49.039443821002351 0 0 0 0 523.53983975490428 174.00620457418972 0 174.00620457418972 110.99341659358652 0 0 0 0 583.70863038412313 102.11517427505851 0 102.11517427505851 190.42193381351171 0 0 0 0 652.46026245522808 204.668301190482 0 204.668301190482 -78.833904704777524 0 0 0 0 662.53200598084277 261.46720006256146 0 261.46720006256146 -228.67065697216458 0 0 0 0 5.1322916674015708 7.0273206307199416 0 7.0273206307199416 7.8063730415381585 0 0 0 0 -70.379523041719494 -172.79955755024093 0 -172.79955755024093 289.6399381925803 0 0 0 0 2.4198405756485819 3.4140884310493398 0 3.4140884310493398 4.1724894126351373 0 0 0 0 -46.895417490815674 111.94437569504254 0 111.94437569504254 484.35331036474599 0 0 0 0 53.104846206569277 246.85697566226736 0 246.85697566226736 381.13961038994057 0 0 0 0 128.98087850974599 -145.27480967137217 0 -145.27480967137217 686.9120227326639 0 0 0 0 80.56021026882695 -21.40955400978055 0 -21.40955400978055 419.07025062806497 0 0 0 0 10.412833079182803 27.88072536114305 0 27.88072536114305 590.61254234163061 0 0 0 0 68.514876631863331 -96.131206794010723 0 -96.131206794010723 261.94677784045052 0 0 0 0 -103.48402869019321 248.86314884843523 0 248.86314884843523 -39.560568379722099 0 0 0 0 2.59398156297694 5.334647303946781 0 5.334647303946781 7.9471207414922418 0 0 0 0 83.674146208679645 -160.37465213919677 0 -160.37465213919677 531.5995197418415 0 0 0 0 2.0522741114554082 1.7713311062175165 0 1.7713311062175165 2.5738469455106099 0 0 0 0 166.01384407321666 149.76190356391817 0 149.76190356391817 -227.74902060127351 0 0 0 0 97.387775763262425 19.889283008325947 0 19.889283008325947 -123.61046162838102 0 0 0 0 282.3525573181555 251.18504645493613 0 251.18504645493613 -115.28017993580579 0 0 0 0 161.8987188103581 84.729434739978387 0 84.729434739978387 -228.52916615630602 0 0 0 0 241.78201361262154 43.411902519568685 0 43.411902519568685 -210.30665244474221 0 0 0 0 177.05560391606832 224.88343472300403 0 224.88343472300403 146.24584242479978 0 0 0 0 1320.691691493917 1366.5854331478977 0 1366.5854331478977 -124.80677912256942 0 0 0 0 151.72044067261822 -27.012816320486309 0 -27.012816320486309 1570.5279801933075 0 0 0 0 395.56327218105457 -399.99352503628961 0 -399.99352503628961 1480.8953192362533 0 0 0 0 57.612628416947246 -139.43124860807075 0 -139.43124860807075 1626.0636038514131 0 0 0 0 183.18598326020674 225.78279867815945 0 225.78279867815945 636.45258006956283 0 0 0 0 90.355686108113787 409.31738278995181 0 409.31738278995181 823.22435483558456 0 0 0 0 97.181233451612115 200.93887335352701 0 200.93887335352701 629.49049026823923 0 0 0 0 -356.73917011690423 -1266.1392286180535 0 -1266.1392286180535 772.11929328231417 0 0 0 0 -0.29700819367863585 -1.3619372201055944 0 -1.3619372201055944 22.768397591740595 0 0 0 0 143.92295060681363 348.76083368863692 0 348.76083368863692 679.76423150793198 0 0 0 0 -0.62259336428910272 0.68925973590798151 0 0.68925973590798151 15.601515761313152 0 0 0 0 -528.05857575548839 -1252.1741172051698 0 -1252.1741172051698 846.27624078220833 0 0 0 0 -58.928085928123949 245.55599481970239 0 245.55599481970239 173.22524209994663 0 0 0 0 -50.841489796119248 -63.217637518436277 0 -63.217637518436277 933.74000282322595 0 0 0 0 116.42148142707268 172.08799835120681 0 172.08799835120681 -90.569772224276676 0 0 0 0 49.570291158712052 60.95589879630279 0 60.95589879630279 -66.423246794045554 0 0 0 0 -472.86322552718525 -1359.8437854402309 0 -1359.8437854402309 813.85837069938862 0 0 0 0 0.088273348645882654 5.7696709426743684 0 5.7696709426743684 25.240261603068276 0 0 0 0 -397.23043322303533 72.313043888898392 0 72.313043888898392 60.41061493154848 0 0 0 0 -780.52438617438838 772.86422523553119 0 772.86422523553119 357.81100392627559 0 0 0 0 2.0302333703460533 78.574576587003321 0 78.574576587003321 -1.6176499978664651 0 0 0 0 -140.99388485731572 212.77067462895866 0 212.77067462895866 74.356488797924612 0 0 0 0 85.643400782350781 134.5962547917843 0 134.5962547917843 -110.36232983899754 0 0 0 0 17.117788566147055 64.853199840117668 0 64.853199840117668 19.296326069959832 0 0 0 0 -66.38189542483795 106.98116758120068 0 106.98116758120068 444.82564628613545 0 0 0 0 198.28120848656798 113.05179339774895 0 113.05179339774895 32.108781431012176 0 0 0 0 66.403659838887421 134.92917573897284 0 134.92917573897284 474.28030063813821 0 0 0 0 0.27894935025782952 -1.5485788079061891 0 -1.5485788079061891 4.9202580026715168 0 0 0 0 -410.26919103462302 53.959964602766377 0 53.959964602766377 244.71384678364848 0 0 0 0 -0.21167883730329498 -2.0844274396176967 0 -2.0844274396176967 11.052081937589222 0 0 0 0 6.5163197767643908 218.38809434662471 0 218.38809434662471 -38.007231468556711 0 0 0 0 -151.67547341853594 116.57362784672478 0 116.57362784672478 13.79655059869765 0 0 0 0 67.912826989201619 21.211185763006142 0 21.211185763006142 -89.476687359302559 0 0 0 0 90.943827929483064 265.09493369244228 0 265.09493369244228 143.47076476117991 0 0 0 0 5.8500817121239663 376.32935333672003 0 376.32935333672003 506.93900240831863 0 0 0 0 -122.82432778931957 96.131276621024881 0 96.131276621024881 807.45579286034081 0 0 0 0 -375.81001744400078 -332.71606752356729 0 -332.71606752356729 694.47353729005408 0 0 0 0 14.000565942602222 432.3250696763107 0 432.3250696763107 866.08331712504514 0 0 0 0 -0.077854592239952392 -1.0376308109021632 0 -1.0376308109021632 5.7554340250845257 0 0 0 0 -53.863300764224164 59.943769250807236 0 59.943769250807236 1111.6529990801778 0 0 0 0 33.618619020060862 10.123756768502062 0 10.123756768502062 1109.5871599925449 0 0 0 0 1.718927686720531 1.9377866155931756 0 1.9377866155931756 3.6643060462108394 0 0 0 0 181.52267411882531 -462.38504165168706 0 -462.38504165168706 540.76646933014854 0 0 0 0 -138.34539117003214 -30.305999961223279 0 -30.305999961223279 1193.5645911730226 0 0 0 0 -135.24762766929882 -29.250836351266344 0 -29.250836351266344 570.51133019747067 0 0 0 0 -39.718229759094697 -70.583931696211948 0 -70.583931696211948 582.37786304727888 0 0 0 0 30.134657786594971 -75.874315476514312 0 -75.874315476514312 233.63866084128699 0 0 0 0 1.780232720763443 1.053574166403564 0 1.053574166403564 0.6872271501507754 0 0 0 0 64.377835229011652 -102.51079618079621 0 -102.51079618079621 168.54543160222238 0 0 0 0 55.326175831618883 5.747158726507223 0 5.747158726507223 -33.245375740472809 0 0 0 0 38.96142238579057 -34.539262623495233 0 -34.539262623495233 -43.213583954184287 0 0 0 0 2.8071618526356588 3.1014827876460913 0 3.1014827876460913 6.5021374674142862 0 0 0 0 1.6006167264930897 -0.013051655825002229 0 -0.013051655825002229 0.095652921052668205 0 0 0 0 1.2216026977482897 1.9911622220138163 0 1.9911622220138163 5.6112115196408183 0 0 0 0 -11.687598123685063 50.028361505744215 0 50.028361505744215 -34.13066628845263 0 0 0 0 -0.10610427466242497 -0.089079289175444387 0 -0.089079289175444387 9.1067796315311469 0 0 0 0 1.1921889993281904 2.0593893466314759 0 2.0593893466314759 8.9565255521000751 0 0 0 0 108.56296525585049 39.512215940070746 0 39.512215940070746 -16.132237152974994 0 0 0 0 172.20658880853057 -7.7973843340751046 0 -7.7973843340751046 18.81484964777701 0 0 0 0 34.838941858602766 55.073014173882257 0 55.073014173882257 79.497748930521993 0 0 0 0 215.00643073697074 -46.743323462414992 0 -46.743323462414992 -5.2987694728872157 0 0 0 0 3.7620574174915524 5.5145648009818835 0 5.5145648009818835 8.0942495234974388 0 0 0 0 229.61452217778174 -77.368139405933107 0 -77.368139405933107 57.838025487362756 0 0 0 0 404.91980961422337 37.101324254224892 0 37.101324254224892 -110.80622098907043 0 0 0 0 130.58924185389333 103.62516469858747 0 103.62516469858747 -68.45148367400725 0 0 0 0 219.6759618474938 33.293650530295054 0 33.293650530295054 -55.993489077256527 0 0 0 0 137.56647945960594 116.35160110567995 0 116.35160110567995 -42.723256964818574 0 0 0 0 -2.9452608500969291 203.85451919232946 0 203.85451919232946 -97.326992180741399 0 0 0 0 115.20932170405467 73.23298749283731 0 73.23298749283731 -128.27838742903987 0 0 0 0 -283.21996845536478 -20.332918512465767 0 -20.332918512465767 23.448015718015085 0 0 0 0 -22.821578842019306 24.801698508519621 0 24.801698508519621 -144.81219936874186 0 0 0 0 -196.318605361339 295.29442971286244 0 295.29442971286244 -139.97698031536493 0 0 0 0 -3.8448747649838424 103.95181030346157 0 103.95181030346157 184.76848939389311 0 0 0 0 665.28365454180334 -151.89715913799955 0 -151.89715913799955 35.495426251556637 0 0 0 0 487.78479909632085 339.09125098708319 0 339.09125098708319 278.40295357019932 0 0 0 0 307.37317468647529 -592.56611166575703 0 -592.56611166575703 1002.7146232516679 0 0 0 0 523.44062967767798 -575.53388155640823 0 -575.53388155640823 862.51208020700506 0 0 0 0 396.78255843600823 521.37880061665555 0 521.37880061665555 -73.712391934943298 0 0 0 0 -432.96395522978537 -1203.101747342278 0 -1203.101747342278 803.15525217086179 0 0 0 0 315.63437793745084 342.39671552842083 0 342.39671552842083 128.43574591793003 0 0 0 0 92.868381982528263 -25.319894680966172 0 -25.319894680966172 -61.163116406551126 0 0 0 0 -157.80313023035933 20.113739371518022 0 20.113739371518022 43.288309796640533 0 0 0 0 -1348.4728730880124 256.83115645883572 0 256.83115645883572 532.49571294533962 0 0 0 0 -1.6299515691051121 1.1922194719468164 0 1.1922194719468164 52.092357725010714 0 0 0 0 -1.6068524814889786 3.8579577521875761 0 3.8579577521875761 59.848346721507141 0 0 0 0 -271.41804739127588 65.495450229167545 0 65.495450229167545 81.087341913487762 0 0 0 0 -710.00175467130623 173.94127269072851 0 173.94127269072851 107.29949826820121 0 0 0 0 -67.895053237146612 33.778602244572539 0 33.778602244572539 22.54439892487062 0 0 0 0 -76.209203230823618 71.040061543175398 0 71.040061543175398 29.537045761113404 0 0 0 0 78.671783211073745 118.6387353365717 0 118.6387353365717 3.9118550453276839 0 0 0 0 -0.83694758329191232 2.6528906667927057 0 2.6528906667927057 0.66925157045753281 0 0 0 0 35.367255854241535 93.103344507915608 0 93.103344507915608 80.159132324933125 0 0 0 0 137.22913869969815 122.219542604249 0 122.219542604249 82.252585654729046 0 0 0 0 300.18262350043756 273.59805143452104 0 273.59805143452104 195.8796273289081 0 0 0 0 -0.57416928888621277 1.9338732297550809 0 1.9338732297550809 0.68264146483599575 0 0 0 0 -186.66052604574281 88.711027388182629 0 88.711027388182629 53.02208909404726 0 0 0 0 59.919555165475799 186.90476463761297 0 186.90476463761297 361.81898730567627 0 0 0 0 85.808216638196939 298.57297143187981 0 298.57297143187981 212.95703881655936 0 0 0 0 65.957356615936916 187.52690557689994 0 187.52690557689994 251.73480984709749 0 0 0 0 -100.74796865339431 115.28746488483921 0 115.28746488483921 84.341328781822085 0 0 0 0 82.518638287598151 233.98643712396733 0 233.98643712396733 89.175699116844442 0 0 0 0 304.00150941691442 177.98220742180592 0 177.98220742180592 -35.199263554859499 0 0 0 0 -0.45717490714400716 1.6044840977227075 0 1.6044840977227075 0.33869630759690494 0 0 0 0 -167.50841439560401 60.221506194966423 0 60.221506194966423 56.58079215138423 0 0 0 0 -94.347252144427216 78.143511001439037 0 78.143511001439037 96.687575905916674 0 0 0 0 -470.42307733495204 93.046637605495562 0 93.046637605495562 123.7524678660775 0 0 0 0 -91.261669698443143 72.601451494160756 0 72.601451494160756 3.4381540987451444 0 0 0 0 -291.65102000154576 97.98436697256318 0 97.98436697256318 133.67406284834215 0 0 0 0 -1.4062380350369827 4.3356052044305722 0 4.3356052044305722 60.231180073008659 0 0 0 0 -91.060112772216115 99.320749707007053 0 99.320749707007053 -33.853983096894808 0 0 0 0 -670.9528082217148 146.2410271715853 0 146.2410271715853 148.46927290099484 0 0 0 0 -59.542700101102298 88.92803969560191 0 88.92803969560191 35.579155172617902 0 0 0 0 -1.2726027265390305 3.1807508921823513 0 3.1807508921823513 56.16922993208297 0 0 0 0 -81.646655167696423 92.171158711160388 0 92.171158711160388 50.370014737225574 0 0 0 0 -89.513738500292789 34.819292063362809 0 34.819292063362809 24.258686452447364 0 0 0 0 -21.956390326420205 46.27720543048963 0 46.27720543048963 18.952025329610478 0 0 0 0 -50.173515144018893 51.313768970134333 0 51.313768970134333 31.055389837423718 0 0 0 0 -73.553493654729209 25.268346029468375 0 25.268346029468375 25.65250370767717 0 0 0 0 -38.145403456912845 96.56186269283171 0 96.56186269283171 38.268975577346282 0 0 0 0 -14.207862511621897 67.881922376973307 0 67.881922376973307 -1.6113207081580185 0 0 0 0 0.93440021762212666 227.78661652982794 0 227.78661652982794 217.17293550414615 0 0 0 0 117.77508081973679 85.606171239884134 0 85.606171239884134 -0.36707006902361172 0 0 0 0 0.10785091028413696 -0.56404767120721289 0 -0.56404767120721289 1.115191779229562 0 0 0 0 -1.1666796871245424 12.776680812506129 0 12.776680812506129 26.063517528455122 0 0 0 0 -16.882473980742589 44.870698744047331 0 44.870698744047331 1.0078563360366388 0 0 0 0 -4.5419128303469662 -20.009321098867076 0 -20.009321098867076 -3.8957710052563925 0 0 0 0 -27.592489606997759 -25.328084942607802 0 -25.328084942607802 7.3570380549608672 0 0 0 0 137.79019579179999 92.966553545102215 0 92.966553545102215 81.488612974382704 0 0 0 0 -0.20866672008423848 12.210830333370723 0 12.210830333370723 20.497983518827823 0 0 0 0 -2.8458464953694627 3.5118553696576837 0 3.5118553696576837 22.111724920799233 0 0 0 0 3.166135614948395 0.5338876488659352 0 0.5338876488659352 5.0504177333587137 0 0 0 0 -6.3415755493704449 -9.8359403812792152 0 -9.8359403812792152 7.7806203859618108 0 0 0 0 5.9301340878809485 -18.545346827027743 0 -18.545346827027743 0.55141256658680504 0 0 0 0 7.4091273307611907 -2.1390781972277182 0 -2.1390781972277182 12.016272838649456 0 0 0 0 0.38540328595559714 -23.238728300852927 0 -23.238728300852927 -3.2599512771012087 0 0 0 0 4.9364875429343087 -32.778447085573134 0 -32.778447085573134 -28.826698491779098 0 0 0 0 57.734127583622723 -2.8830496789805693 0 -2.8830496789805693 -31.920894493901869 0 0 0 0 -2.7970655158133253 3.1675958521708836 0 3.1675958521708836 29.421836210568969 0 0 0 0 -145.58583545664027 -75.647237816548113 0 -75.647237816548113 10.260181055189605 0 0 0 0 62.994047520323562 4.5977843934324483 0 4.5977843934324483 -36.893377154516486 0 0 0 0 -6.0541530946233664 -112.15493488644643 0 -112.15493488644643 -36.891025933495257 0 0 0 0 259.5259555216864 56.788843218339025 0 56.788843218339025 25.541636604322775 0 0 0 0 89.244617470271223 -72.235820050928851 0 -72.235820050928851 185.18036479043803 0 0 0 0 -292.86211284824185 -141.18459848320981 0 -141.18459848320981 224.29667291680016 0 0 0 0 -175.76212697427559 164.26776758303276 0 164.26776758303276 720.72006616129374 0 0 0 0 244.21002824175494 -4.1813361153515416 0 -4.1813361153515416 70.166058992985199 0 0 0 0 66.52897253673774 346.95375420054461 0 346.95375420054461 1233.1255852630311 0 0 0 0 365.74889371289726 363.08248347251811 0 363.08248347251811 405.82765320907492 0 0 0 0 -402.9733065962468 715.73353431560349 0 715.73353431560349 3500.7300976511178 0 0 0 0 -328.25845821546875 670.26614531900168 0 670.26614531900168 2363.4003683302508 0 0 0 0 999.55004878138823 1120.8452935703881 0 1120.8452935703881 490.51521496866644 0 0 0 0 -0.51961301045437325 2.2913536582795242 0 2.2913536582795242 17.544806092560677 0 0 0 0 139.41532632167375 1625.266691770561 0 1625.266691770561 3494.5077630907103 0 0 0 0 1378.3261916171905 1987.9003638434751 0 1987.9003638434751 2333.4109275503943 0 0 0 0 -716.82419562363918 54.424702157179127 0 54.424702157179127 3492.3375099913837 0 0 0 0 -604.79139036600316 -893.12236315505697 0 -893.12236315505697 1243.9346519366009 0 0 0 0 193.19633748729893 425.91406329297934 0 425.91406329297934 -91.568505961538904 0 0 0 0 -2.8554288354146378 2.2425167151364676 0 2.2425167151364676 35.567147122354058 0 0 0 0 -575.95942066964062 109.8920160310372 0 109.8920160310372 54.785337209676072 0 0 0 0 -237.88192763554162 52.975804374623749 0 52.975804374623749 60.140127616017708 0 0 0 0 -3.0334998666932877 2.3335653501864169 0 2.3335653501864169 34.894762069725402 0 0 0 0 -85.992294244445702 83.030936097296944 0 83.030936097296944 -2.09906868554026 0 0 0 0 -48.735771526937924 16.504031102809222 0 16.504031102809222 56.912099682613189 0 0 0 0 -813.61192121892827 -612.29550755522359 0 -612.29550755522359 3495.0461775251001 0 0 0 0 -395.96231544777152 127.33156953212892 0 127.33156953212892 589.59929292315792 0 0 0 0 -208.08154236041429 -23.298502458055736 0 -23.298502458055736 -77.324240839709091 0 0 0 0 -1006.2498416000055 -161.26881678872269 0 -161.26881678872269 592.55963363236515 0 0 0 0 90.918303957546357 4.8764542041171808 0 4.8764542041171808 -127.10331952413253 0 0 0 0 -0.93442703311284703 0.30432714726598409 0 0.30432714726598409 46.946214493598546 0 0 0 0 447.07717759241916 -1551.1276400743604 0 -1551.1276400743604 1102.4788190111285 0 0 0 0 340.86675205235895 -109.0629098186173 0 -109.0629098186173 -76.238121742353542 0 0 0 0 559.75779815611872 776.56863851026174 0 776.56863851026174 1279.0296893538398 0 0 0 0 -715.88616537854432 50.785509861307673 0 50.785509861307673 3492.0925106034847 0 0 0 0 0.86214898738900125 -1.1818371012525128 0 -1.1818371012525128 20.371806059939729 0 0 0 0 -25.503824515986025 -357.86113617348383 0 -357.86113617348383 1657.7338981068569 0 0 0 0 238.59203365108522 -284.77517837350206 0 -284.77517837350206 511.90141777830286 0 0 0 0 -93.620024682308895 228.94014106334544 0 228.94014106334544 411.61044761115772 0 0 0 0 232.25300292126997 0.62242793014775089 0 0.62242793014775089 90.652362939259405 0 0 0 0 413.55289060212499 33.627161342771615 0 33.627161342771615 64.2393408562275 0 0 0 0 449.01962431828031 -33.107107396832362 0 -33.107107396832362 17.767160252677513 0 0 0 0 1227.845122583866 -425.5464777585139 0 -425.5464777585139 214.74304082301205 0 0 0 0 886.71860038167631 394.69791474450994 0 394.69791474450994 327.19130594379021 0 0 0 0 -31.073652731445691 136.89152787248167 0 136.89152787248167 161.7641249796493 0 0 0 0 -148.08409582797049 -107.53957363706422 0 -107.53957363706422 84.000375660765712 0 0 0 0 33.207309649531453 14.102059088199894 0 14.102059088199894 -35.751436729027773 0 0 0 0 60.690376669957004 103.76399119336929 0 103.76399119336929 58.743127913498029 0 0 0 0 15.870849366081529 -17.08236796291385 0 -17.08236796291385 30.146268757183861 0 0 0 0 61.856370411549506 -8.080983377283701 0 -8.080983377283701 -29.888161281058274 0 0 0 0 354.25260286553748 128.32240893402195 0 128.32240893402195 29.481346421885974 0 0 0 0 375.80922717015619 141.11786786813173 0 141.11786786813173 73.94212448272765 0 0 0 0 347.08977194999215 70.052295317260814 0 70.052295317260814 -12.744828075137775 0 0 0 0 149.70355866459499 13.377422545517561 0 13.377422545517561 7.7528967282742087 0 0 0 0 160.34197535522617 88.053630034244634 0 88.053630034244634 32.244010196420277 0 0 0 0 115.49569070230245 60.598981084394836 0 60.598981084394836 14.072344887455984 0 0 0 0 387.50110754806065 64.037268616439178 0 64.037268616439178 -44.695776141461465 0 0 0 0 388.18795537207887 119.82598097148285 0 119.82598097148285 1.6917418624252605 0 0 0 0 346.16590160162377 115.45178770185612 0 115.45178770185612 7.2778968244383577 0 0 0 0 536.91710988347813 94.420148924204113 0 94.420148924204113 -36.026762052541017 0 0 0 0 535.47369822219559 73.009300900947949 0 73.009300900947949 37.77408768877649 0 0 0 0 588.55362751417488 146.93631825888951 0 146.93631825888951 -24.843392702443452 0 0 0 0 714.88076011562111 -43.230781328980811 0 -43.230781328980811 -47.992586710241085 0 0 0 0 427.61258181695962 -168.72142805975182 0 -168.72142805975182 -17.141144948163856 0 0 0 0 416.41512662350146 -27.570827055547852 0 -27.570827055547852 -45.979782383676138 0 0 0 0 296.46373292383419 -16.583482894739063 0 -16.583482894739063 138.83953464225669 0 0 0 0 278.05844187029197 -29.666736778458471 0 -29.666736778458471 325.23802400336444 0 0 0 0 0.14980262887303342 0.48446423727024968 0 0.48446423727024968 8.6982041736147835 0 0 0 0 371.51639692158017 228.47834865327422 0 228.47834865327422 -126.59856756960471 0 0 0 0 -16.982135149501929 -269.59198722502606 0 -269.59198722502606 141.71401764292204 0 0 0 0 445.55646360970525 -194.90255329870365 0 -194.90255329870365 -181.93724070510325 0 0 0 0 0.36179858408810284 -2.1809365168895471 0 -2.1809365168895471 12.551487982563017 0 0 0 0 2.6899703927534802 -10.262996739545997 0 -10.262996739545997 -4.8685076207402744 0 0 0 0 0.79348155310549373 -18.17095458075346 0 -18.17095458075346 -14.817268531424816 0 0 0 0 0.7101965296301852 -1.1900021343329001 0 -1.1900021343329001 -1.579334613847081 0 0 0 0 -213.04972961231567 332.13772328977029 0 332.13772328977029 510.47233037452588 0 0 0 0 -430.13194948710054 -69.223532793255345 0 -69.223532793255345 85.911646208533057 0 0 0 0 -108.41448521507277 232.57649269125614 0 232.57649269125614 22.239372457479021 0 0 0 0 33.45864627756157 23.105416892823541 0 23.105416892823541 -101.17788420500801 0 0 0 0 4.1256351374109883 5.9689087043334439 0 5.9689087043334439 -37.955870314010099 0 0 0 0 39.748972727241167 1.9302118977593636 0 1.9302118977593636 0.21220397403567404 0 0 0 0 0.79567612293959966 0.91440082925737443 0 0.91440082925737443 0.37992553912691562 0 0 0 0 1.9947042371204904 3.304877961010547 0 3.304877961010547 5.929030337687216 0 0 0 0 21.009841836632219 -26.05439738354471 0 -26.05439738354471 -35.055806645431858 0 0 0 0 86.534159702889241 98.149206280762883 0 98.149206280762883 119.13144888574243 0 0 0 0 -79.038118740608695 51.071260865515796 0 51.071260865515796 -105.35297847874608 0 0 0 0 -15.852204751073501 70.857814940845856 0 70.857814940845856 228.4718356717276 0 0 0 0 1.2550011930137672 1.5879993236337988 0 1.5879993236337988 1.5375971002605695 0 0 0 0 82.274297279116553 470.85999024403736 0 470.85999024403736 -254.15406181410071 0 0 0 0 66.910860319161941 260.85883678250502 0 260.85883678250502 320.86735496528763 0 0 0 0 45.1980273868393 -12.808922077339957 0 -12.808922077339957 7.4064890161498624 0 0 0 0 31.340828692006745 150.64950995247091 0 150.64950995247091 73.453490419004083 0 0 0 0 454.24996189203296 -71.952649820104853 0 -71.952649820104853 -178.3314450484387 0 0 0 0 -368.27001276658234 282.18313846223737 0 282.18313846223737 489.54896000235021 0 0 0 0 -716.98107003523387 -186.14314891700178 0 -186.14314891700178 478.07629972189625 0 0 0 0 -0.85217745510355303 2.2628090104448502 0 2.2628090104448502 21.180123647317949 0 0 0 0 217.65081254527752 -208.74445381469565 0 -208.74445381469565 -49.499515922860155 0 0 0 0 205.60377915537035 75.718798388061828 0 75.718798388061828 1609.4928502353196 0 0 0 0 738.65908702661261 1226.8889779046617 0 1226.8889779046617 1133.6619857738006 0 0 0 0 488.18588806317484 772.64196009817533 0 772.64196009817533 535.74660816531832 0 0 0 0 163.96013686415017 908.44144968403998 0 908.44144968403998 609.00598157034801 0 0 0 0 330.0114131328852 932.01247865149799 0 932.01247865149799 396.54898923837391 0 0 0 0 -576.13252979925471 -188.45409405320126 0 -188.45409405320126 689.16685115319706 0 0 0 0 -0.40091588406325929 1.886346494965605 0 1.886346494965605 12.47944084582376 0 0 0 0 246.94707844949599 825.91639873935947 0 825.91639873935947 660.52860056949794 0 0 0 0 112.75874763148221 -18.84209967204697 0 -18.84209967204697 378.31355535346484 0 0 0 0 183.74502214755657 191.79874803033454 0 191.79874803033454 71.797773576876352 0 0 0 0 114.4315577304564 -41.750347466508174 0 -41.750347466508174 -317.33515533751597 0 0 0 0 -107.66234735083552 299.8971217608414 0 299.8971217608414 1195.7334710293107 0 0 0 0 -114.20589410778473 -186.294621072464 0 -186.294621072464 1051.5863363435565 0 0 0 0 143.86264935279632 129.1620476951648 0 129.1620476951648 424.89979214047708 0 0 0 0 -223.28974540006823 95.290327660268304 0 95.290327660268304 1602.7957591647328 0 0 0 0 -170.78799223451415 12.942282094518305 0 12.942282094518305 1568.529620341933 0 0 0 0 -135.45599050161874 89.376872725978501 0 89.376872725978501 1331.7455342169123 0 0 0 0 99.209103496514444 -186.15605267387946 0 -186.15605267387946 1635.2087513340994 0 0 0 0 690.17645305621306 275.04576357217957 0 275.04576357217957 1196.1964682113173 0 0 0 0 -58.15102217741525 -1010.4407923347717 0 -1010.4407923347717 3492.7928487694171 0 0 0 0 -208.15162470920629 31.150191114096742 0 31.150191114096742 1801.6447319941508 0 0 0 0 -755.28304452165276 205.19608534763574 0 205.19608534763574 1292.147603296522 0 0 0 0 0.52477454514308586 -8.9302293915065363 0 -8.9302293915065363 28.787299494422207 0 0 0 0 -829.93898774281536 -270.48079052577805 0 -270.48079052577805 1345.8336644133169 0 0 0 0 958.08223239638437 378.84905590795734 0 378.84905590795734 -91.90000752549895 0 0 0 0 1.2796209668995862 -4.0958028340850809 0 -4.0958028340850809 16.227410943889026 0 0 0 0 348.00416115775903 -1163.1490640532011 0 -1163.1490640532011 406.02552524244902 0 0 0 0 75.651236739355937 1705.3951872641574 0 1705.3951872641574 3494.4867776933561 0 0 0 0 -224.32126536431849 710.355571317873 0 710.355571317873 1364.4056709044953 0 0 0 0 -367.53562703797445 539.94295824783694 0 539.94295824783694 3500.248421443373 0 0 0 0 456.89031831840322 83.031596215710579 0 83.031596215710579 1743.3192840960464 0 0 0 0 -55.841377904173839 516.36528371429404 0 516.36528371429404 1414.6217930100147 0 0 0 0 990.35239758167017 -1181.9805116990274 0 -1181.9805116990274 326.93692619592548 0 0 0 0 708.13240565136755 -530.3158738946313 0 -530.3158738946313 872.68998584475958 0 0 0 0 153.93922206444856 -1068.9919193190663 0 -1068.9919193190663 360.34618461909668 0 0 0 0 1.4674330224655379 -4.1846571147952325 0 -4.1846571147952325 12.59638873284603 0 0 0 0 51.151707411283951 -70.241710082245845 0 -70.241710082245845 -100.31560951450501 0 0 0 0 13.065119235939399 -13.71537068957791 0 -13.71537068957791 13.933534351593906 0 0 0 0 259.60857355158578 95.261032451184292 0 95.261032451184292 3.5118530631025351 0 0 0 0 -49.556735507110716 -261.42066383873134 0 -261.42066383873134 75.878881229305534 0 0 0 0 6.8046864046264606 -6.0016305654828663 0 -6.0016305654828663 5.7650385315362556 0 0 0 0 1441.0644264435857 -484.20557110135678 0 -484.20557110135678 -76.888012093815632 0 0 0 0 -242.37830705790569 -126.57992769148018 0 -126.57992769148018 1575.8044142797271 0 0 0 0 605.47789720488822 -38.129343286883341 0 -38.129343286883341 -102.0819638119392 0 0 0 0 464.38262203277003 -545.43859076176886 0 -545.43859076176886 2693.5847946217755 0 0 0 0 75.633550876270874 -1110.0808265767009 0 -1110.0808265767009 3045.4630613525333 0 0 0 0 551.35230696649751 -1099.1557113780123 0 -1099.1557113780123 1614.0801891458825 0 0 0 0 34.796714580170509 -747.21477307105465 0 -747.21477307105465 3499.0140106391523 0 0 0 0 359.11012000753163 -560.70180622114356 0 -560.70180622114356 3246.6966166583511 0 0 0 0 -221.54717914076915 -1306.8389674652867 0 -1306.8389674652867 3432.318915112493 0 0 0 0 738.81315746096084 -915.84095731552497 0 -915.84095731552497 3499.521158350381 0 0 0 0 -79.742249851829371 -1114.2683621009328 0 -1114.2683621009328 3778.9797398219907 0 0 0 0 -139.35335795312625 -759.39866410854836 0 -759.39866410854836 2812.6887594760306 0 0 0 0 329.82132802838186 402.4918785852567 0 402.4918785852567 -191.7074799367972 0 0 0 0 502.71772153355414 -71.279531333868931 0 -71.279531333868931 -197.07252662624751 0 0 0 0 617.425222784379 -1272.5296531710464 0 -1272.5296531710464 1628.6896814924658 0 0 0 0 867.95622273646404 -1032.2696381986611 0 -1032.2696381986611 442.15636227720097 0 0 0 0 2.0483196394811656 -4.3252965695531307 0 -4.3252965695531307 11.181911816960042 0 0 0 0 -61.045925798006181 246.24086627837369 0 246.24086627837369 2539.300469137831 0 0 0 0 215.5273275563768 1184.8475818108618 0 1184.8475818108618 2268.3303495754553 0 0 0 0 -664.0943103311057 899.99660247158135 0 899.99660247158135 3500.4633970205678 0 0 0 0 1.2622623971276425 257.79015843239176 0 257.79015843239176 1280.2270077269968 0 0 0 0 244.34316861945672 1416.08534800695 0 1416.08534800695 4099.5847704534135 0 0 0 0 1.8798416900500159 3.3937594554377983 0 3.3937594554377983 21.745392296392296 0 0 0 0 1405.9931212815536 1260.4428754998303 0 1260.4428754998303 1160.0559744045022 0 0 0 0 3283.6064927673547 13.958054623493808 0 13.958054623493808 3502.026640775036 0 0 0 0 613.70953401229713 -1443.7919496626278 0 -1443.7919496626278 2505.4709320247466 0 0 0 0 396.01723783532179 -167.10419950063806 0 -167.10419950063806 -440.74191186805183 0 0 0 0 646.45251899685263 579.06227271118496 0 579.06227271118496 216.54993746845139 0 0 0 0 178.00852588072343 907.92860814187998 0 907.92860814187998 913.98878146282914 0 0 0 0 97.573952639760023 333.94475739532709 0 333.94475739532709 586.63438992322335 0 0 0 0 -196.96277081678784 490.89967729248201 0 490.89967729248201 529.5714679917528 0 0 0 0 -9.5125155221145405 89.147866571151098 0 89.147866571151098 43.853506885311617 0 0 0 0 -117.75736757210578 46.214690395486286 0 46.214690395486286 312.31598682168988 0 0 0 0 -416.3943259102341 95.327611761495973 0 95.327611761495973 359.59346898888725 0 0 0 0 1.4078666611078166 10.050721639591798 0 10.050721639591798 48.804301934448254 0 0 0 0 -112.60587648334024 39.103404402256501 0 39.103404402256501 -40.81316770329795 0 0 0 0 -74.635061947369735 -113.76593086880393 0 -113.76593086880393 55.262705050216027 0 0 0 0 -117.44324200479332 -152.8340232593946 0 -152.8340232593946 85.531451948914764 0 0 0 0 -17.540466357210676 -142.47839370655083 0 -142.47839370655083 415.47019937643563 0 0 0 0 -5.9729937989717996 -147.68713896084228 0 -147.68713896084228 56.532223875647105 0 0 0 0 -298.11433655174119 -5.4570371853103552 0 -5.4570371853103552 99.776155651800764 0 0 0 0 56.832229432472332 381.15733440307758 0 381.15733440307758 331.35141614325653 0 0 0 0 3.7832885613183547 -10.124633207487857 0 -10.124633207487857 23.387142606602765 0 0 0 0 65.502990321533559 8.5852014895780258 0 8.5852014895780258 -210.39291562913809 0 0 0 0 25.326748371508216 -33.123338976790023 0 -33.123338976790023 6.3379631510820218 0 0 0 0 -213.27119281741307 219.2468571227854 0 219.2468571227854 -52.383023832759136 0 0 0 0 -0.15737474205968738 44.021386034183251 0 44.021386034183251 57.599056836954674 0 0 0 0 2.6127909542478713 4.0349023771544017 0 4.0349023771544017 61.390844804363503 0 0 0 0 -154.87754338527714 -101.29829472630672 0 -101.29829472630672 78.571092250153015 0 0 0 0 42.533515113355406 94.393626270455115 0 94.393626270455115 34.689486483519431 0 0 0 0 110.12513320212315 46.999015727168626 0 46.999015727168626 -4.1217145644677657 0 0 0 0 26.893194412829416 31.032159969988243 0 31.032159969988243 -0.31068342403568749 0 0 0 0 -32.115142669952093 70.51145606594082 0 70.51145606594082 39.916799165972407 0 0 0 0 13.545384967963139 -15.670941701544169 0 -15.670941701544169 17.328755100552254 0 0 0 0 25.086675800137982 2.580112183921301 0 2.580112183921301 23.760908337515502 0 0 0 0 -136.12393273626913 -95.842615221918095 0 -95.842615221918095 -14.491669612594706 0 0 0 0 2.4655375314567713 -4.5170391344180665 0 -4.5170391344180665 5.5002028858311895 0 0 0 0 -19.990722613516482 -88.252260154580654 0 -88.252260154580654 -73.579957263720644 0 0 0 0 -18.641320825546302 -44.611969689012227 0 -44.611969689012227 -10.073798056764645 0 0 0 0 -135.25379094263008 -46.27569552492605 0 -46.27569552492605 14.349306158917898 0 0 0 0 -58.708350942019024 40.981501636848407 0 40.981501636848407 -11.277533204976862 0 0 0 0 10.352629635790436 -23.822886906851636 0 -23.822886906851636 20.412368794432041 0 0 0 0 -62.303030234487778 -215.70325800813816 0 -215.70325800813816 30.62084270862033 0 0 0 0 7.6623949675838556 -14.398559301604607 0 -14.398559301604607 -1.6069359864395523 0 0 0 0 48.312766795340394 -20.717338831609595 0 -20.717338831609595 -25.201733803829484 0 0 0 0 13.1224469017411 -14.643500815334946 0 -14.643500815334946 10.034104126860559 0 0 0 0 6.0150245052965481 -6.884955295217523 0 -6.884955295217523 23.419261548332798 0 0 0 0 6.8135060768440781 -10.851011395846399 0 -10.851011395846399 62.29381701708553 0 0 0 0 4.2642745970151754 -3.4027368979434591 0 -3.4027368979434591 32.865575629940764 0 0 0 0 -49.148206904878293 -1.575541759626617 0 -1.575541759626617 62.279813387200193 0 0 0 0 70.618500999753223 8.9128150333190206 0 8.9128150333190206 64.999903687537881 0 0 0 0 -3.0534396172118159 -16.489354057915559 0 -16.489354057915559 45.103972653124998 0 0 0 0 1.7850370427320517 -34.238317999661831 0 -34.238317999661831 78.347131763310358 0 0 0 0 -22.00040204186007 -9.1711350321329519 0 -9.1711350321329519 21.858632126534758 0 0 0 0 3.2295970797573359 -7.9144824514244005 0 -7.9144824514244005 59.479134891523074 0 0 0 0 5.6389209942735761 -9.4959321022561198 0 -9.4959321022561198 61.389754786667254 0 0 0 0 -15.4697530599692 -13.930455609046483 0 -13.930455609046483 14.420170927579139 0 0 0 0 -78.222144699708593 -114.70761623511953 0 -114.70761623511953 55.527407952733483 0 0 0 0 4.7354385578710207 -53.805156281210657 0 -53.805156281210657 109.87688665807218 0 0 0 0 18.176775281482151 -75.286855490732705 0 -75.286855490732705 140.13227183125127 0 0 0 0 4.3018555793964879 -53.915913801496572 0 -53.915913801496572 111.28170939054326 0 0 0 0 21.811711055895103 -62.057883711668183 0 -62.057883711668183 110.69817630029138 0 0 0 0 8.921139737060912 -49.375852971848872 0 -49.375852971848872 102.33145908135339 0 0 0 0 37.110208040220186 -58.441261713481254 0 -58.441261713481254 92.670261978124472 0 0 0 0 12.996691125899559 -39.107920981258815 0 -39.107920981258815 91.900643815721196 0 0 0 0 -4.1971805164275793 -55.164323134988081 0 -55.164323134988081 110.66244046405791 0 0 0 0 -12.785186632012483 -51.271955122063446 0 -51.271955122063446 110.90408393118014 0 0 0 0 8.2972949298484764 -51.794421369819247 0 -51.794421369819247 104.17237134848256 0 0 0 0 5.2038751825675718 -50.064962298896717 0 -50.064962298896717 103.90998262702988 0 0 0 0 6.5073547929623601 -47.693828771083645 0 -47.693828771083645 101.7794817538288 0 0 0 0 -8.3265064055294715 -37.705658348450015 0 -37.705658348450015 101.60888567593429 0 0 0 0 19.431051628263958 -38.936720474725007 0 -38.936720474725007 72.698958382698038 0 0 0 0 25.92632927704426 -54.91865293340561 0 -54.91865293340561 94.944361108689918 0 0 0 0 -108.47155703189492 296.1509035562558 0 296.1509035562558 181.55768305101083 0 0 0 0 58.601678420649478 282.41863207536881 0 282.41863207536881 -52.440384561072278 0 0 0 0 42.593677612265765 -53.60885395517289 0 -53.60885395517289 92.771345924786146 0 0 0 0 35.430078703872368 -57.428733486364763 0 -57.428733486364763 92.182439483549388 0 0 0 0 29.579918980385628 -51.820456325283885 0 -51.820456325283885 86.082359606603859 0 0 0 0 29.171699688303761 -51.097760190600638 0 -51.097760190600638 93.769996380568045 0 0 0 0 35.824880183589812 -56.529264686558236 0 -56.529264686558236 93.100432658696263 0 0 0 0 27.692381308158929 -51.892645575201641 0 -51.892645575201641 94.48375519070396 0 0 0 0 35.560901200102535 -55.628928644818188 0 -55.628928644818188 101.20350379688534 0 0 0 0 27.362130098925263 -68.567889197842305 0 -68.567889197842305 121.57968926363901 0 0 0 0 36.445433048960695 -55.579666586016174 0 -55.579666586016174 101.18219709978439 0 0 0 0 30.696048437866011 -57.555143795150798 0 -57.555143795150798 124.53636054761955 0 0 0 0 31.349377395108604 -64.869388356240961 0 -64.869388356240961 94.136552394815737 0 0 0 0 24.754110919881896 -70.590778791211051 0 -70.590778791211051 130.71816581677967 0 0 0 0 -403.5549138517149 -86.229072255594474 0 -86.229072255594474 185.03012723432039 0 0 0 0 15.76756978510597 -46.73694891302241 0 -46.73694891302241 99.305485763263988 0 0 0 0 27.461112734701146 -64.646969202854052 0 -64.646969202854052 100.49264932817368 0 0 0 0 -434.98732539088269 3.0657717341423449 0 3.0657717341423449 45.15546637774969 0 0 0 0 -225.22496302913987 -445.07732287594081 0 -445.07732287594081 -67.222694452888391 0 0 0 0 -27.952071030496882 -170.57843139435408 0 -170.57843139435408 281.22531355197498 0 0 0 0 532.71991023258852 -258.59663561762864 0 -258.59663561762864 -7.0326201967618545 0 0 0 0 -2.069486161115492 -351.17236572504044 0 -351.17236572504044 174.85730377673462 0 0 0 0 10.748301704561527 -62.311859991194069 0 -62.311859991194069 -6.8853134846467583 0 0 0 0 91.535092190151772 -0.51298215580573014 0 -0.51298215580573014 -36.982696449784271 0 0 0 0 29.227430708491738 -0.19080077981197974 0 -0.19080077981197974 49.292050235610986 0 0 0 0 -73.383290448182379 -16.471145139700639 0 -16.471145139700639 39.879515010792602 0 0 0 0 -32.85543638978379 28.889780811437959 0 28.889780811437959 52.092144887275936 0 0 0 0 1.0380399504429079 -13.777362881737645 0 -13.777362881737645 15.142726802569257 0 0 0 0 -30.120349890239595 -51.063468248531535 0 -51.063468248531535 -6.6728533024070202 0 0 0 0 429.10121644615811 -279.50668378202727 0 -279.50668378202727 184.15878777193575 0 0 0 0 -0.11379209443129801 -6.6639215149888535 0 -6.6639215149888535 5.438770603221279 0 0 0 0 575.5025434907875 -378.54999099415727 0 -378.54999099415727 20.061331524600973 0 0 0 0 1.0221682930251816 -0.49862993473404771 0 -0.49862993473404771 0.91673003221900018 0 0 0 0 -2.7537285286881854 -30.622677630059457 0 -30.622677630059457 118.36914976391199 0 0 0 0 14.091586911346667 -31.385688484066122 0 -31.385688484066122 94.03598454827079 0 0 0 0 9.2158504146362077 -32.537527192542257 0 -32.537527192542257 93.897810956100784 0 0 0 0 -3.4859203593068742 -27.164482921303716 0 -27.164482921303716 98.453004719835008 0 0 0 0 -5.6202514711276308 -47.226824820607476 0 -47.226824820607476 116.04404151929339 0 0 0 0 -1.7776490920608694 -41.120919908964424 0 -41.120919908964424 118.5058005763749 0 0 0 0 10.919347594378678 -41.74721717143666 0 -41.74721717143666 117.29102115984278 0 0 0 0 3.2887320889238936 -36.842197749854677 0 -36.842197749854677 120.3888485110474 0 0 0 0 -0.48923858393294495 -43.505324296846993 0 -43.505324296846993 144.05291966460391 0 0 0 0 -0.19602327214767001 -32.155912356085537 0 -32.155912356085537 139.09369090226392 0 0 0 0 3.8409581942492537 -38.263833915754731 0 -38.263833915754731 136.90657672220937 0 0 0 0 -0.52554838091218414 -37.022163421746882 0 -37.022163421746882 137.22068489002049 0 0 0 0 8.7804776987874504 -37.029669283808616 0 -37.029669283808616 123.72734746818605 0 0 0 0 8.7369232544465376 -40.171585596468503 0 -40.171585596468503 122.40828440238874 0 0 0 0 38.908087829109945 -49.241769388424473 0 -49.241769388424473 114.74664278040018 0 0 0 0 21.248454460737321 -54.644220870987738 0 -54.644220870987738 138.5239975162367 0 0 0 0 35.147427714212199 -49.234263548129093 0 -49.234263548129093 114.75269377830625 0 0 0 0 36.37234227836052 -42.31621904324038 0 -42.31621904324038 127.76372504030223 0 0 0 0 34.505184953834032 -56.040836078725988 0 -56.040836078725988 117.82005907141138 0 0 0 0 38.138687854890577 -45.272580028164157 0 -45.272580028164157 97.824113406275501 0 0 0 0 42.616312775295228 -53.883038403373575 0 -53.883038403373575 87.870330948311675 0 0 0 0 21.190938961621214 -43.71789040650583 0 -43.71789040650583 114.90468767924358 0 0 0 0 29.75753807439321 -37.103119147345751 0 -37.103119147345751 90.998364309500175 0 0 0 0 37.247556166912773 -42.354019863721987 0 -42.354019863721987 91.298353662820546 0 0 0 0 29.425361842570581 -26.840292513910754 0 -26.840292513910754 62.448904066506657 0 0 0 0 48.71480252483093 -47.01482539018798 0 -47.01482539018798 65.852398075156088 0 0 0 0 69.153194838537047 -65.779187150537837 0 -65.779187150537837 74.029605509928842 0 0 0 0 54.648600445054868 -34.996535346025212 0 -34.996535346025212 23.494948299201496 0 0 0 0 40.350587546483666 -63.01947893436818 0 -63.01947893436818 86.010447693264723 0 0 0 0 52.005160397952295 -55.688535194285578 0 -55.688535194285578 87.41507650382664 0 0 0 0 55.963172442082396 -82.503928561067369 0 -82.503928561067369 98.564642917588571 0 0 0 0 29.491885139402939 -52.81740408024416 0 -52.81740408024416 129.90608658737983 0 0 0 0 55.278952139967643 -74.128736336986208 0 -74.128736336986208 69.102182636677753 0 0 0 0 50.100849156010099 -48.34784811604186 0 -48.34784811604186 27.884023737613461 0 0 0 0 91.887317075846084 -117.28755131703997 0 -117.28755131703997 -18.481949713906943 0 0 0 0 36.626826011710818 3.3938769683845749 0 3.3938769683845749 310.67904876836292 0 0 0 0 82.021389994948095 -149.49046393157187 0 -149.49046393157187 146.63753590013403 0 0 0 0 1.4873720007963129 -84.718934877801075 0 -84.718934877801075 482.82146857206226 0 0 0 0 20.73974076919194 5.0060856122127007 0 5.0060856122127007 -70.839410403115835 0 0 0 0 1.9820118381101073 0.015292051829597142 0 0.015292051829597142 -1.9776359469675882 0 0 0 0 80.050751420488496 -61.045238103262818 0 -61.045238103262818 -98.86474155799624 0 0 0 0 50.036978994173069 -50.354201734971866 0 -50.354201734971866 -26.805039407958247 0 0 0 0 -2.9641330213805759 -12.897099185429397 0 -12.897099185429397 64.012391627979014 0 0 0 0 21.136034744969209 -30.504399952445965 0 -30.504399952445965 37.220104511354293 0 0 0 0 -14.056332506554099 1.1399632745760755 0 1.1399632745760755 20.598679044449455 0 0 0 0 20.447278802872347 -30.142495184920335 0 -30.142495184920335 63.684582448320725 0 0 0 0 0.16957571234001989 -41.363488887513086 0 -41.363488887513086 56.905077398780122 0 0 0 0 -20.21365979115069 -38.998579121276634 0 -38.998579121276634 91.87637976019505 0 0 0 0 -47.324843198016822 -24.051750359401467 0 -24.051750359401467 52.018210993875982 0 0 0 0 94.515870995929362 15.870175471252878 0 15.870175471252878 109.84199325741793 0 0 0 0 -20.310607874617858 23.08145012291061 0 23.08145012291061 -23.502517270910175 0 0 0 0 -2.6009755441372771 -5.5696764576761453 0 -5.5696764576761453 8.520710456464009 0 0 0 0 6.59478646530048 -11.733131207799943 0 -11.733131207799943 133.06152144190128 0 0 0 0 -5.2856845059870352 -54.207548909464094 0 -54.207548909464094 110.46150240247971 0 0 0 0 77.799224220350908 -193.70254451511005 0 -193.70254451511005 390.10918887746084 0 0 0 0 -27.581435906187835 59.737551712114509 0 59.737551712114509 289.72024942805729 0 0 0 0 84.593075997636333 -230.69177995680002 0 -230.69177995680002 336.1695833362578 0 0 0 0 60.094326183634962 -211.38274056154478 0 -211.38274056154478 509.05343698390789 0 0 0 0 68.85742167008604 -264.198590595719 0 -264.198590595719 474.98534785027005 0 0 0 0 102.99169072119261 -358.16452545662833 0 -358.16452545662833 545.44034097826807 0 0 0 0 44.874318736992677 -282.86163285906514 0 -282.86163285906514 461.14749854990441 0 0 0 0 -132.76578960556503 -308.09487378717677 0 -308.09487378717677 680.80579019019206 0 0 0 0 44.730689959196042 -308.44033136348662 0 -308.44033136348662 593.13546477453201 0 0 0 0 -20.556960074806511 -467.54386220640299 0 -467.54386220640299 782.93689836701014 0 0 0 0 103.20641378712443 -412.91613854990828 0 -412.91613854990828 539.07658587923652 0 0 0 0 -7.7659254203720138 -466.84905846178117 0 -466.84905846178117 706.0756934430683 0 0 0 0 290.13769393210328 -424.01931135316045 0 -424.01931135316045 410.34845843788207 0 0 0 0 214.83782033160531 -546.80856550734825 0 -546.80856550734825 699.27554606536978 0 0 0 0 216.9560954887952 -127.32290873220336 0 -127.32290873220336 230.37795696672401 0 0 0 0 577.07995089834856 -581.98034264855278 0 -581.98034264855278 627.72423090149823 0 0 0 0 319.46502587360345 -546.08875879117477 0 -546.08875879117477 723.11796508300904 0 0 0 0 496.53404415235059 -611.53100298031495 0 -611.53100298031495 397.13810683912016 0 0 0 0 572.94623210920156 -541.2614432796363 0 -541.2614432796363 250.9539056608337 0 0 0 0 522.44283321726971 -419.45345351314609 0 -419.45345351314609 50.62092093762476 0 0 0 0 412.37764893009853 -468.43624196782184 0 -468.43624196782184 398.60483482100847 0 0 0 0 360.04213382055855 -337.48817695962862 0 -337.48817695962862 185.06974649276526 0 0 0 0 480.27975898254135 -288.26871836666396 0 -288.26871836666396 3.9463642162245378 0 0 0 0 253.04301196335246 -291.93417606060757 0 -291.93417606060757 301.88506536171917 0 0 0 0 360.8224743066491 -414.28424038917001 0 -414.28424038917001 400.44436146764201 0 0 0 0 -5.4141400827953401 -1.5983558968882079 0 -1.5983558968882079 -3.7912603735943406 0 0 0 0 558.52976922647963 264.17399952856977 0 264.17399952856977 155.01106459339189 0 0 0 0 -313.31825057897254 131.06103670688026 0 131.06103670688026 442.8059455411817 0 0 0 0 144.28987249243005 -98.557089365271167 0 -98.557089365271167 376.35748941701604 0 0 0 0 84.124578939314688 -177.18376811018243 0 -177.18376811018243 384.51087571346216 0 0 0 0 -149.23136492231959 -121.43695212713374 0 -121.43695212713374 787.85966264660237 0 0 0 0 24.619693615333404 -136.46462980695287 0 -136.46462980695287 362.58125840506546 0 0 0 0 -46.538922767429312 -582.80696276320668 0 -582.80696276320668 820.86518271263049 0 0 0 0 -119.79687130627451 -374.56222630782941 0 -374.56222630782941 1015.4006285093674 0 0 0 0 -98.709269639930199 -809.79965144854941 0 -809.79965144854941 1290.3659500891308 0 0 0 0 -0.22286250079050385 3.1022521196719453 0 3.1022521196719453 8.400400917146932 0 0 0 0 -470.33892342901891 -223.52875246744406 0 -223.52875246744406 1573.8817466096734 0 0 0 0 -361.14469712970322 1218.9589319523291 0 1218.9589319523291 575.20575455906692 0 0 0 0 -32.360304729866016 -548.20875596446967 0 -548.20875596446967 640.77915267487697 0 0 0 0 -614.95280639809891 -807.90242669287181 0 -807.90242669287181 3493.5717411665646 0 0 0 0 -1.1069883171826678 2.344701653578916 0 2.344701653578916 10.241124674017371 0 0 0 0 -478.00814415429068 390.33386408708066 0 390.33386408708066 2883.4679621034975 0 0 0 0 -577.54703316268126 -282.07803453671295 0 -282.07803453671295 746.0642011317367 0 0 0 0 408.88900314572032 -524.53824152114612 0 -524.53824152114612 1007.4941125550404 0 0 0 0 473.82595228579601 -288.24715538255532 0 -288.24715538255532 1078.0709142511841 0 0 0 0 384.92671630813709 -437.93150115416574 0 -437.93150115416574 721.4114565261965 0 0 0 0 375.09734022931411 -569.63815044401053 0 -569.63815044401053 1157.8957513843052 0 0 0 0 169.89905449401473 -567.30080189539058 0 -567.30080189539058 1030.6775561179384 0 0 0 0 64.655683820510831 -390.10336563680539 0 -390.10336563680539 759.95269054957862 0 0 0 0 56.099578415880273 -483.4904316741904 0 -483.4904316741904 530.39887103994988 0 0 0 0 67.761414884152941 -414.44161993260786 0 -414.44161993260786 671.62721262826199 0 0 0 0 -390.10482293338663 607.30162101589485 0 607.30162101589485 549.21443396761538 0 0 0 0 -306.65328138996176 221.84198086298738 0 221.84198086298738 2128.4795238092884 0 0 0 0 -371.53416762999512 -564.89881413830881 0 -564.89881413830881 3493.676179189968 0 0 0 0 304.30473285978405 -742.83126835173334 0 -742.83126835173334 1616.7973873542833 0 0 0 0 4.0450524285749605 17.480138901568637 0 17.480138901568637 41.344856714584481 0 0 0 0 538.87804020984777 -606.85021306641283 0 -606.85021306641283 1128.3388150025494 0 0 0 0 403.58265984277085 -334.26485140666045 0 -334.26485140666045 1380.2941599921269 0 0 0 0 -33.892790211361671 -175.24468862446884 0 -175.24468862446884 410.92947700591799 0 0 0 0 808.85385821422585 -1716.9835909450903 0 -1716.9835909450903 3497.178684706254 0 0 0 0 3.5019058312141684 6.307836948746214 0 6.307836948746214 16.809890486327419 0 0 0 0 725.60861613328723 1207.4908313595324 0 1207.4908313595324 274.10895749082556 0 0 0 0 -238.59798158308013 1236.5183708484547 0 1236.5183708484547 3488.7949342759302 0 0 0 0 -395.97852373380272 604.02255550305563 0 604.02255550305563 1614.7075279782148 0 0 0 0 -60.77079029503227 123.91994122610413 0 123.91994122610413 1405.3350787464606 0 0 0 0 419.00786576741439 364.52203643690882 0 364.52203643690882 486.16139026129167 0 0 0 0 -82.399953539641473 -46.446618489611865 0 -46.446618489611865 501.01750337965689 0 0 0 0 73.068872499857321 -174.48396930815943 0 -174.48396930815943 143.98120602324343 0 0 0 0 60.665455319725368 -58.356510138302838 0 -58.356510138302838 76.952413305589289 0 0 0 0 -220.80820070882623 -108.48959970822398 0 -108.48959970822398 15.166884377493261 0 0 0 0 -120.99808773027041 -251.44991340084653 0 -251.44991340084653 217.79553035389108 0 0 0 0 -235.98950363875224 -89.680064436723114 0 -89.680064436723114 142.17371016950347 0 0 0 0 -9.6463625259671488 -80.239524993117584 0 -80.239524993117584 69.839068001441774 0 0 0 0 -3.3549866123179544 -11.48888844445386 0 -11.48888844445386 58.190040404183648 0 0 0 0 25.432401808265524 -27.844974094128702 0 -27.844974094128702 38.685048558087146 0 0 0 0 -359.31849557327951 123.75474408903756 0 123.75474408903756 61.931196192799689 0 0 0 0 -345.36276638842105 13.683414682227522 0 13.683414682227522 340.35444623653893 0 0 0 0 1269.4839126181246 -819.56291553423398 0 -819.56291553423398 144.06909574142992 0 0 0 0 -749.68480824730773 -180.78524479545467 0 -180.78524479545467 3480.9395893970141 0 0 0 0 376.8635205471677 -1225.6429221840049 0 -1225.6429221840049 934.55119179901521 0 0 0 0 0.7449934108091103 -4.0075412372108374 0 -4.0075412372108374 8.2360719129572715 0 0 0 0 88.624708049510133 422.2769980430021 0 422.2769980430021 288.70755306950196 0 0 0 0 -412.33599116737793 -699.59845261313058 0 -699.59845261313058 3489.6064620136822 0 0 0 0 -549.71458237615036 298.84601961729004 0 298.84601961729004 3504.2585124977522 0 0 0 0 -449.52953027446108 -363.79201414978161 0 -363.79201414978161 1686.7272480961556 0 0 0 0 -60.393535159388726 281.57195504628703 0 281.57195504628703 1491.9606303053661 0 0 0 0 -60.728357761527391 197.90262699345476 0 197.90262699345476 661.9314217086503 0 0 0 0 350.40586028748072 54.614866372807228 0 54.614866372807228 642.29770499422011 0 0 0 0 20.349581609332688 291.34772942866039 0 291.34772942866039 471.14492288984911 0 0 0 0 -61.844653283654509 236.8336827224739 0 236.8336827224739 874.54434499611307 0 0 0 0 -352.1642334008119 432.20964755932437 0 432.20964755932437 746.57545361190569 0 0 0 0 1.4193620366093971 -3.7969132695726593 0 -3.7969132695726593 8.2473041320476739 0 0 0 0 340.86809136649839 -190.42893807912515 0 -190.42893807912515 611.30750062100742 0 0 0 0 270.08292615395749 149.75668338957621 0 149.75668338957621 641.01779171670478 0 0 0 0 573.74228818297377 275.23579138339301 0 275.23579138339301 307.30388048499299 0 0 0 0 619.01329911299695 -434.86970334622856 0 -434.86970334622856 487.4482595700174 0 0 0 0 658.16898683615386 -581.71238091248824 0 -581.71238091248824 94.36333969104453 0 0 0 0 336.71529003770138 108.89823476647871 0 108.89823476647871 115.59287963771931 0 0 0 0 432.37972517922299 19.905658343001051 0 19.905658343001051 1.3717242780185188 0 0 0 0 376.09901271535364 83.181678782282688 0 83.181678782282688 124.78015656724165 0 0 0 0 690.50338015167836 6.3035084203124825 0 6.3035084203124825 77.540090962458635 0 0 0 0 398.51884002844236 -30.985299570706047 0 -30.985299570706047 -118.97016829794666 0 0 0 0 363.80498041466194 -17.350726042091992 0 -17.350726042091992 82.958655198919132 0 0 0 0 184.86851947604154 -112.82039780872583 0 -112.82039780872583 82.82552511295944 0 0 0 0 115.49750717108762 165.54254783108263 0 165.54254783108263 65.71427045812743 0 0 0 0 -387.93422925474687 75.746923353333841 0 75.746923353333841 130.63083697828552 0 0 0 0 4.3053462973526564 -58.227365660581199 0 -58.227365660581199 164.64097907595715 0 0 0 0 100.80940154510915 93.917509825225352 0 93.917509825225352 -394.2561422445433 0 0 0 0 -103.67707694629769 -351.17283366873744 0 -351.17283366873744 -107.88257370233077 0 0 0 0 -249.10318231415238 32.180445159003739 0 32.180445159003739 238.63039362426207 0 0 0 0 -7.8955731673454466 -146.73703242359807 0 -146.73703242359807 462.96749803611601 0 0 0 0 118.46967720547377 150.57686361922242 0 150.57686361922242 520.02098138182919 0 0 0 0 150.22754430964176 -41.302603196159907 0 -41.302603196159907 213.63194131868659 0 0 0 0 127.40271259004476 -93.561308935830311 0 -93.561308935830311 156.93793803000881 0 0 0 0 159.18651748136932 -212.58542264769585 0 -212.58542264769585 -39.642135162539489 0 0 0 0 85.521356058296419 -107.26526341573299 0 -107.26526341573299 187.53976936835534 0 0 0 0 284.65566891191088 -80.647640463939751 0 -80.647640463939751 95.223357656166627 0 0 0 0 289.84137054037137 -41.91419524672574 0 -41.91419524672574 53.663188133497897 0 0 0 0 208.95478724963004 56.697352391875029 0 56.697352391875029 263.53576087705733 0 0 0 0 216.95031027042319 42.535993984733068 0 42.535993984733068 87.626190267063066 0 0 0 0 279.2081348868187 13.962999013096123 0 13.962999013096123 77.221425104668015 0 0 0 0 276.63333566896904 1.709568434745961 0 1.709568434745961 28.005654853928718 0 0 0 0 305.47389887271129 -28.236191054700612 0 -28.236191054700612 0.54803608565998729 0 0 0 0 322.16339918266362 8.3054962173700915 0 8.3054962173700915 37.724508543818956 0 0 0 0 -141.63309627968374 -14.843603238568903 0 -14.843603238568903 125.06226555678586 0 0 0 0 3.5508311333744587 -37.890395312768192 0 -37.890395312768192 89.207274936063186 0 0 0 0 11.179899681714982 -32.756292319221338 0 -32.756292319221338 65.442798170375838 0 0 0 0 7.8491034720536845 -23.401618019637681 0 -23.401618019637681 54.323239561633272 0 0 0 0 -27.183369912495095 -0.37532246836872218 0 -0.37532246836872218 140.20486294288276 0 0 0 0 0.67890801540352186 -48.082819261871919 0 -48.082819261871919 25.190782904355729 0 0 0 0 -37.389035808513995 20.904163593050725 0 20.904163593050725 117.40470816734796 0 0 0 0 -3.8109328301313337 -18.191868909805606 0 -18.191868909805606 59.643484778069848 0 0 0 0 4.0743197056675493 -1.9571973664748477 0 -1.9571973664748477 13.58174715945167 0 0 0 0 -166.60227048657794 -228.09155645977808 0 -228.09155645977808 38.614897630373889 0 0 0 0 -71.385868079061623 -181.71543609681339 0 -181.71543609681339 -240.70617526601563 0 0 0 0 -20.263668437810832 1.157705135695565 0 1.157705135695565 18.100954994512755 0 0 0 0 -107.22235951523821 -259.81432062460772 0 -259.81432062460772 7.3652549976268347 0 0 0 0 -144.86414509746172 -396.48934000300733 0 -396.48934000300733 -564.02689273520082 0 0 0 0 -100.9081200983879 -4.2869790167515021 0 -4.2869790167515021 23.428921402344713 0 0 0 0 -60.028067761680177 143.40118753823117 0 143.40118753823117 134.283275334481 0 0 0 0 -5.8388831095488705 1.5411452210012584 0 1.5411452210012584 -2.7951146408571717 0 0 0 0 -115.67941406498721 -57.650253880008677 0 -57.650253880008677 181.74455351312099 0 0 0 0 37.404097805279434 28.27603009006998 0 28.27603009006998 37.356326746506966 0 0 0 0 -74.737739195307313 61.016689370795575 0 61.016689370795575 -78.169521729258122 0 0 0 0 -55.874155506812713 -22.304393619473558 0 -22.304393619473558 -147.28639204635328 0 0 0 0 -83.364905726026336 -21.299412838201533 0 -21.299412838201533 -39.442372090692515 0 0 0 0 -109.24125319412724 46.141062441620306 0 46.141062441620306 36.326890200609341 0 0 0 0 -146.20483399007844 82.87776841624509 0 82.87776841624509 97.627433251156617 0 0 0 0 -60.625540706501397 32.62280865734283 0 32.62280865734283 78.552370476390934 0 0 0 0 -148.99232982133435 -114.52393186657719 0 -114.52393186657719 76.497975328366692 0 0 0 0 -168.15513863207389 -89.670115498433006 0 -89.670115498433006 319.67408896307097 0 0 0 0 -175.02937048867011 -70.719888996143709 0 -70.719888996143709 360.13099207911 0 0 0 0 -255.23078954354787 -175.76854880845349 0 -175.76854880845349 373.83897851421352 0 0 0 0 -309.20000461766631 -158.45134743888048 0 -158.45134743888048 658.51645280990851 0 0 0 0 -281.03866111591697 -159.66575121501592 0 -159.66575121501592 654.61311533646949 0 0 0 0 -222.95776451013398 -237.93170107413971 0 -237.93170107413971 65.369251605128738 0 0 0 0 38.297701166442494 130.53694979011198 0 130.53694979011198 395.33255465619732 0 0 0 0 -0.81899834560434037 3.1891552769202178 0 3.1891552769202178 7.7217351326554535 0 0 0 0 -79.9680442658846 -42.061168192685727 0 -42.061168192685727 251.83410198532511 0 0 0 0 -49.730867623902668 -92.806988388063473 0 -92.806988388063473 311.99046409642324 0 0 0 0 39.386144080332997 112.41936490305307 0 112.41936490305307 74.110979733501154 0 0 0 0 -24.314059239483257 17.25833718392925 0 17.25833718392925 41.036535614672196 0 0 0 0 12.048424748048092 -54.096343661305582 0 -54.096343661305582 100.95627738741041 0 0 0 0 -5.2145874066652596 -28.964012588635342 0 -28.964012588635342 89.904479000895662 0 0 0 0 3.6320478107982126 -50.952116781027144 0 -50.952116781027144 81.178375959261757 0 0 0 0 13.265864579869032 -30.769356276611234 0 -30.769356276611234 107.03985716669195 0 0 0 0 -59.846464736599955 -37.75654929245502 0 -37.75654929245502 173.75284540616121 0 0 0 0 -29.570072841850497 20.43317436589075 0 20.43317436589075 34.339396628795015 0 0 0 0 -1.0637103652852602 -54.217744298653997 0 -54.217744298653997 150.72540371236028 0 0 0 0 -88.073792977567791 -73.632541657321781 0 -73.632541657321781 708.84882984802607 0 0 0 0 1.2060537190926688 2.7979433026657645 0 2.7979433026657645 1.0556746711408831 0 0 0 0 -6.8328509136113098 -117.12990315840852 0 -117.12990315840852 11.586536448347033 0 0 0 0 17.188308041635537 -6.2320142816824955 0 -6.2320142816824955 144.2969816950972 0 0 0 0 -1.6821107061941802 -177.4357124104281 0 -177.4357124104281 285.05568400244374 0 0 0 0 68.080679743991823 -255.24412311662491 0 -255.24412311662491 -20.718640158942435 0 0 0 0 77.146859268820663 -135.75089202862 0 -135.75089202862 240.51779113126395 0 0 0 0 -110.53921377278948 -125.43131626358263 0 -125.43131626358263 243.10897218955597 0 0 0 0 -41.703997497835189 -116.40614502654716 0 -116.40614502654716 255.95477807593488 0 0 0 0 4.971908184136737 -79.213996563797991 0 -79.213996563797991 -7.2866961282416014 0 0 0 0 -81.516002220970037 -116.08100338681379 0 -116.08100338681379 396.08625587021379 0 0 0 0 -81.682537614811736 -120.91759334727249 0 -120.91759334727249 428.27706335114635 0 0 0 0 -53.003255271662056 -78.534341477319686 0 -78.534341477319686 341.26822553691818 0 0 0 0 -47.733697605860471 -115.65896610772324 0 -115.65896610772324 565.67266539920456 0 0 0 0 102.60762134505649 -183.04996816534185 0 -183.04996816534185 374.52312818867358 0 0 0 0 232.82747764699252 -324.72706528504932 0 -324.72706528504932 347.66845176493007 0 0 0 0 -564.06048019551326 -403.57713433907702 0 -403.57713433907702 599.91868081205757 0 0 0 0 101.35022136429598 -162.8497602002135 0 -162.8497602002135 424.56325459013897 0 0 0 0 -80.650801182722716 -315.45109726973169 0 -315.45109726973169 463.3305740958458 0 0 0 0 -1.7493648019913406 -2.7372759552429993 0 -2.7372759552429993 -3.5098278010591741 0 0 0 0 457.73152750581312 -216.26414308240783 0 -216.26414308240783 106.79332856549445 0 0 0 0 10.704043278908102 -152.73492467041069 0 -152.73492467041069 270.56273925877758 0 0 0 0 172.26959876841761 -162.5486563436807 0 -162.5486563436807 191.59657311643969 0 0 0 0 3.4413828559499962 -145.57772347356513 0 -145.57772347356513 360.39265775685635 0 0 0 0 64.203713022508055 -152.81868957307961 0 -152.81868957307961 190.88406549109368 0 0 0 0 77.909207099337436 -126.70110116154501 0 -126.70110116154501 35.925755771655531 0 0 0 0 94.819745171047998 -68.963000636942525 0 -68.963000636942525 -103.70115870519658 0 0 0 0 -60.927941345300496 -137.18266094679166 0 -137.18266094679166 42.152061995890108 0 0 0 0 242.68153743187281 -51.727229752697895 0 -51.727229752697895 7.7364609399519395 0 0 0 0 49.907909423311139 -76.08221480825523 0 -76.08221480825523 4.8951895521940969 0 0 0 0 -1144.8658317533025 263.02021710904819 0 263.02021710904819 40.731340827005624 0 0 0 0 -0.37098933077706575 -22.104323985631126 0 -22.104323985631126 -9.8500325453263429 0 0 0 0 52.272364581938973 -90.380158552319699 0 -90.380158552319699 -64.792244020332873 0 0 0 0 68.793662432936117 -120.05339673596518 0 -120.05339673596518 -115.90126561284706 0 0 0 0 -665.17202175834609 293.27708218486805 0 293.27708218486805 -284.82970817774913 0 0 0 0 -4.3488572120730407 -64.352903108994383 0 -64.352903108994383 82.172728151275265 0 0 0 0 -105.20537476682694 -238.79738799734878 0 -238.79738799734878 10.536915115495503 0 0 0 0 -166.55439866941379 -143.04178711747409 0 -143.04178711747409 170.74238757587045 0 0 0 0 -27.913250385826586 -309.3025982895615 0 -309.3025982895615 -180.7583043527502 0 0 0 0 -118.54352461734206 -194.85653239947305 0 -194.85653239947305 256.51624868161707 0 0 0 0 24.441157446161348 -83.413260032993037 0 -83.413260032993037 82.089236336537084 0 0 0 0 10.690085892088092 -77.351313765329309 0 -77.351313765329309 78.857883632432163 0 0 0 0 1.5837801389589004 -246.62918158017783 0 -246.62918158017783 -98.880781999363535 0 0 0 0 450.79286269626346 75.62816984357778 0 75.62816984357778 -116.12342236715631 0 0 0 0 1092.0331766567169 20.207029315064574 0 20.207029315064574 -127.95359189885539 0 0 0 0 343.63323220809286 56.995727056373738 0 56.995727056373738 1.2375561368244234 0 0 0 0 289.1402287074684 38.401135949899981 0 38.401135949899981 35.975906801795645 0 0 0 0 293.95927985436902 50.176326891889403 0 50.176326891889403 0.4249470946015208 0 0 0 0 330.79612832617408 128.85041895882568 0 128.85041895882568 131.56551122255769 0 0 0 0 249.23363303913834 229.50612390923925 0 229.50612390923925 23.79543029100023 0 0 0 0 335.17890931775673 390.06609049547842 0 390.06609049547842 -14.538449921623396 0 0 0 0 544.75828931419346 291.73481843905392 0 291.73481843905392 18.866437173033773 0 0 0 0 340.49788598420878 373.49538646415022 0 373.49538646415022 -51.906751559166878 0 0 0 0 176.97538907353191 470.44729340772756 0 470.44729340772756 69.965528248692863 0 0 0 0 46.716079781543044 198.79335329787409 0 198.79335329787409 711.81572065880755 0 0 0 0 262.29204142174933 297.11745774741257 0 297.11745774741257 312.66704624242993 0 0 0 0 41.021969770316559 146.29479561633707 0 146.29479561633707 231.16154297645699 0 0 0 0 0.69125797609732742 -2.7457216141616634 0 -2.7457216141616634 6.3026411495088013 0 0 0 0 131.39221161337062 450.57331680902098 0 450.57331680902098 417.79984163034896 0 0 0 0 -695.27867121586132 -401.23984036948241 0 -401.23984036948241 135.5569616249195 0 0 0 0 -849.72611557216442 150.8483691069523 0 150.8483691069523 969.69563416605524 0 0 0 0 -1335.2475892664252 16.498660522462956 0 16.498660522462956 95.269233066577726 0 0 0 0 -457.7014590822655 -223.13746591849485 0 -223.13746591849485 -160.6872986837343 0 0 0 0 -984.79724966882566 -7.3672410236213182 0 -7.3672410236213182 -28.493432574381586 0 0 0 0 -374.22009011910541 55.170224663654153 0 55.170224663654153 -137.1671640479999 0 0 0 0 -673.96602098064432 202.01404197081501 0 202.01404197081501 116.72409553498437 0 0 0 0 -359.23263515834606 125.79537482793967 0 125.79537482793967 195.56116083617235 0 0 0 0 14.667784705315071 -91.564613683744028 0 -91.564613683744028 -223.36632975354769 0 0 0 0 -370.99461779394932 -28.693822857143005 0 -28.693822857143005 -226.32813922503192 0 0 0 0 2.2980061256979356 -8.3180880511289121 0 -8.3180880511289121 18.699200792965129 0 0 0 0 -1263.5573821778385 52.402426786021351 0 52.402426786021351 585.51971521225641 0 0 0 0 600.92606450567018 449.95839452352629 0 449.95839452352629 -219.49810928009538 0 0 0 0 2060.0261158411349 350.91576422130129 0 350.91576422130129 -212.84921163799299 0 0 0 0 886.06951530105971 -1908.6703760283408 0 -1908.6703760283408 232.92055095865817 0 0 0 0 151.04693918714611 1611.2170266540961 0 1611.2170266540961 1188.0620675254977 0 0 0 0 12.524666682260609 10.522650332978003 0 10.522650332978003 9.268352661206535 0 0 0 0 416.38719357139416 -198.77385707457142 0 -198.77385707457142 1963.1801830085569 0 0 0 0 1292.3460080256191 -538.01578248441001 0 -538.01578248441001 235.3102393874542 0 0 0 0 247.89090029120166 -278.42034189274 0 -278.42034189274 182.19675083200127 0 0 0 0 388.64131371797703 -841.09694921673326 0 -841.09694921673326 1786.3001652633343 0 0 0 0 543.67095537395039 -904.51602659781645 0 -904.51602659781645 1807.9709755774002 0 0 0 0 1426.9307078518464 -630.92024559935044 0 -630.92024559935044 1801.3758913429292 0 0 0 0 138.22674359526695 -1371.741042874477 0 -1371.741042874477 2177.176843593099 0 0 0 0 -12.60753754956027 195.53338263438218 0 195.53338263438218 764.0542532895488 0 0 0 0 -280.33098263476768 -153.70439551791605 0 -153.70439551791605 1646.6980054963424 0 0 0 0 4.9307859450011353 -8.6545376930625473 0 -8.6545376930625473 9.4647533520808764 0 0 0 0 -476.76317855077832 -21.325188501406046 0 -21.325188501406046 689.9301265000322 0 0 0 0 -129.93115945614159 -172.83488091727213 0 -172.83488091727213 257.47522777494669 0 0 0 0 -562.25728934672225 -255.70366102962907 0 -255.70366102962907 120.4086997247533 0 0 0 0 195.4951632355353 -730.71954386352468 0 -730.71954386352468 282.78962617533944 0 0 0 0 -684.86463169288891 -5.6405855650709782 0 -5.6405855650709782 608.94387089445809 0 0 0 0 -227.90728037687313 -616.95729825318995 0 -616.95729825318995 868.62087789322595 0 0 0 0 -239.74806554676911 -617.18553777694979 0 -617.18553777694979 893.45626699847526 0 0 0 0 462.69245241345106 -1603.0119866103314 0 -1603.0119866103314 1462.8330636272194 0 0 0 0 -66.793254325400881 -1345.3440288426489 0 -1345.3440288426489 3615.7415114305954 0 0 0 0 -220.49698847448087 -693.41873731842065 0 -693.41873731842065 1272.5811033709199 0 0 0 0 9.2107613209263945 -545.59286815476662 0 -545.59286815476662 1366.9412589333078 0 0 0 0 418.78139617586385 -1500.800335724879 0 -1500.800335724879 1731.8735383324506 0 0 0 0 690.85640353425515 -1610.6329047738423 0 -1610.6329047738423 1535.9434191664366 0 0 0 0 717.85973957686053 -699.83806652575299 0 -699.83806652575299 897.42422649876607 0 0 0 0 3.6178831482775422 -108.77574173948824 0 -108.77574173948824 451.03011619034828 0 0 0 0 202.6033922349734 19.20048802110955 0 19.20048802110955 9.8342853160265804 0 0 0 0 509.92360295089202 -799.91729091098932 0 -799.91729091098932 858.17756423289893 0 0 0 0 818.42424037987803 -866.17540111506651 0 -866.17540111506651 423.72519624799861 0 0 0 0 131.01144168387634 -27.361885634992632 0 -27.361885634992632 250.31741121050254 0 0 0 0 139.76304719954214 144.96278756748052 0 144.96278756748052 543.05905262027409 0 0 0 0 -114.59078503672276 -164.14077366484253 0 -164.14077366484253 398.72942599622183 0 0 0 0 -20.193617544188783 -98.009974430393413 0 -98.009974430393413 154.29717261631231 0 0 0 0 -130.59650788945055 -154.29208652661009 0 -154.29208652661009 433.48841140302284 0 0 0 0 -149.82685058066681 -202.45437592060262 0 -202.45437592060262 311.13217930722021 0 0 0 0 -1009.71324715433 -250.02123631200629 0 -250.02123631200629 666.72134206873216 0 0 0 0 -8.4731632506187555 -9.196096549741501 0 -9.196096549741501 107.45696880853609 0 0 0 0 -262.25690687055248 -45.473649851756818 0 -45.473649851756818 275.06756083246 0 0 0 0 -208.42182330611286 -45.460333450932012 0 -45.460333450932012 85.605480287204955 0 0 0 0 -575.15750021238455 -149.85431148690805 0 -149.85431148690805 -189.00877626398369 0 0 0 0 -275.6564242797449 -46.686067362060385 0 -46.686067362060385 359.58285704913487 0 0 0 0 49.257133611241443 330.72072540403815 0 330.72072540403815 735.09678265227376 0 0 0 0 -366.68547714175207 808.70014375209337 0 808.70014375209337 2634.7070093923203 0 0 0 0 1.3718794528287108 -0.98134907587415299 0 -0.98134907587415299 40.843784707004637 0 0 0 0 1648.8046150456539 -2112.9312438302404 0 -2112.9312438302404 1494.7071439060628 0 0 0 0 -314.48022163890869 -8.4297304788178735 0 -8.4297304788178735 2146.0979859992058 0 0 0 0 -169.07949072526571 -117.29402373376979 0 -117.29402373376979 1134.3571955624238 0 0 0 0 -146.45694909604822 -60.313462143497873 0 -60.313462143497873 1184.728683399594 0 0 0 0 -80.081039194255368 -95.663157489976129 0 -95.663157489976129 754.48538843576716 0 0 0 0 -80.053575899028147 -217.32225248578834 0 -217.32225248578834 1095.787334153204 0 0 0 0 -88.478004981675554 -117.67610045134234 0 -117.67610045134234 1026.5330211721466 0 0 0 0 38.871876470148209 -139.41842072444797 0 -139.41842072444797 731.56766654145486 0 0 0 0 -52.732777766919298 -241.84724283155992 0 -241.84724283155992 797.24471309905221 0 0 0 0 -54.751797644053568 -192.07888587387151 0 -192.07888587387151 621.11597688566781 0 0 0 0 30.557263756150746 -171.29240995380314 0 -171.29240995380314 612.01407120033218 0 0 0 0 -75.133277917059445 -74.997970272152315 0 -74.997970272152315 552.37955665248228 0 0 0 0 -50.400257014793169 -279.5338172355805 0 -279.5338172355805 650.87246856826096 0 0 0 0 -114.59941688783101 -26.971042525417943 0 -26.971042525417943 408.08780874450713 0 0 0 0 -28.575653237633105 -177.96752386171374 0 -177.96752386171374 750.5374753136166 0 0 0 0 0.90071085681847762 -261.7278574274078 0 -261.7278574274078 1013.6150736153695 0 0 0 0 -72.734682854201537 -208.89448085111508 0 -208.89448085111508 987.67505985981916 0 0 0 0 -18.167735693501982 -124.3825279896073 0 -124.3825279896073 893.4993563159187 0 0 0 0 -95.052227144013614 -214.59769424358228 0 -214.59769424358228 1203.2283154553752 0 0 0 0 -21.171760163709223 -148.97882674143784 0 -148.97882674143784 1117.955146975718 0 0 0 0 80.322122799303543 -243.10321408537402 0 -243.10321408537402 1147.4352098919871 0 0 0 0 285.16936480193954 -145.86218142650705 0 -145.86218142650705 860.80519879353596 0 0 0 0 258.26882731837395 -134.37194771815939 0 -134.37194771815939 1106.7665553951774 0 0 0 0 74.615553834805723 -184.58629273190854 0 -184.58629273190854 921.76283031579806 0 0 0 0 705.19954292134389 124.63364080016072 0 124.63364080016072 1093.9484432600534 0 0 0 0 780.96035948781264 -111.09222874218449 0 -111.09222874218449 935.45352380541863 0 0 0 0 526.51795273802236 -265.90276858144898 0 -265.90276858144898 1168.5547955402026 0 0 0 0 548.202466369994 -229.29769132101319 0 -229.29769132101319 758.55930144632293 0 0 0 0 527.86647005931445 -8.5297979906436012 0 -8.5297979906436012 894.19853902548857 0 0 0 0 535.3371926784439 -58.778606187444893 0 -58.778606187444893 1040.3296626654978 0 0 0 0 365.31544706622299 17.735159444429883 0 17.735159444429883 559.03269870670738 0 0 0 0 349.30972573267718 -123.0869632720096 0 -123.0869632720096 499.05011113365299 0 0 0 0 658.06577576159248 22.494834118122071 0 22.494834118122071 185.43202205464331 0 0 0 0 48.536685409982965 -249.21322785260963 0 -249.21322785260963 729.58898222675998 0 0 0 0 106.68759209919335 -55.994568208932833 0 -55.994568208932833 571.96290218636568 0 0 0 0 207.38186024827155 -234.1476639304492 0 -234.1476639304492 862.70959198207174 0 0 0 0 299.60436857568311 18.385903825125297 0 18.385903825125297 231.85202321230463 0 0 0 0 116.52142087606262 -184.10833178698886 0 -184.10833178698886 529.29206995537334 0 0 0 0 32.437743253772169 -20.404175399572296 0 -20.404175399572296 283.7129749195592 0 0 0 0 -17.953605288283143 -204.51225628678549 0 -204.51225628678549 404.35205829219558 0 0 0 0 -46.063597456138027 -7.0952810034977345 0 -7.0952810034977345 24.801088761669234 0 0 0 0 -45.957169243473096 -212.76872434007174 0 -212.76872434007174 9.1672168916120427 0 0 0 0 -6.6120473571199909 -126.1735306502087 0 -126.1735306502087 243.79865771452751 0 0 0 0 158.4584738691392 -25.594730136969702 0 -25.594730136969702 242.21823296976072 0 0 0 0 176.94729250636829 36.057631233817119 0 36.057631233817119 22.18193881103798 0 0 0 0 138.7951693818377 -135.82646917063175 0 -135.82646917063175 -26.725765256062914 0 0 0 0 214.42326423378836 -278.31308216332945 0 -278.31308216332945 -435.31705379040341 0 0 0 0 247.38852670958386 0.061228412841956015 0 0.061228412841956015 -66.727647035124392 0 0 0 0 99.650838816980468 -305.12774584789076 0 -305.12774584789076 -37.116578967237729 0 0 0 0 52.15833334240051 65.114212713669986 0 65.114212713669986 -323.84852228045565 0 0 0 0 122.07487139848581 -52.278571876907336 0 -52.278571876907336 -296.57372104121896 0 0 0 0 -267.93415020720425 -210.83070652814069 0 -210.83070652814069 18.335211477053235 0 0 0 0 -281.55016488385991 -25.434042703407613 0 -25.434042703407613 26.060275146941649 0 0 0 0 355.77629757837713 -16.994685503193978 0 -16.994685503193978 181.42872201643763 0 0 0 0 385.18241855339579 7.909716948210189 0 7.909716948210189 81.49234899586736 0 0 0 0 356.85997288840917 -106.30918807698981 0 -106.30918807698981 35.580913009411233 0 0 0 0 623.44944798156939 -151.91485663586718 0 -151.91485663586718 -4.4007999469472452 0 0 0 0 -16.115709998474813 110.61076788417995 0 110.61076788417995 163.22787790158873 0 0 0 0 160.41818265562142 -49.512927772851981 0 -49.512927772851981 -85.01188050077144 0 0 0 0 0.087530899998460754 -1.340008230124746 0 -1.340008230124746 -0.14556337945192865 0 0 0 0 327.43099525420166 49.236291661805808 0 49.236291661805808 143.98780779780645 0 0 0 0 251.89654992846954 -45.422434235886612 0 -45.422434235886612 216.92093429002853 0 0 0 0 275.62927694769041 -31.359511631147143 0 -31.359511631147143 -168.31395848479588 0 0 0 0 894.65836908663232 -171.48445077868018 0 -171.48445077868018 -349.17357560077289 0 0 0 0 413.95880572810893 148.86228601898983 0 148.86228601898983 -114.34843313854435 0 0 0 0 387.62904065278826 -119.56460625928753 0 -119.56460625928753 -660.05469128428376 0 0 0 0 -103.9002408401243 19.188400728548913 0 19.188400728548913 77.343487131154689 0 0 0 0 -0.79338615348264074 -4.0523487525251038 0 -4.0523487525251038 0.55903267965383918 0 0 0 0 -439.19790842834209 -333.42285914286549 0 -333.42285914286549 167.9151739101726 0 0 0 0 496.90718387387597 -185.33921823291712 0 -185.33921823291712 -84.011697219082635 0 0 0 0 66.713814087730498 -38.434782277818158 0 -38.434782277818158 157.98456401423027 0 0 0 0 7.930003754488963 -8.1357691586945826 0 -8.1357691586945826 -5.7466441098322392 0 0 0 0 167.27665680338851 -539.799176862477 0 -539.799176862477 -213.60915817043133 0 0 0 0 1.1005695158017552 -2.057467347080788 0 -2.057467347080788 1.2029203029984501 0 0 0 0 -405.83444340777169 -436.02628213817661 0 -436.02628213817661 315.94514189025358 0 0 0 0 -135.84370380720247 -500.03194806734973 0 -500.03194806734973 134.68157621841965 0 0 0 0 -339.04040725807408 -218.72502233140585 0 -218.72502233140585 -226.68063651238117 0 0 0 0 -506.42921992580887 -22.421556289256841 0 -22.421556289256841 -103.68721914750677 0 0 0 0 -319.83700997700771 -506.5125409131083 0 -506.5125409131083 -680.45409406700492 0 0 0 0 -4.6545308811747326 -9.7145066245115856 0 -9.7145066245115856 20.125377089573927 0 0 0 0 28.012300027104128 -57.921357233324635 0 -57.921357233324635 14.428041582374927 0 0 0 0 254.59421466319145 -125.23148072607 0 -125.23148072607 85.351958020080929 0 0 0 0 19.473947120516186 -54.361652064100781 0 -54.361652064100781 155.98934636596005 0 0 0 0 108.15112522299751 -138.02872431693322 0 -138.02872431693322 140.11162090107746 0 0 0 0 -41.444340718210697 -84.899532765339245 0 -84.899532765339245 203.79859416447289 0 0 0 0 -119.91210433532797 -166.61392487248304 0 -166.61392487248304 172.474346628067 0 0 0 0 137.41215069831105 -292.59235618386992 0 -292.59235618386992 112.878147061645 0 0 0 0 -301.27220362935077 -393.47647563298597 0 -393.47647563298597 109.4480514127157 0 0 0 0 -316.54352009463258 -163.4095336969018 0 -163.4095336969018 207.54466056631645 0 0 0 0 0.42834772040820468 -14.539715205953794 0 -14.539715205953794 23.983273033623153 0 0 0 0 7.0466478443477172 -150.82329314441813 0 -150.82329314441813 -318.82280259324307 0 0 0 0 22.949227382649951 -100.58637116786485 0 -100.58637116786485 -302.61068858643921 0 0 0 0 -148.23469522215055 -64.096284851064411 0 -64.096284851064411 236.45651071623433 0 0 0 0 -2.4630165153612325 -114.82480239928918 0 -114.82480239928918 -214.93913512865583 0 0 0 0 3.7685501473922614 -43.510939597218567 0 -43.510939597218567 152.9944888594955 0 0 0 0 -84.676994346281845 5.9384180373849631 0 5.9384180373849631 276.08675444624168 0 0 0 0 39.120636766296229 -79.925602779378096 0 -79.925602779378096 331.91688011477072 0 0 0 0 21.277767582129165 -59.978406402099779 0 -59.978406402099779 25.753725656898354 0 0 0 0 30.511974552713582 -33.155766009585932 0 -33.155766009585932 224.65504650655203 0 0 0 0 -43.73378240783132 52.387077276864517 0 52.387077276864517 116.8395959791229 0 0 0 0 -101.37800049940415 -70.560447196847235 0 -70.560447196847235 463.38434145164229 0 0 0 0 76.748672665460617 -98.990942105156137 0 -98.990942105156137 284.98339062643936 0 0 0 0 -28.651185384270672 11.228518960330085 0 11.228518960330085 51.528752527171832 0 0 0 0 1.7349102504324208 -9.1688155266399676 0 -9.1688155266399676 41.567515053904941 0 0 0 0 -5.5523613402874616 -91.199289573993155 0 -91.199289573993155 202.94397820466475 0 0 0 0 -84.242635865832199 20.463463540534576 0 20.463463540534576 220.66357005959435 0 0 0 0 31.721589033416421 -43.926755703148956 0 -43.926755703148956 -137.60383864010146 0 0 0 0 31.531953111883638 -88.062694973576157 0 -88.062694973576157 92.807107740906559 0 0 0 0 -18.672837230862569 -156.30818997869937 0 -156.30818997869937 235.0248281284039 0 0 0 0 58.321571975324559 -46.769885901955604 0 -46.769885901955604 -232.10693120858195 0 0 0 0 35.055980083280701 -147.04452228645278 0 -147.04452228645278 -256.54307514469838 0 0 0 0 89.721179520787246 -163.40627743913501 0 -163.40627743913501 -165.67735290867176 0 0 0 0 17.510286945028383 -115.43271544843446 0 -115.43271544843446 -263.50805792799292 0 0 0 0 66.925547765180568 -113.27608985651113 0 -113.27608985651113 -271.80839948114954 0 0 0 0 19.752945555764654 -264.61122429422903 0 -264.61122429422903 -190.07737189650106 0 0 0 0 170.55715229928046 -306.51435404104268 0 -306.51435404104268 -211.99029705825433 0 0 0 0 0.25414057998199269 -2.7376957322946467 0 -2.7376957322946467 2.3904323337534379 0 0 0 0 127.77668910452837 -174.92972243530176 0 -174.92972243530176 -296.96306023524266 0 0 0 0 20.188137735338387 -143.68248275390579 0 -143.68248275390579 -99.120056052823202 0 0 0 0 -41.356884599293153 -66.451064966428021 0 -66.451064966428021 252.12728039089416 0 0 0 0 -57.609210674247151 -306.64558216109435 0 -306.64558216109435 -120.47099632460231 0 0 0 0 1.8149308464857228 -4.4278814805893418 0 -4.4278814805893418 3.0138884964166515 0 0 0 0 -322.37615068539753 -99.19119952037272 0 -99.19119952037272 -174.19409020196235 0 0 0 0 -62.906003814073756 -202.95674607861838 0 -202.95674607861838 -293.90270000348391 0 0 0 0 -31.543614141553917 -131.31119920174933 0 -131.31119920174933 -247.84424092761037 0 0 0 0 18.318850577307423 -14.985731677787044 0 -14.985731677787044 41.96660702394729 0 0 0 0 0.35945935407729213 116.22459607675592 0 116.22459607675592 382.4390777881199 0 0 0 0 14.604807593036886 -0.91626222133527335 0 -0.91626222133527335 -3.8380927479738602 0 0 0 0 -6.1843761927532821 -11.3538848213866 0 -11.3538848213866 118.56966719136108 0 0 0 0 -8.7792755310549779 20.758984536645585 0 20.758984536645585 -13.39271027077848 0 0 0 0 -8.7384132165787634 -26.789924525735842 0 -26.789924525735842 3.4264206560619641 0 0 0 0 -37.704295756295409 19.46508468324464 0 19.46508468324464 -3.9200950536614982 0 0 0 0 -38.876281575884065 -0.42403036645555403 0 -0.42403036645555403 7.6308087979714401 0 0 0 0 -19.60089991161145 5.2691472219885327 0 5.2691472219885327 5.758145272906404 0 0 0 0 -12.001738110665201 -23.621339805045864 0 -23.621339805045864 61.310984486808593 0 0 0 0 15.986193057479625 7.4054281685821479 0 7.4054281685821479 39.153485179493146 0 0 0 0 6.5819379762848484 -7.3646778679903946 0 -7.3646778679903946 15.961805869272212 0 0 0 0 0.032162998572949963 -4.4973108815245126 0 -4.4973108815245126 5.7773621854263979 0 0 0 0 -95.964256426122944 4.4981532975943992 0 4.4981532975943992 53.84815227627405 0 0 0 0 -19.894910321476416 -97.544388750218786 0 -97.544388750218786 45.756776274050935 0 0 0 0 78.334009740852679 -101.32725069926164 0 -101.32725069926164 16.968710743254633 0 0 0 0 92.821154048138581 1.6016517070675036 0 1.6016517070675036 -19.455864837211266 0 0 0 0 0.22152269763236127 1.0637492280218765 0 1.0637492280218765 4.0750963776811204 0 0 0 0 -0.09245947104184038 0.26509206193745172 0 0.26509206193745172 1.469062332356657 0 0 0 0 131.0679466060582 -167.23346758818116 0 -167.23346758818116 185.7665388280293 0 0 0 0 -24.585866094056328 -14.82247740009916 0 -14.82247740009916 182.31027273737709 0 0 0 0 -26.040512668788317 2.6551799179651425 0 2.6551799179651425 329.99777573847678 0 0 0 0 74.393177911758272 -130.67888325029583 0 -130.67888325029583 193.65700804608059 0 0 0 0 -0.18869471833676277 0.37871975264178559 0 0.37871975264178559 0.4253888848478482 0 0 0 0 -158.23405511019936 116.78552172710624 0 116.78552172710624 147.88514071791724 0 0 0 0 74.715714664523304 -95.066899106541655 0 -95.066899106541655 131.07500423988677 0 0 0 0 -8.4837543183294599 34.245127791706182 0 34.245127791706182 131.56975175539264 0 0 0 0 3.6598330616562862 -17.889809476881055 0 -17.889809476881055 250.22074334044009 0 0 0 0 5.295056657550802 89.514244412668631 0 89.514244412668631 91.518502028644434 0 0 0 0 0.2284681491129536 6.4104053752574544 0 6.4104053752574544 -1.6527039236188585 0 0 0 0 45.317824001671525 -6.3157845083915163 0 -6.3157845083915163 76.100225603513536 0 0 0 0 -6.7183367801246305 -4.0894287629344035 0 -4.0894287629344035 182.93691397400744 0 0 0 0 -23.474349589328035 0.14573532589201932 0 0.14573532589201932 249.30432589632983 0 0 0 0 5.1202618663458921 -23.651606271563651 0 -23.651606271563651 248.21192750931368 0 0 0 0 55.561204438285728 75.553447646510904 0 75.553447646510904 160.40211798004748 0 0 0 0 -67.439390796517344 6.7106832618446788 0 6.7106832618446788 287.5339722357312 0 0 0 0 -102.90462171546065 93.050256261311006 0 93.050256261311006 97.359235163225094 0 0 0 0 -39.669521960005362 33.472103517284268 0 33.472103517284268 182.76635649160016 0 0 0 0 -6.2591996101639715 -8.6623237497187802 0 -8.6623237497187802 181.9712685381237 0 0 0 0 -35.481553719576759 13.578136832798918 0 13.578136832798918 256.58983489072125 0 0 0 0 711.00990788908996 328.67728339614405 0 328.67728339614405 1821.6313655168415 0 0 0 0 317.7228487958032 784.24594921787138 0 784.24594921787138 1784.1872707440489 0 0 0 0 0.7729023094052736 1.8295738449331225 0 1.8295738449331225 0.66626898061844031 0 0 0 0 -570.74428011163309 280.72857493237825 0 280.72857493237825 2923.3658794367875 0 0 0 0 0.094284733987780311 113.00037604829595 0 113.00037604829595 598.30120206013817 0 0 0 0 -192.58112447876181 529.15502697452757 0 529.15502697452757 3159.6477882335457 0 0 0 0 -164.41685548831015 700.55096476499057 0 700.55096476499057 2398.5577202446002 0 0 0 0 -130.00360705456944 901.22074374968361 0 901.22074374968361 2543.3219939040282 0 0 0 0 39.437115064987907 1482.5767030469542 0 1482.5767030469542 1527.5142450670246 0 0 0 0 365.24367060704935 947.55794161601079 0 947.55794161601079 179.27381979569509 0 0 0 0 -79.511350909815349 1445.63919892591 0 1445.63919892591 2245.6360202981305 0 0 0 0 -0.58829752090471055 0.99136981697109405 0 0.99136981697109405 13.615703033345881 0 0 0 0 347.95013522612408 -430.48466765460762 0 -430.48466765460762 -89.573580416654295 0 0 0 0 -0.52992398047289602 -0.71906102163206853 0 -0.71906102163206853 13.279798331665802 0 0 0 0 -377.49689676419933 -1316.5365408044627 0 -1316.5365408044627 1683.3746984442405 0 0 0 0 -129.53013108307394 813.05189865831562 0 813.05189865831562 3481.8218459812197 0 0 0 0 -75.260482802298966 126.9317227631127 0 126.9317227631127 2617.6482109104691 0 0 0 0 -602.20740754664871 -686.37899347297207 0 -686.37899347297207 3492.9801533841278 0 0 0 0 -166.10138172536978 -218.73193176171844 0 -218.73193176171844 2017.9043549680064 0 0 0 0 366.87422182530975 -218.73416177460695 0 -218.73416177460695 1853.5772043878242 0 0 0 0 296.08175025087917 692.95082732399169 0 692.95082732399169 2033.8445092498878 0 0 0 0 392.60943215825756 713.81815773624112 0 713.81815773624112 2037.6704199765663 0 0 0 0 334.69457794917844 662.42592175943719 0 662.42592175943719 2019.8047973044741 0 0 0 0 427.04336887049351 661.82217444796697 0 661.82217444796697 1986.3889701562002 0 0 0 0 400.58663307241414 693.52062151522114 0 693.52062151522114 2040.4274001041194 0 0 0 0 351.18808331646903 693.89462150882173 0 693.89462150882173 1434.5441652776717 0 0 0 0 348.6108714627245 884.02970592934435 0 884.02970592934435 1967.8751314624678 0 0 0 0 139.09736204945719 730.61089911889712 0 730.61089911889712 2221.0273766019382 0 0 0 0 -109.66770447314858 695.12755496178579 0 695.12755496178579 2291.6445410076267 0 0 0 0 -78.89673201692824 959.92032608085719 0 959.92032608085719 2003.7453991187467 0 0 0 0 -2.7222753536906166 12.988300569249247 0 12.988300569249247 1.6783170937280119 0 0 0 0 138.02920989589808 783.44425539351391 0 783.44425539351391 2075.1534722811775 0 0 0 0 471.1415434020156 794.04392869932781 0 794.04392869932781 1659.8840704512113 0 0 0 0 34.236731342876851 14.398170809188741 0 14.398170809188741 32.808440000313567 0 0 0 0 378.66428891384811 598.32609085738659 0 598.32609085738659 2222.9988167525444 0 0 0 0 766.39532244628674 669.70327120840375 0 669.70327120840375 2015.2407143592427 0 0 0 0 249.00085427274325 821.93372936462401 0 821.93372936462401 2031.5879634666562 0 0 0 0 677.94665531257442 1423.3968014841084 0 1423.3968014841084 1852.7551389364671 0 0 0 0 -0.81471064362038415 -4.0728958607815571 0 -4.0728958607815571 10.714469687634661 0 0 0 0 221.00097498103193 418.48780792666366 0 418.48780792666366 1617.7540453699039 0 0 0 0 0.53970618681172478 1.7764199753594312 0 1.7764199753594312 0.040337706644379523 0 0 0 0 7.6631234598344236 320.81953348238312 0 320.81953348238312 2076.0742931606947 0 0 0 0 -135.65270152748997 579.5577453787555 0 579.5577453787555 3047.3028567094298 0 0 0 0 644.04072026310598 962.33604222544818 0 962.33604222544818 2181.6296676131315 0 0 0 0 1.3247158577842191 3.8383606876068654 0 3.8383606876068654 2.8518741001705621 0 0 0 0 9.1040135436900869 56.643229831403005 0 56.643229831403005 93.262404505421728 0 0 0 0 9.1144430300618069 13.097927533752227 0 13.097927533752227 44.507655726138182 0 0 0 0 170.44149833038594 741.59787574266375 0 741.59787574266375 2101.8538652522111 0 0 0 0 23.074357301737763 549.61566369719003 0 549.61566369719003 1863.4263088779408 0 0 0 0 157.97848633364239 735.67618078028318 0 735.67618078028318 1795.2260574470056 0 0 0 0 281.02018573923112 809.76500199288421 0 809.76500199288421 1939.0663644304846 0 0 0 0 341.50167011827966 739.65060854078911 0 739.65060854078911 1810.7924770428217 0 0 0 0 503.85867170577455 767.99577110532118 0 767.99577110532118 1987.6404976469639 0 0 0 0 258.26479550114124 768.76534382002137 0 768.76534382002137 2087.6664235539647 0 0 0 0 143.77731025664667 651.93432787517668 0 651.93432787517668 1947.4118117828184 0 0 0 0 279.1446414500478 756.53456723716226 0 756.53456723716226 1960.4358372499337 0 0 0 0 269.28643787892128 770.37208617476426 0 770.37208617476426 2096.8418160370493 0 0 0 0 301.98476954005446 781.27420758563676 0 781.27420758563676 1993.1441226425231 0 0 0 0 147.67797840022453 877.40001291784574 0 877.40001291784574 2589.1614336538332 0 0 0 0 291.05877415769135 709.99751549650136 0 709.99751549650136 2122.5543142773095 0 0 0 0 186.12735417483978 942.77585740675204 0 942.77585740675204 2033.7983715382725 0 0 0 0 -230.01970224741575 978.44949082889798 0 978.44949082889798 3501.0568786942022 0 0 0 0 -242.93462407162448 566.87227368355161 0 566.87227368355161 3499.8557674583863 0 0 0 0 -239.30491027042319 707.22428527205193 0 707.22428527205193 2716.0306800957151 0 0 0 0 404.64740414500699 1926.810780671196 0 1926.810780671196 3492.3794231051361 0 0 0 0 138.10855049349115 1288.4495716546953 0 1288.4495716546953 2847.5505543720574 0 0 0 0 196.75541234433112 1340.0453611898065 0 1340.0453611898065 1932.3120086512936 0 0 0 0 429.21094501417633 1011.6154472664784 0 1011.6154472664784 2024.9041036816488 0 0 0 0 382.07731345082675 62.263229570544354 0 62.263229570544354 235.86541437623964 0 0 0 0 155.09606941966217 47.450129043172637 0 47.450129043172637 715.62918232486845 0 0 0 0 481.75104952322386 83.306353940119152 0 83.306353940119152 593.55984106123651 0 0 0 0 972.48967072461892 889.54842838646437 0 889.54842838646437 1037.3923033678002 0 0 0 0 319.0444035550604 443.45410514758623 0 443.45410514758623 1557.897979342888 0 0 0 0 331.59340426037443 671.88780028743713 0 671.88780028743713 1601.5945880275976 0 0 0 0 627.47218515030443 584.36132875380281 0 584.36132875380281 1622.2715023400597 0 0 0 0 96.772257365487349 65.067875298525905 0 65.067875298525905 93.586057122316561 0 0 0 0 0.11249105468276133 -2.1118470950061976 0 -2.1118470950061976 2.2478328868995732 0 0 0 0 310.93773439606298 45.281952676072251 0 45.281952676072251 30.879434261805727 0 0 0 0 68.874869018862455 44.625616852936218 0 44.625616852936218 65.350868028195691 0 0 0 0 358.04998789689188 -174.98884468893812 0 -174.98884468893812 86.685206501875655 0 0 0 0 157.00797468706924 -78.763025228588958 0 -78.763025228588958 64.371801186862285 0 0 0 0 175.85210283847368 -81.09083812398967 0 -81.09083812398967 9.7851517270173645 0 0 0 0 117.89533818749578 -97.163837628082547 0 -97.163837628082547 6.2157485021743923 0 0 0 0 44.572376016407588 -102.34170021791215 0 -102.34170021791215 45.455537526482658 0 0 0 0 18.739255108842915 -13.316572083380379 0 -13.316572083380379 8.1427763946895766 0 0 0 0 30.542187878713776 -47.809220589093457 0 -47.809220589093457 80.678014144927147 0 0 0 0 25.294027885503056 -32.331370210064051 0 -32.331370210064051 50.673498199164897 0 0 0 0 72.161416093215962 -19.119388231680205 0 -19.119388231680205 14.83375216028071 0 0 0 0 13.285883247815555 -4.6499642483190087 0 -4.6499642483190087 -4.6078928321357466 0 0 0 0 89.101754693875051 1.2588785582811397 0 1.2588785582811397 0.59677427666611038 0 0 0 0 25.404939753007412 -30.003558797852747 0 -30.003558797852747 39.133668699418195 0 0 0 0 214.53651263316931 -32.500305566663883 0 -32.500305566663883 8.9979461111943237 0 0 0 0 -18.676194575670252 31.123315483273473 0 31.123315483273473 59.061850243379013 0 0 0 0 -21.803810997986375 1.3976708034460898 0 1.3976708034460898 49.066644301645283 0 0 0 0 -0.49052746445094764 16.528182545432173 0 16.528182545432173 27.620133521385071 0 0 0 0 -21.319915170470779 28.57654515770264 0 28.57654515770264 86.397469281801023 0 0 0 0 -18.803332272884461 20.64679509402049 0 20.64679509402049 96.110065261571435 0 0 0 0 -13.861435550072088 14.826713955408195 0 14.826713955408195 86.165119755498154 0 0 0 0 -43.407826833107073 -29.45439954804533 0 -29.45439954804533 119.5219693959516 0 0 0 0 24.678723976454762 -22.19993682585482 0 -22.19993682585482 35.332490865837826 0 0 0 0 7.4800658883979283 -18.765846577504789 0 -18.765846577504789 51.345478571748004 0 0 0 0 -43.386008276514758 -31.336542058932537 0 -31.336542058932537 83.073510103960871 0 0 0 0 9.0339705108053749 -40.519427237475611 0 -40.519427237475611 56.750125261984067 0 0 0 0 -12.136697144498157 -18.426292336720508 0 -18.426292336720508 69.903324309765594 0 0 0 0 -0.84464456662590237 -17.052134620775178 0 -17.052134620775178 60.498510933990474 0 0 0 0 4.2385376751402992 -15.450465709308631 0 -15.450465709308631 46.479189708289425 0 0 0 0 -11.952344926636215 -18.767380798675731 0 -18.767380798675731 58.491970031449455 0 0 0 0 0.70720974443560181 -51.344662801377126 0 -51.344662801377126 43.260838069987585 0 0 0 0 -13.458148974020332 -6.7274892038549297 0 -6.7274892038549297 63.098204363228433 0 0 0 0 -8.1121121946378523 2.031740307549029 0 2.031740307549029 40.211655650886428 0 0 0 0 -16.202767408332647 8.6841959628327459 0 8.6841959628327459 63.834951745069702 0 0 0 0 -27.063675511712063 -48.237666659973911 0 -48.237666659973911 22.009073337914742 0 0 0 0 -5.3557844892087738 6.0554935054557859 0 6.0554935054557859 6.9949024081315656 0 0 0 0 -0.088172504587419098 -19.233977904397761 0 -19.233977904397761 65.118409072762006 0 0 0 0 -30.025071092094549 -15.329454490143689 0 -15.329454490143689 69.621249325122335 0 0 0 0 0.96211429019251682 -24.482341796225683 0 -24.482341796225683 74.069169082940789 0 0 0 0 17.209081556851743 -15.442184842409915 0 -15.442184842409915 66.302526620682329 0 0 0 0 9.4772674693054384 -33.098982790808208 0 -33.098982790808208 61.504481516413534 0 0 0 0 31.30925154909437 -28.347577441065368 0 -28.347577441065368 76.477485774812521 0 0 0 0 -128.46116423779313 -340.66539336524147 0 -340.66539336524147 197.26957668995601 0 0 0 0 22.056812344873975 -45.275780451971812 0 -45.275780451971812 69.285426389579527 0 0 0 0 27.457592311447115 -33.861418632950517 0 -33.861418632950517 68.694018201244035 0 0 0 0 3791.2402575393353 3745.5036180553871 0 3745.5036180553871 -3324.8941203442191 0 0 0 0 3406.0785898696695 -548.52968100382213 0 -548.52968100382213 -229.69639882225601 0 0 0 0 4.7128693811575655 8.0932434267827418 0 8.0932434267827418 3.9396873147562701 0 0 0 0 591.96836372548933 -154.1977611556249 0 -154.1977611556249 100.84706710171304 0 0 0 0 160.59299412043765 -22.413088105196948 0 -22.413088105196948 825.00277689803625 0 0 0 0 477.89524021319812 -16.524112243248965 0 -16.524112243248965 -53.048150816233829 0 0 0 0 -455.19715537054435 -232.82442564418307 0 -232.82442564418307 49.587176317843841 0 0 0 0 328.89446803435385 -318.10392938621953 0 -318.10392938621953 -400.26589549161145 0 0 0 0 5.3680296217039043 -14.595643740204025 0 -14.595643740204025 26.344212880217725 0 0 0 0 21.907567567744991 -327.02874101293855 0 -327.02874101293855 -476.55753779121733 0 0 0 0 119.4266127121009 343.15158611456718 0 343.15158611456718 94.123699945805129 0 0 0 0 359.42143346850935 81.636884203559021 0 81.636884203559021 104.04487967465684 0 0 0 0 156.3579158846569 200.66372332663741 0 200.66372332663741 937.88980805416941 0 0 0 0 1797.6897287343727 -53.726564373768269 0 -53.726564373768269 620.69746676519571 0 0 0 0 1046.5620020487004 736.19482749576491 0 736.19482749576491 876.37152408518887 0 0 0 0 1826.02681226801 172.84565688906514 0 172.84565688906514 974.10341283344314 0 0 0 0 8.2483851995127608 5.6637023071961892 0 5.6637023071961892 2.3667596838856184 0 0 0 0 2250.4218810701786 -360.65866969933268 0 -360.65866969933268 415.44689441495507 0 0 0 0 515.54087962530321 -527.10204348485786 0 -527.10204348485786 585.27343723063677 0 0 0 0 -106.14550422129105 5.4924190257224836 0 5.4924190257224836 262.07366068441479 0 0 0 0 87.348704424461175 346.97219512751326 0 346.97219512751326 1150.7673640433786 0 0 0 0 -180.77428162856449 -195.33435921331693 0 -195.33435921331693 89.763862435152987 0 0 0 0 2609.2266994454112 -1118.5580550923551 0 -1118.5580550923551 -576.10523356323392 0 0 0 0 2110.8914488734808 -90.822330940740358 0 -90.822330940740358 1115.1628898045383 0 0 0 0 327.88417447305255 -96.100376107460761 0 -96.100376107460761 95.384368479886689 0 0 0 0 2345.4219321192322 -459.5952645256184 0 -459.5952645256184 146.02105881401803 0 0 0 0 3997.253341028736 448.2106975743518 0 448.2106975743518 -593.33682605671402 0 0 0 0 3426.3940588936821 477.19736027385807 0 477.19736027385807 -415.75474637656589 0 0 0 0 319.51509265385539 -1071.680863242058 0 -1071.680863242058 -456.99722449556066 0 0 0 0 34.651154037148991 -24.676210162485695 0 -24.676210162485695 18.167855656005713 0 0 0 0 445.25733234387008 -141.2317115796468 0 -141.2317115796468 -70.706527597598324 0 0 0 0 -299.57729097119591 183.02095834775537 0 183.02095834775537 -201.36171579601069 0 0 0 0 -250.85852828290172 519.2984400623186 0 519.2984400623186 -220.4152832310283 0 0 0 0 36.92098057726848 35.976501160427581 0 35.976501160427581 33.457670971781567 0 0 0 0 -120.45839973736747 150.46504144846222 0 150.46504144846222 171.37548294079352 0 0 0 0 240.21414455390277 725.11380963887586 0 725.11380963887586 -175.08566606120439 0 0 0 0 13.066948522736983 -15.97634660254085 0 -15.97634660254085 -7.0075043393152043 0 0 0 0 -165.66612010452809 182.14621246453135 0 182.14621246453135 -626.55924404745747 0 0 0 0 121.71603702824359 -117.89324215643865 0 -117.89324215643865 -139.97199203610944 0 0 0 0 68.203073985704734 -50.326862129478599 0 -50.326862129478599 56.338565234009678 0 0 0 0 -261.07046188460754 -1012.3004173900117 0 -1012.3004173900117 -1275.9207596883934 0 0 0 0 4511.1867107154339 1015.2415751912267 0 1015.2415751912267 -655.45750496612163 0 0 0 0 -622.91427393381673 -584.45386443252937 0 -584.45386443252937 1866.4469274049625 0 0 0 0 9.4007479315708569 -7.0577656524576042 0 -7.0577656524576042 61.930387690214332 0 0 0 0 284.45585400271602 -410.52272691968756 0 -410.52272691968756 728.67811049495504 0 0 0 0 4272.4010416509664 1554.8650188835145 0 1554.8650188835145 67.087893891060958 0 0 0 0 20.191035025204769 -10.67534525382591 0 -10.67534525382591 13.409371072409044 0 0 0 0 20.354988273976971 -16.663994651418811 0 -16.663994651418811 -3.2526351409050847 0 0 0 0 3443.7427713771667 956.30982013129324 0 956.30982013129324 479.01412537705619 0 0 0 0 1838.1747460974111 380.34986741354078 0 380.34986741354078 533.68625191845058 0 0 0 0 102.4772104618969 -221.07289782362568 0 -221.07289782362568 -22.957528479689245 0 0 0 0 7867.2991614044222 -5657.0097002889306 0 -5657.0097002889306 2717.9985085380613 0 0 0 0 40.315639699563278 -61.546647967396261 0 -61.546647967396261 90.330047565579775 0 0 0 0 70.306645964883501 -176.64410956528081 0 -176.64410956528081 32.50312229877909 0 0 0 0 45.380999041622317 -95.466514197152719 0 -95.466514197152719 76.966619856262696 0 0 0 0 -168.59368449633985 -118.28006046350492 0 -118.28006046350492 94.83590098476634 0 0 0 0 47.945032634115933 -249.1620073734266 0 -249.1620073734266 45.647619759882218 0 0 0 0 170.28855133185169 -4.1748926198479239 0 -4.1748926198479239 7.8598599185497733 0 0 0 0 1970.0158040891342 -631.73891754979923 0 -631.73891754979923 -140.23941142451076 0 0 0 0 1415.9937485470482 -574.05864782329445 0 -574.05864782329445 143.21123858355713 0 0 0 0 -442.76964512395261 140.31394108921813 0 140.31394108921813 625.22657011795673 0 0 0 0 -0.18475445688262937 3.6964771916110806 0 3.6964771916110806 47.865973991439631 0 0 0 0 2190.8170043960617 1807.2035829574816 0 1807.2035829574816 771.49949167286468 0 0 0 0 1083.2692257844083 -586.91671444942767 0 -586.91671444942767 295.62011138287198 0 0 0 0 925.81176443290678 -404.56402547973994 0 -404.56402547973994 298.60452347086334 0 0 0 0 2568.5523588485244 -1077.150621495628 0 -1077.150621495628 355.75731137066759 0 0 0 0 90.351370057299718 -1346.4880589331842 0 -1346.4880589331842 3495.8939494894657 0 0 0 0 5.3976545275995358 2.1870896388303436 0 2.1870896388303436 8.4639976673347235 0 0 0 0 4.7596768505039204 2.8859201488341384 0 2.8859201488341384 18.951391379558743 0 0 0 0 2531.8221491932882 -541.8211849558711 0 -541.8211849558711 3405.8178018849576 0 0 0 0 -158.62720426124054 514.15327519630046 0 514.15327519630046 1851.0728722562635 0 0 0 0 -754.37093488260712 -19.000614838660113 0 -19.000614838660113 3501.4715820861447 0 0 0 0 -166.36427826136523 -630.82666812607931 0 -630.82666812607931 1533.5178255921055 0 0 0 0 9.5563162795974002 9.1922808554635935 0 9.1922808554635935 10.908510226810023 0 0 0 0 1145.8156000474323 -374.85096176114712 0 -374.85096176114712 47.885795985974255 0 0 0 0 -301.29782341877865 480.79706772457575 0 480.79706772457575 1250.7584506452367 0 0 0 0 937.76377725219572 -177.05831695435347 0 -177.05831695435347 43.408007353136782 0 0 0 0 927.2895078811257 313.0437691251791 0 313.0437691251791 -402.74351147135894 0 0 0 0 -331.47819987146477 -161.17998139804695 0 -161.17998139804695 1453.0448170282616 0 0 0 0 1039.6604705823845 489.70828284908202 0 489.70828284908202 -379.55878323633806 0 0 0 0 1035.8543057350043 344.14161072090383 0 344.14161072090383 -570.2940237683506 0 0 0 0 5.6497364952257829 5.0686932294849782 0 5.0686932294849782 5.0117825965743918 0 0 0 0 211.46906495685107 150.58805903046596 0 150.58805903046596 1092.2949569111806 0 0 0 0 427.38105361845555 647.80351717933081 0 647.80351717933081 1127.0342881996926 0 0 0 0 400.61708017952878 375.90602100659453 0 375.90602100659453 467.70780245594142 0 0 0 0 141.21501218700223 -130.30842389490863 0 -130.30842389490863 545.18578993009578 0 0 0 0 2335.2447823273742 833.78143485989767 0 833.78143485989767 269.16713050878025 0 0 0 0 315.60598985677734 1334.7005533857955 0 1334.7005533857955 1169.2788081365143 0 0 0 0 -905.72116817270489 -854.10152339701744 0 -854.10152339701744 405.19776178897155 0 0 0 0 406.03025268651709 1126.8847576368353 0 1126.8847576368353 365.61788439186057 0 0 0 0 242.88862647287303 -28.017987975892197 0 -28.017987975892197 -264.0975503714435 0 0 0 0 35.986821926855448 -36.678265103910199 0 -36.678265103910199 56.274735762228715 0 0 0 0 55.632413617595375 -64.494260794668662 0 -64.494260794668662 -6.5151756563072922 0 0 0 0 7.1703136797605111 -99.775437525480811 0 -99.775437525480811 -10.195756515289759 0 0 0 0 18.20562745671689 -19.812774787215353 0 -19.812774787215353 33.667382439378187 0 0 0 0 47.143380796011115 -16.126971202847926 0 -16.126971202847926 33.700551906498731 0 0 0 0 4.7961496382667974 -50.936537513065559 0 -50.936537513065559 27.226680157152259 0 0 0 0 70.449941120128287 -36.869830823301299 0 -36.869830823301299 -21.482423048801138 0 0 0 0 -341.27559530533375 -43.700637358072925 0 -43.700637358072925 191.92610688156128 0 0 0 0 5.0254440841735679 -8.1591515338122154 0 -8.1591515338122154 6.9748296530481184 0 0 0 0 19.631088952708961 -20.903236377671561 0 -20.903236377671561 24.889935342762968 0 0 0 0 -237.02673069142918 -102.31511476930791 0 -102.31511476930791 1547.0683500069572 0 0 0 0 3.7848826701736913 -9.9078517208855139 0 -9.9078517208855139 40.658513767320329 0 0 0 0 65.289376531360062 -8.6343475902067439 0 -8.6343475902067439 8.072449847808457 0 0 0 0 34.033455424507679 -56.346598111700587 0 -56.346598111700587 29.953694469833863 0 0 0 0 877.27353866026749 153.45861421577501 0 153.45861421577501 -585.25360941399413 0 0 0 0 -5.697471239257311 -13.071168093822052 0 -13.071168093822052 66.238858552740567 0 0 0 0 30.866720515262234 -52.09301750470442 0 -52.09301750470442 -146.21481001169741 0 0 0 0 7.1307185520191485 -9.6352737435572759 0 -9.6352737435572759 9.0468151125426175 0 0 0 0 -544.91466578224254 167.00076978208074 0 167.00076978208074 3464.5069978276442 0 0 0 0 478.26168864358505 -957.80259837099902 0 -957.80259837099902 1570.3120274716784 0 0 0 0 0.0045244506021584457 -1.2335347641904451 0 -1.2335347641904451 5.3972893434859657 0 0 0 0 372.67829232059233 -119.20514303016535 0 -119.20514303016535 41.240611078672373 0 0 0 0 -41.017001562109378 971.66164066433794 0 971.66164066433794 3491.8142872808967 0 0 0 0 0.76576085658027315 1.3835030850740964 0 1.3835030850740964 19.087333166662006 0 0 0 0 1629.1147529448806 1579.5158403090554 0 1579.5158403090554 1302.2746606435212 0 0 0 0 8.5722799465296315 -7.1312365825129547 0 -7.1312365825129547 10.201871796167978 0 0 0 0 1272.4568836127964 -59.033503523511172 0 -59.033503523511172 -251.84252554765044 0 0 0 0 -201.02139831963581 496.71274738690408 0 496.71274738690408 3494.3336441207362 0 0 0 0 764.17204411798934 -196.81955880906389 0 -196.81955880906389 -146.21481001163193 0 0 0 0 -488.02234555580156 -401.20924951706547 0 -401.20924951706547 3496.0623050056574 0 0 0 0 -202.11199008137436 359.77379004497561 0 359.77379004497561 1779.5354675225026 0 0 0 0 -34.686517711512352 -289.48245470221809 0 -289.48245470221809 -42.190487825806485 0 0 0 0 16.155260365433904 -18.83115945494535 0 -18.83115945494535 21.645681631575229 0 0 0 0 -46.15202341931581 -121.88161959893114 0 -121.88161959893114 148.91274775432248 0 0 0 0 305.12670161424057 -24.887618447226487 0 -24.887618447226487 53.336346620511904 0 0 0 0 -88.940312038079355 -22.000561920365726 0 -22.000561920365726 -57.858444450719617 0 0 0 0 -4.6708937574749143 -182.0463148201452 0 -182.0463148201452 222.16796704525768 0 0 0 0 -18.566929464397163 -74.638065686187474 0 -74.638065686187474 -36.315631705561827 0 0 0 0 109.28912495311033 145.01915871105666 0 145.01915871105666 176.07733844164341 0 0 0 0 220.19637538541701 -8.7469130190129363 0 -8.7469130190129363 278.72839187746285 0 0 0 0 340.85991401400651 251.69882052608318 0 251.69882052608318 197.37418794694531 0 0 0 0 87.547760436939825 145.48598562181724 0 145.48598562181724 192.82087683766804 0 0 0 0 308.47175633182246 60.722886173274674 0 60.722886173274674 61.991689676844544 0 0 0 0 191.78268180663235 102.89333135141715 0 102.89333135141715 207.75496597106394 0 0 0 0 170.2714939451248 37.117642493381936 0 37.117642493381936 80.461183599341894 0 0 0 0 88.563416625528134 95.217031721498898 0 95.217031721498898 271.34584617355722 0 0 0 0 -111.39489894179951 223.40423128741531 0 223.40423128741531 207.41280220616864 0 0 0 0 -0.47059284904332788 -1.2187396172953306 0 -1.2187396172953306 2.9473098431174378 0 0 0 0 280.29150715880041 -126.14781638607201 0 -126.14781638607201 64.94846130735823 0 0 0 0 -77.61332059516144 -72.495568543058653 0 -72.495568543058653 146.14478191944363 0 0 0 0 -7.6361409959338289 -168.92409106540799 0 -168.92409106540799 307.17653735123167 0 0 0 0 -42.491999388383192 -41.263913648275775 0 -41.263913648275775 120.19405527661002 0 0 0 0 24.458602080919263 -27.64632161262125 0 -27.64632161262125 -1.5657119137395057 0 0 0 0 -155.5782084039738 23.441672142063908 0 23.441672142063908 296.84261097527269 0 0 0 0 134.45680509205067 -29.50922715447814 0 -29.50922715447814 251.15102796830206 0 0 0 0 160.62643379136262 179.54341798286987 0 179.54341798286987 287.97749828544818 0 0 0 0 31.756214909847451 53.576785673012736 0 53.576785673012736 57.746140725967706 0 0 0 0 -73.291353258206072 184.82707173731797 0 184.82707173731797 62.721541731158595 0 0 0 0 -768.02917932802666 346.74775504790705 0 346.74775504790705 487.70997248494677 0 0 0 0 55.433070289476746 113.52753827303604 0 113.52753827303604 -90.194227779356879 0 0 0 0 81.238973300252837 110.09038809906633 0 110.09038809906633 -23.211777618551423 0 0 0 0 102.5073071226625 41.771561981591731 0 41.771561981591731 17.128222985236789 0 0 0 0 147.76133415816003 72.650099077556661 0 72.650099077556661 30.796084745878034 0 0 0 0 96.804482174899249 30.785854484916854 0 30.785854484916854 68.270392483202158 0 0 0 0 165.16476009968119 12.96191917383112 0 12.96191917383112 43.866602488054923 0 0 0 0 238.24690498404379 12.497513702754077 0 12.497513702754077 43.118151265385677 0 0 0 0 240.92188857484962 35.525353532397276 0 35.525353532397276 34.39924110118227 0 0 0 0 190.88774695701613 10.430568793417478 0 10.430568793417478 56.455586319043505 0 0 0 0 253.69647264789455 47.391478696394188 0 47.391478696394188 72.449862269677396 0 0 0 0 160.92059528954633 65.013553546745243 0 65.013553546745243 80.74935204655776 0 0 0 0 55.417964397596513 37.478238455347295 0 37.478238455347295 28.695340260934955 0 0 0 0 32.737739516118381 72.036470388142334 0 72.036470388142334 50.048007980451075 0 0 0 0 55.065653293085234 90.456487608835232 0 90.456487608835232 2.3685914870147826 0 0 0 0 128.3372110175319 -46.456907834755839 0 -46.456907834755839 61.691246864738787 0 0 0 0 342.12965470348018 -11.363561209088715 0 -11.363561209088715 2.463353925741103 0 0 0 0 222.70208982470876 -18.987090265105508 0 -18.987090265105508 15.210113750123128 0 0 0 0 180.35910054342321 39.679238636941591 0 39.679238636941591 27.338160104271083 0 0 0 0 110.15946132331374 13.098392653955671 0 13.098392653955671 59.388552968254771 0 0 0 0 76.95086662968788 90.102268441543856 0 90.102268441543856 20.597680573926482 0 0 0 0 89.042756091217598 48.858305431887857 0 48.858305431887857 45.235313492099522 0 0 0 0 -5.5105418604589431 130.39300079586064 0 130.39300079586064 34.320799900986458 0 0 0 0 36.796424152613284 55.965674027042454 0 55.965674027042454 75.978909069508575 0 0 0 0 -250.94276511709813 107.91728699654868 0 107.91728699654868 189.74705062594876 0 0 0 0 -132.15801577197271 -259.68150692892596 0 -259.68150692892596 4.2413925915852815 0 0 0 0 -2.8473083887947723 -70.798884550589719 0 -70.798884550589719 259.98080082844535 0 0 0 0 5.008347991477379 -12.818004868095471 0 -12.818004868095471 -4.247437613240848 0 0 0 0 -199.87543478797124 -8.819267484656848 0 -8.819267484656848 137.96346318161523 0 0 0 0 8.3114641334010244 21.93285463496359 0 21.93285463496359 61.588190629715399 0 0 0 0 -42.642775863263523 -266.29219562206708 0 -266.29219562206708 -97.815660386477248 0 0 0 0 131.69722473814909 -327.93365292446106 0 -327.93365292446106 -76.886386379905161 0 0 0 0 5925.1714339338068 1404.6698901616328 0 1404.6698901616328 -3713.4568923059851 0 0 0 0 23.232208642398291 67.2561146992266 0 67.2561146992266 41.801110704174789 0 0 0 0 -18.262403849568415 -11.493725170272896 0 -11.493725170272896 1.7261673445716781 0 0 0 0 129.60629667586909 -153.57727411259839 0 -153.57727411259839 -226.78613269823836 0 0 0 0 316.61692731835501 -200.18779671716038 0 -200.18779671716038 -215.33637273864588 0 0 0 0 61.888093376750476 1012.4829451180885 0 1012.4829451180885 1942.133000693495 0 0 0 0 -74.384819611153944 -169.85534993878173 0 -169.85534993878173 870.48554988862452 0 0 0 0 630.64187744011338 -3971.6181072056947 0 -3971.6181072056947 4472.7616095250851 0 0 0 0 -1.7437193425227591 8.9331669922461003 0 8.9331669922461003 46.357134997134381 0 0 0 0 642.52301351146889 -4291.8341835095925 0 -4291.8341835095925 7949.8603849930805 0 0 0 0 157.82600075308437 544.31100736754524 0 544.31100736754524 441.8123731495125 0 0 0 0 10308.314463266914 -2118.0851158205332 0 -2118.0851158205332 -4661.5557946191984 0 0 0 0 2474.117056109244 786.75117454647989 0 786.75117454647989 729.67231455565343 0 0 0 0 1137.6026076247117 155.80385531368188 0 155.80385531368188 -767.54862746356957 0 0 0 0 1789.5992620253164 557.51997193837451 0 557.51997193837451 5915.1346348350198 0 0 0 0 1319.9250254423823 -1257.9256846908538 0 -1257.9256846908538 2214.7095138602599 0 0 0 0 -374.76402321895876 -681.93439997642633 0 -681.93439997642633 4891.6425675557985 0 0 0 0 732.92982154464698 -2593.6179461277716 0 -2593.6179461277716 4187.2527083739478 0 0 0 0 3532.6754367682988 -1716.6260597272831 0 -1716.6260597272831 2398.4698673033272 0 0 0 0 894.72603659794549 -966.48278767499869 0 -966.48278767499869 2185.1616168605869 0 0 0 0 543.40859847409592 -2613.2524846880478 0 -2613.2524846880478 2707.4934339896499 0 0 0 0 -31.85502472272492 -1771.5309042754452 0 -1771.5309042754452 3491.4756656222526 0 0 0 0 389.29295462030859 -2054.9005684119329 0 -2054.9005684119329 2013.4594573934301 0 0 0 0 -64.023401858314173 -1581.8006936598149 0 -1581.8006936598149 2428.435626523089 0 0 0 0 355.56861995211511 -2067.6691758509915 0 -2067.6691758509915 2106.0592113796883 0 0 0 0 -170.27596694129716 -930.08465230342335 0 -930.08465230342335 1990.272820131926 0 0 0 0 76.146057972669951 -1366.1994808055988 0 -1366.1994808055988 2741.5814163526084 0 0 0 0 -384.39906733452295 -143.96963028086205 0 -143.96963028086205 2221.517564776128 0 0 0 0 500.57572761651136 412.81813782704012 0 412.81813782704012 318.82159110940847 0 0 0 0 -87.632685152686463 -656.61156511439185 0 -656.61156511439185 1403.1097087737144 0 0 0 0 39.934155201327087 25.107807642483991 0 25.107807642483991 15.852713702708314 0 0 0 0 -11.282730354756495 -118.5889893788044 0 -118.5889893788044 1209.1088525712948 0 0 0 0 123.33759517688691 64.959292245258439 0 64.959292245258439 -8.6630362802206946 0 0 0 0 220.94929112952832 -684.33304515952523 0 -684.33304515952523 1980.7064698350296 0 0 0 0 400.82484867249877 -719.70660167992173 0 -719.70660167992173 1574.8395971373538 0 0 0 0 477.52630172739305 -551.14915693432624 0 -551.14915693432624 2384.1835962524237 0 0 0 0 510.79133098699094 -378.50326425605454 0 -378.50326425605454 2200.6317555081514 0 0 0 0 535.42298961020788 -1260.0194553482779 0 -1260.0194553482779 1828.4319880649346 0 0 0 0 -119.54893771510979 -365.56014514663548 0 -365.56014514663548 2288.0166781447151 0 0 0 0 815.27181778995873 -1012.1143084571559 0 -1012.1143084571559 1994.4756475865279 0 0 0 0 619.23475734769454 -1235.0874178500271 0 -1235.0874178500271 1556.3945223446208 0 0 0 0 -185.86994137511283 -188.95882511983655 0 -188.95882511983655 2114.5427627586869 0 0 0 0 46.570563896657404 -226.74818947173367 0 -226.74818947173367 1792.0786993869988 0 0 0 0 131.16880017134827 69.418311491184795 0 69.418311491184795 -991.33340601727832 0 0 0 0 737.22150584131487 -1151.507217177865 0 -1151.507217177865 1578.4667637036214 0 0 0 0 -1.8307621027648242 -6.4452003034401812 0 -6.4452003034401812 17.307122559319303 0 0 0 0 21.900517152613247 97.030608039472327 0 97.030608039472327 121.46995739735212 0 0 0 0 -22.891608043710864 -6.773938961393938 0 -6.773938961393938 28.296240875399256 0 0 0 0 29.251551287277834 22.5241137842022 0 22.5241137842022 38.045035424227535 0 0 0 0 18.110180541531008 -67.950900676982201 0 -67.950900676982201 -28.974875977911324 0 0 0 0 -6.5301167845597092 1.9002845983480032 0 1.9002845983480032 8.1065741961210236 0 0 0 0 -42.18030662156707 18.192540164852744 0 18.192540164852744 31.865875222041723 0 0 0 0 -32.201160212793184 0.43789402100992447 0 0.43789402100992447 35.691451969694299 0 0 0 0 -4.0954053204740237 -1.3912379292640438 0 -1.3912379292640438 35.766646898557426 0 0 0 0 -368.67597581858172 47.256779050512705 0 47.256779050512705 406.48025336406408 0 0 0 0 -15.732717675440558 -12.487948938627888 0 -12.487948938627888 37.246221599805672 0 0 0 0 -79.974088233065231 -4.3989172798385425 0 -4.3989172798385425 77.279895896238031 0 0 0 0 -8.883634798683488 103.58879797380359 0 103.58879797380359 189.86285325922927 0 0 0 0 147.30394736143717 38.31299810951532 0 38.31299810951532 104.27303222305818 0 0 0 0 16.049003652959072 256.20370679599546 0 256.20370679599546 69.214605502244922 0 0 0 0 51.767422606048058 284.28990325612176 0 284.28990325612176 50.967778913443908 0 0 0 0 -23.93439971105618 8.581009055833551 0 8.581009055833551 15.922843514180002 0 0 0 0 -225.67387850978048 108.23203610827477 0 108.23203610827477 114.06582503692152 0 0 0 0 -41.184972908665465 16.032815554159296 0 16.032815554159296 111.04958341917569 0 0 0 0 -73.584078198418865 90.084916860243538 0 90.084916860243538 167.0273472496483 0 0 0 0 340.32681972215869 -210.65599282303447 0 -210.65599282303447 -293.46916775016507 0 0 0 0 -3.7774656711286738 9.7489331277171445 0 9.7489331277171445 18.752610072395591 0 0 0 0 -504.69014377858548 -664.47599883833391 0 -664.47599883833391 2631.7767538909393 0 0 0 0 -38.928555112117827 22.982703066972022 0 22.982703066972022 94.629088265252108 0 0 0 0 -409.51573172584176 844.21793061283097 0 844.21793061283097 1368.0161351806928 0 0 0 0 38.124875064891967 -226.97316093772042 0 -226.97316093772042 1795.496871588628 0 0 0 0 -2662.4783038398455 -916.34697755641537 0 -916.34697755641537 2826.235470077736 0 0 0 0 2878.5769278941152 36.106785493859206 0 36.106785493859206 103.61357244109968 0 0 0 0 12.219235075464198 11.024903074268874 0 11.024903074268874 12.669188941804492 0 0 0 0 6.0813498619142194 10.617668097325971 0 10.617668097325971 3.5702047532946892 0 0 0 0 -455.43901425137074 1935.3595768525952 0 1935.3595768525952 -1624.1068680481403 0 0 0 0 993.93414659042901 -334.58013940207456 0 -334.58013940207456 -961.96061066238326 0 0 0 0 938.64030291634845 -2355.4320739167597 0 -2355.4320739167597 -8136.8016796983138 0 0 0 0 2726.6172370698123 -3923.1170345073569 0 -3923.1170345073569 -2506.2052399062377 0 0 0 0 859.28297896854929 -2478.4227608472283 0 -2478.4227608472283 1841.2799516436316 0 0 0 0 646.6019167028935 -1092.8233690754178 0 -1092.8233690754178 -120.04264728483395 0 0 0 0 1338.8481304058514 -764.93041206127964 0 -764.93041206127964 -458.9840818093071 0 0 0 0 86.580969329490472 111.6024418900397 0 111.6024418900397 118.64952302871097 0 0 0 0 61.673707935102499 43.154324329147684 0 43.154324329147684 -39.302838019620836 0 0 0 0 779.36465917769965 59.667300149569201 0 59.667300149569201 473.66655989339597 0 0 0 0 -724.59718140755649 870.76167896264815 0 870.76167896264815 1161.1411797516703 0 0 0 0 -1212.4461736265002 -584.37021477067356 0 -584.37021477067356 279.7257178484524 0 0 0 0 40.129950339010975 -79.598448731881945 0 -79.598448731881945 385.41511749291385 0 0 0 0 66.32246674606192 -116.04259220417978 0 -116.04259220417978 193.77559552069044 0 0 0 0 -485.0774307681495 168.38256121518771 0 168.38256121518771 816.1639543626361 0 0 0 0 -28.404177501337216 64.97886867730783 0 64.97886867730783 -23.675406896768706 0 0 0 0 27.270547670865199 110.65432753420464 0 110.65432753420464 150.72167399400496 0 0 0 0 26.881472367188508 118.02748546834357 0 118.02748546834357 67.521020467007475 0 0 0 0 -46.680576225651748 141.91126183487177 0 141.91126183487177 243.51382279496465 0 0 0 0 51.93643587403858 185.3273405928594 0 185.3273405928594 99.129273711048882 0 0 0 0 67.850372099521337 306.63115856923832 0 306.63115856923832 344.46186611536723 0 0 0 0 2.9900036660474143 17.482710055228381 0 17.482710055228381 475.91101921978407 0 0 0 0 56.20116322447393 -155.84612480142641 0 -155.84612480142641 252.29396587521478 0 0 0 0 -54.619577400844719 69.902143868061103 0 69.902143868061103 432.46105405257549 0 0 0 0 -81.031476843214477 -27.464047113269771 0 -27.464047113269771 137.77557065852307 0 0 0 0 30.224143423991336 -196.09178518279805 0 -196.09178518279805 635.60450754167687 0 0 0 0 1.4081323013847964 -3.1929123951530016 0 -3.1929123951530016 -6.1732986244928441 0 0 0 0 -61.057961311016697 15.776900069526164 0 15.776900069526164 128.29965184896719 0 0 0 0 -111.54103816516727 -94.920779034910083 0 -94.920779034910083 203.03765089409717 0 0 0 0 -35.704035459790518 13.111245068034947 0 13.111245068034947 122.63108546497774 0 0 0 0 12.925516630493263 -5.8649671276129709 0 -5.8649671276129709 0.79185623798507976 0 0 0 0 -201.00696068599063 -147.9343911298929 0 -147.9343911298929 736.01778124713746 0 0 0 0 29.447104654682335 -6.0629664133739425 0 -6.0629664133739425 19.105240384560602 0 0 0 0 -586.51099573161628 -349.32203811783984 0 -349.32203811783984 630.96621005397174 0 0 0 0 2309.212948283297 2387.3198883908626 0 2387.3198883908626 1385.6115675897454 0 0 0 0 8.6147732962597559 -9.4337333749443317 0 -9.4337333749443317 11.897264494791912 0 0 0 0 232.94016205694061 162.78072309140407 0 162.78072309140407 181.8437303548053 0 0 0 0 226.91994557181533 271.36635804912385 0 271.36635804912385 393.3610123815306 0 0 0 0 726.34846366231068 153.59393243415252 0 153.59393243415252 2.5510764255741378 0 0 0 0 345.15587433804467 -50.211864643686567 0 -50.211864643686567 119.43896166017294 0 0 0 0 -251.85175411577802 317.46586054612999 0 317.46586054612999 281.82277122651431 0 0 0 0 345.15857772476738 -43.885907128904364 0 -43.885907128904364 -47.767288828668825 0 0 0 0 -82.828045099915471 179.4658404567308 0 179.4658404567308 656.91902370995194 0 0 0 0 99.233763810498203 -1031.9084630713296 0 -1031.9084630713296 1522.6607122633723 0 0 0 0 -276.51106065086788 639.293578826866 0 639.293578826866 808.93647827587847 0 0 0 0 1941.6281939833425 -402.06873869233823 0 -402.06873869233823 504.52567069757424 0 0 0 0 1519.3726330783393 45.032301929531968 0 45.032301929531968 179.37023498677445 0 0 0 0 1018.7534647207212 789.87611143798858 0 789.87611143798858 573.38255987426965 0 0 0 0 1713.6516706905386 -213.13679347967263 0 -213.13679347967263 137.78260902421607 0 0 0 0 5.0649209465881881 -0.96412512743516743 0 -0.96412512743516743 2.624700360424665 0 0 0 0 22.869252345524728 -83.27856970904395 0 -83.27856970904395 630.74226938319043 0 0 0 0 0.70043352853946317 0.70516463239744098 0 0.70516463239744098 0.62690610715063144 0 0 0 0 174.09626521298924 -119.68234522643615 0 -119.68234522643615 398.37321686566793 0 0 0 0 346.4108642773499 -1.743726259948744 0 -1.743726259948744 -172.72747332920335 0 0 0 0 306.72643731663106 -31.305398144716378 0 -31.305398144716378 -98.686053194767737 0 0 0 0 -4.1154871734905782 8.9438832553688989 0 8.9438832553688989 -3.1938121348394191 0 0 0 0 -148.33233676329837 20.698786726497929 0 20.698786726497929 130.01926546072355 0 0 0 0 291.79144901619929 -375.40035498070097 0 -375.40035498070097 466.73811800520343 0 0 0 0 73.62692878595044 -178.96034412668087 0 -178.96034412668087 313.3808300831879 0 0 0 0 67.209275067755129 -88.205874241710916 0 -88.205874241710916 81.472449868403061 0 0 0 0 153.30591307208942 77.695972429008179 0 77.695972429008179 473.47664984910807 0 0 0 0 347.94083968721679 113.86236908828869 0 113.86236908828869 346.82473337409101 0 0 0 0 144.65238708761535 247.02081349077343 0 247.02081349077343 777.06880960568378 0 0 0 0 -79.796543850982744 43.352884024923696 0 43.352884024923696 845.85086531621346 0 0 0 0 25.914573607671628 44.597036181941803 0 44.597036181941803 515.5821218527708 0 0 0 0 -43.18299574596108 187.0136417963522 0 187.0136417963522 873.06480661642854 0 0 0 0 -6.0728935953212755 -5.2942813523917351 0 -5.2942813523917351 8.9197490187014381 0 0 0 0 -106.54240001170774 -134.84195567060851 0 -134.84195567060851 687.06066457459383 0 0 0 0 -140.47681659580849 -108.00244409561128 0 -108.00244409561128 1326.8872341110618 0 0 0 0 7.6206801030612041 37.919278957206188 0 37.919278957206188 1468.5871700034622 0 0 0 0 -49.837985960675724 161.53862646063317 0 161.53862646063317 824.19464594380406 0 0 0 0 186.38998617074321 483.07318772742292 0 483.07318772742292 1167.9855472432828 0 0 0 0 199.96657250201679 242.77623654702256 0 242.77623654702256 681.51059307799733 0 0 0 0 323.00441525337374 99.280244330569985 0 99.280244330569985 752.01045344958038 0 0 0 0 45.687414594346492 -79.478487155646135 0 -79.478487155646135 134.95414646413946 0 0 0 0 1466.4257536963887 -3941.1951682911531 0 -3941.1951682911531 1243.8104285336231 0 0 0 0 386.25709090350938 1299.6259340102843 0 1299.6259340102843 5153.9724766275031 0 0 0 0 912.00105946727854 -2930.3232508127257 0 -2930.3232508127257 6133.5821583904653 0 0 0 0 20.485416254962345 -31.458921532785521 0 -31.458921532785521 49.44485627510619 0 0 0 0 6334.376753277822 -5296.4923165030195 0 -5296.4923165030195 1503.0330807625432 0 0 0 0 633.05708614255855 891.67014448464761 0 891.67014448464761 1399.231770092767 0 0 0 0 212.68129238027177 -465.01339211764571 0 -465.01339211764571 2499.6579097399299 0 0 0 0 596.31171832615655 -678.40707359831504 0 -678.40707359831504 1069.798417567552 0 0 0 0 695.74462701339507 -1103.5886113806846 0 -1103.5886113806846 1982.8414038229675 0 0 0 0 256.6182985753112 -765.01882966748235 0 -765.01882966748235 1940.6530333120754 0 0 0 0 868.28887602870236 -1309.7874951959238 0 -1309.7874951959238 783.39793076732894 0 0 0 0 108.10819572000764 1097.158459465456 0 1097.158459465456 53.590484569809632 0 0 0 0 2256.7679896417249 1761.1013742567739 0 1761.1013742567739 -1221.6886030782189 0 0 0 0 2448.9383649111405 -1800.6702618812706 0 -1800.6702618812706 1600.1480511109694 0 0 0 0 2111.233655739954 -1233.2592510634713 0 -1233.2592510634713 682.54294934635982 0 0 0 0 276.74390516471613 -992.44562251421303 0 -992.44562251421303 3385.0950972838327 0 0 0 0 1521.8023938011029 -2357.5830116378202 0 -2357.5830116378202 2177.3339698995114 0 0 0 0 812.48854240137734 -1334.1038926756373 0 -1334.1038926756373 1375.0954150368925 0 0 0 0 530.85441860873834 -945.2225015576696 0 -945.2225015576696 538.18662006692102 0 0 0 0 1407.1248028039408 -1313.8967723219175 0 -1313.8967723219175 583.03940879693255 0 0 0 0 431.98512005132216 -704.46634958602954 0 -704.46634958602954 808.51788685377323 0 0 0 0 -236.79493047803953 -1563.7879857565968 0 -1563.7879857565968 115.28343362308806 0 0 0 0 1214.645386034681 -1451.3264173309726 0 -1451.3264173309726 -1410.7445588910487 0 0 0 0 -4.4343108251605656 2.9895802708028896 0 2.9895802708028896 10.510652607509272 0 0 0 0 1223.9991029883749 -1086.2757275865806 0 -1086.2757275865806 -72.593736838156474 0 0 0 0 1121.2749207120014 -822.83580209450065 0 -822.83580209450065 275.41894469586259 0 0 0 0 14.72908039445079 10.019476782578238 0 10.019476782578238 17.484230967370138 0 0 0 0 1213.6394725152641 -482.85186034775688 0 -482.85186034775688 251.31194865785073 0 0 0 0 1168.2711622743263 -522.78437357944858 0 -522.78437357944858 317.38418153914972 0 0 0 0 217.39260575139633 -317.91012112043973 0 -317.91012112043973 96.583023967999907 0 0 0 0 1167.3868940974644 -947.13564143074473 0 -947.13564143074473 774.78715482751682 0 0 0 0 1108.5405793464743 -818.46135009689169 0 -818.46135009689169 597.35653459573223 0 0 0 0 1244.8875027328613 -688.59820464738732 0 -688.59820464738732 400.46376576597186 0 0 0 0 1549.0100838666331 -464.45929226920089 0 -464.45929226920089 477.96499892206339 0 0 0 0 1360.6630314383365 -12.090904282376869 0 -12.090904282376869 617.88374941275652 0 0 0 0 1003.712892293177 19.240954548324225 0 19.240954548324225 1005.193017240701 0 0 0 0 549.16370533227746 459.50215455190482 0 459.50215455190482 879.82725173973995 0 0 0 0 93.362368913380124 295.91622474016913 0 295.91622474016913 1211.5597000769412 0 0 0 0 420.77546889769974 165.72890720640544 0 165.72890720640544 1251.206020014266 0 0 0 0 731.74240133558851 -346.36452804387045 0 -346.36452804387045 1472.1812434595995 0 0 0 0 399.37398085557288 59.667640920080885 0 59.667640920080885 1009.9045804055954 0 0 0 0 137.79535009293977 687.0496123428602 0 687.0496123428602 1108.3232983480775 0 0 0 0 126.85586495866482 714.13248783891322 0 714.13248783891322 1782.3042179011973 0 0 0 0 83.183916065867379 810.76262562015836 0 810.76262562015836 2098.6803897521822 0 0 0 0 178.36184601836612 435.29650782232784 0 435.29650782232784 1583.965339659364 0 0 0 0 153.71785093250583 456.6906178156496 0 456.6906178156496 755.83966932635667 0 0 0 0 32.884783849639007 -37.554807534664178 0 -37.554807534664178 428.32357594821951 0 0 0 0 41.140357933290943 606.36713325898018 0 606.36713325898018 1140.3531083241742 0 0 0 0 135.29078460255778 178.08132948270122 0 178.08132948270122 647.3782955333736 0 0 0 0 -23.893247405845614 -11.53012289795879 0 -11.53012289795879 59.210362956992867 0 0 0 0 -8.0702950164677532 -35.709439663049125 0 -35.709439663049125 62.280819259496639 0 0 0 0 -5.4691680053234322 -16.912843175992052 0 -16.912843175992052 52.53103114110516 0 0 0 0 -17.345485762115914 -1.4849338205240201 0 -1.4849338205240201 66.189879307683441 0 0 0 0 -3.2293274092856965 -6.8824667253211942 0 -6.8824667253211942 15.132213394234753 0 0 0 0 -13.841178209247438 -13.71556087442805 0 -13.71556087442805 47.437709357337098 0 0 0 0 -14.415991637319166 -29.272210110531887 0 -29.272210110531887 34.614503175980644 0 0 0 0 -66.708975299570284 67.093896309655975 0 67.093896309655975 50.983760572358733 0 0 0 0 -47.618420708125541 15.939183301712546 0 15.939183301712546 7.1838608496909728 0 0 0 0 -15.695215861791674 3.5132118279774147 0 3.5132118279774147 13.432816876655437 0 0 0 0 0.20109974674596742 -13.402648034934828 0 -13.402648034934828 24.361320024880115 0 0 0 0 -3.9096297261331499 1.0676165012376515 0 1.0676165012376515 2.3952577091932312 0 0 0 0 13.366599355115341 39.273024149420962 0 39.273024149420962 15.877661199570866 0 0 0 0 -54.843237385500288 69.81454366925027 0 69.81454366925027 50.991269310732605 0 0 0 0 9.2437305434400674 -30.181986019845326 0 -30.181986019845326 53.839509266756465 0 0 0 0 -407.66975097962313 -210.42831941141048 0 -210.42831941141048 210.7831819772764 0 0 0 0 -292.28641280628699 332.59483274464765 0 332.59483274464765 115.0301831511606 0 0 0 0 -16.638242824406916 169.03607207188907 0 169.03607207188907 190.04041467525531 0 0 0 0 429.28670065224799 873.04791837454832 0 873.04791837454832 2015.0508511046355 0 0 0 0 1202.5310468196931 963.88123523307149 0 963.88123523307149 285.39381558432069 0 0 0 0 -2.1001459017870605 -11.297766670342625 0 -11.297766670342625 15.424627503803322 0 0 0 0 278.13722180120953 1168.0448885410296 0 1168.0448885410296 1769.5539935398119 0 0 0 0 -364.79689217415489 698.10715800330217 0 698.10715800330217 2200.9912398771994 0 0 0 0 682.58507301895133 831.67902386863716 0 831.67902386863716 1792.0485903343506 0 0 0 0 1953.31691326138 2360.1788869077827 0 2360.1788869077827 2434.4814987231439 0 0 0 0 104.36741239540424 143.05564748434699 0 143.05564748434699 -255.62512416309619 0 0 0 0 5.8701750511419455 -9.3273606027186418 0 -9.3273606027186418 18.968397075977322 0 0 0 0 -153.95742737673663 -514.46211327682977 0 -514.46211327682977 4656.2288506215555 0 0 0 0 -3.8449590513209091 -4.9233230039504008 0 -4.9233230039504008 9.3616861515659906 0 0 0 0 -413.43922365339836 715.15022049753679 0 715.15022049753679 3398.5351715995203 0 0 0 0 1034.6158061010633 253.14028993794636 0 253.14028993794636 713.135365674083 0 0 0 0 420.88974829587812 545.12640233925413 0 545.12640233925413 1690.5597238661139 0 0 0 0 -37.6454313870654 312.90495654277765 0 312.90495654277765 1354.7628776425336 0 0 0 0 97.542890029759292 -3.5647160265580169 0 -3.5647160265580169 1132.9540213398795 0 0 0 0 -7.1505007413982895 -8.362495311785878 0 -8.362495311785878 13.269794491767101 0 0 0 0 97.338734865537845 481.89170801128421 0 481.89170801128421 1652.9844016459829 0 0 0 0 -55.617833219794193 196.13276012614369 0 196.13276012614369 866.37754659228813 0 0 0 0 5.0077838231845817 5.9320335967204301 0 5.9320335967204301 591.49049117518007 0 0 0 0 -56.375846759415026 7.2264284809716628 0 7.2264284809716628 1145.8189248689596 0 0 0 0 107.35618245812657 -336.12423446719185 0 -336.12423446719185 749.59284140725504 0 0 0 0 11.202706431352453 -25.729413403809303 0 -25.729413403809303 368.59832029470272 0 0 0 0 24.410409694432929 -196.17735530782011 0 -196.17735530782011 547.04978483374998 0 0 0 0 117.39747288809463 -70.485565828493236 0 -70.485565828493236 77.285696252976777 0 0 0 0 212.34179921235773 115.26000356549048 0 115.26000356549048 215.14872794720577 0 0 0 0 64.093904321909349 -83.412344142187038 0 -83.412344142187038 50.042326160707745 0 0 0 0 78.577182419233395 -339.91121860487601 0 -339.91121860487601 64.108987644045555 0 0 0 0 115.89548800606099 -128.52411869581556 0 -128.52411869581556 -90.781551347332424 0 0 0 0 46.136257566958491 -79.766901732351457 0 -79.766901732351457 55.804427101153664 0 0 0 0 208.44660437223229 -104.59773639836203 0 -104.59773639836203 -85.743836775014643 0 0 0 0 74.55246712207736 -49.25452957006928 0 -49.25452957006928 166.51701207860606 0 0 0 0 12.735762850721301 -9.2154189809193383 0 -9.2154189809193383 18.809724423806557 0 0 0 0 34.104941054058145 -36.019363711136975 0 -36.019363711136975 50.298874065570999 0 0 0 0 -101.37274266041277 -95.379438220430529 0 -95.379438220430529 344.96901427994453 0 0 0 0 20.451743658909578 -9.8609754144405741 0 -9.8609754144405741 15.482641077986635 0 0 0 0 17.734674811617879 1.3089182137628086 0 1.3089182137628086 36.421751806024986 0 0 0 0 14.223130018267234 -10.053518739862028 0 -10.053518739862028 14.834077397600485 0 0 0 0 56.229581782101377 -102.92993688164279 0 -102.92993688164279 186.80261181252718 0 0 0 0 152.03551986712228 -87.982168860035017 0 -87.982168860035017 52.400975818149163 0 0 0 0 139.61884826932646 -80.061658522405196 0 -80.061658522405196 73.706501055232366 0 0 0 0 -96.581872320786033 -75.300200676105305 0 -75.300200676105305 116.11106478664442 0 0 0 0 1.8258739374216475 -160.48022378182213 0 -160.48022378182213 92.651783549663378 0 0 0 0 56.564974492575857 -100.81266579533985 0 -100.81266579533985 184.04713706180337 0 0 0 0 38.157858683640796 -44.756691780848314 0 -44.756691780848314 57.960993511710122 0 0 0 0 16.279496066268059 -15.025987677375809 0 -15.025987677375809 61.985027578206228 0 0 0 0 17.584046085095906 -40.122747726476518 0 -40.122747726476518 57.39947197550282 0 0 0 0 27.848801305008237 -33.285672538680956 0 -33.285672538680956 55.661761499941349 0 0 0 0 -51.671394275170314 35.461535560985794 0 35.461535560985794 69.510245788398606 0 0 0 0 -10.007286168719574 -9.5440317946337814 0 -9.5440317946337814 24.431142262967086 0 0 0 0 11.716753646304795 -15.039544170688998 0 -15.039544170688998 47.501718503374263 0 0 0 0 47.97801157193836 -80.824809465142522 0 -80.824809465142522 -2.9614886027945317 0 0 0 0 7.3942339502651286 -7.1162875709211733 0 -7.1162875709211733 -11.193145758036962 0 0 0 0 15.126697480807252 -58.067708863578446 0 -58.067708863578446 -23.327561036247062 0 0 0 0 -48.052605569517027 -16.74888019728678 0 -16.74888019728678 -18.402850753773237 0 0 0 0 157.01082540378775 19.389890520182234 0 19.389890520182234 15.543974227330182 0 0 0 0 7.2362458826691709 -4.5762477555709324 0 -4.5762477555709324 3.8832843730789932 0 0 0 0 21.822123223269259 -60.506207602525137 0 -60.506207602525137 -176.99585239493172 0 0 0 0 37.858930389727448 -91.572230306104757 0 -91.572230306104757 72.515462563782421 0 0 0 0 53.176943570979802 -52.584125592580676 0 -52.584125592580676 113.23028128955048 0 0 0 0 176.15266566058858 -393.34039105226111 0 -393.34039105226111 124.33682365641289 0 0 0 0 9.9164745841160311 -183.87935927859508 0 -183.87935927859508 -129.6306849970133 0 0 0 0 -242.17371867905376 -327.67260431168688 0 -327.67260431168688 567.401750896679 0 0 0 0 -442.53102758450609 -92.715557699011697 0 -92.715557699011697 295.80483407661086 0 0 0 0 1.108550201982081 3.5961378349714117 0 3.5961378349714117 -4.8899487366306857 0 0 0 0 223.41689366595392 -266.08090093127248 0 -266.08090093127248 353.14537238557386 0 0 0 0 122.86325556684049 -108.71542030677142 0 -108.71542030677142 582.53884586086497 0 0 0 0 -262.67424430806909 -688.73557406484179 0 -688.73557406484179 1669.4751681266061 0 0 0 0 270.7208877833873 201.9808013222937 0 201.9808013222937 504.62630737430118 0 0 0 0 684.10447790734679 -982.05485237676476 0 -982.05485237676476 2174.5182124656421 0 0 0 0 -263.92869216546842 -37.233514657011256 0 -37.233514657011256 1416.2324269084638 0 0 0 0 968.79683895464927 349.69877912127413 0 349.69877912127413 930.41825693420833 0 0 0 0 16.92170622849153 486.80013763451279 0 486.80013763451279 2167.9409583112574 0 0 0 0 -16.751841412712352 875.84675545698246 0 875.84675545698246 2234.624635815795 0 0 0 0 5.3067038060266825 4.2984839205057028 0 4.2984839205057028 4.0838533979816702 0 0 0 0 259.872380353268 693.15803358401172 0 693.15803358401172 2350.678207565943 0 0 0 0 831.88244749973478 335.46125804124313 0 335.46125804124313 124.0279173431627 0 0 0 0 158.94437649884458 -667.25134557113051 0 -667.25134557113051 469.15496055071708 0 0 0 0 8.0862625062495557 6.7614989563589347 0 6.7614989563589347 4.1154935680611118 0 0 0 0 -29.934605203474348 -29.362792963409447 0 -29.362792963409447 99.055775407759938 0 0 0 0 407.74932949944923 419.79723321767779 0 419.79723321767779 -361.85590489239257 0 0 0 0 472.43960958330399 -355.77785467530339 0 -355.77785467530339 142.30993323810981 0 0 0 0 -122.89454234759705 -130.81636498322041 0 -130.81636498322041 171.10327692367719 0 0 0 0 102.98473593249173 -55.274178851337638 0 -55.274178851337638 91.528374260597047 0 0 0 0 464.33117849685914 -199.89758602745133 0 -199.89758602745133 60.542213687978801 0 0 0 0 8.8947246374674478 -184.12085195547843 0 -184.12085195547843 191.92818434303626 0 0 0 0 786.95361592009306 -511.4059894359234 0 -511.4059894359234 -100.74867881317914 0 0 0 0 -76.315908441842609 136.32083769704332 0 136.32083769704332 346.08448476658668 0 0 0 0 -0.56278162847889979 0.44788967412268477 0 0.44788967412268477 4.3027259541979106 0 0 0 0 510.60933151807671 -209.32663696134114 0 -209.32663696134114 -268.471007467655 0 0 0 0 87.464017553748363 118.112670082759 0 118.112670082759 804.16849480230303 0 0 0 0 7.7908670852687267 -5.6106126571330854 0 -5.6106126571330854 9.3996290242482701 0 0 0 0 607.29619151392285 2.7411838925545453 0 2.7411838925545453 -312.00121572316857 0 0 0 0 -37.216931589634669 -101.75715909788414 0 -101.75715909788414 2.5358716322371038 0 0 0 0 5.6451763012996263 -0.16684138757491951 0 -0.16684138757491951 -0.3893953268792707 0 0 0 0 -26.326511351297086 -264.15503960590286 0 -264.15503960590286 785.36860677174082 0 0 0 0 378.31894412024258 102.39272721693851 0 102.39272721693851 -29.049026233462428 0 0 0 0 77.733061503281533 21.047031667090778 0 21.047031667090778 -35.791807724133832 0 0 0 0 0.2945469874063244 -56.639333076251205 0 -56.639333076251205 219.66444840761687 0 0 0 0 139.70264573061198 -25.737931080545422 0 -25.737931080545422 -71.894310270843562 0 0 0 0 124.74061596847406 -29.44119019581558 0 -29.44119019581558 -143.26828783727251 0 0 0 0 129.61324464042045 52.760418837613543 0 52.760418837613543 214.96992613849579 0 0 0 0 114.46122589243144 -132.31713847332867 0 -132.31713847332867 -61.013431670980935 0 0 0 0 92.970686425866802 -68.462880585182575 0 -68.462880585182575 -129.89333140512463 0 0 0 0 245.28097907327461 13.595468721985526 0 13.595468721985526 219.36214195124194 0 0 0 0 169.5772001587957 264.69077134845429 0 264.69077134845429 538.64929410466721 0 0 0 0 0.18675798120169457 56.160061966838839 0 56.160061966838839 939.42120255158807 0 0 0 0 -8.1596698839284443 -27.498836823455349 0 -27.498836823455349 722.94989950790477 0 0 0 0 863.5834168105697 463.85389967345691 0 463.85389967345691 642.89015227971504 0 0 0 0 14.886871352482757 481.61817524765502 0 481.61817524765502 2015.4418830879295 0 0 0 0 -1.5759153125400189 64.943486938987917 0 64.943486938987917 2115.597580187452 0 0 0 0 19.074453611934505 494.76348371332733 0 494.76348371332733 1611.1060692145693 0 0 0 0 -4.3822388688998899 103.70461013068416 0 103.70461013068416 1698.525468344762 0 0 0 0 -0.40369266528315206 62.023131359368563 0 62.023131359368563 1778.9883604961215 0 0 0 0 -0.088565869290575014 1.2373264994675992 0 1.2373264994675992 1208.6010421083629 0 0 0 0 -91.782803436943226 -178.52235887748247 0 -178.52235887748247 1546.8039367178935 0 0 0 0 -57.531234176938902 54.689341533769039 0 54.689341533769039 1716.5465187586451 0 0 0 0 46.43060461806499 -306.72118165505526 0 -306.72118165505526 1131.2262243147561 0 0 0 0 481.57382937430452 195.16215184308385 0 195.16215184308385 1885.7808153976948 0 0 0 0 -81.55704934404605 -17.540202750460594 0 -17.540202750460594 1880.5200560886733 0 0 0 0 128.97480112127124 271.8580971816009 0 271.8580971816009 1996.3417423710198 0 0 0 0 -198.20653112167042 377.12295067853847 0 377.12295067853847 2159.3166513454489 0 0 0 0 -150.12694342397549 814.52632697140507 0 814.52632697140507 4201.0318672613794 0 0 0 0 1525.6363740854413 829.78575663941592 0 829.78575663941592 2165.1301488796016 0 0 0 0 145.72807815898068 -915.40599153259245 0 -915.40599153259245 203.32294847600861 0 0 0 0 136.9664874992134 -1369.5258877186843 0 -1369.5258877186843 2364.3114938492363 0 0 0 0 114.93160209725602 -158.02791514586715 0 -158.02791514586715 1079.6861546862201 0 0 0 0 460.48599712125679 -308.67432624746289 0 -308.67432624746289 297.75426161006908 0 0 0 0 -131.968905035793 -225.98211553502188 0 -225.98211553502188 2033.2351116152786 0 0 0 0 337.64548437644839 -374.01761172914121 0 -374.01761172914121 722.88105183771404 0 0 0 0 -92.892090207959654 20.545292564449483 0 20.545292564449483 714.78549065340076 0 0 0 0 203.52657391023206 -252.08832598907247 0 -252.08832598907247 92.730834404777852 0 0 0 0 254.37512675196331 112.00476516308845 0 112.00476516308845 -8.1892727055092109 0 0 0 0 -44.572657660905861 171.12935377226677 0 171.12935377226677 287.1031075185092 0 0 0 0 -86.44017050700586 140.01499190325558 0 140.01499190325558 181.00310582133898 0 0 0 0 -17.37916207363952 13.274009855842451 0 13.274009855842451 12.359669164841762 0 0 0 0 -8.2388070194827066 2.4525090124792257 0 2.4525090124792257 0.89355766279825843 0 0 0 0 55.141436231254772 -60.368487177118368 0 -60.368487177118368 -124.57843143580249 0 0 0 0 -3.3987833735586124 3.9494972498884238 0 3.9494972498884238 6.2336470537296691 0 0 0 0 -20.439728441245279 12.384123579606239 0 12.384123579606239 12.167401162296301 0 0 0 0 1.6446784258852176 -20.846689819882158 0 -20.846689819882158 61.485791309605702 0 0 0 0 -10.742149038032494 -9.5876141119806562 0 -9.5876141119806562 8.9885206276976533 0 0 0 0 -9.4639632526468205 11.159342587394349 0 11.159342587394349 8.7185794525867095 0 0 0 0 0.65232944553588723 -2.6023486038466217 0 -2.6023486038466217 10.917513412190601 0 0 0 0 -0.25688376594897733 -0.45682828393910313 0 -0.45682828393910313 6.3070438839931739 0 0 0 0 33.40902466157646 -232.94109560946526 0 -232.94109560946526 744.45914756710408 0 0 0 0 -0.14195175300387913 -0.56802839619024326 0 -0.56802839619024326 0.80115180879546699 0 0 0 0 -2.208084499082156 -0.47935815446950869 0 -0.47935815446950869 0.2547260005982821 0 0 0 0 -132.73517857105998 49.202309691390838 0 49.202309691390838 950.16638165801851 0 0 0 0 -13692.543159100031 5290.3211114710321 0 5290.3211114710321 4380.4469946898971 0 0 0 0 -480.26848713551601 -20428.954158519049 0 -20428.954158519049 34498.294626485978 0 0 0 0 -16686.904901296071 -479.73471965453791 0 -479.73471965453791 9995.1092100805527 0 0 0 0 -7471.0138345256601 -6242.3280493969141 0 -6242.3280493969141 10925.350211871464 0 0 0 0 -10470.322845920808 240.50597738607757 0 240.50597738607757 1169.7803966771316 0 0 0 0 -7.6355831709770801 -1.1356029087614843 0 -1.1356029087614843 41.265356449832666 0 0 0 0 -9557.3376455798862 3384.217701446054 0 3384.217701446054 4980.8260644254406 0 0 0 0 -403.11958939932083 -179.73599445773289 0 -179.73599445773289 366.60317565154401 0 0 0 0 -1572.5117560285653 934.73585554744932 0 934.73585554744932 3831.7501250124369 0 0 0 0 -1288.902267083562 1206.4674174111306 0 1206.4674174111306 561.07909079318051 0 0 0 0 133.12237509653278 -1225.3829483130867 0 -1225.3829483130867 1865.4653638283926 0 0 0 0 -2077.7948212401111 3448.9535133748814 0 3448.9535133748814 616.93821774354728 0 0 0 0 -214.73007343069185 1728.0876926209021 0 1728.0876926209021 -1628.8955829910847 0 0 0 0 -387.74986862776132 1159.0730543117061 0 1159.0730543117061 410.37592035054695 0 0 0 0 -196.94344486329464 1847.8855659667561 0 1847.8855659667561 -847.20238664200588 0 0 0 0 427.61071198331774 1096.9191343793937 0 1096.9191343793937 -4144.8019672826485 0 0 0 0 283.2432817415829 869.80523333456949 0 869.80523333456949 -1594.7347138156547 0 0 0 0 439.25785150765205 927.29991509991851 0 927.29991509991851 -1768.368896137632 0 0 0 0 117.27242613376438 2485.3517006358925 0 2485.3517006358925 -7762.0701923955567 0 0 0 0 -56.843271508812904 1983.2921381408087 0 1983.2921381408087 -1931.9159093767666 0 0 0 0 -1601.7448113452047 4868.6993861803676 0 4868.6993861803676 -1357.1292131761656 0 0 0 0 -2144.5869940448683 2880.1044760144405 0 2880.1044760144405 973.68997389567085 0 0 0 0 -296265.49336545658 234688.31002584621 0 234688.31002584621 314665.29536858224 0 0 0 0 -5432.9500751103042 20727.905510083659 0 20727.905510083659 -66571.510914087179 0 0 0 0 -230.08640974090494 119.22422220632487 0 119.22422220632487 41.962887024173938 0 0 0 0 -3.127938700137443 -114.01282213805507 0 -114.01282213805507 26.719192077231128 0 0 0 0 47.632572221653355 -53.138724971876726 0 -53.138724971876726 63.702422694495056 0 0 0 0 105.31652621193147 -112.27733770066922 0 -112.27733770066922 119.4258523013127 0 0 0 0 165.71091013779915 -83.770417189400177 0 -83.770417189400177 -49.968551377140102 0 0 0 0 -76.70713871263527 -69.187734924766119 0 -69.187734924766119 77.230945254657854 0 0 0 0 420.19448573049249 74.840720669533766 0 74.840720669533766 5.0773088044661563 0 0 0 0 131.32634743227771 -263.17721830730454 0 -263.17721830730454 -23.561500068681198 0 0 0 0 339.10555941704285 -173.15099191728768 0 -173.15099191728768 -34.117446341217146 0 0 0 0 12.978590545874054 -25.354520966472045 0 -25.354520966472045 46.692129832616331 0 0 0 0 117.82390819919783 59.233613967611745 0 59.233613967611745 117.87649850858725 0 0 0 0 -0.063049620633598674 -81.830919389452902 0 -81.830919389452902 50.490148334320111 0 0 0 0 -114.03105352118044 -70.169189202832058 0 -70.169189202832058 87.678672170011851 0 0 0 0 -102.80292145729159 9.3018667166215891 0 9.3018667166215891 565.46203860576497 0 0 0 0 8.5491011878046201 -10.913254181356891 0 -10.913254181356891 11.947826655328186 0 0 0 0 74.217074649970016 -28.183510410841336 0 -28.183510410841336 -13.800211686713737 0 0 0 0 -232.83612726530731 -577.82940474912903 0 -577.82940474912903 366.99470261385432 0 0 0 0 63.171604115440459 -346.09931691253587 0 -346.09931691253587 -459.88745723968896 0 0 0 0 51.574674417587858 -241.67588005381549 0 -241.67588005381549 -15.052664686149001 0 0 0 0 -0.079640962624850098 -158.99930166254381 0 -158.99930166254381 155.89223916790797 0 0 0 0 212.98533656143081 -21.891586147874477 0 -21.891586147874477 -266.23447511880659 0 0 0 0 107.58648808683074 -214.52647577238895 0 -214.52647577238895 198.54733808059245 0 0 0 0 68.072583676433169 -90.220409760135226 0 -90.220409760135226 241.10672707080084 0 0 0 0 315.28647492268965 -438.28539975677995 0 -438.28539975677995 135.51731488255609 0 0 0 0 1721.6901352250293 988.84525186610699 0 988.84525186610699 -1090.9864989067719 0 0 0 0 2.6654747728309136 -10.632356088322354 0 -10.632356088322354 9.5312573651586945 0 0 0 0 -1164.320360795632 -713.45204623821337 0 -713.45204623821337 1123.1317431854623 0 0 0 0 1074.1416177443409 145.90314975279034 0 145.90314975279034 -233.30671626402182 0 0 0 0 -7.4663011343563381 -45.709766902693872 0 -45.709766902693872 55.717368260795411 0 0 0 0 93.862594115329557 -79.962254847872828 0 -79.962254847872828 72.918973248320981 0 0 0 0 59.958222502894742 -17.956320900369263 0 -17.956320900369263 -20.488142897818989 0 0 0 0 76.594533750264873 -52.106196295002519 0 -52.106196295002519 43.572408920226735 0 0 0 0 63.364877885836904 -80.869162031507585 0 -80.869162031507585 17.914882103519631 0 0 0 0 61.498801228732631 -68.956025984098119 0 -68.956025984098119 64.640016479071249 0 0 0 0 15.365882514296494 -55.230717858738785 0 -55.230717858738785 30.643143591298667 0 0 0 0 -0.9149117431279592 -188.06906917809829 0 -188.06906917809829 48.359225939257158 0 0 0 0 44.287888770879363 -1508.3355876980495 0 -1508.3355876980495 -6296.3827005909989 0 0 0 0 135.65876435472242 -91.777187856628473 0 -91.777187856628473 32.252794012895208 0 0 0 0 -366.24797140065129 -1408.4806214468263 0 -1408.4806214468263 -3181.1074854918406 0 0 0 0 -84.816299989441177 12.12700762753957 0 12.12700762753957 -582.11611297917261 0 0 0 0 -124.46983438372263 -323.56191137211863 0 -323.56191137211863 -577.29531849214857 0 0 0 0 237.09826854829589 -280.11474902088594 0 -280.11474902088594 -2260.3596988919599 0 0 0 0 211.12447062681895 135.19092325158999 0 135.19092325158999 -740.79699952103238 0 0 0 0 236.46821687991542 313.84152660446125 0 313.84152660446125 -1184.6446634852473 0 0 0 0 250.15449981177153 -363.14240878963938 0 -363.14240878963938 -664.44142426131293 0 0 0 0 85.283833565095847 199.77008987093723 0 199.77008987093723 -238.54356114504117 0 0 0 0 10.203659668031413 -7.5131394174802182 0 -7.5131394174802182 -18.692731238252037 0 0 0 0 195.10621222698683 47.881130260484497 0 47.881130260484497 -333.98159409011714 0 0 0 0 93.695520378110814 -154.22038906328089 0 -154.22038906328089 -46.682237411518145 0 0 0 0 67.937454137881772 -42.085987015193353 0 -42.085987015193353 -5.0004931186723525 0 0 0 0 66.586713279597461 11.462015305089153 0 11.462015305089153 -117.53426240064437 0 0 0 0 95.387673462470445 -62.530600467934001 0 -62.530600467934001 29.579516287731494 0 0 0 0 128.99745056104257 -118.87054542747501 0 -118.87054542747501 12.571683045949612 0 0 0 0 60.782685265683696 -33.536076034385161 0 -33.536076034385161 -10.105890301364639 0 0 0 0 67.767401412124855 -90.009620660032851 0 -90.009620660032851 30.823385614377912 0 0 0 0 110.98528457377597 -169.64120559745061 0 -169.64120559745061 37.486349196704396 0 0 0 0 68.07108707205407 -82.171974532426248 0 -82.171974532426248 98.563421894708881 0 0 0 0 77.077144540456999 -69.766508287617967 0 -69.766508287617967 42.978190888000086 0 0 0 0 49.783601043993258 -58.948782792649581 0 -58.948782792649581 24.329842117826047 0 0 0 0 133.86805111858939 -102.61705238984541 0 -102.61705238984541 66.709458998404443 0 0 0 0 25.144830639402279 -47.867936454077977 0 -47.867936454077977 43.225677251063559 0 0 0 0 47.418929160376138 -46.594795495362632 0 -46.594795495362632 60.091551487060315 0 0 0 0 14.409900321608578 -35.78157403530404 0 -35.78157403530404 61.730644457696258 0 0 0 0 89.092039118777393 -109.58439094854111 0 -109.58439094854111 65.637252605527465 0 0 0 0 58.083314304066334 -92.073376956010179 0 -92.073376956010179 148.59337662739563 0 0 0 0 61.263241032929272 -99.022056794594391 0 -99.022056794594391 169.16347823190154 0 0 0 0 65.099557717811877 -105.70370010560146 0 -105.70370010560146 179.33336029153725 0 0 0 0 100.45451138477574 -146.61518214068929 0 -146.61518214068929 173.28474322037073 0 0 0 0 71.668186006434553 16.451554444975045 0 16.451554444975045 89.292896305210888 0 0 0 0 100.26886403778917 44.241058414903819 0 44.241058414903819 79.41424149244358 0 0 0 0 96.142126233869931 29.819107617659029 0 29.819107617659029 29.131574348546565 0 0 0 0 161.82198184136359 73.338141827502113 0 73.338141827502113 90.734087865363108 0 0 0 0 167.18135199570679 61.573977886408102 0 61.573977886408102 78.430860664951979 0 0 0 0 118.99590709610493 42.780129951934214 0 42.780129951934214 98.905984894823632 0 0 0 0 94.520289907872211 42.24517622651183 0 42.24517622651183 116.55729299993254 0 0 0 0 25.862961831461519 -24.3794193019868 0 -24.3794193019868 22.908371133392322 0 0 0 0 4.1779767545556297 -3.4993776089880555 0 -3.4993776089880555 1.7674732794905026 0 0 0 0 106.79484717336891 -62.60821721659886 0 -62.60821721659886 77.381822191324318 0 0 0 0 51.679665819866756 -49.841645366046855 0 -49.841645366046855 46.263915474130684 0 0 0 0 48.363275085291207 -50.837219405366341 0 -50.837219405366341 51.098975929176959 0 0 0 0 161.18740047143365 -62.55897586086212 0 -62.55897586086212 76.442857424190152 0 0 0 0 113.02710683709302 -70.950427194569784 0 -70.950427194569784 76.051065195002593 0 0 0 0 207.37629502060008 -91.724098151615181 0 -91.724098151615181 65.03564189345343 0 0 0 0 140.37069857248571 -35.94586969044758 0 -35.94586969044758 59.099285247411899 0 0 0 0 233.95073152250552 -29.478208909851674 0 -29.478208909851674 59.540165834192521 0 0 0 0 112.39482777666126 3.3181163186673075 0 3.3181163186673075 69.141639901179587 0 0 0 0 199.83464744203957 4.4530362793302629 0 4.4530362793302629 68.729149557446362 0 0 0 0 187.68292009124343 44.884466913279539 0 44.884466913279539 56.789465322071919 0 0 0 0 189.08869132529799 48.573034920191276 0 48.573034920191276 58.654773978007142 0 0 0 0 240.95035438657214 34.15749302443146 0 34.15749302443146 39.401415472875669 0 0 0 0 263.30367399592978 31.959168034127288 0 31.959168034127288 37.318610151836765 0 0 0 0 279.93915576045401 29.252881694192183 0 29.252881694192183 24.270361630533671 0 0 0 0 247.91281246916333 -28.370969078875532 0 -28.370969078875532 44.656993975615478 0 0 0 0 246.8124385458068 -38.550536403701699 0 -38.550536403701699 37.759884418803267 0 0 0 0 336.71871390711749 -43.06511373425019 0 -43.06511373425019 8.5606639937177533 0 0 0 0 340.15257168185781 34.926200346293626 0 34.926200346293626 24.391384807808208 0 0 0 0 316.63936292994549 20.862130703516414 0 20.862130703516414 27.07615152024664 0 0 0 0 49.18807296390878 -0.54734956295578741 0 -0.54734956295578741 -0.75800432411051588 0 0 0 0 125.39345700101694 -101.52571315387468 0 -101.52571315387468 78.390286800160538 0 0 0 0 262.23543424349918 -130.53684851430444 0 -130.53684851430444 84.338215922511154 0 0 0 0 6.0803320473287954 -5.4676753566457705 0 -5.4676753566457705 0.94878974645870073 0 0 0 0 169.08956812009274 -4.7619215981394518 0 -4.7619215981394518 -47.891601524897851 0 0 0 0 264.19674136334652 -193.7956508810239 0 -193.7956508810239 -128.9996884532593 0 0 0 0 406.12460999624454 39.703670102455362 0 39.703670102455362 -8.2624714607309215 0 0 0 0 381.58758509110885 26.819406461116159 0 26.819406461116159 27.462995366324321 0 0 0 0 402.90411260419933 -32.236942986644863 0 -32.236942986644863 9.421453480830678 0 0 0 0 609.77091559360997 158.52626092141873 0 158.52626092141873 8.0137166087515652 0 0 0 0 484.29415065577632 167.66650439702789 0 167.66650439702789 211.87980578363204 0 0 0 0 103.90558111527935 45.191343447651889 0 45.191343447651889 -122.89635914756946 0 0 0 0 741.24496194409789 1059.8724738061248 0 1059.8724738061248 302.85302873698674 0 0 0 0 4.0902821579636282 -2.1110951072191284 0 -2.1110951072191284 1.9516971442943145 0 0 0 0 4.3158751918526832 -78.116582493246824 0 -78.116582493246824 -94.911318762166047 0 0 0 0 -222.39634296359145 749.84523264412564 0 749.84523264412564 316.15490461273475 0 0 0 0 691.38257722907201 178.19374462376913 0 178.19374462376913 85.287928707970423 0 0 0 0 -192.59253198521037 -173.44226166953013 0 -173.44226166953013 -94.714410879692878 0 0 0 0 0.34337958473479446 1.0811668897857203 0 1.0811668897857203 -7.6230558603286624 0 0 0 0 -293.01220249653852 890.5738346254293 0 890.5738346254293 -379.3639349672012 0 0 0 0 578.66713632745086 115.26714929388982 0 115.26714929388982 -254.34117371097818 0 0 0 0 301.14086394318292 -251.78643109190671 0 -251.78643109190671 -711.35471099017013 0 0 0 0 -30.755665372758813 431.78995244808902 0 431.78995244808902 -840.23129406307271 0 0 0 0 -238.84030560018527 625.76978190864884 0 625.76978190864884 -707.94298381709814 0 0 0 0 239.08371854396682 816.16011210162105 0 816.16011210162105 -937.12316159575857 0 0 0 0 33.054531219902856 630.01065020017268 0 630.01065020017268 -556.63433126547898 0 0 0 0 -442.01207270551822 962.72573220595405 0 962.72573220595405 -280.86484256328549 0 0 0 0 -460.51064765320916 585.37638063980557 0 585.37638063980557 366.42128508417954 0 0 0 0 -468.8403034211824 114.78991803315421 0 114.78991803315421 -93.272613239081693 0 0 0 0 -419.40243784623453 624.05584832077147 0 624.05584832077147 117.78754449420012 0 0 0 0 -491.98746245822986 429.35501010058579 0 429.35501010058579 647.00735180985066 0 0 0 0 -422.50321793149851 517.29157889321323 0 517.29157889321323 375.19196327641839 0 0 0 0 -872.93246859975625 617.47789942022064 0 617.47789942022064 1304.0738123893971 0 0 0 0 -654.09465514887415 630.82865271003539 0 630.82865271003539 400.05871022765496 0 0 0 0 -571.27258007365162 -70.052329753045342 0 -70.052329753045342 1086.5037284286791 0 0 0 0 -569.37837031071831 112.97324764623409 0 112.97324764623409 455.0270637821377 0 0 0 0 -351.73310031875008 217.05511153010229 0 217.05511153010229 376.49678843529546 0 0 0 0 -474.88694528302585 248.90949379905214 0 248.90949379905214 529.10275107070629 0 0 0 0 -178.60776414190332 372.20274369861727 0 372.20274369861727 366.52707944287613 0 0 0 0 -338.87170041661011 247.37675953432336 0 247.37675953432336 306.2435111267514 0 0 0 0 -208.32350636299088 203.46448739770312 0 203.46448739770312 227.77880093900603 0 0 0 0 -217.494207662603 155.33001879246149 0 155.33001879246149 198.41254155404749 0 0 0 0 -43.375303703367535 230.38798217261137 0 230.38798217261137 206.0306644869197 0 0 0 0 -56.250144305202411 169.78324623825029 0 169.78324623825029 230.25041706641059 0 0 0 0 93.863428365742948 140.48539074274231 0 140.48539074274231 78.777076568308985 0 0 0 0 23.100018816418014 132.81499725122922 0 132.81499725122922 160.79088291525113 0 0 0 0 193.27367810453143 132.81362034388439 0 132.81362034388439 -47.898173634253908 0 0 0 0 -185.1485155091068 331.3320232494807 0 331.3320232494807 139.12270322410768 0 0 0 0 331.87852685680264 465.2663810033464 0 465.2663810033464 157.72082838897768 0 0 0 0 -325.80045327666448 466.30949888942268 0 466.30949888942268 344.19610405757703 0 0 0 0 -3.6077650180723522 53.404630561634278 0 53.404630561634278 92.049626000658222 0 0 0 0 200.9503299829812 151.25286966828207 0 151.25286966828207 75.905489771128487 0 0 0 0 46.081929889944149 89.867740460795176 0 89.867740460795176 113.78828442461236 0 0 0 0 2.1981925938744098 141.76892047343426 0 141.76892047343426 114.96045646820858 0 0 0 0 -37.465945568670492 5.4499443062940713 0 5.4499443062940713 35.383698661705751 0 0 0 0 10.911174470702463 88.116350864500419 0 88.116350864500419 53.60329583780549 0 0 0 0 -3.7647646016386744 0.54946102302025679 0 0.54946102302025679 3.5576629263752864 0 0 0 0 209.39920384539437 227.05833484740288 0 227.05833484740288 140.24267309284551 0 0 0 0 42.669921130072908 135.05739733764494 0 135.05739733764494 235.81235190359439 0 0 0 0 107.56920255106525 74.036741357711435 0 74.036741357711435 44.43706438614754 0 0 0 0 76.007437313790433 74.855370759731159 0 74.855370759731159 133.40228675575236 0 0 0 0 -29.84021749868479 46.196076259676772 0 46.196076259676772 73.302590995973986 0 0 0 0 70.71987304490176 191.59454202464985 0 191.59454202464985 177.38125165979727 0 0 0 0 3.9530639359163189 27.768599813743648 0 27.768599813743648 10.680351677567899 0 0 0 0 -48.877769814864223 20.580622523430975 0 20.580622523430975 50.591409402339195 0 0 0 0 -76.09206032907241 41.30582217763731 0 41.30582217763731 50.952080417126126 0 0 0 0 -51.54344355936847 47.212023091604053 0 47.212023091604053 42.821429074899697 0 0 0 0 -56.882273026361702 4.0350964811034089 0 4.0350964811034089 40.684253783918912 0 0 0 0 -57.951507990908404 10.314470985555012 0 10.314470985555012 21.639125848174757 0 0 0 0 -12.199577474074701 -2.8690826700549401 0 -2.8690826700549401 6.8402727612446483 0 0 0 0 -1.9509609646556783 124.9048682493376 0 124.9048682493376 163.47723877335375 0 0 0 0 -79.961776773285237 49.33554958300374 0 49.33554958300374 94.965902167576132 0 0 0 0 -77.121884845328168 43.333710753686319 0 43.333710753686319 80.38438141579536 0 0 0 0 -46.42069466239488 34.918310596480254 0 34.918310596480254 60.088861328000164 0 0 0 0 -56.737206102742377 13.34924848439347 0 13.34924848439347 9.2007116358895473 0 0 0 0 -56.157539730953431 13.120065989707655 0 13.120065989707655 45.069119781270729 0 0 0 0 -71.962009436945664 14.131760201675206 0 14.131760201675206 88.726622320042225 0 0 0 0 -75.87742294929194 68.64885066644274 0 68.64885066644274 87.924525233545864 0 0 0 0 -61.727482591115404 49.077355660698231 0 49.077355660698231 39.49824153384543 0 0 0 0 -59.4227956493487 59.326682318020175 0 59.326682318020175 69.325129842283786 0 0 0 0 -122.82983795354812 107.41630673037434 0 107.41630673037434 34.267165473374916 0 0 0 0 -192.05422212408303 -20.251875607187685 0 -20.251875607187685 95.715873925961205 0 0 0 0 15.870219723674552 17.981815138266477 0 17.981815138266477 13.573995142312683 0 0 0 0 -101.14238670143823 -18.976561639705324 0 -18.976561639705324 60.025549532991135 0 0 0 0 -105.69395386916585 -31.359337191228406 0 -31.359337191228406 68.691321890561085 0 0 0 0 -96.946186143963132 20.084931109937315 0 20.084931109937315 180.82916468543863 0 0 0 0 -61.948937115586887 17.933447833227547 0 17.933447833227547 81.265920764897601 0 0 0 0 -163.41927574717556 4.5575884861609666 0 4.5575884861609666 101.5836420269261 0 0 0 0 -77.681092657512636 40.654453627728799 0 40.654453627728799 99.177692668905365 0 0 0 0 -118.06104501624213 88.440806650451123 0 88.440806650451123 100.62801540386135 0 0 0 0 62.058651448624005 200.65979777771463 0 200.65979777771463 120.71635716449236 0 0 0 0 -283.04323315530928 88.226747772787348 0 88.226747772787348 111.4298431192874 0 0 0 0 -176.14813178619079 128.82961646105832 0 128.82961646105832 242.61937227589078 0 0 0 0 -2.8262469482744379 -0.044597232104734985 0 -0.044597232104734985 4.3954690394423892 0 0 0 0 -12.941361509758281 77.391531646113435 0 77.391531646113435 -33.008102443243843 0 0 0 0 -230.43651085039528 240.98283389740391 0 240.98283389740391 98.374680867447751 0 0 0 0 288.50368556391186 81.523392247843731 0 81.523392247843731 -45.704548500430974 0 0 0 0 17.013074077098281 126.5897511130388 0 126.5897511130388 35.164917455535033 0 0 0 0 119.62294024318544 374.56036136076 0 374.56036136076 44.964964428902022 0 0 0 0 -159.97769911493378 25.370642000329099 0 25.370642000329099 508.01458715245099 0 0 0 0 -598.30398257982597 -121.58806282743535 0 -121.58806282743535 421.96229352524097 0 0 0 0 -70.493090907235455 93.76738595374627 0 93.76738595374627 480.86578860375084 0 0 0 0 52.785253662947071 21.314642058754544 0 21.314642058754544 43.67250778243033 0 0 0 0 130.22808854352479 136.96614369133749 0 136.96614369133749 216.3011957116687 0 0 0 0 181.52854847070648 -139.74219560523761 0 -139.74219560523761 238.38184840869508 0 0 0 0 17.23393760361796 3.0578944490625872 0 3.0578944490625872 117.6502439439646 0 0 0 0 -33.625193269588635 1.415989678040205 0 1.415989678040205 118.5672445107557 0 0 0 0 -1.201161382094142 -17.038100342069811 0 -17.038100342069811 80.369538589118747 0 0 0 0 -20.457577647801372 94.415556336851296 0 94.415556336851296 38.691403291151801 0 0 0 0 -139.20805023481989 39.029055536202577 0 39.029055536202577 168.78321551541012 0 0 0 0 -132.18580556097368 40.608173119620915 0 40.608173119620915 126.53448235116957 0 0 0 0 -72.06066380001721 -44.192562555399491 0 -44.192562555399491 245.36673396745323 0 0 0 0 -41.887067869618477 23.254761582240462 0 23.254761582240462 82.807195033077733 0 0 0 0 -56.59435900090466 -17.019832370038785 0 -17.019832370038785 129.83696493330035 0 0 0 0 -86.847441248301038 38.802019549679244 0 38.802019549679244 26.840738917977433 0 0 0 0 125.54847969423099 58.41566668770065 0 58.41566668770065 -15.71740549961396 0 0 0 0 144.65385016496293 93.456265559736494 0 93.456265559736494 67.964905916967837 0 0 0 0 10.770480864627444 5.4257299515170558 0 5.4257299515170558 10.866797635387769 0 0 0 0 -141.92673549908432 50.364343101489794 0 50.364343101489794 137.711298210721 0 0 0 0 -5.1364419256724023 46.890813336675443 0 46.890813336675443 57.085562230944959 0 0 0 0 43.042469425708987 56.184439076700073 0 56.184439076700073 54.9229369758541 0 0 0 0 55.041832403890112 43.259914673715684 0 43.259914673715684 107.59494008250476 0 0 0 0 42.010632348814397 90.983291501484928 0 90.983291501484928 40.425412625016179 0 0 0 0 106.23599662499328 -7.1613940707684378 0 -7.1613940707684378 8.1082017576882208 0 0 0 0 40.995410650702979 45.504234673060637 0 45.504234673060637 -22.540236858476419 0 0 0 0 91.62534779071575 5.6109876791524584 0 5.6109876791524584 -20.595725312515015 0 0 0 0 15.404980281862066 -6.4011612972974952 0 -6.4011612972974952 5.7198568349102175 0 0 0 0 490.4804810020978 333.83446557225761 0 333.83446557225761 186.70680561357585 0 0 0 0 482.6201023780668 164.15480539498094 0 164.15480539498094 62.833284550579265 0 0 0 0 333.62382668608916 213.79893690929748 0 213.79893690929748 191.57677560442244 0 0 0 0 262.51222793471243 173.84360860378365 0 173.84360860378365 169.31775021969224 0 0 0 0 405.29934362943459 116.58827856381686 0 116.58827856381686 34.169907236253493 0 0 0 0 312.69596283667488 97.051608981346362 0 97.051608981346362 32.873845019243163 0 0 0 0 14.510759049851913 9.7219613357447088 0 9.7219613357447088 14.036626119050197 0 0 0 0 1.2881536654081789 17.104959241770104 0 17.104959241770104 18.189238491478733 0 0 0 0 78.917191139145871 4.7879190270687104 0 4.7879190270687104 54.458935188996065 0 0 0 0 9.7899321863689295 -1.7608155961626579 0 -1.7608155961626579 7.7400653345982562 0 0 0 0 26.326610801238758 -1.4996445173763675 0 -1.4996445173763675 5.0848446213009311 0 0 0 0 266.94990347638668 136.81606453636778 0 136.81606453636778 76.596291073600469 0 0 0 0 193.40611909553991 79.896120139226696 0 79.896120139226696 77.896167284619878 0 0 0 0 55.828097535825918 27.666913762444665 0 27.666913762444665 15.777645132242469 0 0 0 0 5.978508884459643 22.452510009716757 0 22.452510009716757 23.154867755516221 0 0 0 0 44.34526701641812 38.182444977820523 0 38.182444977820523 41.272785554669099 0 0 0 0 35.72519612630262 22.736842763580221 0 22.736842763580221 12.358674328703671 0 0 0 0 3.0367536239693251 -6.9431001677310036 0 -6.9431001677310036 13.821181815003314 0 0 0 0 -15.207398449295511 -37.827939905979292 0 -37.827939905979292 49.760199948606896 0 0 0 0 -1.3506064732756975 -4.6225248325872172 0 -4.6225248325872172 0.81226848513441041 0 0 0 0 255.45566467371827 138.23791560931568 0 138.23791560931568 90.000706063336111 0 0 0 0 243.01103679938751 88.173525975902521 0 88.173525975902521 59.484965465584537 0 0 0 0 233.37923369658893 112.77230372607846 0 112.77230372607846 144.07924348241067 0 0 0 0 244.61235019948799 58.904391327450867 0 58.904391327450867 55.764434242548305 0 0 0 0 310.23377610016905 83.610008973715594 0 83.610008973715594 43.268429336414556 0 0 0 0 329.11658473114949 90.768951096104502 0 90.768951096104502 31.522018993913662 0 0 0 0 293.68505260875099 92.443949414031522 0 92.443949414031522 43.752505425058189 0 0 0 0 295.16425930587866 120.66576191439526 0 120.66576191439526 78.841373298462713 0 0 0 0 269.70726696455677 67.953524436110456 0 67.953524436110456 41.610245785102052 0 0 0 0 275.39318064819963 81.755300243821694 0 81.755300243821694 50.526534190488746 0 0 0 0 285.12810339481803 65.211312584695406 0 65.211312584695406 31.276232100004563 0 0 0 0 254.00608979019307 69.172468989356275 0 69.172468989356275 29.578030908451183 0 0 0 0 267.34116883030219 60.566293132433202 0 60.566293132433202 30.117742736932996 0 0 0 0 246.24361179822881 72.481951613401179 0 72.481951613401179 32.143298833914741 0 0 0 0 261.49533330492704 90.564092553478986 0 90.564092553478986 17.808768548071384 0 0 0 0 287.09451302629896 74.998073405731702 0 74.998073405731702 14.242886120875482 0 0 0 0 272.98080707212284 66.971909768151818 0 66.971909768151818 11.09059152759437 0 0 0 0 251.56359919303213 61.983591314987279 0 61.983591314987279 44.248494332652626 0 0 0 0 245.51125362063976 49.338180216698674 0 49.338180216698674 17.828224155877251 0 0 0 0 139.77729762117087 96.343327006165055 0 96.343327006165055 49.862430211112951 0 0 0 0 113.40089649341826 6.2091540264882497 0 6.2091540264882497 27.582728231995134 0 0 0 0 272.36829613117879 52.379050264928082 0 52.379050264928082 -12.07485494359571 0 0 0 0 236.46600053773727 59.680094953757362 0 59.680094953757362 16.575444991958648 0 0 0 0 300.26830061033252 79.570864519846509 0 79.570864519846509 -0.28761289846443105 0 0 0 0 237.7368915552106 -1.8262369806325296 0 -1.8262369806325296 -7.7146581620036159 0 0 0 0 341.40676795321633 25.960156426364847 0 25.960156426364847 -1.8351394098135643 0 0 0 0 314.8500103128099 51.485084685013135 0 51.485084685013135 -10.603105840636999 0 0 0 0 378.37515076935961 114.7351534880072 0 114.7351534880072 11.89846918854164 0 0 0 0 310.16396823027753 184.08058109023841 0 184.08058109023841 100.82858864344598 0 0 0 0 144.82610600719636 141.85793258789636 0 141.85793258789636 176.96121354020215 0 0 0 0 211.76779429982707 126.21298369350188 0 126.21298369350188 71.172409029706614 0 0 0 0 180.76150032324949 74.64460486574535 0 74.64460486574535 61.522434451064328 0 0 0 0 221.87928639313031 81.762026512427838 0 81.762026512427838 62.716753576067276 0 0 0 0 315.50803307327442 116.25767754642584 0 116.25767754642584 26.747217082578572 0 0 0 0 292.80514449674229 79.238391919781861 0 79.238391919781861 5.4632763948029606 0 0 0 0 1.4741573184510344 43.596012422192871 0 43.596012422192871 138.3195563879126 0 0 0 0 4.7462508558455738 36.192235971473565 0 36.192235971473565 143.46508333263046 0 0 0 0 -12.477745167178043 20.031084374641395 0 20.031084374641395 84.354180889190289 0 0 0 0 -26.57886732800398 47.767542417277582 0 47.767542417277582 160.22337290470023 0 0 0 0 -2.0158762567849067 0.44269997510107828 0 0.44269997510107828 1.0711478252230648 0 0 0 0 -65.773091515002307 26.493926812829159 0 26.493926812829159 87.809176541144552 0 0 0 0 -22.418740929773946 -12.746913133326785 0 -12.746913133326785 21.344067427176682 0 0 0 0 -33.730536892326199 7.3394276512408396 0 7.3394276512408396 93.096833397767114 0 0 0 0 80.147588700478082 -145.11421237811737 0 -145.11421237811737 8.4948253689144622 0 0 0 0 62.658899344183737 13.756239382499189 0 13.756239382499189 52.586402059236207 0 0 0 0 89.308418693108251 38.146293386513207 0 38.146293386513207 48.044733482500305 0 0 0 0 -37.167276135200275 6.6851061151158149 0 6.6851061151158149 50.693490485535563 0 0 0 0 -76.467408823591541 33.821609542690567 0 33.821609542690567 108.48469065313111 0 0 0 0 -23.600580922800873 18.235812266808352 0 18.235812266808352 59.886253018114076 0 0 0 0 9.0163272149511613 44.909416979222442 0 44.909416979222442 33.395845280974754 0 0 0 0 -17.412850275099032 12.922121095513276 0 12.922121095513276 37.621584567625206 0 0 0 0 -52.280511919678247 -0.6125826144398161 0 -0.6125826144398161 85.139093410442001 0 0 0 0 -24.962072090368977 8.2126948426230157 0 8.2126948426230157 72.221724093983369 0 0 0 0 -5.6629412052562458 23.661816739062004 0 23.661816739062004 22.023724955220239 0 0 0 0 -9.3079985439828761 31.678296797383155 0 31.678296797383155 60.023306295679419 0 0 0 0 -12.573948368572019 41.363593868934913 0 41.363593868934913 50.863686386855079 0 0 0 0 -91.200043624179671 -3.1237677885001176 0 -3.1237677885001176 17.702502462794655 0 0 0 0 -13.449981302260724 22.049737732315776 0 22.049737732315776 20.733207238449371 0 0 0 0 -54.562625762460812 26.885735262811068 0 26.885735262811068 26.199974088798626 0 0 0 0 -84.769424609119596 9.6603857555746799 0 9.6603857555746799 21.355261483564391 0 0 0 0 39.634694678621599 118.18791681950097 0 118.18791681950097 108.95554067744524 0 0 0 0 -87.365193008794449 -12.600013121424126 0 -12.600013121424126 55.727326980704674 0 0 0 0 -15.87544232774583 40.716418799625004 0 40.716418799625004 53.017542303089556 0 0 0 0 179.90614376777376 80.679320600393112 0 80.679320600393112 28.623885555018205 0 0 0 0 -81.143919586393167 -31.694965654663974 0 -31.694965654663974 -2.5636645005288301 0 0 0 0 15.055824859748839 10.509072021894525 0 10.509072021894525 2.4854982232453011 0 0 0 0 48.033524743339512 44.57768682083406 0 44.57768682083406 34.720547649776563 0 0 0 0 -21.051917547659798 11.536884508911136 0 11.536884508911136 20.210527594203853 0 0 0 0 2.9499165286029978 15.032116721069045 0 15.032116721069045 22.035957849695421 0 0 0 0 94.834361277666176 56.154634082347911 0 56.154634082347911 36.566563311498612 0 0 0 0 -73.309619755971653 -13.068390363594517 0 -13.068390363594517 28.767534436337883 0 0 0 0 -58.251234057068359 0.34949754665285582 0 0.34949754665285582 6.3461591588711599 0 0 0 0 -5.1421723670937354 -3.2228687187671312 0 -3.2228687187671312 36.049086202394392 0 0 0 0 -42.500448150196462 -10.152672716587404 0 -10.152672716587404 13.339492470346158 0 0 0 0 -54.630449636213598 6.5524302957001055 0 6.5524302957001055 34.463292525091674 0 0 0 0 -65.552529065098497 -18.369614311654004 0 -18.369614311654004 32.387994158734728 0 0 0 0 -50.753701604980961 34.231534728462066 0 34.231534728462066 26.009311096349848 0 0 0 0 -45.273554967970995 34.100996988909174 0 34.100996988909174 19.864458235024358 0 0 0 0 -34.464038678692305 14.376457351667341 0 14.376457351667341 13.237722852121806 0 0 0 0 -47.719019329051662 32.725194618134992 0 32.725194618134992 20.318207541422453 0 0 0 0 -22.618231180123985 17.464414571179077 0 17.464414571179077 14.038178809576493 0 0 0 0 -23.749807221218362 36.082956196383748 0 36.082956196383748 20.668144568509888 0 0 0 0 -44.736482762298692 42.106404172754992 0 42.106404172754992 30.140198640583549 0 0 0 0 44.435215899004106 47.317968057392136 0 47.317968057392136 26.294403055857401 0 0 0 0 -3.669680381537658 2.9081228543435813 0 2.9081228543435813 22.283074175901987 0 0 0 0 50.649840433645295 33.823415061502601 0 33.823415061502601 6.1759511366944935 0 0 0 0 -73.022378634688721 68.247123931971146 0 68.247123931971146 53.498052883456694 0 0 0 0 -98.138236914005574 183.50042688571421 0 183.50042688571421 89.681083260722517 0 0 0 0 -68.931557682215498 24.372761682368946 0 24.372761682368946 84.012363519243081 0 0 0 0 -1.3808988790591954 22.86976321757534 0 22.86976321757534 74.958035395758074 0 0 0 0 -70.222545124580847 26.536017977289703 0 26.536017977289703 89.638503900496289 0 0 0 0 -91.390945606195601 7.363314180605812 0 7.363314180605812 71.790532897221055 0 0 0 0 -17.554973677002636 45.126209381312947 0 45.126209381312947 81.019497235161907 0 0 0 0 -2.579178145494728 -0.86753777646579167 0 -0.86753777646579167 13.102385372624646 0 0 0 0 -26.517094414888561 17.887849682336309 0 17.887849682336309 53.465320582479762 0 0 0 0 -22.555035280227457 15.720682574010425 0 15.720682574010425 43.189119670969376 0 0 0 0 -20.038936447047011 8.2070058534609416 0 8.2070058534609416 33.999137417992493 0 0 0 0 -11.305392773560015 -9.0063865259353406 0 -9.0063865259353406 50.734377085514268 0 0 0 0 -33.502602356652332 11.45719119747676 0 11.45719119747676 36.70458471902603 0 0 0 0 -33.786362208524224 26.974545707369543 0 26.974545707369543 40.769750217618821 0 0 0 0 -12.708540531720487 22.158096074817614 0 22.158096074817614 38.830516155008389 0 0 0 0 -8.8776969184181524 16.063237282255507 0 16.063237282255507 30.141883014267322 0 0 0 0 -16.129124597457121 -14.106502464278492 0 -14.106502464278492 117.75393671579513 0 0 0 0 -9.7744155251802454 16.741701488200306 0 16.741701488200306 35.173385102788473 0 0 0 0 -6.7874004956975114 12.549393616587622 0 12.549393616587622 59.279017971392022 0 0 0 0 -3.5225755233502527 23.923296478296855 0 23.923296478296855 25.725135859224054 0 0 0 0 -29.673739993662366 31.612673411318156 0 31.612673411318156 26.341236634609231 0 0 0 0 -1.3302557551273821 0.031019178573501449 0 0.031019178573501449 34.561021349752991 0 0 0 0 -20.941648422245635 34.347543535506702 0 34.347543535506702 -4.8795364737597993 0 0 0 0 18.356054484727792 112.9236775644531 0 112.9236775644531 72.164183992055769 0 0 0 0 0.93198937166672913 11.28867870669287 0 11.28867870669287 -1.409401264499671 0 0 0 0 -0.97425518309916281 35.657528005294658 0 35.657528005294658 -0.20889705728922081 0 0 0 0 -13.338646120973863 13.215722048043972 0 13.215722048043972 57.373344424049719 0 0 0 0 -15.376845772310439 12.216080687050656 0 12.216080687050656 29.424761081692708 0 0 0 0 -0.19653164613558882 8.1786051168032969 0 8.1786051168032969 -0.97155065028684362 0 0 0 0 -12.293036063853833 -15.005084349175377 0 -15.005084349175377 83.125028519243642 0 0 0 0 8.0290785398133266 0.4595221225563364 0 0.4595221225563364 50.298205460021563 0 0 0 0 -14.695859767349702 27.137251097961212 0 27.137251097961212 69.430986094161199 0 0 0 0 19.850998176625581 0.49417128792629228 0 0.49417128792629228 96.242048991509364 0 0 0 0 -13.295569200865884 17.287042335335968 0 17.287042335335968 108.29822850383243 0 0 0 0 -11.475020144735325 -4.4342441815209028 0 -4.4342441815209028 39.180015168932798 0 0 0 0 31.155242053268012 -22.54117871694325 0 -22.54117871694325 119.01399599925207 0 0 0 0 -49.15472597563712 2.1294365959174684 0 2.1294365959174684 72.077464958691849 0 0 0 0 -61.541084366090217 11.229554079309764 0 11.229554079309764 70.733985436088915 0 0 0 0 -39.904933566348518 8.9636274154549938 0 8.9636274154549938 73.178134315545321 0 0 0 0 -20.284089085600918 -4.8013188672424825 0 -4.8013188672424825 72.111117208904275 0 0 0 0 -57.823643056222863 7.6410873403858659 0 7.6410873403858659 72.107302022704971 0 0 0 0 -74.803489938566599 34.665388689257838 0 34.665388689257838 39.95803290909339 0 0 0 0 -40.898305778719511 7.1407575674538011 0 7.1407575674538011 15.488625080507077 0 0 0 0 -46.358351786826233 2.444535793403702 0 2.444535793403702 62.61165937217811 0 0 0 0 -30.203656963041478 10.424125279459446 0 10.424125279459446 25.188955437593656 0 0 0 0 -13.839445216515742 -8.151642417417861 0 -8.151642417417861 58.778625675005969 0 0 0 0 -45.741783947160002 -0.60527311740270306 0 -0.60527311740270306 77.512360317567982 0 0 0 0 -12.879855228726152 -10.105459687790109 0 -10.105459687790109 30.105613619959605 0 0 0 0 -11.593851146990346 13.891038396638578 0 13.891038396638578 116.84800041113886 0 0 0 0 -8.7662413963623749 12.512711675207811 0 12.512711675207811 82.22357400056535 0 0 0 0 -24.195414473439541 28.528223653725945 0 28.528223653725945 88.85827941610205 0 0 0 0 -12.710706740069273 15.088102336549959 0 15.088102336549959 41.458937022294855 0 0 0 0 -12.499068341014208 -7.343494942306279 0 -7.343494942306279 61.661492831270152 0 0 0 0 -13.554138795340677 -10.430254019724936 0 -10.430254019724936 40.580984723886502 0 0 0 0 -17.67065480908288 19.774680203795615 0 19.774680203795615 47.94205228582144 0 0 0 0 -2.523501722197893 2.5478801857463909 0 2.5478801857463909 21.405443094517537 0 0 0 0 62.139033069600146 -35.977665878968537 0 -35.977665878968537 139.75168243413236 0 0 0 0 -10.220956569108438 31.197442986885033 0 31.197442986885033 54.718381662394791 0 0 0 0 30.033937800871172 -142.37826528163214 0 -142.37826528163214 151.74580095474676 0 0 0 0 -214.30816011909701 73.341781300496223 0 73.341781300496223 338.86990398676477 0 0 0 0 -11.980871722132898 4.4678875274161314 0 4.4678875274161314 14.997667688280414 0 0 0 0 -234.12552281393437 -107.54211547231262 0 -107.54211547231262 333.62669727611137 0 0 0 0 -188.89938707984015 35.384761109932697 0 35.384761109932697 136.78463916502869 0 0 0 0 -188.85895732612153 23.183774871587957 0 23.183774871587957 181.31257310137153 0 0 0 0 -102.5514065190514 54.710316988505838 0 54.710316988505838 -10.873181073802698 0 0 0 0 -107.24319386599745 241.47765848317977 0 241.47765848317977 284.98445490809718 0 0 0 0 -188.80219750575725 26.95136793439633 0 26.95136793439633 422.90435930989224 0 0 0 0 0.64529471450754272 1.4172318512567017 0 1.4172318512567017 85.913920387365579 0 0 0 0 31.521661058362952 290.02521043400793 0 290.02521043400793 -86.643460576080543 0 0 0 0 14.935425472154748 203.4999353691037 0 203.4999353691037 -112.31026294409094 0 0 0 0 -5.2036460033034722 31.302030289330808 0 31.302030289330808 60.761763901478886 0 0 0 0 -24.872587734284025 -10.527756444285842 0 -10.527756444285842 45.882901571192519 0 0 0 0 -9.1620257045601647 15.81973948508994 0 15.81973948508994 75.29380427329852 0 0 0 0 -30.721420385632481 16.928482380345031 0 16.928482380345031 80.175231914633514 0 0 0 0 -25.910783517737269 21.851694090851197 0 21.851694090851197 77.370558008445414 0 0 0 0 -29.108070411145263 15.947252591666256 0 15.947252591666256 79.049739174606657 0 0 0 0 -3.0595840289087448 24.042942931769062 0 24.042942931769062 75.649244902702776 0 0 0 0 -27.971507725028232 25.324075879212614 0 25.324075879212614 85.686400964245877 0 0 0 0 -30.97029099831343 19.377736994812039 0 19.377736994812039 74.557358261983609 0 0 0 0 -34.309671616065884 31.508533955836356 0 31.508533955836356 74.391018560636439 0 0 0 0 -123.52355298445946 -21.835016122386151 0 -21.835016122386151 252.37110657253652 0 0 0 0 319.44897838643556 -104.65619757118657 0 -104.65619757118657 -163.53958348524793 0 0 0 0 0.35617533520606415 -3.7557985982419382 0 -3.7557985982419382 7.636760449223658 0 0 0 0 126.54748089885834 -279.15993351040561 0 -279.15993351040561 36.15647939745395 0 0 0 0 -365.26231970928575 433.33786808784066 0 433.33786808784066 622.26419940772757 0 0 0 0 -228.83867683957214 -659.52306880849846 0 -659.52306880849846 -231.32906202560844 0 0 0 0 -4.9987284115268507 20.894423243170476 0 20.894423243170476 84.963402768742156 0 0 0 0 -63.106891707510385 25.071869820042593 0 25.071869820042593 88.973796804126323 0 0 0 0 -55.175428544877832 30.202144463960394 0 30.202144463960394 81.830707293223895 0 0 0 0 -51.559990014030518 21.489195095837204 0 21.489195095837204 87.096055770736712 0 0 0 0 -47.440454796181349 4.2484161175667552 0 4.2484161175667552 34.097805159792571 0 0 0 0 -37.147161832269973 22.155215779801161 0 22.155215779801161 47.340170865097562 0 0 0 0 -30.060789348453795 8.6218166995071215 0 8.6218166995071215 55.517632484632486 0 0 0 0 -57.872838081538248 -5.2615463547205614 0 -5.2615463547205614 41.092972933040187 0 0 0 0 -78.894206391923944 30.816356750278828 0 30.816356750278828 61.169176067076478 0 0 0 0 -13.045918216574265 13.243739641565995 0 13.243739641565995 29.21636569077711 0 0 0 0 927.13870471878909 490.16636971762637 0 490.16636971762637 378.17437085142592 0 0 0 0 -37.040701788794031 -4.8256142040328598 0 -4.8256142040328598 16.512699738911415 0 0 0 0 -35.736800021866657 7.6471347828191938 0 7.6471347828191938 46.31480249829292 0 0 0 0 -26.57539889116083 8.4476626953867253 0 8.4476626953867253 43.081130062379088 0 0 0 0 -29.271597009571657 16.937208438440891 0 16.937208438440891 24.11174370360429 0 0 0 0 -62.246235985197927 21.908700924292134 0 21.908700924292134 32.677669624026748 0 0 0 0 -20.640101188919019 6.048389207997559 0 6.048389207997559 40.473822336357145 0 0 0 0 -61.534046389301693 25.77496850208081 0 25.77496850208081 45.053256406510172 0 0 0 0 -56.158569412478812 19.647607654431113 0 19.647607654431113 30.387963643232069 0 0 0 0 -14.368737528205962 14.608100369446269 0 14.608100369446269 46.692822592352286 0 0 0 0 -154.27993569917089 -16.663217603457269 0 -16.663217603457269 53.823982271575915 0 0 0 0 -73.601067325765371 -44.892260866914995 0 -44.892260866914995 31.172416857494682 0 0 0 0 -95.871841160515032 -30.809377494125329 0 -30.809377494125329 0.67075914916313195 0 0 0 0 0.55575535697737877 -7.3886650875685866 0 -7.3886650875685866 17.11972495687144 0 0 0 0 -68.180555233361702 -43.636423317390836 0 -43.636423317390836 28.983638731777319 0 0 0 0 -33.982705493193649 0.32822203949172657 0 0.32822203949172657 13.056406257383667 0 0 0 0 -93.24506890802877 -19.034883644761067 0 -19.034883644761067 38.022914570928378 0 0 0 0 -10.328459149590344 -3.8336913471621301 0 -3.8336913471621301 26.531565816399961 0 0 0 0 -66.528567710456628 -31.805945272541067 0 -31.805945272541067 53.375528948399733 0 0 0 0 -33.990102286254114 -8.8422877095845251 0 -8.8422877095845251 44.950223473793812 0 0 0 0 -61.233775446817162 -21.599468618292121 0 -21.599468618292121 39.838534446935228 0 0 0 0 57.897822160569376 121.03627632789916 0 121.03627632789916 264.99302977596471 0 0 0 0 -26.554660441496253 0.6836043700072878 0 0.6836043700072878 42.058722858623696 0 0 0 0 -13.958482545664895 8.8173741815794529 0 8.8173741815794529 67.867468938473394 0 0 0 0 -38.711448110001584 -19.512162743531576 0 -19.512162743531576 7.9587784931725309 0 0 0 0 -29.614652106072754 -10.429138939192057 0 -10.429138939192057 5.5411122402842921 0 0 0 0 -14.032291352991127 -1.0605811722444081 0 -1.0605811722444081 12.629703098505976 0 0 0 0 -11.930684516323211 2.2982480771213538 0 2.2982480771213538 10.573116167357121 0 0 0 0 -6.9767323596345285 12.327838930910403 0 12.327838930910403 34.568560897580369 0 0 0 0 -22.817557643100585 4.1775323601213294 0 4.1775323601213294 11.327562769178311 0 0 0 0 -24.275995182564657 4.4389564367284038 0 4.4389564367284038 47.950777279600516 0 0 0 0 -50.558670786165123 13.289402824582055 0 13.289402824582055 83.316046620073394 0 0 0 0 -31.781227977402978 -5.4314278453901039 0 -5.4314278453901039 9.3894634215758668 0 0 0 0 158.22310969400132 187.23098257548281 0 187.23098257548281 251.70405211673233 0 0 0 0 141.3281041492337 213.09003211530876 0 213.09003211530876 363.09301382043122 0 0 0 0 337.90951129304449 11.364950793345997 0 11.364950793345997 142.94255402077397 0 0 0 0 147.83101813325993 83.267069354188607 0 83.267069354188607 379.1481538183707 0 0 0 0 114.5585934518931 146.55061065749624 0 146.55061065749624 279.58877289103475 0 0 0 0 154.10055885152178 138.32801555021706 0 138.32801555021706 186.52271140127596 0 0 0 0 109.40958490386038 196.42137906043263 0 196.42137906043263 235.45128551779362 0 0 0 0 103.56925779449375 167.24159684294227 0 167.24159684294227 242.33533958806743 0 0 0 0 26.027188868967642 190.34324557377658 0 190.34324557377658 284.8260903346777 0 0 0 0 64.910138325264597 177.26795886664081 0 177.26795886664081 288.88640579473395 0 0 0 0 110.17448689715638 145.42856277918258 0 145.42856277918258 219.30765214716939 0 0 0 0 82.089339108606509 165.2343346831849 0 165.2343346831849 265.80972893158082 0 0 0 0 72.59591849066328 164.18699299662353 0 164.18699299662353 266.60475006233355 0 0 0 0 -1.8296570622911332 0.22995628517264777 0 0.22995628517264777 0.79944050801913402 0 0 0 0 78.10887503234062 119.44145844716877 0 119.44145844716877 226.35738276629945 0 0 0 0 56.581230023896296 114.99948681532118 0 114.99948681532118 248.45991256389698 0 0 0 0 69.909222364485686 157.17324653008063 0 157.17324653008063 263.30015655069383 0 0 0 0 67.181203163573628 136.350288151786 0 136.350288151786 262.48591645596753 0 0 0 0 113.25231966642014 194.85039746879147 0 194.85039746879147 412.77253674905478 0 0 0 0 1.3764986271377246 -2.4133950750080793 0 -2.4133950750080793 5.2807121938596051 0 0 0 0 65.951454482055851 -3.4628722161710357 0 -3.4628722161710357 -51.828413661543891 0 0 0 0 33.31377597730534 -7.2369197979642195 0 -7.2369197979642195 -48.043346393654247 0 0 0 0 -3.9429977790696285 -28.24990668025066 0 -28.24990668025066 7.7625271224387689 0 0 0 0 -99.230500728248444 -48.598565525605409 0 -48.598565525605409 29.962653574284559 0 0 0 0 -125.51719268606394 -34.549884484602444 0 -34.549884484602444 43.267778009156245 0 0 0 0 -42.148783443524735 -61.048120118306542 0 -61.048120118306542 24.114210196521981 0 0 0 0 -79.9423283281576 -16.89670960859894 0 -16.89670960859894 16.168779929510492 0 0 0 0 -301.53179074008949 -54.204816882687737 0 -54.204816882687737 70.41153783583195 0 0 0 0 -136.0118406475849 14.581204690950472 0 14.581204690950472 16.870879404808193 0 0 0 0 2.1234800677664145 19.348362139896096 0 19.348362139896096 21.104480964706813 0 0 0 0 -16.267510083875464 -0.73237544848860026 0 -0.73237544848860026 41.074991963144917 0 0 0 0 -103.37454949859875 34.053084751715687 0 34.053084751715687 26.965789799118056 0 0 0 0 -62.871491899520151 26.212765858076637 0 26.212765858076637 32.271277497951814 0 0 0 0 -57.315739569287871 17.676241103529719 0 17.676241103529719 34.182962784663687 0 0 0 0 -18.348005944573686 -5.7832315403320536 0 -5.7832315403320536 62.418907634975767 0 0 0 0 -17.894849734664604 -12.311933594002767 0 -12.311933594002767 78.079062849865295 0 0 0 0 -34.423211403973291 11.150877476353442 0 11.150877476353442 56.61543027392986 0 0 0 0 -887.19554513778712 264.20435655858182 0 264.20435655858182 59.862944316656126 0 0 0 0 -472.49047872902156 -450.74486841608223 0 -450.74486841608223 642.08592714227416 0 0 0 0 -141.11098415532979 -97.277950362880802 0 -97.277950362880802 66.363468657222256 0 0 0 0 37.5862824936994 -198.72750627048754 0 -198.72750627048754 -111.08611834529984 0 0 0 0 -16.639115745720641 -5.6823731309634375 0 -5.6823731309634375 6.9038472343825763 0 0 0 0 -60.595965389007688 39.105048707048809 0 39.105048707048809 31.105647734404329 0 0 0 0 -4.203328820425094 24.487823671869272 0 24.487823671869272 29.292248621511362 0 0 0 0 -358.1950171042663 -67.554692418934792 0 -67.554692418934792 91.975638430281833 0 0 0 0 400.5605407859257 475.3781243892854 0 475.3781243892854 -194.25790620399948 0 0 0 0 -524.49756930312833 137.56843243473668 0 137.56843243473668 -73.106270395779575 0 0 0 0 -6.5153100537997801 -1.7317273054474818 0 -1.7317273054474818 12.464169537635239 0 0 0 0 -4.8279882262145453 7.3423497926661483 0 7.3423497926661483 61.4043652271409 0 0 0 0 68.972119915039229 144.23905860876351 0 144.23905860876351 293.48053033253018 0 0 0 0 -36.356290563742732 31.752449300131957 0 31.752449300131957 83.686984542433493 0 0 0 0 92.148840054145694 394.56097606144976 0 394.56097606144976 -93.870158898587761 0 0 0 0 12.518865080084652 3.6546690615068655 0 3.6546690615068655 76.799725410405472 0 0 0 0 -27.873334552264168 -29.354731957359036 0 -29.354731957359036 96.547247329333914 0 0 0 0 -104.70903573318719 -56.409223451642902 0 -56.409223451642902 245.46023709189103 0 0 0 0 85.924612802763249 -88.94367082785493 0 -88.94367082785493 113.38755696596854 0 0 0 0 58.555745277193182 41.734730339243697 0 41.734730339243697 12.100359204861888 0 0 0 0 229.53864190272725 -133.32969125298223 0 -133.32969125298223 52.782395060401086 0 0 0 0 324.34453052326353 373.50211682747135 0 373.50211682747135 211.27768707708128 0 0 0 0 249.82799512963902 194.92011989344337 0 194.92011989344337 42.287280899096459 0 0 0 0 135.00296223941405 280.78713153097942 0 280.78713153097942 181.66858390452592 0 0 0 0 120.93095349648684 262.76011316893391 0 262.76011316893391 160.05753895410271 0 0 0 0 144.97106256104234 188.37716778633558 0 188.37716778633558 168.86189291150731 0 0 0 0 152.6318434386194 176.04904111942051 0 176.04904111942051 188.68634139255573 0 0 0 0 41.581999044974509 342.87573385379801 0 342.87573385379801 101.23489405990222 0 0 0 0 240.47426536824787 231.24961622259161 0 231.24961622259161 -71.813972549414757 0 0 0 0 85.377434472167806 310.07937860524476 0 310.07937860524476 339.25074373705138 0 0 0 0 85.298524432720114 222.87595774757847 0 222.87595774757847 289.7674779108238 0 0 0 0 2.846370616585773 242.79544823520246 0 242.79544823520246 285.04891410233722 0 0 0 0 -73.339822539269335 283.45016263146954 0 283.45016263146954 341.62840214712924 0 0 0 0 67.196592823147512 459.92750166167843 0 459.92750166167843 484.5304485298966 0 0 0 0 -163.0308862590673 353.7085228430019 0 353.7085228430019 448.41158084113158 0 0 0 0 -317.08427717672839 127.42591938820397 0 127.42591938820397 402.87545137222514 0 0 0 0 187.13865882693199 834.93426649543085 0 834.93426649543085 1157.8787221921666 0 0 0 0 -61.592274110873404 288.08960801140165 0 288.08960801140165 431.02963818039507 0 0 0 0 104.78086282926415 48.035264229536551 0 48.035264229536551 -444.08495261903772 0 0 0 0 32.125869579776918 -576.77761961234773 0 -576.77761961234773 1194.9909168070335 0 0 0 0 -545.36936602253991 180.90041204414592 0 180.90041204414592 461.83628282683583 0 0 0 0 -3.7979333364334664 7.1705284030395831 0 7.1705284030395831 7.0699056555075472 0 0 0 0 5.6105697344911647 2.967692503795142 0 2.967692503795142 7.0317453871007558 0 0 0 0 -86.552746018837752 35.097248832811601 0 35.097248832811601 34.503409805136471 0 0 0 0 -78.291750370270165 -677.32171896008549 0 -677.32171896008549 -478.47919546899266 0 0 0 0 -24.873370714671182 49.432338547740073 0 49.432338547740073 314.80489677005971 0 0 0 0 5.8066208325635671 35.882879772076194 0 35.882879772076194 233.74213566771868 0 0 0 0 -7.9448737723105296 105.35322591656586 0 105.35322591656586 162.82397007885083 0 0 0 0 -6.8688433836250624 53.092170681557036 0 53.092170681557036 246.72343960209764 0 0 0 0 73.201764607878431 214.96804119885201 0 214.96804119885201 300.41262606273267 0 0 0 0 50.077893221404338 -32.588642136209273 0 -32.588642136209273 390.76017846471223 0 0 0 0 31.743232849144988 69.773953924373927 0 69.773953924373927 253.92711336757202 0 0 0 0 37.687440354129876 123.82742912722233 0 123.82742912722233 230.78815351310186 0 0 0 0 2.7757704540854107 59.133780667781366 0 59.133780667781366 131.03986214196595 0 0 0 0 -5.7166903860734237 58.01313494815804 0 58.01313494815804 109.03188446096465 0 0 0 0 13.865439125165722 104.90387777842261 0 104.90387777842261 186.54210023341147 0 0 0 0 -19.043340905993496 12.748410796453214 0 12.748410796453214 58.390589571957435 0 0 0 0 -9.8431748081598016 90.152873042599595 0 90.152873042599595 199.0448392522303 0 0 0 0 37.137230200594786 57.231919033203667 0 57.231919033203667 142.79781706928225 0 0 0 0 -20.619851348506074 -10.466293864162289 0 -10.466293864162289 35.04670914745585 0 0 0 0 -191.55813150387075 167.5802052391391 0 167.5802052391391 -403.72782947874657 0 0 0 0 479.45489455881489 312.02668967954878 0 312.02668967954878 -1233.2656425676923 0 0 0 0 20.346198082461108 40.262264437275377 0 40.262264437275377 16.093563783294076 0 0 0 0 21.089631443800727 42.52271630680093 0 42.52271630680093 60.888628129425342 0 0 0 0 23.363180397725955 65.292922612890834 0 65.292922612890834 124.40771413047332 0 0 0 0 -827.24592131154736 782.67479793234725 0 782.67479793234725 -144.43904015005683 0 0 0 0 420.53066695824964 698.61157865113455 0 698.61157865113455 -850.55553304251816 0 0 0 0 16.082282185138773 52.969362663210582 0 52.969362663210582 43.182869492106768 0 0 0 0 28.18676296531082 47.970300043306935 0 47.970300043306935 -7.7229527433563163 0 0 0 0 -125.92697320408115 471.25877573353864 0 471.25877573353864 -241.84684856762487 0 0 0 0 -496.4669921573186 484.77794609827833 0 484.77794609827833 771.02250946179993 0 0 0 0 1822.9007666991238 224.31323185680776 0 224.31323185680776 -405.11464144771321 0 0 0 0 -44.949598666212296 883.40034021541442 0 883.40034021541442 1517.2372957884472 0 0 0 0 1188.8192195067932 587.56097662156481 0 587.56097662156481 195.75121054209922 0 0 0 0 1.4875188557642369 -0.19122726946352486 0 -0.19122726946352486 22.023667638775244 0 0 0 0 490.56328230045642 -499.12711773712499 0 -499.12711773712499 563.63256871845806 0 0 0 0 -109.50984888314997 -381.28077720100555 0 -381.28077720100555 1511.763607345928 0 0 0 0 -311.81033085476702 21.160280985193822 0 21.160280985193822 818.05472176860076 0 0 0 0 -236.86827631868118 -26.898464226185297 0 -26.898464226185297 607.91217425573996 0 0 0 0 54.475811024417453 -307.9419393502103 0 -307.9419393502103 603.42239282745868 0 0 0 0 -201.66587432016377 140.66724248364881 0 140.66724248364881 397.79609326327045 0 0 0 0 -307.29101976721358 197.72412889249489 0 197.72412889249489 396.08540381720741 0 0 0 0 -202.11666643755871 114.88319518572644 0 114.88319518572644 142.25138597407022 0 0 0 0 -112.84268586991163 179.01071532898504 0 179.01071532898504 187.13592174832866 0 0 0 0 -4.2940811863472419 150.04705637171881 0 150.04705637171881 145.36640845577313 0 0 0 0 4.2511330142730177 43.992397068044681 0 43.992397068044681 171.53459531092591 0 0 0 0 -13.625804875699032 371.59253741190878 0 371.59253741190878 -171.38049129456067 0 0 0 0 -408.04840970966734 608.44828893820522 0 608.44828893820522 322.13094644537341 0 0 0 0 63.743584677769832 127.22614668727329 0 127.22614668727329 166.2617370362932 0 0 0 0 96.809177956506659 113.61159838341268 0 113.61159838341268 35.625239929349377 0 0 0 0 190.08829250524661 185.13546424261818 0 185.13546424261818 -34.512545172323371 0 0 0 0 37.080682521183917 142.60179419955966 0 142.60179419955966 157.42788387822657 0 0 0 0 80.605677437761187 141.63304654561216 0 141.63304654561216 86.348175785184139 0 0 0 0 24.001082292648789 223.76408245388302 0 223.76408245388302 136.13212939088407 0 0 0 0 106.5560455006198 127.90237605072616 0 127.90237605072616 -11.395505587257503 0 0 0 0 76.830374439181469 192.81399259167665 0 192.81399259167665 -36.426108094339725 0 0 0 0 72.495110000884921 102.54464535696125 0 102.54464535696125 49.853620346220659 0 0 0 0 19.73535986585464 42.037802246398009 0 42.037802246398009 -7.9691347993319823 0 0 0 0 -126.6182280481521 222.25277786768584 0 222.25277786768584 -85.530292251467472 0 0 0 0 8.8932483269654767 252.11292212386616 0 252.11292212386616 -80.126241409219801 0 0 0 0 -13.551643824950588 245.55193449460785 0 245.55193449460785 90.42689696472371 0 0 0 0 19.700117202515685 271.48510972967051 0 271.48510972967051 54.222324672446121 0 0 0 0 23.56922824060166 218.13025193776411 0 218.13025193776411 82.809387909292127 0 0 0 0 8.3353264041506918 278.41278252315533 0 278.41278252315533 197.63178113379399 0 0 0 0 -47.298967178096063 236.87316596835444 0 236.87316596835444 226.41621504161594 0 0 0 0 -7.0693847559668939 302.02735161743476 0 302.02735161743476 207.13948328047991 0 0 0 0 8.8697651564216358 248.26560224086279 0 248.26560224086279 87.258328757648997 0 0 0 0 11.733859864303668 303.7117101608892 0 303.7117101608892 206.85334455463453 0 0 0 0 -38.560383092144548 319.05254723540565 0 319.05254723540565 347.44069375027902 0 0 0 0 -176.79878807776549 298.43857330357423 0 298.43857330357423 367.50373090634093 0 0 0 0 -132.49206161410621 196.98313532360771 0 196.98313532360771 443.84116321601323 0 0 0 0 -10.434957852929074 144.55764238393749 0 144.55764238393749 323.23118482924474 0 0 0 0 -9.9934632516601596 161.09628901726205 0 161.09628901726205 243.96119176992215 0 0 0 0 -3.4834378772793571 87.445268388728437 0 87.445268388728437 375.33885261161777 0 0 0 0 -2.776395449283882 86.824779521950404 0 86.824779521950404 198.78280288951646 0 0 0 0 32.194961992870958 154.89179000644799 0 154.89179000644799 243.93445333465934 0 0 0 0 22.019862642438966 181.12441596155986 0 181.12441596155986 183.20097500336124 0 0 0 0 -47.284144086634825 212.81056975360104 0 212.81056975360104 276.44922161169234 0 0 0 0 -18.288047228568757 -25.5317449211434 0 -25.5317449211434 -1.5846492774576291 0 0 0 0 85.229262811999433 162.45023426967236 0 162.45023426967236 -8.0090117520594504 0 0 0 0 90.114016586254365 159.56124782799452 0 159.56124782799452 7.2073484926590936 0 0 0 0 107.12514077095238 80.941310771770077 0 80.941310771770077 203.649379166367 0 0 0 0 325.65334532267298 297.90637458644051 0 297.90637458644051 95.213838498104451 0 0 0 0 192.37942776181808 446.72317205374566 0 446.72317205374566 310.67595772445202 0 0 0 0 -6.0656503300106124 288.0794418800906 0 288.0794418800906 221.82704013909097 0 0 0 0 80.055076096497942 328.73651790017175 0 328.73651790017175 167.98996053429437 0 0 0 0 22.040128270631612 245.75849973297773 0 245.75849973297773 54.625454032880953 0 0 0 0 118.54896133947841 185.60688064707938 0 185.60688064707938 4.172843046777416 0 0 0 0 54.902298339995468 167.01125944098749 0 167.01125944098749 70.255021328535804 0 0 0 0 -0.79578012519777985 181.54065953546524 0 181.54065953546524 15.734091686732427 0 0 0 0 28.162982915468092 163.88885273468986 0 163.88885273468986 -59.55710308617563 0 0 0 0 -44.874449944109074 224.8651072269131 0 224.8651072269131 51.354528148551253 0 0 0 0 -122.06794644948968 206.43764465067943 0 206.43764465067943 -64.555215244165083 0 0 0 0 -5.2180519163947707 13.107416145436616 0 13.107416145436616 41.597010609474097 0 0 0 0 -11.764358318177983 258.60069096347434 0 258.60069096347434 -188.04425553572946 0 0 0 0 -71.866957564687254 143.68388244016387 0 143.68388244016387 12.669590626275749 0 0 0 0 -143.1846060741118 -44.158156437348225 0 -44.158156437348225 -112.98616086643597 0 0 0 0 -156.68873153008508 55.410394580339926 0 55.410394580339926 14.215911790437531 0 0 0 0 -138.85818344180916 92.186972678624443 0 92.186972678624443 -10.996608301560627 0 0 0 0 18.012431407259555 81.36694910136157 0 81.36694910136157 -75.163453142158687 0 0 0 0 -227.17833524846776 -5.2740079980571863 0 -5.2740079980571863 -90.905473400329356 0 0 0 0 -402.3502798109912 54.866002531434788 0 54.866002531434788 34.197166272904724 0 0 0 0 -226.04960889419635 -19.131993440139922 0 -19.131993440139922 79.07622942861417 0 0 0 0 -59.986214248862325 21.739682048275426 0 21.739682048275426 98.384563859101036 0 0 0 0 -107.16630736541993 94.208281168248504 0 94.208281168248504 277.86796973533637 0 0 0 0 -111.26264504912251 55.91011541178159 0 55.91011541178159 -27.001688310476311 0 0 0 0 -131.49725000103354 61.71001344049364 0 61.71001344049364 135.7693492641265 0 0 0 0 -464.34924623034112 -115.52453677025915 0 -115.52453677025915 164.04795183159877 0 0 0 0 -282.28820650730154 85.813159564436319 0 85.813159564436319 385.32136890357651 0 0 0 0 -156.91041154542836 85.368712666233478 0 85.368712666233478 40.812899719370762 0 0 0 0 -171.48489248135411 83.462409129380831 0 83.462409129380831 54.252710819826461 0 0 0 0 -146.46838844306512 105.6713265028211 0 105.6713265028211 42.423865354430745 0 0 0 0 72.81772349961102 300.10499166904992 0 300.10499166904992 232.52289099113113 0 0 0 0 -150.58476618984423 99.019378383927688 0 99.019378383927688 115.87728644592426 0 0 0 0 -244.29526170713871 -31.80570172060834 0 -31.80570172060834 145.39977339272218 0 0 0 0 -186.53263124079058 18.26110856732339 0 18.26110856732339 185.41980183787382 0 0 0 0 -180.13972149906931 50.448912097715947 0 50.448912097715947 129.67233407419189 0 0 0 0 4.3884885454309632 30.359993075922773 0 30.359993075922773 128.8081878049984 0 0 0 0 -279.13827127433422 44.346341720439568 0 44.346341720439568 233.49789478887033 0 0 0 0 -98.685494026309243 -44.752702820851482 0 -44.752702820851482 239.82898935169032 0 0 0 0 -71.27531846928423 6.3845245988150054 0 6.3845245988150054 86.378585816884879 0 0 0 0 -97.224425375154169 -25.597927886426987 0 -25.597927886426987 99.836289353927896 0 0 0 0 -163.99479647603312 5.4029332710051676 0 5.4029332710051676 82.98660126219329 0 0 0 0 -201.35313499401411 24.530329836876263 0 24.530329836876263 95.152325274164468 0 0 0 0 -59.616185651301748 -19.794845004489616 0 -19.794845004489616 73.897780915416661 0 0 0 0 -73.055441948404109 19.207628136653511 0 19.207628136653511 53.005281712561555 0 0 0 0 -36.662511861482955 6.2770872965100004 0 6.2770872965100004 39.881009969682253 0 0 0 0 -111.20604437775742 14.482347208720512 0 14.482347208720512 56.523126759457227 0 0 0 0 -111.50735271730946 12.692770762354485 0 12.692770762354485 56.515687285645981 0 0 0 0 -107.39875856561719 -2.9512809060379368 0 -2.9512809060379368 67.689267584086338 0 0 0 0 -163.71112584384036 14.648510715851444 0 14.648510715851444 69.610451760068827 0 0 0 0 -113.41486300293036 13.914563394209836 0 13.914563394209836 15.716029503149912 0 0 0 0 189.9418295928117 160.9767247128475 0 160.9767247128475 167.10005362308402 0 0 0 0 -104.04258293324719 -5.3595512335372746 0 -5.3595512335372746 54.285467625246383 0 0 0 0 -93.16273285159815 33.25255626137929 0 33.25255626137929 56.677700656222243 0 0 0 0 -38.618169743862474 9.0100853479716214 0 9.0100853479716214 48.196795528040781 0 0 0 0 126.69448695939354 284.56990818587292 0 284.56990818587292 287.2638547908864 0 0 0 0 -10.992245511630188 5.5464974939709677 0 5.5464974939709677 -3.7015010965625379 0 0 0 0 22.99602101308119 56.156912458558509 0 56.156912458558509 55.950608213952364 0 0 0 0 -152.70036784093008 98.695851063444934 0 98.695851063444934 -10.829112988474662 0 0 0 0 -132.01825253722564 66.148711125591944 0 66.148711125591944 33.497098080813885 0 0 0 0 2.5472208377375702 28.87869282726831 0 28.87869282726831 85.510266029209944 0 0 0 0 -131.97780109525047 63.967183436943742 0 63.967183436943742 43.315162179073013 0 0 0 0 -141.64494850929987 68.565702769883501 0 68.565702769883501 52.270284655562136 0 0 0 0 -105.52880126669106 -20.797646073486248 0 -20.797646073486248 75.008838569076033 0 0 0 0 -3.1921567590973723 31.479273516632595 0 31.479273516632595 61.458808235600145 0 0 0 0 -305.29173788794651 123.55962021169034 0 123.55962021169034 142.27980552942608 0 0 0 0 -282.67421586358978 101.77897094553919 0 101.77897094553919 78.977659844204027 0 0 0 0 -308.1889911815997 135.65834784057733 0 135.65834784057733 151.33074748021318 0 0 0 0 -241.35440850036684 73.033005240620696 0 73.033005240620696 75.490408923411451 0 0 0 0 -489.9936082115164 116.60285615080647 0 116.60285615080647 103.24078468431981 0 0 0 0 401.63544327787531 359.15492778444604 0 359.15492778444604 289.58294235729772 0 0 0 0 -433.3222309705161 -83.854967860024772 0 -83.854967860024772 52.938832044175797 0 0 0 0 -4.3984139747721258 2.9210096939714134 0 2.9210096939714134 0.71648181076193396 0 0 0 0 -232.06825122590817 -41.826503016040078 0 -41.826503016040078 11.118135401215113 0 0 0 0 -47.872297964175232 47.051458426329191 0 47.051458426329191 53.84479783061397 0 0 0 0 -4.568259467054304 112.09931457933089 0 112.09931457933089 78.12091903561668 0 0 0 0 -215.31192492162518 148.77157932191767 0 148.77157932191767 199.94142261020897 0 0 0 0 -246.37576555731357 107.86499689699122 0 107.86499689699122 146.31031152338255 0 0 0 0 -298.34889939065033 126.38322158365918 0 126.38322158365918 155.92562860369799 0 0 0 0 -284.20624995445178 167.74237474133224 0 167.74237474133224 233.42599324160255 0 0 0 0 -374.01158605509409 106.05290817320929 0 106.05290817320929 271.38203699738369 0 0 0 0 -300.42285197062301 137.65380024894694 0 137.65380024894694 179.21479087039188 0 0 0 0 -330.86467104365147 22.739733962622267 0 22.739733962622267 197.6889739522594 0 0 0 0 -365.78131131565897 68.374750139228126 0 68.374750139228126 443.77837829330019 0 0 0 0 -293.81060563276333 78.886548404490895 0 78.886548404490895 145.11831980687566 0 0 0 0 -360.53671441932966 35.753818162047537 0 35.753818162047537 204.21120379764034 0 0 0 0 -280.9768325483019 64.183123608378082 0 64.183123608378082 107.32129506494675 0 0 0 0 -274.81704398694274 88.200271481990058 0 88.200271481990058 162.63580879462825 0 0 0 0 -278.90396637417143 115.30904158049816 0 115.30904158049816 60.888754899919149 0 0 0 0 -255.88569905579425 69.078326355069294 0 69.078326355069294 79.926288468297571 0 0 0 0 -288.578815357243 61.027441126178019 0 61.027441126178019 116.5323862288933 0 0 0 0 -253.74555195993162 61.151066445956531 0 61.151066445956531 106.85000925359782 0 0 0 0 -271.14966557575099 37.299241960317886 0 37.299241960317886 148.06739048598683 0 0 0 0 -223.73528645204351 31.612546646727424 0 31.612546646727424 84.342282178651658 0 0 0 0 -364.72942018792673 42.068619799756561 0 42.068619799756561 127.92633306543576 0 0 0 0 -293.63110772752952 48.762347541029158 0 48.762347541029158 99.102354091228335 0 0 0 0 -332.23183488014911 75.905406125653826 0 75.905406125653826 126.65361202512577 0 0 0 0 -266.64672677546332 95.698957005057309 0 95.698957005057309 79.563862145289022 0 0 0 0 -303.04944258742034 60.701332834374625 0 60.701332834374625 47.292126853295485 0 0 0 0 -245.45483095103555 58.35414717938329 0 58.35414717938329 51.407155003355001 0 0 0 0 -157.20345760143391 149.73248531391437 0 149.73248531391437 134.88201158178163 0 0 0 0 -169.7357103052459 -65.981198243860945 0 -65.981198243860945 112.74286159397161 0 0 0 0 -197.20851809111628 261.03503776262369 0 261.03503776262369 324.79839638898557 0 0 0 0 -123.06059098451151 41.563360380972732 0 41.563360380972732 40.959228190473596 0 0 0 0 -319.62743270005012 72.258772007036896 0 72.258772007036896 386.50210216235428 0 0 0 0 -272.92536766188277 -218.08447679637175 0 -218.08447679637175 68.212133753158923 0 0 0 0 -274.85871962516103 192.7673748924426 0 192.7673748924426 -18.115701665941742 0 0 0 0 391.15744211130368 502.61283959479624 0 502.61283959479624 146.27031589102262 0 0 0 0 -113.44284081846288 32.045609680371101 0 32.045609680371101 45.101627034389821 0 0 0 0 332.48170340336401 -7.7478239299744018 0 -7.7478239299744018 -238.23091292658501 0 0 0 0 -24.610361803340766 -151.28873278939864 0 -151.28873278939864 -139.40427491019364 0 0 0 0 -253.32502518432739 311.44704249619463 0 311.44704249619463 687.64027004539093 0 0 0 0 -1.2421042670677109 4.7795197658183097 0 4.7795197658183097 8.6253684792621925 0 0 0 0 84.691274203471949 25.405187405882316 0 25.405187405882316 93.779547956961324 0 0 0 0 531.8820761137722 341.89676363667968 0 341.89676363667968 31.360693671340414 0 0 0 0 -145.31834903244734 288.92164377275367 0 288.92164377275367 148.0560233957076 0 0 0 0 -220.87575276095049 259.51008484733029 0 259.51008484733029 23.983641611164785 0 0 0 0 -291.68182520974551 435.98536277020321 0 435.98536277020321 -334.49506983063475 0 0 0 0 -164.45472546331473 -125.35900893094708 0 -125.35900893094708 -211.70455642744491 0 0 0 0 -530.6410317632749 -128.41603384517293 0 -128.41603384517293 54.703050512398477 0 0 0 0 -2.468325673618414 5.7974317699167477 0 5.7974317699167477 24.281108668552434 0 0 0 0 -117.30616982811443 50.130536965763895 0 50.130536965763895 -979.04168501411914 0 0 0 0 11.809849855578539 0.87570534047726767 0 0.87570534047726767 -0.68130759320132483 0 0 0 0 -142.98980501415539 363.92558868371088 0 363.92558868371088 -404.14187743444927 0 0 0 0 -54.511142884018682 -560.50248197883047 0 -560.50248197883047 1016.9400758641059 0 0 0 0 -69.920671534366079 232.62844458917971 0 232.62844458917971 -432.25869327477994 0 0 0 0 -404.8627905693038 -229.69819974896382 0 -229.69819974896382 1134.6921980948246 0 0 0 0 -8.1013637299283801 -187.8811804374127 0 -187.8811804374127 638.85717028612271 0 0 0 0 -342.3379436921241 227.86817164234526 0 227.86817164234526 541.3878718071137 0 0 0 0 -441.00077377948492 12.252330654737307 0 12.252330654737307 997.31341004099522 0 0 0 0 -575.54298116827567 28.603141740106366 0 28.603141740106366 263.07166739134118 0 0 0 0 -705.11688259668654 -518.29039750657466 0 -518.29039750657466 1216.1587871056836 0 0 0 0 -2.720435836837849 4.5298422350162326 0 4.5298422350162326 29.953556879631662 0 0 0 0 -12.032921537295238 15.871276323770871 0 15.871276323770871 294.43886703968747 0 0 0 0 -144.24981239532042 -50.944684923947989 0 -50.944684923947989 262.29457445215667 0 0 0 0 -316.89177170916446 -122.23863366767182 0 -122.23863366767182 360.20475276309298 0 0 0 0 -136.08018785435928 18.812561558339439 0 18.812561558339439 45.748176029970637 0 0 0 0 -228.8987365178582 31.983379425873864 0 31.983379425873864 86.35972851124825 0 0 0 0 -43.122192688859684 124.64513248308504 0 124.64513248308504 89.916542991450115 0 0 0 0 -24.003803958055499 28.655988568287285 0 28.655988568287285 199.27609738886531 0 0 0 0 -89.842788952639353 50.541945012271754 0 50.541945012271754 362.8615379124094 0 0 0 0 -42.853511134736436 126.39921651537588 0 126.39921651537588 237.78618794710201 0 0 0 0 75.495937164171778 -58.487156532188237 0 -58.487156532188237 330.52927350725804 0 0 0 0 -119.37957157241158 -76.165430445857055 0 -76.165430445857055 621.28475367467036 0 0 0 0 -94.27091850155 -22.054464200788061 0 -22.054464200788061 447.77376070940045 0 0 0 0 8.5752504724576966 -105.15037984549417 0 -105.15037984549417 442.90695410475382 0 0 0 0 132.97109282438805 -72.348766148425057 0 -72.348766148425057 391.44577350268082 0 0 0 0 -171.91498757047475 72.44233067753521 0 72.44233067753521 336.77349972681623 0 0 0 0 319.00601595339867 -321.12237692758208 0 -321.12237692758208 485.0283794512834 0 0 0 0 -57.282350469246467 -252.94679850431567 0 -252.94679850431567 610.81460908533882 0 0 0 0 -2.9353569022410357 3.3024943694831563 0 3.3024943694831563 -1.4968008936198771 0 0 0 0 -137.05300282475355 -6.797723120853334 0 -6.797723120853334 662.98541119632137 0 0 0 0 -207.41103306796526 -145.43985946531757 0 -145.43985946531757 455.33861048117978 0 0 0 0 -199.15027709080962 -40.749797597808993 0 -40.749797597808993 410.41632682070485 0 0 0 0 -304.97514461292531 -100.6236419745037 0 -100.6236419745037 549.39009091010666 0 0 0 0 32.520724577762849 -74.260050207223685 0 -74.260050207223685 481.64186809730018 0 0 0 0 -8.8439554804804601 -0.87446015032782043 0 -0.87446015032782043 7.0968043073882257 0 0 0 0 -59.694074287868034 66.208979209885001 0 66.208979209885001 -34.900398129277164 0 0 0 0 -67.06006934612833 144.66757187296753 0 144.66757187296753 170.10879847372416 0 0 0 0 -84.763143618821601 -18.130224913440529 0 -18.130224913440529 16.5951507000959 0 0 0 0 -231.47929989501836 301.69939742797942 0 301.69939742797942 -24.834477900643833 0 0 0 0 -2.5890348808041157 25.973024994759726 0 25.973024994759726 11.916812302907658 0 0 0 0 -214.70130308464695 332.66826539561589 0 332.66826539561589 -106.1887694663601 0 0 0 0 -184.72444322838095 257.6310910068969 0 257.6310910068969 -94.229693724692879 0 0 0 0 -172.5828834699085 215.21776478540414 0 215.21776478540414 -31.286025917212555 0 0 0 0 -135.93198808145195 48.288535749868707 0 48.288535749868707 33.372303172632996 0 0 0 0 -291.98108296310056 93.516925915697357 0 93.516925915697357 37.603805455364636 0 0 0 0 -284.20902416601893 72.738081827570568 0 72.738081827570568 51.725034202027018 0 0 0 0 -294.4028165466043 83.50298911039863 0 83.50298911039863 3.6966100824211026 0 0 0 0 -95.884036534448683 -30.905490494221937 0 -30.905490494221937 28.666405487554471 0 0 0 0 -335.17939590352762 32.490403723852069 0 32.490403723852069 21.584162881703378 0 0 0 0 -155.10280493690266 55.827565494255396 0 55.827565494255396 -9.2566277805308346 0 0 0 0 -44.000725072284212 54.281188421955449 0 54.281188421955449 -40.233133910980541 0 0 0 0 154.65441101042359 -78.825293581947335 0 -78.825293581947335 41.983640450212988 0 0 0 0 18.019254891833789 -112.97929151050002 0 -112.97929151050002 7.8209466191983097 0 0 0 0 -74.070882845785604 67.965638216774096 0 67.965638216774096 -34.917224450327922 0 0 0 0 -138.97317146367783 22.007861754915211 0 22.007861754915211 -2.968505969067337 0 0 0 0 -10.06281060059122 -5.0569117697777983 0 -5.0569117697777983 -6.1916565020801499 0 0 0 0 -26.164031293741086 5.6353421287959433 0 5.6353421287959433 69.677467099776436 0 0 0 0 -78.8138180154167 3.0213906852004584 0 3.0213906852004584 -1.737458588759182 0 0 0 0 -120.83550536542458 4.6176946799130292 0 4.6176946799130292 117.59624249546323 0 0 0 0 -159.43057658811026 51.502686023603019 0 51.502686023603019 44.876349834696157 0 0 0 0 -120.7315100161245 16.703066642943782 0 16.703066642943782 71.993907901633065 0 0 0 0 -46.413062457954943 -23.719431798684184 0 -23.719431798684184 0.98850780604635702 0 0 0 0 -373.272383367212 -440.16118812888362 0 -440.16118812888362 -360.75967011234025 0 0 0 0 -125.92931768234257 -87.646182247633988 0 -87.646182247633988 -44.607679182401625 0 0 0 0 -5.3014871928871798 -52.393243523885758 0 -52.393243523885758 74.530208218930056 0 0 0 0 853.84546558966667 772.61634311461239 0 772.61634311461239 -881.67129833434592 0 0 0 0 93.339456531421092 202.89162832067814 0 202.89162832067814 -89.299946887869737 0 0 0 0 -28.044523521866722 381.22354169726896 0 381.22354169726896 105.76930026203627 0 0 0 0 -553.08082091504002 -75.322027358990454 0 -75.322027358990454 517.20051822581445 0 0 0 0 -405.54755048453171 13.531387861366966 0 13.531387861366966 709.41514025822835 0 0 0 0 0.73895969957086172 4.9664885278743611 0 4.9664885278743611 9.2158602145068471 0 0 0 0 -349.19959652818648 176.94467234178592 0 176.94467234178592 827.35274339374155 0 0 0 0 3.1434709166558417 10.042240719151788 0 10.042240719151788 54.198423427887121 0 0 0 0 -116.90043789189212 136.97264240901859 0 136.97264240901859 750.77573835794465 0 0 0 0 -17.91205678107508 686.79347021716967 0 686.79347021716967 1463.5539132941922 0 0 0 0 138.08708453712006 746.19759897985932 0 746.19759897985932 907.27423838537652 0 0 0 0 -130.01791688769674 47.929293452849379 0 47.929293452849379 94.53250003499852 0 0 0 0 -124.07500836060814 54.395248281995009 0 54.395248281995009 49.442629507946549 0 0 0 0 -142.35364962316419 41.340996621147497 0 41.340996621147497 47.362080507984501 0 0 0 0 -129.24203307871392 58.527352299381164 0 58.527352299381164 69.878521891570927 0 0 0 0 -124.76257755486475 44.970404247185797 0 44.970404247185797 46.743296947592171 0 0 0 0 -119.71014653030224 47.753862559664412 0 47.753862559664412 23.377117750031175 0 0 0 0 -117.16474605292187 64.272555674571777 0 64.272555674571777 12.9460574365512 0 0 0 0 -166.81130793507572 29.140909563720925 0 29.140909563720925 26.69862486803504 0 0 0 0 249.73959965879453 -35.009348216110084 0 -35.009348216110084 -259.96151801274391 0 0 0 0 128.73225292835718 -101.02257611983805 0 -101.02257611983805 -159.76901698869187 0 0 0 0 -210.82106231428224 101.04823787572968 0 101.04823787572968 -249.94029311081977 0 0 0 0 -309.99697589920015 -161.46995071781566 0 -161.46995071781566 -32.30648104834836 0 0 0 0 0.58609223735730387 -12.061459321848815 0 -12.061459321848815 13.701257854219875 0 0 0 0 -74.884723432989887 -1.499268740779371 0 -1.499268740779371 42.071123211371741 0 0 0 0 -144.40562368577417 24.187200156025938 0 24.187200156025938 35.303916977671179 0 0 0 0 -116.12323071844862 14.960333718670881 0 14.960333718670881 57.883855387393851 0 0 0 0 -35.927730953185225 -35.053382355792564 0 -35.053382355792564 8.8378257770091295 0 0 0 0 -199.25336258138398 -75.791399662266485 0 -75.791399662266485 0.99687781514512608 0 0 0 0 -2.4953787786181296 -91.719285604402103 0 -91.719285604402103 -37.989146659809194 0 0 0 0 -276.49083600045901 -247.95512508139427 0 -247.95512508139427 -78.932816950415145 0 0 0 0 -189.36793935707226 -10.688776291994145 0 -10.688776291994145 50.740661461510172 0 0 0 0 -241.91626080359569 34.632159993328969 0 34.632159993328969 11.752643999861903 0 0 0 0 -507.49594531384849 -51.43737057261751 0 -51.43737057261751 25.505118731787661 0 0 0 0 -163.28347888260305 52.147521449885971 0 52.147521449885971 -32.115778315928765 0 0 0 0 -332.96799515979092 -7.6529640910739545 0 -7.6529640910739545 -4.3700915592780802 0 0 0 0 -251.62737361037983 -54.365221215273777 0 -54.365221215273777 -75.958119425806217 0 0 0 0 -331.89192410404144 -112.49856708613515 0 -112.49856708613515 -52.824080281585339 0 0 0 0 -808.62442725096469 -510.60451321918663 0 -510.60451321918663 -154.36818812898491 0 0 0 0 6.8199371086511347 -727.20038258234126 0 -727.20038258234126 -625.28821687861637 0 0 0 0 -1748.9666034033733 -2303.9502233299863 0 -2303.9502233299863 -1780.4504219305818 0 0 0 0 -1229.0973390099705 327.54245928532328 0 327.54245928532328 396.81456037092721 0 0 0 0 -36.654818605968188 -2975.9418002384373 0 -2975.9418002384373 -4896.6383648164483 0 0 0 0 -3363.6080604023668 -4039.1430439112883 0 -4039.1430439112883 -2846.5980299596049 0 0 0 0 -3995.9751067070665 -1885.1121638986333 0 -1885.1121638986333 -892.43769056320889 0 0 0 0 -28.64082983458502 -1743.1669803593904 0 -1743.1669803593904 -3003.9074793519285 0 0 0 0 -15.825791219084412 -16.966142140880123 0 -16.966142140880123 -21.228928438496098 0 0 0 0 -2142.9611498712002 162.69479431658692 0 162.69479431658692 -184.62118332201499 0 0 0 0 324.6237940796268 155.88576640847896 0 155.88576640847896 -243.91654564006603 0 0 0 0 15.413031847446222 -2.2038055932245584 0 -2.2038055932245584 5.1089144920092622 0 0 0 0 -348.5297297101481 14.02095161145553 0 14.02095161145553 -13.553196293270958 0 0 0 0 -381.87022044046967 -13.524018510899623 0 -13.524018510899623 31.773104278749088 0 0 0 0 -309.63464693912283 41.736452967772493 0 41.736452967772493 205.33446636752342 0 0 0 0 -49.640983209451115 -53.955638982553651 0 -53.955638982553651 -31.397333398044196 0 0 0 0 -33.608413091645659 -32.791612386792231 0 -32.791612386792231 131.97489327570622 0 0 0 0 -317.38553053091709 -215.62928138481948 0 -215.62928138481948 614.76295524233137 0 0 0 0 -368.71413095530079 32.646339622548112 0 32.646339622548112 88.294108285044786 0 0 0 0 -315.48537703693728 69.552160481187457 0 69.552160481187457 90.975906659819884 0 0 0 0 -351.81240355193586 44.564916001603706 0 44.564916001603706 90.451011579660303 0 0 0 0 -358.63196693278587 52.013372389248616 0 52.013372389248616 114.53436886423151 0 0 0 0 -507.78108699349832 39.331298969824275 0 39.331298969824275 133.24346661868549 0 0 0 0 -236.58111785175174 239.70210212570419 0 239.70210212570419 117.44896987383254 0 0 0 0 -4.4749352511847285 -28.385461261563385 0 -28.385461261563385 110.60047108232311 0 0 0 0 -1828.3703598532284 -1404.5649859940604 0 -1404.5649859940604 -1404.1808674991335 0 0 0 0 -354.25646895258978 24.547994286112953 0 24.547994286112953 81.495422853879063 0 0 0 0 -383.28855006967933 92.380772338980023 0 92.380772338980023 103.05559019603243 0 0 0 0 -461.41814257766964 45.032139706978342 0 45.032139706978342 379.921284818608 0 0 0 0 -11.428354482840344 -21.493760633355734 0 -21.493760633355734 93.066136694758484 0 0 0 0 -541.0608793872143 -72.211067444194214 0 -72.211067444194214 245.11269734783855 0 0 0 0 -7492.7257796985532 -1923.7157096983565 0 -1923.7157096983565 591.29623034010001 0 0 0 0 -4885.4328887975462 -4264.9599812425877 0 -4264.9599812425877 2389.8829238029284 0 0 0 0 125.4101381311594 -7988.6141630435268 0 -7988.6141630435268 2838.0095750804903 0 0 0 0 -4481.2198281391575 -4106.3233984163817 0 -4106.3233984163817 -415.36344762382214 0 0 0 0 -3022.7155300665577 -4383.5575122234841 0 -4383.5575122234841 -500.35385056908126 0 0 0 0 -1983.5744692439366 -2106.9740447620352 0 -2106.9740447620352 400.10902703597094 0 0 0 0 -3001.7551505071751 -3963.7747477086741 0 -3963.7747477086741 -2244.3604805626492 0 0 0 0 232.57522477132034 187.4427015506476 0 187.4427015506476 328.96707476990912 0 0 0 0 337.73121482564238 303.51659459997518 0 303.51659459997518 343.04828931019824 0 0 0 0 341.14642085304894 480.67006709363864 0 480.67006709363864 685.41473097230119 0 0 0 0 344.85564465964922 539.4110219783804 0 539.4110219783804 1089.4749651525253 0 0 0 0 161.75552523870647 188.22196612089829 0 188.22196612089829 986.56871615524415 0 0 0 0 175.23462637730427 229.52104943134509 0 229.52104943134509 725.74604860509316 0 0 0 0 157.90588971947273 241.49818076685278 0 241.49818076685278 734.45977028869538 0 0 0 0 186.23516793963142 98.271284042673415 0 98.271284042673415 681.41759565964003 0 0 0 0 202.88271574488624 217.94140107267776 0 217.94140107267776 482.24106232695158 0 0 0 0 231.24486131317076 9.9560598169005061 0 9.9560598169005061 613.17698427903042 0 0 0 0 207.04969824650735 123.46800635826582 0 123.46800635826582 420.19263646971649 0 0 0 0 244.5835407508448 216.60099498274207 0 216.60099498274207 314.02954772654357 0 0 0 0 236.27365765069146 155.41285987760102 0 155.41285987760102 439.7286559037093 0 0 0 0 215.7367690099386 177.07555027892977 0 177.07555027892977 462.7632349177693 0 0 0 0 225.41230586313395 273.75419227464363 0 273.75419227464363 370.30810586377265 0 0 0 0 263.41268944209082 162.90617001982758 0 162.90617001982758 148.68896735645194 0 0 0 0 247.33645885045735 192.22456417252261 0 192.22456417252261 277.79186578812505 0 0 0 0 226.76537479170315 222.57629676719671 0 222.57629676719671 253.89212188677084 0 0 0 0 233.71693515993525 211.20949673966788 0 211.20949673966788 262.92104074881718 0 0 0 0 223.87892647754501 244.54086384082802 0 244.54086384082802 308.41967604462252 0 0 0 0 196.36243459905813 197.30072348494176 0 197.30072348494176 204.53444241519685 0 0 0 0 207.53880509872033 234.75507699616105 0 234.75507699616105 246.67840850067796 0 0 0 0 166.84866445221724 189.09592998859489 0 189.09592998859489 226.45450283489822 0 0 0 0 193.86984995101102 191.31489071321698 0 191.31489071321698 182.61967672003129 0 0 0 0 186.10274717478933 124.26993155336663 0 124.26993155336663 175.22504989395208 0 0 0 0 215.72835882559775 173.07294208804785 0 173.07294208804785 197.50382036870565 0 0 0 0 190.07780893755034 137.10054768891007 0 137.10054768891007 112.59211146710429 0 0 0 0 19.050572208821904 -25.460597130205542 0 -25.460597130205542 4.2433245768279448 0 0 0 0 8.2867131214570833 -14.697921818545856 0 -14.697921818545856 24.531483861714428 0 0 0 0 73.743238093578839 -40.899577170263001 0 -40.899577170263001 8.5069567216487485 0 0 0 0 -215.22055175873902 -57.837284928617009 0 -57.837284928617009 42.29155118871131 0 0 0 0 19.414235206655228 -33.120640181159914 0 -33.120640181159914 49.044019567360913 0 0 0 0 73.743238093622494 -40.899577170290286 0 -40.899577170290286 8.5069567216269206 0 0 0 0 32.035990932112327 -40.49710406572558 0 -40.49710406572558 -42.089257469699078 0 0 0 0 -5.1789455596735934 -55.381072219279304 0 -55.381072219279304 -14.059275667881593 0 0 0 0 22.215134407830192 -76.672565623186529 0 -76.672565623186529 -57.576973021845333 0 0 0 0 16.760245323122945 -126.35204288015666 0 -126.35204288015666 -126.30921875525382 0 0 0 0 -30.443693246226758 -13.496551470292616 0 -13.496551470292616 -176.56019574146194 0 0 0 0 -24.199763833647012 -41.392012522162986 0 -41.392012522162986 -83.013631006651849 0 0 0 0 -99.125997614377411 18.495882534334669 0 18.495882534334669 -59.522816851269454 0 0 0 0 10.700788640897372 -95.278871215821709 0 -95.278871215821709 -186.47794596678068 0 0 0 0 3.611337364774954 -99.737471634849499 0 -99.737471634849499 -57.838203964201966 0 0 0 0 33.785358100203894 -80.946300255903338 0 -80.946300255903338 4.5785921257302107 0 0 0 0 280.10934113915209 247.10395962494965 0 247.10395962494965 241.18308910892165 0 0 0 0 -150.04481189255603 -172.35212997352937 0 -172.35212997352937 -136.43733702850295 0 0 0 0 4.3747420963842494 -8.3281252501954022 0 -8.3281252501954022 16.058072736639325 0 0 0 0 109.29309525252302 106.94394070178896 0 106.94394070178896 -77.691604468827791 0 0 0 0 -218.97585427574904 -87.280519596768499 0 -87.280519596768499 -68.47117952669214 0 0 0 0 -185.23766531825095 -133.81777759343095 0 -133.81777759343095 -295.41827550387825 0 0 0 0 -258.36108341783256 -100.95053187260055 0 -100.95053187260055 -55.912433677993249 0 0 0 0 -214.98118207842344 -78.011385441706807 0 -78.011385441706807 -171.99380066974845 0 0 0 0 -223.81955326119987 -87.560024962823718 0 -87.560024962823718 -54.24796605942538 0 0 0 0 -77.471208711056534 -177.69395308374806 0 -177.69395308374806 -101.86831716351298 0 0 0 0 8.1358676535240946 -16.213829912626935 0 -16.213829912626935 28.742951879016623 0 0 0 0 -173.24431970586011 -146.53682583104091 0 -146.53682583104091 -34.295284698164323 0 0 0 0 14.067318470142055 -18.920949643543405 0 -18.920949643543405 17.880153992533021 0 0 0 0 -218.1323119770268 -26.7704992511417 0 -26.7704992511417 96.393041068011371 0 0 0 0 -226.31075282565007 -126.20372369434449 0 -126.20372369434449 5.5420235559722641 0 0 0 0 -192.32652651857643 -99.06807263380324 0 -99.06807263380324 34.566404080345819 0 0 0 0 -163.85583959406358 -94.503282066267275 0 -94.503282066267275 10.634403045323779 0 0 0 0 -69.141359371540602 -165.03647772992554 0 -165.03647772992554 -65.39383561804425 0 0 0 0 -162.42544049158414 -132.36615253046239 0 -132.36615253046239 0.75782176172651816 0 0 0 0 2.1536837097955868 -122.4996579271392 0 -122.4996579271392 -89.638419800408883 0 0 0 0 -49.875350560454535 -110.00173780932528 0 -110.00173780932528 -13.572971820161911 0 0 0 0 -149.77780399168114 -51.191388623396051 0 -51.191388623396051 87.590598186550778 0 0 0 0 -40.114558953908272 -104.8356634175725 0 -104.8356634175725 -29.616546921773988 0 0 0 0 -3.0862051531730685 25.626020059273287 0 25.626020059273287 63.872447005560389 0 0 0 0 9.8080556613131193 -59.595752143977734 0 -59.595752143977734 3.9692752761256997 0 0 0 0 7.6466035602934426 -52.209753237781115 0 -52.209753237781115 -5.1434909213730862 0 0 0 0 0.51736240230093244 -93.966834164195461 0 -93.966834164195461 -63.371638209573575 0 0 0 0 -394.65115093064378 -138.89936633844627 0 -138.89936633844627 165.5517674241155 0 0 0 0 -374.77752366454843 -92.329211205438696 0 -92.329211205438696 229.61402714060387 0 0 0 0 -297.00120125925605 -97.048553740583884 0 -97.048553740583884 70.022570781893592 0 0 0 0 -298.49066831028517 -123.6566651426383 0 -123.6566651426383 12.485572310673888 0 0 0 0 -298.06986993492319 -130.42224002843432 0 -130.42224002843432 -15.305793571984395 0 0 0 0 -322.05706469444704 -170.51031162559957 0 -170.51031162559957 158.02091969105822 0 0 0 0 -299.82446614534274 -222.16270257657015 0 -222.16270257657015 147.63589352963209 0 0 0 0 -57.385564347874606 -218.39419791784894 0 -218.39419791784894 106.01682308816817 0 0 0 0 83.802949040422391 -52.651242399066177 0 -52.651242399066177 107.64371440873947 0 0 0 0 -279.9728804555125 -193.48507558727215 0 -193.48507558727215 150.14922480826135 0 0 0 0 -281.52756144645446 -180.51896827057317 0 -180.51896827057317 49.408861928852275 0 0 0 0 -282.43646687621367 -202.05921792349545 0 -202.05921792349545 75.962252128345426 0 0 0 0 -122.30600009755653 -163.38611702709022 0 -163.38611702709022 53.455706694090622 0 0 0 0 -138.02984601648859 -147.12829357057308 0 -147.12829357057308 111.09830954413337 0 0 0 0 -206.44319490519774 -222.75173276134228 0 -222.75173276134228 -14.113287296080671 0 0 0 0 -195.86742437838257 -83.369342578447686 0 -83.369342578447686 55.18219108255289 0 0 0 0 -258.6550374815979 -204.36392193461506 0 -204.36392193461506 2.524180906068068 0 0 0 0 -284.90337767124583 -264.35308210159383 0 -264.35308210159383 -16.784830467426218 0 0 0 0 -264.31483844674585 -180.31426022203414 0 -180.31426022203414 -40.658984442387009 0 0 0 0 -341.533475706834 -254.07954519135819 0 -254.07954519135819 2.5339872525307001 0 0 0 0 -308.72272892770707 -264.77496930429334 0 -264.77496930429334 -51.192436113633448 0 0 0 0 -313.91117282427876 -349.1532888570473 0 -349.1532888570473 -154.02762227993662 0 0 0 0 -144.1878599940992 -178.22925983786081 0 -178.22925983786081 -137.42812205306836 0 0 0 0 -337.01755322881218 -265.5360547478449 0 -265.5360547478449 -4.2763076315168291 0 0 0 0 -298.38035314105218 -302.94328822221723 0 -302.94328822221723 -90.793730206336477 0 0 0 0 -304.54157626673987 -281.75666104523407 0 -281.75666104523407 -43.976998630023445 0 0 0 0 -224.36400074654375 -284.61619379076001 0 -284.61619379076001 -260.59576033339545 0 0 0 0 -286.67564651886278 -305.84371175438901 0 -305.84371175438901 -138.62231764862372 0 0 0 0 -285.36664475618454 -201.68122107554518 0 -201.68122107554518 -111.34968616414699 0 0 0 0 -243.40426741920237 -180.55949226174562 0 -180.55949226174562 -162.94751104132956 0 0 0 0 -241.48987692351511 -190.38972364920483 0 -190.38972364920483 -147.25778354052454 0 0 0 0 -272.58829467046598 -127.08103468567424 0 -127.08103468567424 -17.641927434218815 0 0 0 0 -243.36417049492593 -118.1984944063297 0 -118.1984944063297 -160.37547917544907 0 0 0 0 -292.67972950335206 -204.15843597268758 0 -204.15843597268758 13.799184946983587 0 0 0 0 -302.76577169067605 -209.58890891139527 0 -209.58890891139527 72.757943598131533 0 0 0 0 -283.19470272650506 -232.28286984374427 0 -232.28286984374427 -73.186240729497513 0 0 0 0 184.95786797889195 146.93292321735225 0 146.93292321735225 286.27048887484125 0 0 0 0 237.40712682604135 263.16477300703991 0 263.16477300703991 478.4966375306758 0 0 0 0 106.18899051458357 173.74393345377757 0 173.74393345377757 532.69291440111556 0 0 0 0 154.70041616932576 82.775285790339694 0 82.775285790339694 257.88131006047661 0 0 0 0 368.15159906629196 141.15588183934324 0 141.15588183934324 223.63481922169012 0 0 0 0 193.52551419123483 144.35068424743076 0 144.35068424743076 342.07142878821469 0 0 0 0 299.79812664848214 1.7605106012597389 0 1.7605106012597389 165.34341022671288 0 0 0 0 34.903748944147083 0.64143588190199807 0 0.64143588190199807 218.2349464323961 0 0 0 0 78.119801027387439 -83.384935400128597 0 -83.384935400128597 122.48602562824453 0 0 0 0 19.228446675435407 -31.05024649158986 0 -31.05024649158986 91.654970553194289 0 0 0 0 -20.440994316348224 -139.60716296191094 0 -139.60716296191094 -1.1247079913810012 0 0 0 0 -124.66695562231325 -139.47090156145714 0 -139.47090156145714 93.00182769813 0 0 0 0 0.79125530290184543 0.033865357239847071 0 0.033865357239847071 129.17879272025493 0 0 0 0 210.52630605890226 37.116279661924636 0 37.116279661924636 78.321393111065845 0 0 0 0 172.29823680537629 100.31441713606 0 100.31441713606 155.51159885514062 0 0 0 0 191.61555224310723 27.326192038017325 0 27.326192038017325 168.47131758305841 0 0 0 0 259.21032659025695 56.895625817885957 0 56.895625817885957 148.36720629710908 0 0 0 0 228.75064265907713 133.78258668383751 0 133.78258668383751 287.18737724629318 0 0 0 0 171.7863482016528 44.354240513959667 0 44.354240513959667 67.849348904554063 0 0 0 0 319.91812163874692 -90.965518604551107 0 -90.965518604551107 161.33684856222681 0 0 0 0 66.611258919534521 -140.90268208211 0 -140.90268208211 -33.987044170593435 0 0 0 0 -144.52827881586927 -76.180549493044964 0 -76.180549493044964 97.825353489515692 0 0 0 0 -285.96352487585682 -153.60999830107176 0 -153.60999830107176 15.654470602170477 0 0 0 0 -71.638534237772546 -92.597134730414837 0 -92.597134730414837 -30.954794531091466 0 0 0 0 -280.90933597047479 -326.32650322896734 0 -326.32650322896734 -162.06638742088398 0 0 0 0 -517.85613656487658 -408.14540593993297 0 -408.14540593993297 -63.976640276562648 0 0 0 0 -100.9718767234699 86.649895943002775 0 86.649895943002775 -8.6987904569650709 0 0 0 0 469.25229507537188 -227.73806359942864 0 -227.73806359942864 -81.962023612053599 0 0 0 0 -139.49816787738382 -100.50157679262338 0 -100.50157679262338 -30.069690363904556 0 0 0 0 7.622516185488287 -15.916532860588227 0 -15.916532860588227 29.015925601744286 0 0 0 0 13.764682794575542 -18.984805365587512 0 -18.984805365587512 17.828136236141965 0 0 0 0 -11.059667250392295 -225.05350722980529 0 -225.05350722980529 -11.141697793311323 0 0 0 0 -351.16977672323264 -339.65494754455722 0 -339.65494754455722 -76.980629080480867 0 0 0 0 -376.52509785957955 -294.83087860764863 0 -294.83087860764863 -129.48215754349076 0 0 0 0 -410.92717392463965 -265.89159428956918 0 -265.89159428956918 -44.494221039709373 0 0 0 0 -319.84386319593614 -263.92667958302263 0 -263.92667958302263 -152.87594382220414 0 0 0 0 -474.01699567314063 -216.47004958678735 0 -216.47004958678735 -166.74211748022208 0 0 0 0 -364.77082212941605 -239.3875929008118 0 -239.3875929008118 -31.577240367216291 0 0 0 0 -239.72787926968522 -232.2977237984669 0 -232.2977237984669 -204.33339928851638 0 0 0 0 -248.85444872493099 -300.9916513790231 0 -300.9916513790231 -439.21527485618572 0 0 0 0 -229.59470460509692 -352.38943475120504 0 -352.38943475120504 -369.34759629509063 0 0 0 0 -319.90645909162413 -239.95092561413185 0 -239.95092561413185 -195.03213545622566 0 0 0 0 -355.86962885148023 -290.70187569106201 0 -290.70187569106201 -330.11705258506117 0 0 0 0 -674.04743013055122 -498.25341703366576 0 -498.25341703366576 -429.01693233006517 0 0 0 0 -480.80137477065 -214.07870904782612 0 -214.07870904782612 -347.11879490236606 0 0 0 0 -296.97652824065153 -266.34267603388798 0 -266.34267603388798 -335.67403629660839 0 0 0 0 21.931059092526944 -34.069922806130677 0 -34.069922806130677 43.52273970575223 0 0 0 0 -185.2231274146161 -98.26565877883445 0 -98.26565877883445 1086.2662715021015 0 0 0 0 18.221004721794237 -28.188703352501673 0 -28.188703352501673 37.384255440535298 0 0 0 0 -388.35103542573415 -564.40126090138256 0 -564.40126090138256 -257.64872696202474 0 0 0 0 375.38469741072004 129.64606567203009 0 129.64606567203009 -137.90194769128811 0 0 0 0 0.60120644173844795 -2.0383057384093703 0 -2.0383057384093703 7.0243585643348716 0 0 0 0 355.83365816316609 275.92941587857035 0 275.92941587857035 1207.9688559311126 0 0 0 0 239.01380812960542 186.89649119776277 0 186.89649119776277 1180.3480325841315 0 0 0 0 326.32237984901644 372.08741677385433 0 372.08741677385433 898.60712733904529 0 0 0 0 119.52559194821151 141.66465092019916 0 141.66465092019916 1450.8050044607144 0 0 0 0 828.78492873091818 -653.35492947083185 0 -653.35492947083185 -384.07453360603722 0 0 0 0 8.1269160307635602 -10.808376175925559 0 -10.808376175925559 15.845357825845461 0 0 0 0 151.66568740982834 524.13515700187418 0 524.13515700187418 3013.7286929871443 0 0 0 0 147.8184800274812 642.16632421752456 0 642.16632421752456 1610.9768998808504 0 0 0 0 845.51046953214973 -665.43816104002508 0 -665.43816104002508 2125.0955561554401 0 0 0 0 622.25743026825694 -243.60893308616505 0 -243.60893308616505 1386.8887574706605 0 0 0 0 390.08392392773021 -101.40613593329908 0 -101.40613593329908 1300.3363193447358 0 0 0 0 57.863859482174576 -30.52758105351586 0 -30.52758105351586 1319.1142959775443 0 0 0 0 62.734860045764435 16.874770606216771 0 16.874770606216771 1544.32046793667 0 0 0 0 172.25275084206623 -238.75938420324746 0 -238.75938420324746 2118.274600007232 0 0 0 0 281.83171186174059 -314.77290771714729 0 -314.77290771714729 1418.4813947650819 0 0 0 0 117.64946466783749 -117.79889045970231 0 -117.79889045970231 1184.069593869468 0 0 0 0 19.632412347745685 -228.72042303138142 0 -228.72042303138142 1264.1036065072803 0 0 0 0 -21.670903316589602 -127.43342181875096 0 -127.43342181875096 1207.8193115409958 0 0 0 0 -77.3668145216825 -179.34308161619356 0 -179.34308161619356 1168.9063257531602 0 0 0 0 1.0709000188511482 -90.204060798634885 0 -90.204060798634885 1116.4589714161266 0 0 0 0 6.2318048427541726 -43.661453774927395 0 -43.661453774927395 1278.0755227175187 0 0 0 0 -8.9350960401734483 -136.51137307946647 0 -136.51137307946647 1207.3528023571125 0 0 0 0 42.481274800450592 -38.797773861611859 0 -38.797773861611859 1370.4846142352526 0 0 0 0 106.87223480710236 37.051727580977058 0 37.051727580977058 1149.3729019438024 0 0 0 0 107.26126784384087 63.898934681831633 0 63.898934681831633 935.89620708983421 0 0 0 0 86.369590723289207 60.181541676606969 0 60.181541676606969 938.23271860263048 0 0 0 0 235.02666134551146 219.75744743759606 0 219.75744743759606 995.73097486878942 0 0 0 0 88.455932150959143 83.683979310361565 0 83.683979310361565 1202.8282520040975 0 0 0 0 163.69424854393242 -103.83795869253981 0 -103.83795869253981 552.4301570393236 0 0 0 0 124.351478784558 -86.790563211040535 0 -86.790563211040535 892.99216305384743 0 0 0 0 111.1292263604123 65.230904054294115 0 65.230904054294115 667.0705556820426 0 0 0 0 29.184016773426265 -112.35137342290091 0 -112.35137342290091 886.79590564538921 0 0 0 0 31.849481249798146 -88.044063167040804 0 -88.044063167040804 1106.3251762442787 0 0 0 0 -81.35073819418426 -239.90090182446238 0 -239.90090182446238 1074.9056512403022 0 0 0 0 26.830832790321324 -254.26198189976822 0 -254.26198189976822 1054.0533410033186 0 0 0 0 -65.867227068176931 -197.39372389657638 0 -197.39372389657638 1180.3610013014131 0 0 0 0 -142.63330477110662 -192.78169665762562 0 -192.78169665762562 1180.4185688375819 0 0 0 0 -163.77981289330819 -246.76723888875847 0 -246.76723888875847 1295.2973780572047 0 0 0 0 -36.338914230270177 -335.18476201827752 0 -335.18476201827752 1231.6538369567861 0 0 0 0 -28.478457202093978 -390.62628737342811 0 -390.62628737342811 1045.4101772512877 0 0 0 0 37.133823879736212 -292.1326783151286 0 -292.1326783151286 1028.7451810962593 0 0 0 0 192.53072974891802 -546.33329928278363 0 -546.33329928278363 850.82833031464997 0 0 0 0 250.18464981989428 -470.82095016846461 0 -470.82095016846461 881.43008180112793 0 0 0 0 44.680883293270199 -789.37544787340721 0 -789.37544787340721 1401.5694433320195 0 0 0 0 52.039011939321199 -529.37962794382474 0 -529.37962794382474 1260.7458882018291 0 0 0 0 173.94237523151833 -758.6588923138097 0 -758.6588923138097 1095.1899825463242 0 0 0 0 549.78910110528932 -1669.8693810118079 0 -1669.8693810118079 2705.4857000718666 0 0 0 0 2104.6718065825312 -819.65377099968532 0 -819.65377099968532 -93.704313542522868 0 0 0 0 181.84225560323694 -68.549734598594114 0 -68.549734598594114 422.38777863856467 0 0 0 0 623.66944780907181 -401.42750346926414 0 -401.42750346926414 362.35006882292691 0 0 0 0 -74.43067899346795 -87.327872503132994 0 -87.327872503132994 394.39816185735799 0 0 0 0 30.566046373392965 -80.401809527257683 0 -80.401809527257683 -52.994551193595811 0 0 0 0 214.71241394312324 19.835453868846798 0 19.835453868846798 -47.680375033181008 0 0 0 0 120.87706040754483 149.62065420326712 0 149.62065420326712 115.33447326347505 0 0 0 0 -0.33875187414687957 -0.6054820306537918 0 -0.6054820306537918 1.8298386831941507 0 0 0 0 415.25267533470492 -87.380945868147592 0 -87.380945868147592 61.166333906123555 0 0 0 0 377.26936498655687 -240.67385862109631 0 -240.67385862109631 457.97303166771121 0 0 0 0 192.74304068905667 -176.76724625927363 0 -176.76724625927363 723.78945535105777 0 0 0 0 196.44383574171866 -375.11367858453877 0 -375.11367858453877 711.04607774456508 0 0 0 0 -6.1009123563297472 -8.2966455709803206 0 -8.2966455709803206 14.091052628828319 0 0 0 0 -55.343293673337818 26.097401859599053 0 26.097401859599053 3.7459929930886933 0 0 0 0 -72.560371150870196 -104.39697664533469 0 -104.39697664533469 204.76562718495552 0 0 0 0 71.441320832251222 6.9029721599581535 0 6.9029721599581535 -15.370228663923626 0 0 0 0 72.047171113132208 -148.51183687664957 0 -148.51183687664957 -59.506941293666387 0 0 0 0 -183.81680989739561 304.94876100537977 0 304.94876100537977 0.70508576991414884 0 0 0 0 160.47968816162324 -246.37678001062227 0 -246.37678001062227 339.83349774903581 0 0 0 0 -100.15689539250889 153.67142673416583 0 153.67142673416583 295.05881940240329 0 0 0 0 -86.490956985538105 102.76062383844237 0 102.76062383844237 -41.355919378387625 0 0 0 0 -12.252667563072464 57.987780369425309 0 57.987780369425309 85.742105705286122 0 0 0 0 -28.293740954157776 14.570652753872341 0 14.570652753872341 -8.1102036753754039 0 0 0 0 159.63008295198725 -28.288818035314762 0 -28.288818035314762 -199.44003917500595 0 0 0 0 -9.7972019711660323 32.246157100115852 0 32.246157100115852 174.63314852608346 0 0 0 0 -49.02716916647978 277.21701950919851 0 277.21701950919851 558.07414748808878 0 0 0 0 244.58028908159758 1038.0192034333049 0 1038.0192034333049 2057.5566251698947 0 0 0 0 227.9900574888506 -276.440594870317 0 -276.440594870317 114.8221004322213 0 0 0 0 225.74231548174612 -30.258562058071448 0 -30.258562058071448 168.42393173008168 0 0 0 0 -7.9744977472294334 5.0490767987194154 0 5.0490767987194154 -2.5017743501015026 0 0 0 0 98.721751595930982 97.446298961022876 0 97.446298961022876 117.36971109233582 0 0 0 0 29.710215096684848 103.25630801327475 0 103.25630801327475 136.97583860078157 0 0 0 0 30.345978837240182 74.594122775282358 0 74.594122775282358 230.00851328377325 0 0 0 0 40.78009553116317 45.939706857925557 0 45.939706857925557 29.960690317179342 0 0 0 0 40.628261664453021 90.517889550233576 0 90.517889550233576 78.427506903076392 0 0 0 0 -17.637602168416379 76.896469821894243 0 76.896469821894243 123.01551462007137 0 0 0 0 -39.80669881153699 34.996947803974763 0 34.996947803974763 106.44744066518888 0 0 0 0 12.246896816308436 55.802097031801168 0 55.802097031801168 62.54416888396554 0 0 0 0 -16.873714387131713 81.084264520192505 0 81.084264520192505 138.90259741212503 0 0 0 0 -57.665956929502499 90.066913225731696 0 90.066913225731696 155.42789938825581 0 0 0 0 -34.822910167428745 88.669654126310888 0 88.669654126310888 154.31834928045646 0 0 0 0 -27.741759421805 103.94915178330393 0 103.94915178330393 178.38513862181753 0 0 0 0 -50.950801774522915 109.20608847337826 0 109.20608847337826 131.40979727016156 0 0 0 0 -68.558212273934259 68.558374797605666 0 68.558374797605666 109.04322366221459 0 0 0 0 -63.03892683227059 115.03242686355543 0 115.03242686355543 178.96837202330425 0 0 0 0 27.946090450532211 146.13567793879429 0 146.13567793879429 160.04357916991194 0 0 0 0 -88.472072262600705 21.184380475553553 0 21.184380475553553 195.53105059149311 0 0 0 0 -58.498186027110933 101.61616750115536 0 101.61616750115536 212.45280080619523 0 0 0 0 -40.156634719492104 35.969580493452895 0 35.969580493452895 132.21508107352201 0 0 0 0 -56.68307441786601 -43.021912025929851 0 -43.021912025929851 67.600152316535969 0 0 0 0 -100.51027251630512 1.5247005837845791 0 1.5247005837845791 169.28900206047092 0 0 0 0 -57.927569048451915 -45.123214327253663 0 -45.123214327253663 190.60221825576309 0 0 0 0 -180.10317309657148 52.906981517251552 0 52.906981517251552 365.88308388848964 0 0 0 0 -14.514302468053591 2.6234175534810795 0 2.6234175534810795 17.770381950551226 0 0 0 0 29.159345462514921 -138.61820659359478 0 -138.61820659359478 239.92625697670633 0 0 0 0 36.252235646838017 228.44198496913123 0 228.44198496913123 308.48382695074088 0 0 0 0 261.94427681683419 269.41913698041049 0 269.41913698041049 214.38294264886008 0 0 0 0 -216.97979369343386 405.29874657668404 0 405.29874657668404 1155.7555124652245 0 0 0 0 -232.00294261515774 9.0256845618105217 0 9.0256845618105217 345.84284494508393 0 0 0 0 -696.06332450975242 -846.16346796754624 0 -846.16346796754624 991.49773327652088 0 0 0 0 -114.67471042293982 -263.18853757659963 0 -263.18853757659963 446.82792767974433 0 0 0 0 10.701004610016753 573.01388011277777 0 573.01388011277777 1330.0586374568484 0 0 0 0 -46.43264437088601 298.49191824073023 0 298.49191824073023 51.240739279592162 0 0 0 0 146.5898932935429 125.89194312680456 0 125.89194312680456 72.366034833747108 0 0 0 0 42.076907914560252 19.913592173513734 0 19.913592173513734 4.5204146915930323 0 0 0 0 77.778827423633629 60.442362820961307 0 60.442362820961307 14.374092113097504 0 0 0 0 -26.501894261113193 -31.931585856716083 0 -31.931585856716083 69.04753918872575 0 0 0 0 -3.7052859478410856 0.77970488382740477 0 0.77970488382740477 7.0804376255224444 0 0 0 0 -8.51269080552491 -4.5229424224819272 0 -4.5229424224819272 54.168137128549247 0 0 0 0 -140.48131714695592 90.160243408521637 0 90.160243408521637 314.80565721816674 0 0 0 0 -24.897332694212309 -11.036030593716532 0 -11.036030593716532 50.583477379281248 0 0 0 0 -37.905190695944839 -21.122824078242957 0 -21.122824078242957 194.96277622392518 0 0 0 0 -67.290255117550259 41.579779009733102 0 41.579779009733102 270.52513047786397 0 0 0 0 -6.6151912928935417 263.2102263097172 0 263.2102263097172 237.98427594871828 0 0 0 0 313.34941314411481 2.9905520240999977 0 2.9905520240999977 -325.46559797197006 0 0 0 0 -1.9339134725536589 15.034285075125078 0 15.034285075125078 3.7093259172716202 0 0 0 0 -363.3589803001596 -180.03673122146574 0 -180.03673122146574 112.92525212572582 0 0 0 0 -9.0178090935449831 -0.98307034210554178 0 -0.98307034210554178 13.217005005925296 0 0 0 0 -127.98432111400052 -293.69786338136805 0 -293.69786338136805 -818.19083767937263 0 0 0 0 1000.6541019217038 846.57196179570019 0 846.57196179570019 -657.58098022098056 0 0 0 0 -152.55371974924128 -658.0506490133921 0 -658.0506490133921 -878.69001239792851 0 0 0 0 -188.99624381368267 254.34370141597174 0 254.34370141597174 -620.41069663987082 0 0 0 0 -52.371515384000304 -2.9446767835588616 0 -2.9446767835588616 -218.85730677249558 0 0 0 0 -49.633631849303129 160.69395720484908 0 160.69395720484908 -173.67407714115689 0 0 0 0 -332.28141813444199 65.784624301018084 0 65.784624301018084 -96.19549295199613 0 0 0 0 -296.82858399684483 -40.906437190977158 0 -40.906437190977158 66.824080935533857 0 0 0 0 -247.3565076737741 -83.14847135670334 0 -83.14847135670334 -52.702412718426785 0 0 0 0 -285.72430424401864 -197.72587762234798 0 -197.72587762234798 -111.85134911309069 0 0 0 0 12.96907673568785 38.283756378410544 0 38.283756378410544 -109.07710820595639 0 0 0 0 -44.602921022029477 87.417308039081036 0 87.417308039081036 -45.22236960022019 0 0 0 0 -13.389753023075173 131.40259406866426 0 131.40259406866426 -36.907968532250379 0 0 0 0 -17.855266083419338 133.56653444654285 0 133.56653444654285 -27.450836664880626 0 0 0 0 -72.899753508661888 -213.79246386455497 0 -213.79246386455497 -164.52889465257067 0 0 0 0 -0.86893510182744649 67.067725681886714 0 67.067725681886714 -153.55724252736945 0 0 0 0 7.2587816789437056 29.251468037965424 0 29.251468037965424 -19.421463552014757 0 0 0 0 11.147447093919254 42.273446859067008 0 42.273446859067008 -5.1259071228287212 0 0 0 0 6.5033561125528649 59.883191521947992 0 59.883191521947992 -20.058382488870848 0 0 0 0 -26.336824626338057 80.021013882508669 0 80.021013882508669 27.619078498310955 0 0 0 0 -19.777704005002306 52.925672432651481 0 52.925672432651481 59.224410019250172 0 0 0 0 -33.239999883408018 95.85649041564011 0 95.85649041564011 9.2632929813917144 0 0 0 0 -48.365111847955632 106.51376491680912 0 106.51376491680912 134.60376543983512 0 0 0 0 -74.811740593869217 76.617451658862592 0 76.617451658862592 110.03211744985674 0 0 0 0 -31.334009490510653 16.952688938295978 0 16.952688938295978 70.777248044708358 0 0 0 0 -40.766633290294521 -6.5221078619595119 0 -6.5221078619595119 122.50056111223239 0 0 0 0 -27.738750709282613 29.409977681738383 0 29.409977681738383 51.848174987746461 0 0 0 0 -12.865788668289497 30.481933225072225 0 30.481933225072225 37.974930584915001 0 0 0 0 -8.6911643443111686 3.2819835118725482 0 3.2819835118725482 -1.3761957360654193 0 0 0 0 22.906725131368148 148.94968947164307 0 148.94968947164307 180.10218743963196 0 0 0 0 -2.3974034381961538 0.078711630808636635 0 0.078711630808636635 2.5578149574834264 0 0 0 0 12.715438785226979 23.204740435437088 0 23.204740435437088 26.795001185359069 0 0 0 0 -3.0099058993328072 50.846714131308545 0 50.846714131308545 13.75692491853988 0 0 0 0 3.4624666356839953 40.597456079594849 0 40.597456079594849 6.742062464778428 0 0 0 0 7.665513940825349 53.825150725178219 0 53.825150725178219 11.385261504197842 0 0 0 0 12.056004544983807 52.427186412693118 0 52.427186412693118 4.7420147333759815 0 0 0 0 6.79033052932391 29.807441475137239 0 29.807441475137239 24.023984144039787 0 0 0 0 15.099144640954478 45.82482907712631 0 45.82482907712631 26.366522622807679 0 0 0 0 21.500500862489389 47.784345940192907 0 47.784345940192907 24.401934461090605 0 0 0 0 19.708529004714819 40.797517942347213 0 40.797517942347213 6.6800154449156253 0 0 0 0 20.239816991024782 60.414907225387196 0 60.414907225387196 20.231636640559373 0 0 0 0 40.184360882384226 37.863240521221314 0 37.863240521221314 -25.101386507340067 0 0 0 0 9.2834491867459974 7.5783713251022959 0 7.5783713251022959 -13.659972226434547 0 0 0 0 -3.0581065703252239 2.78101045421618 0 2.78101045421618 -1.7667125751113719 0 0 0 0 66.955830338258238 55.676128996083662 0 55.676128996083662 97.596480082139394 0 0 0 0 71.980812714326021 123.62000770256145 0 123.62000770256145 96.554339308790986 0 0 0 0 38.715411392666283 143.16647964841104 0 143.16647964841104 126.73304608102262 0 0 0 0 40.493751714398968 119.2677277700277 0 119.2677277700277 120.07591818647325 0 0 0 0 35.240583489314304 116.90342493944627 0 116.90342493944627 160.12434308847787 0 0 0 0 26.827338319541013 144.66917248981736 0 144.66917248981736 150.19907105850507 0 0 0 0 77.729905378815602 111.03994975570095 0 111.03994975570095 104.27072669084282 0 0 0 0 111.52593135842881 106.82694188989558 0 106.82694188989558 118.14158295947891 0 0 0 0 85.520055013876117 122.2734719863447 0 122.2734719863447 170.9329420772242 0 0 0 0 89.295338078970417 92.471221307566452 0 92.471221307566452 129.69576789162602 0 0 0 0 88.21036915177865 93.461241339618823 0 93.461241339618823 156.90521101914055 0 0 0 0 65.261389603652788 99.068193975789654 0 99.068193975789654 136.54358022600718 0 0 0 0 17.291522261522914 81.309399090966508 0 81.309399090966508 150.06676704472557 0 0 0 0 12.560757520740026 103.00641263142597 0 103.00641263142597 151.64401169496341 0 0 0 0 45.662769377275254 105.97444120029468 0 105.97444120029468 148.85546032158527 0 0 0 0 45.863597101786581 98.674485921059386 0 98.674485921059386 150.13906437491278 0 0 0 0 53.521050192175608 94.587024727571702 0 94.587024727571702 150.93641265052975 0 0 0 0 48.825481256280909 107.8884456747378 0 107.8884456747378 164.38997838743126 0 0 0 0 65.100818090850225 116.82025394755237 0 116.82025394755237 151.58177995329697 0 0 0 0 93.402888370605069 110.1108178332056 0 110.1108178332056 150.96199668175632 0 0 0 0 63.674697726208251 98.613656778797122 0 98.613656778797122 150.88534492310919 0 0 0 0 81.531528201738183 115.22239343331648 0 115.22239343331648 175.1048087826448 0 0 0 0 64.167045690821396 97.441437470406527 0 97.441437470406527 171.49434297363405 0 0 0 0 48.551916508151407 89.594956326313422 0 89.594956326313422 198.14093426462841 0 0 0 0 77.316014343781717 107.80072483177446 0 107.80072483177446 200.46742276275296 0 0 0 0 103.82302258195887 127.01884135621697 0 127.01884135621697 199.21335506564446 0 0 0 0 115.28662615957455 115.21529374982242 0 115.21529374982242 167.63123200777409 0 0 0 0 153.14496827576477 131.02407479427416 0 131.02407479427416 190.51002855592037 0 0 0 0 107.0760480871304 119.68936443852795 0 119.68936443852795 226.54300457474505 0 0 0 0 152.4454310212468 131.5007722184713 0 131.5007722184713 224.02270856995256 0 0 0 0 112.02680892312128 123.45781021037874 0 123.45781021037874 199.01924805642506 0 0 0 0 159.66318586098168 98.642639010537209 0 98.642639010537209 275.60064304024093 0 0 0 0 100.24211847305833 117.20701025409682 0 117.20701025409682 270.93774137837511 0 0 0 0 103.56340945990905 119.57349262728161 0 119.57349262728161 230.0455825401034 0 0 0 0 70.679022935766625 100.57748286981939 0 100.57748286981939 234.44137846425724 0 0 0 0 70.845832221106321 113.88140808842309 0 113.88140808842309 196.67413800767554 0 0 0 0 43.514686898182845 76.851926708314068 0 76.851926708314068 217.02367826706063 0 0 0 0 46.155783946234806 120.33932691827903 0 120.33932691827903 228.15777416540902 0 0 0 0 58.522207559478375 87.648852970953101 0 87.648852970953101 283.00658505074216 0 0 0 0 23.792916843321564 82.223800280059578 0 82.223800280059578 249.76210268178193 0 0 0 0 35.780726470294212 107.90563691940983 0 107.90563691940983 183.22481005920508 0 0 0 0 29.320076933348901 27.600473607876211 0 27.600473607876211 66.376181116467706 0 0 0 0 33.2606731221058 60.077712884368793 0 60.077712884368793 150.01054527614588 0 0 0 0 55.837172102390468 97.413197852001304 0 97.413197852001304 167.58830192709593 0 0 0 0 -101.59216153361194 3.6112496666137304 0 3.6112496666137304 144.35954621286328 0 0 0 0 36.890982799452104 62.539821744117489 0 62.539821744117489 128.24589929613012 0 0 0 0 5.7586045636235212 67.984762601814509 0 67.984762601814509 159.71495992408063 0 0 0 0 -23.355932094688264 17.118863249534687 0 17.118863249534687 114.30015124871807 0 0 0 0 -23.440466110769194 94.194835849838455 0 94.194835849838455 175.56157897228513 0 0 0 0 14.517171887862787 121.33785440907741 0 121.33785440907741 193.74341576097595 0 0 0 0 20.616751549081528 61.764508180094253 0 61.764508180094253 150.30510748746747 0 0 0 0 40.035415225914221 67.954177757745242 0 67.954177757745242 74.746967342700827 0 0 0 0 18.931945836781779 56.932819243930311 0 56.932819243930311 157.1209078704984 0 0 0 0 -21.087423281976953 83.517315165641378 0 83.517315165641378 141.2510015145084 0 0 0 0 34.32249892298023 121.78273876403546 0 121.78273876403546 176.28104533907299 0 0 0 0 -8.1986028915089264 118.09605217982056 0 118.09605217982056 261.3446555165973 0 0 0 0 91.065661376314893 119.6849900029321 0 119.6849900029321 52.062847035971856 0 0 0 0 1.5709172902477704 -1.4051753840004721 0 -1.4051753840004721 2.2684029790894087 0 0 0 0 12.768875172034313 45.170011697865675 0 45.170011697865675 -14.595982895101884 0 0 0 0 -16.514288470256538 5.4666296860681038 0 5.4666296860681038 2.4566941655517587 0 0 0 0 18.147742339206161 -0.053094069696271617 0 -0.053094069696271617 23.045291169216057 0 0 0 0 -17.960465140120505 35.302058311455482 0 35.302058311455482 71.244765803622215 0 0 0 0 -4.9934836761585757 -10.235527592522885 0 -10.235527592522885 37.569231930884598 0 0 0 0 222.39181470547101 235.73789235173058 0 235.73789235173058 211.56801226384471 0 0 0 0 250.74854314308845 190.62498416205153 0 190.62498416205153 260.60282404489635 0 0 0 0 241.79215056584968 194.12985740376553 0 194.12985740376553 272.90295809485087 0 0 0 0 246.10414984907982 91.472788575348204 0 91.472788575348204 373.61225579254824 0 0 0 0 257.93498898350447 40.982371654311919 0 40.982371654311919 305.3452540164526 0 0 0 0 267.56034411819701 110.12501054979782 0 110.12501054979782 180.43013096115646 0 0 0 0 100.00733193621545 199.43165141487361 0 199.43165141487361 179.72094487956747 0 0 0 0 -0.60899709581013362 -0.21134908687252096 0 -0.21134908687252096 1.064648300080421 0 0 0 0 39.020152277354782 25.290339226326182 0 25.290339226326182 99.09577823487507 0 0 0 0 126.64769045315279 170.65022454788095 0 170.65022454788095 142.47662435382529 0 0 0 0 35.095502034193487 78.422258112834697 0 78.422258112834697 155.00876942416471 0 0 0 0 45.810342883911289 133.46902452106997 0 133.46902452106997 154.24726944050144 0 0 0 0 143.84019203857406 159.325563751348 0 159.325563751348 152.88142798083823 0 0 0 0 165.2065580325725 151.78367398210617 0 151.78367398210617 135.814700757634 0 0 0 0 157.78992627998616 199.50544995403075 0 199.50544995403075 218.90211057708075 0 0 0 0 251.80206344005774 240.16425977722588 0 240.16425977722588 199.93649093672684 0 0 0 0 214.19181778134225 190.08415654687838 0 190.08415654687838 190.41544200289582 0 0 0 0 182.14960318665612 213.78893404578764 0 213.78893404578764 212.02551462065912 0 0 0 0 147.43482344808945 150.80705393450125 0 150.80705393450125 173.201088469365 0 0 0 0 96.399560080491938 110.95889869694247 0 110.95889869694247 173.7527265554827 0 0 0 0 140.4719826888504 151.77766878365514 0 151.77766878365514 193.92328757289351 0 0 0 0 164.85322097196331 175.7311332864233 0 175.7311332864233 209.45950549850704 0 0 0 0 142.6303988791251 146.08656023735233 0 146.08656023735233 221.71293812371323 0 0 0 0 168.96959990447795 135.49568442988925 0 135.49568442988925 182.8838366676182 0 0 0 0 203.00934536229488 144.37101018294192 0 144.37101018294192 215.92018601065655 0 0 0 0 238.8317469781432 175.67176161360715 0 175.67176161360715 202.90832589192939 0 0 0 0 192.69487673511685 171.00504315460887 0 171.00504315460887 239.23875634576211 0 0 0 0 251.06579760839577 149.96944740767822 0 149.96944740767822 244.21056050137349 0 0 0 0 176.20239499618583 147.94958684283051 0 147.94958684283051 264.04562557452135 0 0 0 0 149.88703660504007 126.46068745500496 0 126.46068745500496 260.89640519973744 0 0 0 0 240.06168112047999 242.20697597031324 0 242.20697597031324 232.04244293149327 0 0 0 0 266.39755737801079 226.79160388890375 0 226.79160388890375 209.94082049330189 0 0 0 0 217.55070545703984 201.9367335353565 0 201.9367335353565 226.93888099767878 0 0 0 0 296.00076316647664 220.06111385891276 0 220.06111385891276 228.85335174763071 0 0 0 0 274.38643472948979 219.37855354820576 0 219.37855354820576 259.5572275881874 0 0 0 0 316.01440928807142 252.5040512266329 0 252.5040512266329 232.75167293272483 0 0 0 0 232.8642781118366 264.9422085617702 0 264.9422085617702 252.77093083778101 0 0 0 0 267.67016682294093 268.28896638913477 0 268.28896638913477 230.60093857130846 0 0 0 0 268.63320800102315 292.0668995214296 0 292.0668995214296 273.07522976019533 0 0 0 0 237.25733675106534 242.57405496113688 0 242.57405496113688 223.14659802376605 0 0 0 0 247.30549437788713 253.81557561552876 0 253.81557561552876 241.57206388887425 0 0 0 0 241.11810516475305 254.24497549980106 0 254.24497549980106 249.65096303775766 0 0 0 0 200.46929735183483 249.60553484806235 0 249.60553484806235 256.34163313382896 0 0 0 0 213.17239173587205 257.4664418727134 0 257.4664418727134 259.92002437022143 0 0 0 0 219.78937933790633 246.92568356763991 0 246.92568356763991 241.25397588483423 0 0 0 0 232.63913631207154 255.40576432926116 0 255.40576432926116 245.36642677362801 0 0 0 0 145.35727832673535 198.2344521253309 0 198.2344521253309 261.07128954485421 0 0 0 0 199.51731689204667 267.97780929250087 0 267.97780929250087 347.97885532502846 0 0 0 0 1.5811337804698269 22.551686628656057 0 22.551686628656057 62.176504930181295 0 0 0 0 15.062089239863543 -3.9644132334852245 0 -3.9644132334852245 10.71330929875136 0 0 0 0 128.52266349357569 117.23107980414591 0 117.23107980414591 230.72564519001799 0 0 0 0 62.063216746216824 119.43903556977477 0 119.43903556977477 332.86713328705264 0 0 0 0 307.98700787488019 438.82523149779263 0 438.82523149779263 689.2315247492138 0 0 0 0 5.2100200172891427 -2.0877380551034559 0 -2.0877380551034559 0.25103233262530278 0 0 0 0 117.68584862261218 243.85401433829747 0 243.85401433829747 533.14941494609229 0 0 0 0 220.74283876675099 256.23447524734308 0 256.23447524734308 291.10195314951926 0 0 0 0 359.32759485765405 353.41607991549256 0 353.41607991549256 358.37184449261508 0 0 0 0 375.70350052159165 251.775116354994 0 251.775116354994 269.30390928336203 0 0 0 0 352.60224578808021 225.67440093016725 0 225.67440093016725 325.08596640427277 0 0 0 0 214.44587578758728 109.25416751098891 0 109.25416751098891 301.33553844619769 0 0 0 0 343.32377173615191 120.889796682921 0 120.889796682921 292.3572686284142 0 0 0 0 247.75010360081251 173.7941766225299 0 173.7941766225299 265.6471292084583 0 0 0 0 250.78548363443679 131.24528050559434 0 131.24528050559434 353.19430937059451 0 0 0 0 250.19130729067729 141.31447521038666 0 141.31447521038666 309.76715415301624 0 0 0 0 255.97384932043678 40.222885873827408 0 40.222885873827408 518.46357709133872 0 0 0 0 533.2549437759078 99.275611295207227 0 99.275611295207227 353.83526400192807 0 0 0 0 586.87335328926679 353.28054049335515 0 353.28054049335515 390.03415739453521 0 0 0 0 704.18461334525523 284.56454974094504 0 284.56454974094504 214.50057115173513 0 0 0 0 447.18413217098077 -88.45501233979553 0 -88.45501233979553 41.693753035702684 0 0 0 0 216.24435399005779 250.3333369267732 0 250.3333369267732 567.84586239602004 0 0 0 0 172.05595091640316 147.09597219482794 0 147.09597219482794 381.73278785943876 0 0 0 0 215.53156000000581 234.69572216768938 0 234.69572216768938 383.46133150042806 0 0 0 0 247.06001868674775 122.11384312780137 0 122.11384312780137 190.1517340734863 0 0 0 0 385.83477469620811 159.53913675986405 0 159.53913675986405 202.11224828202103 0 0 0 0 218.75428875180751 110.11301254660248 0 110.11301254660248 195.51679402615741 0 0 0 0 314.03285886697176 71.764535348647769 0 71.764535348647769 141.56529235486369 0 0 0 0 414.90929556873061 -45.984728517443273 0 -45.984728517443273 55.676705038466025 0 0 0 0 348.97168399159045 44.676165916362152 0 44.676165916362152 160.72004929249124 0 0 0 0 270.71004161550286 27.397372039266884 0 27.397372039266884 157.59500780864437 0 0 0 0 274.4895923189041 12.780570938482924 0 12.780570938482924 170.0263291700594 0 0 0 0 252.18149346107077 -73.478842869570144 0 -73.478842869570144 155.65080697479425 0 0 0 0 252.24387183892452 -126.56721236905196 0 -126.56721236905196 273.16327691374318 0 0 0 0 301.08285860716842 -115.26368813039517 0 -115.26368813039517 112.71399788055169 0 0 0 0 287.06915881383111 -151.35171395920042 0 -151.35171395920042 134.37283928208308 0 0 0 0 130.08759754979928 -115.02384128361155 0 -115.02384128361155 241.08701495755668 0 0 0 0 280.27853974166374 -128.4515502571594 0 -128.4515502571594 80.399711772850424 0 0 0 0 278.48833542203829 -79.581870620857543 0 -79.581870620857543 42.656157759975031 0 0 0 0 278.52082231380382 -96.477133815571506 0 -96.477133815571506 103.854143102526 0 0 0 0 260.39054246891146 -107.01110536883971 0 -107.01110536883971 66.200174926309046 0 0 0 0 159.53081077890147 -75.682098372843029 0 -75.682098372843029 72.388751361802861 0 0 0 0 143.1679732456405 -1.3671784233192739 0 -1.3671784233192739 25.642541894454553 0 0 0 0 3.9173070531433041 43.992165250336257 0 43.992165250336257 3.4522261163729127 0 0 0 0 -235.45147734479724 140.74216983280166 0 140.74216983280166 65.448695403465535 0 0 0 0 -3.7324212068316331 -7.3633720039525334 0 -7.3633720039525334 7.0316349003232794 0 0 0 0 138.64854531032961 -14.721381163230035 0 -14.721381163230035 -12.265158307387537 0 0 0 0 -135.57728826250604 -62.835597660063286 0 -62.835597660063286 38.72060008594417 0 0 0 0 10.375080461277321 -31.386912603871679 0 -31.386912603871679 5.69745944171882 0 0 0 0 161.62156545451035 -30.896922604464635 0 -30.896922604464635 -24.702941300947714 0 0 0 0 -136.74376188592851 99.348203873363673 0 99.348203873363673 -4.9204498201725073 0 0 0 0 -2.5915457120531631 4.9063466221511867 0 4.9063466221511867 9.8092948488582685 0 0 0 0 -2.2289539107848331 1.9128752511157074 0 1.9128752511157074 11.890831080716659 0 0 0 0 -40.30072495150489 18.005647640105963 0 18.005647640105963 182.9463676002888 0 0 0 0 160.32412578761341 -44.784106499515474 0 -44.784106499515474 51.332750744133591 0 0 0 0 -13.215456218086274 -17.517857786209788 0 -17.517857786209788 193.70267457986483 0 0 0 0 -28.333653976729693 24.257268687724718 0 24.257268687724718 181.01883183594327 0 0 0 0 -5.4655970804087701 6.1452606657476281 0 6.1452606657476281 183.50319977775871 0 0 0 0 -30.061953627307958 12.274529505837563 0 12.274529505837563 184.99276717169414 0 0 0 0 -40.521603658576169 31.5525268865415 0 31.5525268865415 180.34213884083874 0 0 0 0 -41.736252950357084 22.397580061218832 0 22.397580061218832 182.29415028870062 0 0 0 0 -20.050135635257902 71.852036183767041 0 71.852036183767041 120.45549754992521 0 0 0 0 -31.103749599915318 24.741396340064966 0 24.741396340064966 184.19069186341221 0 0 0 0 74.563967683749979 47.712323213433592 0 47.712323213433592 66.398092433453712 0 0 0 0 135.50402574848385 -27.89831757035563 0 -27.89831757035563 3.0152764932026912 0 0 0 0 2.1200173476808075 -11.156856380909129 0 -11.156856380909129 35.058544621452988 0 0 0 0 57.952403734168911 -41.530023635679754 0 -41.530023635679754 13.817125432125067 0 0 0 0 -27.696469802756724 -22.434958537388866 0 -22.434958537388866 68.201733986805266 0 0 0 0 46.282976397222228 20.553651465203075 0 20.553651465203075 46.633704855581527 0 0 0 0 -8.0230921001448898 -6.3187637042855638 0 -6.3187637042855638 31.661451716319423 0 0 0 0 -26.137167245650289 5.0167369916437679 0 5.0167369916437679 51.395273929254472 0 0 0 0 158.61017679545171 -62.416406980932152 0 -62.416406980932152 147.75951686084818 0 0 0 0 -21.36236113023449 32.006428134822841 0 32.006428134822841 116.83829582259568 0 0 0 0 -19.439612574318971 25.993607058616362 0 25.993607058616362 135.21653005920234 0 0 0 0 242.46532181537395 16.249023804060016 0 16.249023804060016 65.811863651246313 0 0 0 0 103.75364355339752 -70.633389207767323 0 -70.633389207767323 128.72739927697717 0 0 0 0 -0.10862830025507719 57.23173496668096 0 57.23173496668096 16.601615691080951 0 0 0 0 -24.867254009351086 -55.489846064756534 0 -55.489846064756534 18.088420985041012 0 0 0 0 -84.216025099146464 -25.115208178456669 0 -25.115208178456669 105.76769607498431 0 0 0 0 5.9903738293833158 164.81931092663581 0 164.81931092663581 309.01258282149547 0 0 0 0 33.283807449350206 156.48585411930509 0 156.48585411930509 311.11539173059828 0 0 0 0 36.777227011451032 161.86719670807815 0 161.86719670807815 280.73806777523669 0 0 0 0 34.583926718494695 131.40934148966426 0 131.40934148966426 292.24039957784134 0 0 0 0 51.802756776483875 128.68912625763141 0 128.68912625763141 260.82450055698951 0 0 0 0 28.672979838360334 123.05159825397072 0 123.05159825397072 301.91608234812566 0 0 0 0 15.386336018766087 89.962454778213669 0 89.962454778213669 271.66288062239448 0 0 0 0 24.86625660325808 128.6576591457067 0 128.6576591457067 269.22299605818114 0 0 0 0 9.1821946928339457 117.08173770936855 0 117.08173770936855 339.3506274901456 0 0 0 0 10.09562533744247 150.93466987474812 0 150.93466987474812 335.74605374348977 0 0 0 0 9.0678851286138524 154.19354108199286 0 154.19354108199286 345.70027906737505 0 0 0 0 11.669471296505435 142.54773271848489 0 142.54773271848489 380.15998830376475 0 0 0 0 57.7007423971138 146.09890853015276 0 146.09890853015276 370.3925072308748 0 0 0 0 49.331940874755674 116.93045025223705 0 116.93045025223705 344.415814153371 0 0 0 0 21.932589630053826 134.28404695565439 0 134.28404695565439 335.90875721458497 0 0 0 0 36.478198184742723 95.877910851010711 0 95.877910851010711 319.19741002997671 0 0 0 0 55.056919150983958 132.01111550581209 0 132.01111550581209 289.37149565722592 0 0 0 0 94.9704920184804 87.902961660500068 0 87.902961660500068 338.11483962054126 0 0 0 0 111.14239668308392 131.81091027084815 0 131.81091027084815 330.04781735601409 0 0 0 0 173.10509340787394 79.622037010484519 0 79.622037010484519 370.33744581891375 0 0 0 0 160.32739709520865 161.84206430869608 0 161.84206430869608 407.7648116055268 0 0 0 0 59.673159508452954 160.64599156322129 0 160.64599156322129 422.32101969195401 0 0 0 0 123.05062034225466 107.95054964681208 0 107.95054964681208 379.02732697444117 0 0 0 0 157.63574616231335 183.68172114676804 0 183.68172114676804 360.9672738827594 0 0 0 0 85.946589893591408 184.70587283919349 0 184.70587283919349 370.9284244732753 0 0 0 0 171.45369517295057 166.91603701421809 0 166.91603701421809 279.36635210604254 0 0 0 0 124.9244413391325 180.19417683703023 0 180.19417683703023 282.90937437189314 0 0 0 0 125.47910591862819 163.25159252121284 0 163.25159252121284 225.43861040290358 0 0 0 0 52.858669677466423 179.95807427388718 0 179.95807427388718 304.98873524956252 0 0 0 0 47.475995623423842 156.20579327188989 0 156.20579327188989 238.48382568911074 0 0 0 0 56.492387118740908 145.53651993608139 0 145.53651993608139 351.49391483706586 0 0 0 0 17.732079080380572 172.0407567258776 0 172.0407567258776 365.83985250864225 0 0 0 0 80.285406660792432 163.86622779847585 0 163.86622779847585 300.95710983492108 0 0 0 0 -26.616787470387862 177.72615219657268 0 177.72615219657268 341.65084989143998 0 0 0 0 10.60191693384786 151.81165961425859 0 151.81165961425859 312.6204124812557 0 0 0 0 -24.052251447714298 130.37243250214851 0 130.37243250214851 261.33228595302899 0 0 0 0 -22.7480359989313 154.480415158705 0 154.480415158705 294.87127547148884 0 0 0 0 10.515479789410165 172.81223011571637 0 172.81223011571637 308.62374188892318 0 0 0 0 -104.7387977298913 168.78825269549134 0 168.78825269549134 330.90594542492545 0 0 0 0 -46.34678408275613 246.28253537593537 0 246.28253537593537 387.86373136969348 0 0 0 0 -3.2280706903657119 201.81090499631046 0 201.81090499631046 319.48090150880853 0 0 0 0 -7.1379746006732603 194.97910001841046 0 194.97910001841046 336.96650082281963 0 0 0 0 27.933523493746179 181.73732307417686 0 181.73732307417686 316.48767690694694 0 0 0 0 -383.75872975143511 -314.98713185657039 0 -314.98713185657039 -258.23863678926864 0 0 0 0 -72.432090939706882 -0.69054815090316879 0 -0.69054815090316879 73.880569165441557 0 0 0 0 -76.875930299627726 51.176114938577484 0 51.176114938577484 173.48656495712748 0 0 0 0 -117.49437924464291 40.419969776161452 0 40.419969776161452 175.77959447662579 0 0 0 0 -93.634592897947186 91.977343349508374 0 91.977343349508374 260.31754620027823 0 0 0 0 39.402748678383659 119.24684875156868 0 119.24684875156868 173.29819943052644 0 0 0 0 28.422456233292905 83.221679463295004 0 83.221679463295004 136.08368827031336 0 0 0 0 41.19632669765997 154.66544540190989 0 154.66544540190989 201.64219115879496 0 0 0 0 213.46719577562726 210.92945179316121 0 210.92945179316121 62.561546750904199 0 0 0 0 165.82333986659251 55.253444531672358 0 55.253444531672358 -145.56189506562259 0 0 0 0 92.95470389626098 154.02447414588096 0 154.02447414588096 41.736516314035725 0 0 0 0 41.572100181254427 160.01677704520444 0 160.01677704520444 239.19377985671485 0 0 0 0 88.194145089166341 168.73718684699543 0 168.73718684699543 156.07681994153063 0 0 0 0 94.652773959240221 177.30035679899265 0 177.30035679899265 157.31906985398382 0 0 0 0 70.507293994960492 168.99639823206235 0 168.99639823206235 226.79488588395566 0 0 0 0 158.9700779201321 136.59963122144836 0 136.59963122144836 165.43704640752003 0 0 0 0 26.252713028356311 126.48775204248795 0 126.48775204248795 165.698237906754 0 0 0 0 -47.913580610268582 154.97377759118899 0 154.97377759118899 128.74002353235142 0 0 0 0 83.763514967036826 198.93940578336424 0 198.93940578336424 118.66831359165735 0 0 0 0 -51.587387588584392 9.1921610636092623 0 9.1921610636092623 23.212907395671209 0 0 0 0 -46.356100637206964 55.108827270614711 0 55.108827270614711 -199.43651146351476 0 0 0 0 -31.10986294785198 11.223111174038422 0 11.223111174038422 -100.96744779854362 0 0 0 0 92.358461056450324 149.80849963227047 0 149.80849963227047 -194.03738931666976 0 0 0 0 3.6176664234912934 -0.7249772622459183 0 -0.7249772622459183 -1.4057024196929113 0 0 0 0 43.406994033672163 227.35677047792797 0 227.35677047792797 145.23685242100873 0 0 0 0 80.984621761364906 333.07292685167522 0 333.07292685167522 62.269078636621998 0 0 0 0 141.94006070387832 284.13886868447617 0 284.13886868447617 92.21433285076273 0 0 0 0 71.76354796621672 49.03028379929674 0 49.03028379929674 -9.2101512682575049 0 0 0 0 56.938418253565033 94.021028634410868 0 94.021028634410868 -92.651781007574755 0 0 0 0 2.3748918279950573 -1.5989743763680835 0 -1.5989743763680835 -0.57716629041422607 0 0 0 0 153.52087526112655 58.154536273772919 0 58.154536273772919 -5.1193385161750484 0 0 0 0 205.22288848315475 304.70660211456379 0 304.70660211456379 284.15012295519227 0 0 0 0 -88.145039842340339 84.097803469943756 0 84.097803469943756 758.87197807152006 0 0 0 0 -123.09645355105056 291.7484514874568 0 291.7484514874568 -252.6162461873264 0 0 0 0 54.071126625631223 218.19048777545049 0 218.19048777545049 -275.85537643389216 0 0 0 0 164.29987234721375 -98.402224695902987 0 -98.402224695902987 54.714826380863087 0 0 0 0 163.87442426009466 -100.36724490031065 0 -100.36724490031065 51.423992696021742 0 0 0 0 128.44426018172817 -75.156374541864352 0 -75.156374541864352 52.847342342141246 0 0 0 0 186.9172410833371 -99.634579720368492 0 -99.634579720368492 50.974530736779343 0 0 0 0 222.10855889453455 -55.77862915350488 0 -55.77862915350488 64.195810054450703 0 0 0 0 164.5315959180673 -96.854930239122041 0 -96.854930239122041 56.738681855227696 0 0 0 0 140.48486043702906 -48.712328040512148 0 -48.712328040512148 33.655260959149928 0 0 0 0 80.470193825269234 -25.529762815453068 0 -25.529762815453068 114.30777685122666 0 0 0 0 131.1247442064996 -88.145134862179475 0 -88.145134862179475 77.945820024477598 0 0 0 0 -1.101031468527564 7.3414005031095932 0 7.3414005031095932 54.349456559287418 0 0 0 0 -22.243417177076481 6.7476751133504962 0 6.7476751133504962 45.765005349010835 0 0 0 0 212.92205129171361 -25.883466581710309 0 -25.883466581710309 89.925694942023256 0 0 0 0 -6.817730407604472 10.661292622189261 0 10.661292622189261 19.833682669206063 0 0 0 0 -44.466237502780132 -67.256964761312702 0 -67.256964761312702 33.132002388563706 0 0 0 0 -72.938125651273367 6.1128988765451595 0 6.1128988765451595 38.150980198014622 0 0 0 0 -7.4185897696936065 8.455369488806868 0 8.455369488806868 50.685050087976038 0 0 0 0 -18.987828759268123 42.793470005628429 0 42.793470005628429 70.008670519210852 0 0 0 0 175.26838429875443 -30.914355671087833 0 -30.914355671087833 45.906556631747662 0 0 0 0 15.817947287123388 -21.945415461734228 0 -21.945415461734228 54.308674915300799 0 0 0 0 1.4669524958054776 8.7286369443657019 0 8.7286369443657019 0.81505647453315078 0 0 0 0 5.1249520451425434 9.8047595349662622 0 9.8047595349662622 52.942153273998557 0 0 0 0 112.74069063683464 -80.13931406186839 0 -80.13931406186839 69.291732154539204 0 0 0 0 -26.744108031629366 52.779592530054288 0 52.779592530054288 130.14637117808161 0 0 0 0 98.711890448479608 -30.343542329392221 0 -30.343542329392221 1.6638481690133631 0 0 0 0 44.297746256383874 -36.987805286762921 0 -36.987805286762921 50.595108923618682 0 0 0 0 37.043586349896941 29.801744007349043 0 29.801744007349043 1.1169994168449193 0 0 0 0 34.097071379977933 32.58311765088547 0 32.58311765088547 34.868934396170516 0 0 0 0 69.780165981730534 -12.626729588904709 0 -12.626729588904709 37.954113402091025 0 0 0 0 40.742318328409965 -3.1268648891691555 0 -3.1268648891691555 123.7286819244764 0 0 0 0 2.3210779434678486 -22.788282714748952 0 -22.788282714748952 24.869354868729793 0 0 0 0 44.224458246632707 -31.288489114516068 0 -31.288489114516068 -34.959561179130105 0 0 0 0 -27.773693232884398 42.847108907142683 0 42.847108907142683 164.74436845864693 0 0 0 0 24.979470962814958 14.662732038901595 0 14.662732038901595 106.9303340266415 0 0 0 0 -6.7655366083636181 42.148048574679706 0 42.148048574679706 134.05957406728703 0 0 0 0 0.69396684849652956 16.123483157819464 0 16.123483157819464 169.23421531265922 0 0 0 0 -21.884046049610333 26.8231027437796 0 26.8231027437796 174.09401198713749 0 0 0 0 41.82034577024433 -56.302375410787135 0 -56.302375410787135 221.02791601195349 0 0 0 0 -5.0247733007054194 3.7679469726244861 0 3.7679469726244861 177.79278383255951 0 0 0 0 27.546535369416233 -27.699470120911428 0 -27.699470120911428 199.25885885578464 0 0 0 0 5.5688578740337107 11.384153101764241 0 11.384153101764241 151.71304434681952 0 0 0 0 132.14846152472819 -96.531248207122189 0 -96.531248207122189 135.98472750873043 0 0 0 0 98.369242753875369 -113.04854332435752 0 -113.04854332435752 249.09198108183045 0 0 0 0 42.602077387720783 -37.526363500441221 0 -37.526363500441221 173.37677188180533 0 0 0 0 94.279796044298564 -89.277752722937294 0 -89.277752722937294 197.30721352298497 0 0 0 0 55.808461587061174 -31.870228049079742 0 -31.870228049079742 124.01888924888408 0 0 0 0 25.593585000424213 -15.087112044626451 0 -15.087112044626451 164.59574089889065 0 0 0 0 103.01253138919492 -71.969616892416525 0 -71.969616892416525 136.1140716347727 0 0 0 0 129.91483036161935 -73.977647503244953 0 -73.977647503244953 78.53618406996975 0 0 0 0 167.61816860473482 -124.75801781521295 0 -124.75801781521295 138.341387760629 0 0 0 0 154.27664865675433 -109.83665196217044 0 -109.83665196217044 87.512011316186545 0 0 0 0 185.73237640554339 -103.44597696736946 0 -103.44597696736946 77.350722400766244 0 0 0 0 237.73307211986321 -75.952244637526746 0 -75.952244637526746 86.925879392056231 0 0 0 0 238.04491816346126 -91.101426866585825 0 -91.101426866585825 116.55282302154228 0 0 0 0 334.22198907847451 -59.354733983800543 0 -59.354733983800543 125.62590788840316 0 0 0 0 313.06246461988758 -47.684844563998922 0 -47.684844563998922 119.57390806592412 0 0 0 0 246.26847074427769 -180.44851398740502 0 -180.44851398740502 196.00954456699401 0 0 0 0 277.83114951156324 24.593741165198935 0 24.593741165198935 231.69954224003595 0 0 0 0 215.82496785522341 -42.606158192847943 0 -42.606158192847943 174.61513722216841 0 0 0 0 247.02389741017717 4.3246645153321879 0 4.3246645153321879 142.78237239769442 0 0 0 0 154.24687477326552 23.697937128810736 0 23.697937128810736 180.01366718918689 0 0 0 0 161.15240597901766 -14.99714211994069 0 -14.99714211994069 93.176116889368132 0 0 0 0 163.99554078568531 3.3906838716557104 0 3.3906838716557104 143.02515623954878 0 0 0 0 201.28137572523906 -62.68398832407911 0 -62.68398832407911 99.838407554043442 0 0 0 0 225.40578029796143 -23.134061157689757 0 -23.134061157689757 89.216498490859522 0 0 0 0 283.62736995289356 -16.797778975325855 0 -16.797778975325855 124.22632152460938 0 0 0 0 119.9118734024496 114.87500694868504 0 114.87500694868504 190.54871986428628 0 0 0 0 222.50127394664605 67.843076669798393 0 67.843076669798393 148.64648826539269 0 0 0 0 77.313888900470374 82.753841374236799 0 82.753841374236799 147.15015076983536 0 0 0 0 -29.470717476408936 79.737203003851391 0 79.737203003851391 117.94155696805865 0 0 0 0 72.196381994621333 88.295645301778677 0 88.295645301778677 -19.910563127506975 0 0 0 0 133.05110250506141 90.409488841500206 0 90.409488841500206 112.43852258331935 0 0 0 0 32.865843302580288 -22.135823710701516 0 -22.135823710701516 64.776116934712263 0 0 0 0 187.08695742478969 -79.303778956806127 0 -79.303778956806127 49.17712818306245 0 0 0 0 129.34610917879104 -35.565888007513422 0 -35.565888007513422 87.623768135174032 0 0 0 0 156.04166336882599 12.835352184183648 0 12.835352184183648 70.571885595552885 0 0 0 0 117.74097944896585 -21.057955198821219 0 -21.057955198821219 -26.616408297179078 0 0 0 0 130.41382382074266 -72.327882766767289 0 -72.327882766767289 -2.4003542254722561 0 0 0 0 32.872174917363964 -0.8884777101338841 0 -0.8884777101338841 -104.52030009558439 0 0 0 0 -12.874012384164416 172.51038562869689 0 172.51038562869689 -205.74172853982418 0 0 0 0 6.1884511390189498 0.076966164794512792 0 0.076966164794512792 -1.4274600774628752 0 0 0 0 -55.890104496835193 41.252199984224717 0 41.252199984224717 -181.84258519392097 0 0 0 0 -121.23988169133412 -61.343100445741129 0 -61.343100445741129 11.015869852344622 0 0 0 0 240.84880589292243 41.550131924054767 0 41.550131924054767 -283.55755126366967 0 0 0 0 4.3282388338382933 -1.0940879616507502 0 -1.0940879616507502 -1.8648995438575611 0 0 0 0 298.25331328370976 198.94367077766037 0 198.94367077766037 21.046161738046067 0 0 0 0 127.4109095097574 -82.082025218059243 0 -82.082025218059243 6.5176966581893794 0 0 0 0 377.16320195963635 -82.02021346888796 0 -82.02021346888796 -113.59623532834485 0 0 0 0 191.48177544313148 -73.215124576734524 0 -73.215124576734524 6.9791985884730821 0 0 0 0 -25.178485153487188 10.558019728294346 0 10.558019728294346 63.778998875860339 0 0 0 0 147.81130093704405 53.807027289656617 0 53.807027289656617 33.898243377225299 0 0 0 0 299.35535073588653 130.93435628740644 0 130.93435628740644 72.609391413301637 0 0 0 0 0.33911703884221467 4.2699318457827964 0 4.2699318457827964 17.179604904170603 0 0 0 0 244.27121230194371 6.4126651328497246 0 6.4126651328497246 -14.625712761955583 0 0 0 0 2.5620845499097413 26.179262060994006 0 26.179262060994006 96.10154678156141 0 0 0 0 -0.82183244673755074 15.343783709057503 0 15.343783709057503 52.887825015013 0 0 0 0 -3.5653026157134917 22.813813672436662 0 22.813813672436662 52.1204618692841 0 0 0 0 4.3584906289279388 22.225366616865358 0 22.225366616865358 51.305791790126023 0 0 0 0 -2.8070596085940451 25.232953318108684 0 25.232953318108684 62.582983044118009 0 0 0 0 13.101637255987475 30.060120388532262 0 30.060120388532262 54.049675399209349 0 0 0 0 10.181101322026734 40.483630110310514 0 40.483630110310514 82.486859363768417 0 0 0 0 13.251101969715364 42.583072587917741 0 42.583072587917741 57.047620084692653 0 0 0 0 15.688090049357015 26.094402178450764 0 26.094402178450764 51.791975717152127 0 0 0 0 20.744837700722201 38.094907366497864 0 38.094907366497864 55.27455538129152 0 0 0 0 14.089884087963128 46.315147640227224 0 46.315147640227224 73.514899492257427 0 0 0 0 17.709896374868549 29.26188504604761 0 29.26188504604761 53.976752534286788 0 0 0 0 -1.3879590214571067 32.252041892676971 0 32.252041892676971 66.656208376876748 0 0 0 0 4.1097616171442466 25.114673524908369 0 25.114673524908369 53.974236628491497 0 0 0 0 -17.617126199354971 27.838600229096301 0 27.838600229096301 61.910062905579252 0 0 0 0 -10.933822591499315 16.467544386834376 0 16.467544386834376 49.501737508245995 0 0 0 0 -4.5233786778389913 37.492610374176365 0 37.492610374176365 58.539775820714567 0 0 0 0 -1.9893964907926147 -3.4310031446953744 0 -3.4310031446953744 0.74601231507259058 0 0 0 0 0.30337304830754874 37.989342982267772 0 37.989342982267772 55.006709044782838 0 0 0 0 15.53807126531683 27.909925117191051 0 27.909925117191051 46.456215086574048 0 0 0 0 14.817662884624951 27.723244225689086 0 27.723244225689086 64.015934395269142 0 0 0 0 5.3056966086041939 38.171450287225525 0 38.171450287225525 57.507050710457406 0 0 0 0 -25.343866957528007 39.444555532882077 0 39.444555532882077 58.394031758398341 0 0 0 0 3.6603335546169546 31.878709766403517 0 31.878709766403517 35.551853110948286 0 0 0 0 -39.010861854833138 68.226943098427455 0 68.226943098427455 -7.3203048174400465 0 0 0 0 -40.47532999424584 34.380176253500395 0 34.380176253500395 64.426156007593818 0 0 0 0 21.813825421363617 79.155824137339096 0 79.155824137339096 84.839975711522129 0 0 0 0 15.437561702537096 31.124303914649317 0 31.124303914649317 53.75774627345163 0 0 0 0 21.307719479102161 166.13656263986195 0 166.13656263986195 244.97009231004267 0 0 0 0 -17.338396488341697 0.24869795813067697 0 0.24869795813067697 6.3799896396014333 0 0 0 0 -102.03823334758999 15.510054469319584 0 15.510054469319584 237.09878266935789 0 0 0 0 -52.801877459034586 36.939040431798276 0 36.939040431798276 129.44678092281902 0 0 0 0 42.715837256975647 40.929639855946334 0 40.929639855946334 -2.6645631536084693 0 0 0 0 -5.117205944645483 9.9971862271742573 0 9.9971862271742573 62.562859886422636 0 0 0 0 -16.658434280876008 22.759535927035358 0 22.759535927035358 75.317129741251847 0 0 0 0 -23.487793749385339 9.4351607537695976 0 9.4351607537695976 15.325344737357703 0 0 0 0 -46.632917959936094 49.099008994227916 0 49.099008994227916 162.21237839658352 0 0 0 0 -99.603317233537382 31.920897288071501 0 31.920897288071501 125.20690601316892 0 0 0 0 -5.6767183248921356 10.004298826630929 0 10.004298826630929 112.38351219772812 0 0 0 0 -5.3791016058197378 -13.430835786028418 0 -13.430835786028418 58.206350101334444 0 0 0 0 -15.647730759696515 -19.449901314742647 0 -19.449901314742647 45.847352442002375 0 0 0 0 -98.362628971242884 -41.405432080899118 0 -41.405432080899118 112.91983940309638 0 0 0 0 17.339160862754781 -56.29832880528015 0 -56.29832880528015 86.038971638205112 0 0 0 0 5.381321228476736 44.434342981903683 0 44.434342981903683 95.404488261619917 0 0 0 0 -18.166328845311909 18.565063642737186 0 18.565063642737186 63.914222789717314 0 0 0 0 -12.034928098390083 31.530765699732001 0 31.530765699732001 85.84474578694244 0 0 0 0 1.0416986031596025 18.621302995619772 0 18.621302995619772 56.658482678798464 0 0 0 0 9.2338112565412303 23.82764568300081 0 23.82764568300081 58.953436700819111 0 0 0 0 31.712078378153819 -8.1519473808793919 0 -8.1519473808793919 38.900703763294587 0 0 0 0 -2.6707955474168124 -13.436149042459768 0 -13.436149042459768 19.944599275605796 0 0 0 0 5.1059819204201631 28.607812014177398 0 28.607812014177398 54.835538847446514 0 0 0 0 -7.9209931705700001 19.3228469518981 0 19.3228469518981 58.66633219942014 0 0 0 0 -3.6436201968454043 27.912834912408925 0 27.912834912408925 56.645930384322128 0 0 0 0 6.1131683198273095 28.093511112362648 0 28.093511112362648 55.348674061468046 0 0 0 0 -13.298170304691666 17.012112343760236 0 17.012112343760236 73.44695055734519 0 0 0 0 -11.507517289632233 3.9293798971793876 0 3.9293798971793876 58.365989610239922 0 0 0 0 -9.5572735212024718 -10.859422548134532 0 -10.859422548134532 44.716768110473474 0 0 0 0 13.235383503952107 6.75712593354001 0 6.75712593354001 49.486121407247992 0 0 0 0 0.063655187785116141 3.3771743564211647 0 3.3771743564211647 26.267606182304007 0 0 0 0 -177.81526132364161 -131.6262383763933 0 -131.6262383763933 58.418579354776739 0 0 0 0 -16.293667878231645 -22.133593818669397 0 -22.133593818669397 128.81414477646467 0 0 0 0 -7.5394553685537602 -4.7385382689169973 0 -4.7385382689169973 10.304149343616373 0 0 0 0 77.015851027737881 233.8944565393042 0 233.8944565393042 325.68995929085213 0 0 0 0 -103.47963246483232 28.151446847694388 0 28.151446847694388 257.17792293176353 0 0 0 0 -169.74738981360861 -110.5043870316731 0 -110.5043870316731 41.996495138626415 0 0 0 0 -49.918341837779735 43.594257971381012 0 43.594257971381012 106.5519529543817 0 0 0 0 -64.513253197419544 -86.00422468069155 0 -86.00422468069155 -60.42995888374935 0 0 0 0 -126.04256334429101 11.536905587397086 0 11.536905587397086 128.93133864972333 0 0 0 0 8.7305067507004424 18.296896948790163 0 18.296896948790163 48.938535787419823 0 0 0 0 -188.62421238673051 -178.6095631894641 0 -178.6095631894641 -46.244339864628273 0 0 0 0 -14.410700057699913 -3.2906788552078723 0 -3.2906788552078723 34.953799011950551 0 0 0 0 -157.14927289855405 -193.36679202420055 0 -193.36679202420055 -40.971785073717911 0 0 0 0 -142.59804569558037 -70.438188487869411 0 -70.438188487869411 30.986464970585075 0 0 0 0 -208.49606918123573 -1.3228661223201925 0 -1.3228661223201925 239.06735331041273 0 0 0 0 -264.42869269025323 -134.27348741543028 0 -134.27348741543028 63.876179947379569 0 0 0 0 -148.2172720495671 -101.63920634345209 0 -101.63920634345209 -27.985294492449611 0 0 0 0 -243.27170742841554 -150.22978527185842 0 -150.22978527185842 20.681460593083102 0 0 0 0 -211.60535189160873 -83.740648730039538 0 -83.740648730039538 -227.52754563954659 0 0 0 0 -200.26001787174755 -194.07440371709163 0 -194.07440371709163 -48.850203877528656 0 0 0 0 -201.92688188318061 -100.57607151447701 0 -100.57607151447701 -30.747115440673952 0 0 0 0 -105.7837125435035 -316.1444727132166 0 -316.1444727132166 -487.00004576509491 0 0 0 0 -75.386911619156308 221.63592530842197 0 221.63592530842197 409.12793961399802 0 0 0 0 -284.23136069976499 29.748861583824691 0 29.748861583824691 360.38451341908876 0 0 0 0 -4.9985062407833851 1.9259204364091786 0 1.9259204364091786 6.8832241621187578 0 0 0 0 176.64379856113374 -29.438086102651141 0 -29.438086102651141 123.21591606299626 0 0 0 0 97.790436903800583 30.358697279458283 0 30.358697279458283 83.570009716961067 0 0 0 0 -7.1785983829468023 -12.19255905803584 0 -12.19255905803584 93.162253338554933 0 0 0 0 62.493080756685231 29.207527457605465 0 29.207527457605465 93.411907997928211 0 0 0 0 -6.843912904674653 -55.646177898197493 0 -55.646177898197493 49.09045778363361 0 0 0 0 -78.443764920171816 46.551547416798712 0 46.551547416798712 315.07294391487085 0 0 0 0 125.80538246326614 217.50730991302407 0 217.50730991302407 345.6523320109045 0 0 0 0 -108.17019707959844 -41.166006482555531 0 -41.166006482555531 306.56388947181404 0 0 0 0 -81.928761585615575 -33.259468316624407 0 -33.259468316624407 224.07653239986394 0 0 0 0 -92.717380725356634 -41.907002832667786 0 -41.907002832667786 306.40993910379621 0 0 0 0 -72.941979378651013 -56.046695463439391 0 -56.046695463439391 222.05411913074204 0 0 0 0 -71.652747937478125 -44.17140187601035 0 -44.17140187601035 196.91246727598264 0 0 0 0 -65.498756952059921 -23.771509137877729 0 -23.771509137877729 201.70242466021591 0 0 0 0 -49.281809480686206 -28.908409229959943 0 -28.908409229959943 177.24333140274393 0 0 0 0 -67.904894572729972 -35.515936663179673 0 -35.515936663179673 213.22106207918841 0 0 0 0 -43.527447242362541 -35.039484907698352 0 -35.039484907698352 166.55955289804842 0 0 0 0 -48.82261288085283 -31.254834083800233 0 -31.254834083800233 204.82678462314652 0 0 0 0 -51.381288084383414 -30.054546672068682 0 -30.054546672068682 204.78027746660518 0 0 0 0 -39.938550837017829 -12.558647053374443 0 -12.558647053374443 217.52353567906539 0 0 0 0 -76.379931570671033 -14.330594006511092 0 -14.330594006511092 283.36741218395764 0 0 0 0 -41.184410868707346 54.660054920808761 0 54.660054920808761 279.21108537839064 0 0 0 0 -5.9824947380402591 30.811953604716109 0 30.811953604716109 203.968587327357 0 0 0 0 -22.819167210429441 -2.8472185816208366 0 -2.8472185816208366 141.52395591151435 0 0 0 0 6.5254018720014102 16.392489104937724 0 16.392489104937724 10.590078040193376 0 0 0 0 -80.671072432131041 -90.457497804425657 0 -90.457497804425657 397.04565786750754 0 0 0 0 138.09745366084098 -152.55349512019893 0 -152.55349512019893 265.96054972789716 0 0 0 0 63.289393641229253 -160.49691052883281 0 -160.49691052883281 326.21329119478469 0 0 0 0 55.706170497228413 -153.02020707621159 0 -153.02020707621159 322.06223162467359 0 0 0 0 -7.9090767840389162 -83.464119990414474 0 -83.464119990414474 227.11576347710798 0 0 0 0 2.2610415511298925 -79.423731018177932 0 -79.423731018177932 220.74411424447317 0 0 0 0 63.908661786449557 -56.711115693577995 0 -56.711115693577995 154.79805543809198 0 0 0 0 54.719218203972559 63.166263238585088 0 63.166263238585088 309.99347764569029 0 0 0 0 -75.643550746041001 -75.696096694548032 0 -75.696096694548032 359.55335691798246 0 0 0 0 -1.4026379887072835 41.180541438254295 0 41.180541438254295 344.11520338167611 0 0 0 0 2.0018695582571127 -89.836375668979144 0 -89.836375668979144 215.49612186287413 0 0 0 0 -6.1646826671785675 -97.71094256741344 0 -97.71094256741344 209.95421296940185 0 0 0 0 -75.64355074611376 -75.696096694417065 0 -75.696096694417065 359.55335691804066 0 0 0 0 -75.643550746055553 -75.696096694460721 0 -75.696096694460721 359.55335691780783 0 0 0 0 -41.282512202917133 -58.744180309557123 0 -58.744180309557123 142.08842133323196 0 0 0 0 -27.431822054470103 -86.531729384005303 0 -86.531729384005303 130.3193375065166 0 0 0 0 -17.746239759668242 -104.13350789641845 0 -104.13350789641845 214.50183139475121 0 0 0 0 -65.28234926780442 -106.7775983450465 0 -106.7775983450465 119.49378494251869 0 0 0 0 -67.840763531421544 -62.883273809275124 0 -62.883273809275124 149.41995573094755 0 0 0 0 106.35791262892599 -89.120181273770868 0 -89.120181273770868 171.88653581379913 0 0 0 0 -16.640313479030738 -92.848372888503945 0 -92.848372888503945 220.39698577958916 0 0 0 0 67.419586063671886 -38.073121525158058 0 -38.073121525158058 113.65639115512022 0 0 0 0 54.952962789597223 -74.927408930088859 0 -74.927408930088859 122.39514768309891 0 0 0 0 26.078149551034585 -29.69532294509554 0 -29.69532294509554 112.69471355460701 0 0 0 0 8.599281082424568 -80.910068733239314 0 -80.910068733239314 123.44808477791958 0 0 0 0 7.804211627895711 -58.173370634089224 0 -58.173370634089224 96.491471036788425 0 0 0 0 17.698882466196665 -39.701208363010664 0 -39.701208363010664 53.396348241425585 0 0 0 0 -28.348156163396197 -47.39575228812464 0 -47.39575228812464 53.859573698951863 0 0 0 0 44.068197636297555 -31.845562828588299 0 -31.845562828588299 -13.747335994732566 0 0 0 0 -86.780381624505026 -118.50755195876081 0 -118.50755195876081 93.157393857865827 0 0 0 0 -10.994499645472388 -86.511384336918127 0 -86.511384336918127 97.212982257566182 0 0 0 0 -93.928803513350431 -36.350632985209813 0 -36.350632985209813 67.742045634920942 0 0 0 0 -22.875975904840743 -57.63220066879876 0 -57.63220066879876 106.32298517547315 0 0 0 0 -8.2650292112157331 -71.799627663938736 0 -71.799627663938736 32.039011196786305 0 0 0 0 -102.66818483300449 -10.920351723398198 0 -10.920351723398198 -3.4841189096914604 0 0 0 0 -147.30671493169939 -89.955841204973694 0 -89.955841204973694 80.077087786892662 0 0 0 0 -111.36101231514476 12.751588080427609 0 12.751588080427609 -60.885822232074133 0 0 0 0 -127.11595356906764 -153.84321644550073 0 -153.84321644550073 74.714531675213948 0 0 0 0 -48.258975329692475 -107.93738254012715 0 -107.93738254012715 -289.84404833160806 0 0 0 0 -104.11669541808078 -130.08841300595668 0 -130.08841300595668 82.868132367322687 0 0 0 0 -80.928941327190842 -99.228308759848005 0 -99.228308759848005 115.89593180644442 0 0 0 0 -74.197648297209525 -132.03587328491267 0 -132.03587328491267 80.728214105387451 0 0 0 0 -56.230725172208622 -102.71088736559614 0 -102.71088736559614 103.04587573268509 0 0 0 0 -90.219917456735857 -115.57407392121968 0 -115.57407392121968 113.20640113268746 0 0 0 0 -69.762680214073043 -105.63065345725045 0 -105.63065345725045 104.48672823712695 0 0 0 0 -65.224293137887344 -80.399365240876591 0 -80.399365240876591 115.02403240901185 0 0 0 0 -66.369657270726748 -123.37010146299872 0 -123.37010146299872 110.60668564747903 0 0 0 0 -64.783675510116154 -52.575162682318478 0 -52.575162682318478 218.95290816227498 0 0 0 0 -63.726334231032524 -113.96119418164744 0 -113.96119418164744 160.02739410981303 0 0 0 0 -35.151827730598598 -37.341671414014854 0 -37.341671414014854 164.46450759936124 0 0 0 0 -74.472673371026758 -71.43058142530208 0 -71.43058142530208 152.4334051994374 0 0 0 0 -35.057286411800305 -31.480341752459935 0 -31.480341752459935 63.139904207608197 0 0 0 0 -63.262583075789735 -160.86660041857976 0 -160.86660041857976 6.5913323675631545 0 0 0 0 -25.932854735758156 5.8019568593172153 0 5.8019568593172153 61.967591686088781 0 0 0 0 73.743238093580658 -40.89957717026391 0 -40.89957717026391 8.5069567216487485 0 0 0 0 13.432247533487825 -19.810120529921292 0 -19.810120529921292 32.427590219271238 0 0 0 0 -10.30937127585139 -31.813697124899363 0 -31.813697124899363 48.389808644427831 0 0 0 0 -4.0018152854026994 4.3563760522738448 0 4.3563760522738448 53.397830243065982 0 0 0 0 -168.99266943334806 -99.984634482920228 0 -99.984634482920228 199.24827429145807 0 0 0 0 -50.318099042477115 -74.589200380522243 0 -74.589200380522243 245.34034984675236 0 0 0 0 -29.929667626143782 -17.703422742779367 0 -17.703422742779367 136.25801339602185 0 0 0 0 -37.047537641243252 -25.46029342764632 0 -25.46029342764632 145.38352368235064 0 0 0 0 -39.062904331520258 -31.614475796777697 0 -31.614475796777697 156.23395400308073 0 0 0 0 17.047392599062505 -29.663454945104878 0 -29.663454945104878 51.77098467390605 0 0 0 0 -41.562210401538323 -27.687378047234233 0 -27.687378047234233 190.36633416678524 0 0 0 0 98.429511367440227 63.563690142816085 0 63.563690142816085 170.25932043059879 0 0 0 0 144.58418405115526 141.0833896783314 0 141.0833896783314 181.90345828670729 0 0 0 0 103.78150632543111 147.01641733103929 0 147.01641733103929 263.48932532263893 0 0 0 0 163.23752379675147 185.76910017078626 0 185.76910017078626 242.94228549110312 0 0 0 0 85.528592842333637 128.96226182793077 0 128.96226182793077 256.432723465045 0 0 0 0 -13.931204181666544 27.501250753382919 0 27.501250753382919 125.41622836511669 0 0 0 0 39.411166417576169 18.692012725799941 0 18.692012725799941 53.384309188342741 0 0 0 0 3.0195134873584237 -8.1168649807505204 0 -8.1168649807505204 40.835085829513773 0 0 0 0 -2.5319096986531697 -11.104175541712973 0 -11.104175541712973 39.165516135328325 0 0 0 0 46.582788867093768 -10.312083213236292 0 -10.312083213236292 75.54021133923834 0 0 0 0 33.533871465220727 21.049725238381143 0 21.049725238381143 24.302387619507499 0 0 0 0 -7.4229634099551731 -8.5611978751020601 0 -8.5611978751020601 23.979987594067424 0 0 0 0 0.79708394393674098 3.6514431629639148 0 3.6514431629639148 89.087644047667709 0 0 0 0 11.299019167119695 12.386835470335427 0 12.386835470335427 58.464769742611679 0 0 0 0 -3.9570333330319301 20.957407401603945 0 20.957407401603945 -2.8434619048917007 0 0 0 0 -11.361235332798969 38.376149434801846 0 38.376149434801846 103.64076044717876 0 0 0 0 27.518002210159466 -38.208221516291815 0 -38.208221516291815 37.028636981460295 0 0 0 0 58.390632717091648 -87.3963508752895 0 -87.3963508752895 142.47202622291661 0 0 0 0 32.121510410370547 -36.303013238637149 0 -36.303013238637149 38.462292522210376 0 0 0 0 339.75269229094465 427.9004131405668 0 427.9004131405668 302.77449724312828 0 0 0 0 8.6602114892309068 -9.6333738709942516 0 -9.6333738709942516 5.1195255765155707 0 0 0 0 87.991792231370709 -126.61952930349071 0 -126.61952930349071 79.865748468309903 0 0 0 0 27.538826115044635 -32.240980718997641 0 -32.240980718997641 30.44415541882713 0 0 0 0 -30.922388627826876 -255.76772985385469 0 -255.76772985385469 -179.48431063019962 0 0 0 0 251.76769736234928 438.66706481355141 0 438.66706481355141 783.69561480029006 0 0 0 0 4.5603263561102949 0.78712780299819229 0 0.78712780299819229 0.035376222200795837 0 0 0 0 6.3611568092646849 31.299922825522572 0 31.299922825522572 152.30601434427444 0 0 0 0 628.53419972294796 230.42365480975786 0 230.42365480975786 286.87611826475768 0 0 0 0 366.68991841949901 356.11540761961442 0 356.11540761961442 409.71783300375364 0 0 0 0 233.80557105257139 29.642663573620666 0 29.642663573620666 389.62093504033692 0 0 0 0 68.558599284500815 123.4213450489442 0 123.4213450489442 341.25409195349494 0 0 0 0 109.97965042790247 -128.07858909188576 0 -128.07858909188576 -18.068182600898581 0 0 0 0 -68.498052440292668 226.51304942680508 0 226.51304942680508 107.00784457146074 0 0 0 0 -613.88407828216987 -198.83599419637358 0 -198.83599419637358 232.10022410828969 0 0 0 0 -300.12228995967962 -416.86895397017361 0 -416.86895397017361 -265.52498769945669 0 0 0 0 -40.40365557192672 134.83566495908599 0 134.83566495908599 197.34447258491491 0 0 0 0 -271.16931929751809 15.059201880536421 0 15.059201880536421 208.34013660789788 0 0 0 0 235.46296316683993 -30.082397918297829 0 -30.082397918297829 313.36417040513334 0 0 0 0 -48.712000682569851 111.78190941866887 0 111.78190941866887 323.51659499640664 0 0 0 0 725.09765771899765 332.8463019168812 0 332.8463019168812 196.81736331375578 0 0 0 0 208.00218802622112 458.47069592547268 0 458.47069592547268 503.49490859356956 0 0 0 0 236.00718458781193 252.03465778682948 0 252.03465778682948 267.63374669933546 0 0 0 0 2.7389797653908801 -10.863939201201966 0 -10.863939201201966 20.370542474940741 0 0 0 0 114.31950308781234 339.97007447797114 0 339.97007447797114 321.58790226607641 0 0 0 0 135.71749073247338 219.49763426824757 0 219.49763426824757 224.1708654411442 0 0 0 0 -11.235102013883079 20.509976830022424 0 20.509976830022424 165.26907932403446 0 0 0 0 6.04538384760599 31.706248430415144 0 31.706248430415144 129.42797308462468 0 0 0 0 9.8802056764689041 23.516404038517067 0 23.516404038517067 74.401009373183115 0 0 0 0 -3.4379453388173715 3.8754073704858456 0 3.8754073704858456 63.683097982922845 0 0 0 0 -48.410455371871649 134.1471078366958 0 134.1471078366958 104.0078763638503 0 0 0 0 5.1463006430335057 -12.805270566950206 0 -12.805270566950206 61.667805164079851 0 0 0 0 -102.53952230604409 -127.48646163579906 0 -127.48646163579906 186.33572056873527 0 0 0 0 -161.86132106587729 -54.501420563202828 0 -54.501420563202828 97.02394787898811 0 0 0 0 -77.326335797952197 -185.03620526268423 0 -185.03620526268423 19.17993560697505 0 0 0 0 -89.025882269121212 -90.787063845862576 0 -90.787063845862576 -40.478864443906787 0 0 0 0 -28.891725397690607 -209.36212196660199 0 -209.36212196660199 123.3956656979426 0 0 0 0 -54.661924449435901 -14.617902033238352 0 -14.617902033238352 168.01407120730437 0 0 0 0 -49.555467065587436 -134.4862862955215 0 -134.4862862955215 502.34116021470982 0 0 0 0 189.81261686196376 277.22612357318576 0 277.22612357318576 331.08553755463618 0 0 0 0 3.3740230413388019 -2.8585001365569269 0 -2.8585001365569269 -1.6460460658075249 0 0 0 0 -7.5452520346880192 114.00487433634407 0 114.00487433634407 91.670739883102215 0 0 0 0 -13.704675341090883 3.9670031528963818 0 3.9670031528963818 13.519377539124491 0 0 0 0 24.895451097214391 46.694912024820951 0 46.694912024820951 106.41983058313781 0 0 0 0 -176.15767422757199 94.144690055010869 0 94.144690055010869 141.26626678358298 0 0 0 0 -7.530136770921608 2.8617452203492419 0 2.8617452203492419 87.797432875287683 0 0 0 0 -26.18399300757973 27.457921789755048 0 27.457921789755048 39.226270570922054 0 0 0 0 -6.6862623348333727 25.397616218405346 0 25.397616218405346 43.961059539733469 0 0 0 0 -5.6820257406030823 17.678175178242341 0 17.678175178242341 41.367903824376285 0 0 0 0 -16.21811341841385 21.936232162239321 0 21.936232162239321 41.383531908917121 0 0 0 0 -42.144765535162151 44.77847106923582 0 44.77847106923582 41.615532741023344 0 0 0 0 -56.378902788632331 53.02277554776083 0 53.02277554776083 72.463781304042641 0 0 0 0 -109.57236082480813 33.730040443690086 0 33.730040443690086 59.17699288149015 0 0 0 0 -8.5186591475649038 1.3066291289269429 0 1.3066291289269429 157.76748116857925 0 0 0 0 3.2575571572924673 -12.256932723561476 0 -12.256932723561476 95.525504020178232 0 0 0 0 -21.005098039127915 -2.4587007349514352 0 -2.4587007349514352 104.22785487830697 0 0 0 0 -16.018279141975327 28.86003600209169 0 28.86003600209169 46.616545463184593 0 0 0 0 -16.479786998235795 29.647392989900254 0 29.647392989900254 49.15482387570637 0 0 0 0 -1.0289325176355106 -4.4125430848140468 0 -4.4125430848140468 16.295072324337514 0 0 0 0 0.31937835912061274 -4.0441140983163422 0 -4.0441140983163422 -1.8196565246749827 0 0 0 0 -16.029634320862897 34.06427847409941 0 34.06427847409941 -10.268881941741711 0 0 0 0 -7.7554245607861958 63.86990165912357 0 63.86990165912357 -56.604082215734707 0 0 0 0 -33.796143569223204 41.529515977081246 0 41.529515977081246 66.755098427949633 0 0 0 0 -31.826653285850625 36.431152238134928 0 36.431152238134928 59.781953906418494 0 0 0 0 -31.425984674176448 53.435176998936583 0 53.435176998936583 44.802625286651164 0 0 0 0 -33.794927398794243 41.605812259139384 0 41.605812259139384 47.916139188748275 0 0 0 0 -23.87725212965961 38.842353079018721 0 38.842353079018721 38.776529843335084 0 0 0 0 -87.90315545723206 -22.253975327297667 0 -22.253975327297667 40.92421121488178 0 0 0 0 -35.809798352838698 40.513160413512196 0 40.513160413512196 51.480801847974362 0 0 0 0 -27.076458779127279 15.43900363996454 0 15.43900363996454 83.941470137027636 0 0 0 0 -28.919797613665651 48.545110339872735 0 48.545110339872735 74.671922622232159 0 0 0 0 -61.301488721927853 46.81363491938464 0 46.81363491938464 65.794015579576808 0 0 0 0 -14.222585168419755 46.105960702567245 0 46.105960702567245 64.994086033114399 0 0 0 0 -24.35676037180216 28.743617403484791 0 28.743617403484791 34.008610017406866 0 0 0 0 -22.097228118426074 22.457068210707689 0 22.457068210707689 52.937428253677353 0 0 0 0 1.9132070768571454 34.041384086608112 0 34.041384086608112 69.577831874648538 0 0 0 0 -55.751397393677962 44.167960863204826 0 44.167960863204826 86.820814281847561 0 0 0 0 -4.6165380091551924 96.750653182081805 0 96.750653182081805 79.784054245625157 0 0 0 0 -45.344637223646714 29.49964833438753 0 29.49964833438753 51.018612138035678 0 0 0 0 6.2336175772563536 12.237668610484057 0 12.237668610484057 12.817796248982987 0 0 0 0 -63.07498858875897 91.541723861811988 0 91.541723861811988 95.19840715713508 0 0 0 0 22.908193309811395 31.310440863020631 0 31.310440863020631 63.890167367815593 0 0 0 0 66.874238028189211 137.03970236453461 0 137.03970236453461 100.9738663197295 0 0 0 0 -6.9084454476851533 71.641951561370661 0 71.641951561370661 100.31016733249453 0 0 0 0 -2.1131428380671267 10.307152106985193 0 10.307152106985193 13.866555649251822 0 0 0 0 178.00881475509959 131.07698003365294 0 131.07698003365294 39.71495193183182 0 0 0 0 -3.2571008540222124 34.878227882744476 0 34.878227882744476 77.129056629530638 0 0 0 0 -64.635951484929592 54.663874231518207 0 54.663874231518207 163.45338175002325 0 0 0 0 -34.091710008586681 8.6623962090697475 0 8.6623962090697475 48.875991166087452 0 0 0 0 -153.86497480481739 -283.8484151285611 0 -283.8484151285611 170.60771551552898 0 0 0 0 -5.3691907192387589 283.12604166279561 0 283.12604166279561 289.12963002026299 0 0 0 0 -51.376772109457306 33.856548041281712 0 33.856548041281712 126.25409674928233 0 0 0 0 -7.2953877247164201 56.278529901372167 0 56.278529901372167 122.52584346720187 0 0 0 0 -1.9040732709625061 2.0250241986475075 0 2.0250241986475075 3.1638940684503467 0 0 0 0 -5.1026379478971648 44.280319173459475 0 44.280319173459475 100.69998928225073 0 0 0 0 -18.342348537786165 22.609761027544891 0 22.609761027544891 92.555253208350649 0 0 0 0 18.300776832882548 31.551526518575429 0 31.551526518575429 91.642039361842762 0 0 0 0 -22.517670745110081 38.644915162717098 0 38.644915162717098 102.1038897398812 0 0 0 0 -12.863945032172523 21.576905289819479 0 21.576905289819479 83.582985251042373 0 0 0 0 -6.8937374869565247 29.31111198095175 0 29.31111198095175 81.941911733415964 0 0 0 0 -35.877171072463632 -6.9084095015037477 0 -6.9084095015037477 44.226929514669351 0 0 0 0 -96.053126332000033 -88.088029822222097 0 -88.088029822222097 620.61369918630589 0 0 0 0 -32.022690383518977 -329.44262421041799 0 -329.44262421041799 -36.135053285328468 0 0 0 0 103.63302616641158 227.9004668963662 0 227.9004668963662 -85.305277009272686 0 0 0 0 120.41900783566871 296.37690620404464 0 296.37690620404464 74.105535960121415 0 0 0 0 -8.2798898672681389 232.87603281291013 0 232.87603281291013 162.36371976529699 0 0 0 0 -4.2662980474942458 6.0556213463375776 0 6.0556213463375776 25.237734626676968 0 0 0 0 -51.193355362755938 58.942007035092502 0 58.942007035092502 -141.48804613634093 0 0 0 0 -330.66949465871403 37.147400810426916 0 37.147400810426916 916.50880203481574 0 0 0 0 259.72806470920477 -115.80734295841467 0 -115.80734295841467 -307.3768440220565 0 0 0 0 1.8910902174784563 5.1147189454882129 0 5.1147189454882129 8.5099640041883831 0 0 0 0 213.06091240656679 -178.98038557373366 0 -178.98038557373366 -251.66067984034453 0 0 0 0 826.75835296731202 332.11118814907786 0 332.11118814907786 -61.187894930724724 0 0 0 0 -248.6314923412973 569.67782537661799 0 569.67782537661799 301.94843996593409 0 0 0 0 -248.98374142174544 537.59292490096595 0 537.59292490096595 954.41302540048127 0 0 0 0 89.473531640485817 -300.44206943861536 0 -300.44206943861536 709.19797203468897 0 0 0 0 63.922054969506917 -133.58589319516886 0 -133.58589319516886 -376.4260372761637 0 0 0 0 448.70654802508307 -288.66514116864801 0 -288.66514116864801 -14.393240512235934 0 0 0 0 -171.22484793045214 -510.39322858594142 0 -510.39322858594142 -27.060343274362822 0 0 0 0 -8.1223701782218996 -179.57179126529445 0 -179.57179126529445 98.242281498654847 0 0 0 0 272.01690033231455 228.27389040562161 0 228.27389040562161 84.559373389492976 0 0 0 0 11.922679303523182 128.15264420202766 0 128.15264420202766 80.672336162135252 0 0 0 0 -1.2673502836379154 -0.53313851418332092 0 -0.53313851418332092 7.1036994936871309 0 0 0 0 -212.97416628869496 -136.74903186871416 0 -136.74903186871416 268.72561327420044 0 0 0 0 433.71154188061064 532.33311711743954 0 532.33311711743954 413.03031472581688 0 0 0 0 171.33736861490524 92.071249417329 0 92.071249417329 217.99168587090207 0 0 0 0 -98.130671796165643 229.72692787803589 0 229.72692787803589 277.53166514748318 0 0 0 0 -180.75470606295806 -55.416843391448538 0 -55.416843391448538 173.93600598932244 0 0 0 0 42.700274656996214 39.792771968102443 0 39.792771968102443 124.14520278770942 0 0 0 0 2.7409889926787621 -6.8374273179502829 0 -6.8374273179502829 12.257630300515586 0 0 0 0 199.31160760916282 272.06164969625115 0 272.06164969625115 220.56758846072941 0 0 0 0 1.5453652426986082 85.082152255800793 0 85.082152255800793 24.954813429292699 0 0 0 0 129.08925067987911 154.74575346279926 0 154.74575346279926 52.681131008081138 0 0 0 0 91.184382246716268 114.51054952506456 0 114.51054952506456 381.24431434517464 0 0 0 0 124.32797817245591 103.95720345757218 0 103.95720345757218 125.75548906306722 0 0 0 0 26.290120594265318 150.11292582091119 0 150.11292582091119 123.96177217151126 0 0 0 0 54.178393131958728 108.52095830804683 0 108.52095830804683 132.09171103203698 0 0 0 0 56.405647718444698 -80.895441258877327 0 -80.895441258877327 150.51987194519825 0 0 0 0 11.974786569150524 173.95327451638059 0 173.95327451638059 130.92409074079114 0 0 0 0 10.484554430337919 38.863985805352691 0 38.863985805352691 128.0822310793545 0 0 0 0 2.384243586434577 9.2449569791104729 0 9.2449569791104729 46.814218860657554 0 0 0 0 567.91837355807365 -168.60735751521861 0 -168.60735751521861 87.131780538951716 0 0 0 0 18.043009500212975 600.40751675628326 0 600.40751675628326 21.727932891786622 0 0 0 0 -35.26773500094896 331.89552542379624 0 331.89552542379624 151.14327566997633 0 0 0 0 -0.73931942744001899 21.636978635798791 0 21.636978635798791 5.6575654617165014 0 0 0 0 1.0025206934234809 19.539210271607555 0 19.539210271607555 153.5853649272737 0 0 0 0 406.94344701058344 -103.64217470365475 0 -103.64217470365475 135.25658543369354 0 0 0 0 52.72129544080417 62.058008045944916 0 62.058008045944916 63.821783755891374 0 0 0 0 131.56670183943788 -20.744510538122995 0 -20.744510538122995 153.1827476869239 0 0 0 0 52.272267418961746 82.97608551920257 0 82.97608551920257 235.02304068481317 0 0 0 0 237.22929924146956 -145.56145058328184 0 -145.56145058328184 363.51419298346309 0 0 0 0 131.90013070466011 -11.48058701732225 0 -11.48058701732225 209.5341108687353 0 0 0 0 155.66917016082152 -19.577200132112921 0 -19.577200132112921 143.02845723078644 0 0 0 0 297.47611336913405 -101.20944343423912 0 -101.20944343423912 164.42240842714818 0 0 0 0 311.67064066149214 -13.690521285528121 0 -13.690521285528121 86.736042754593655 0 0 0 0 56.129518919939869 -17.313460443663075 0 -17.313460443663075 193.47551359765203 0 0 0 0 160.47556014309521 -41.893861082546209 0 -41.893861082546209 111.15382586755004 0 0 0 0 -24.42910449122428 -36.198354217262022 0 -36.198354217262022 53.501822213125706 0 0 0 0 -23.841767781899762 -45.916867586221997 0 -45.916867586221997 151.14774593458787 0 0 0 0 56.479543837831216 -13.244803461264496 0 -13.244803461264496 67.916617446142482 0 0 0 0 -10.769470613970043 38.071374548973836 0 38.071374548973836 -19.092979201916023 0 0 0 0 -11.018751432873614 42.58589742496406 0 42.58589742496406 152.57061320566936 0 0 0 0 -68.741344898850002 83.793130039641255 0 83.793130039641255 -97.847613899217322 0 0 0 0 -93.214288869543452 -35.141035879698393 0 -35.141035879698393 100.42506165145096 0 0 0 0 -95.119654918085757 -1.3725030332062715 0 -1.3725030332062715 7.8634165438706987 0 0 0 0 -226.60588371151971 -65.05337082080041 0 -65.05337082080041 27.297542925891321 0 0 0 0 -311.95297565271721 86.5935457727619 0 86.5935457727619 65.259178821077512 0 0 0 0 -348.6845186572682 62.098557726865693 0 62.098557726865693 49.670237944073961 0 0 0 0 -397.53320424396406 336.58645715684906 0 336.58645715684906 -193.66152490566674 0 0 0 0 -458.89901860034297 -115.8764748735648 0 -115.8764748735648 -139.38083709932835 0 0 0 0 -624.1518052421161 186.04878935544184 0 186.04878935544184 -5.9148522708601377 0 0 0 0 -247.2178029878487 48.994019394562201 0 48.994019394562201 -30.202769399809767 0 0 0 0 -222.66515692192661 -50.223302941707516 0 -50.223302941707516 24.896999705659255 0 0 0 0 -277.53986679117043 160.3154048562501 0 160.3154048562501 -181.49194050212873 0 0 0 0 -232.39859661855598 39.802693258668114 0 39.802693258668114 16.975256655634439 0 0 0 0 -553.73020458372264 -16.923974231097532 0 -16.923974231097532 27.878574142043362 0 0 0 0 -562.84500446575657 93.859931871455046 0 93.859931871455046 133.61236369884864 0 0 0 0 -263.41630249623904 -108.5687300550926 0 -108.5687300550926 213.84372114385405 0 0 0 0 -3.3129721121149487 101.93756628863775 0 101.93756628863775 20.542982557388314 0 0 0 0 -27.94296719182239 152.99563145550383 0 152.99563145550383 65.652909860624277 0 0 0 0 8.5456992212584737 106.01098695234123 0 106.01098695234123 14.787910895069217 0 0 0 0 -68.315300290065352 94.585692252474473 0 94.585692252474473 96.787507119948714 0 0 0 0 173.06712758065805 -307.4496585971483 0 -307.4496585971483 742.76738340602242 0 0 0 0 50.458842800208004 115.8546338123615 0 115.8546338123615 608.89401387424186 0 0 0 0 77.95487249852431 -166.00002570152901 0 -166.00002570152901 510.00379042084296 0 0 0 0 49.906969799425951 78.86845632632685 0 78.86845632632685 382.40407432360371 0 0 0 0 156.05757341209573 99.923500270797376 0 99.923500270797376 354.07236230359558 0 0 0 0 -31.552519539411151 115.35709605343982 0 115.35709605343982 1073.7267316953657 0 0 0 0 5.6102933285232091 -4.4679066287284783 0 -4.4679066287284783 3.4104805236496603 0 0 0 0 206.21864341904075 -192.02426591149197 0 -192.02426591149197 -270.4063187332722 0 0 0 0 176.37616285097738 -375.94918191507895 0 -375.94918191507895 275.6085577720296 0 0 0 0 221.50763468209016 -272.72045358314745 0 -272.72045358314745 -10.946353532490321 0 0 0 0 -180.61408062728424 -289.2680887599945 0 -289.2680887599945 606.93172131682149 0 0 0 0 -0.060693628632128238 14.815948314661838 0 14.815948314661838 16.880014289434939 0 0 0 0 -285.05195045837627 -379.08898389356546 0 -379.08898389356546 266.57133213031011 0 0 0 0 -308.17156779722427 11.723411265425966 0 11.723411265425966 -80.696709506959451 0 0 0 0 -113.85335263076377 354.63170188486401 0 354.63170188486401 407.29125714935526 0 0 0 0 -343.67449345203477 28.373662625311226 0 28.373662625311226 -28.185504923552799 0 0 0 0 -548.37789074237116 318.67759484649287 0 318.67759484649287 241.3168941455624 0 0 0 0 369.18277997483119 -43.896817636343258 0 -43.896817636343258 98.448903502205212 0 0 0 0 50.757633343547241 165.96528481084533 0 165.96528481084533 -55.739222160846111 0 0 0 0 -107.83882348638872 232.31719933333807 0 232.31719933333807 134.19755261017235 0 0 0 0 -296.21848209310883 51.495624156224039 0 51.495624156224039 27.079093683503743 0 0 0 0 4.0739346770847344 49.823525132994426 0 49.823525132994426 137.16447970049683 0 0 0 0 -104.79253935735193 117.62916217342399 0 117.62916217342399 187.72990115385801 0 0 0 0 -544.53599394500452 440.65071795355834 0 440.65071795355834 174.45646195281643 0 0 0 0 -28.103264643383696 -0.31959827679572861 0 -0.31959827679572861 64.921225268026376 0 0 0 0 -45.030705087079696 127.17405619170313 0 127.17405619170313 -27.131565922300069 0 0 0 0 -0.16327651529087639 12.634223512949422 0 12.634223512949422 92.383978590954356 0 0 0 0 -333.3697125587496 259.50802268750522 0 259.50802268750522 63.282130255676748 0 0 0 0 -8.1100069066196738 129.56157655179777 0 129.56157655179777 64.571623767289566 0 0 0 0 80.425429860772056 31.416990832902229 0 31.416990832902229 38.553386182439681 0 0 0 0 146.85253588639716 -55.989215354924454 0 -55.989215354924454 193.8290808895872 0 0 0 0 33.537531488445666 -46.806077316546634 0 -46.806077316546634 216.33641614586668 0 0 0 0 90.660113808300594 -99.92072149937303 0 -99.92072149937303 278.86373112765432 0 0 0 0 89.94271117203732 -38.876391982316136 0 -38.876391982316136 127.95453076651756 0 0 0 0 19.803189071561974 -29.329227884420106 0 -29.329227884420106 271.35130639099498 0 0 0 0 15.624009214917351 95.612404842328033 0 95.612404842328033 70.308644411703426 0 0 0 0 0.6544638324794505 60.504009730855614 0 60.504009730855614 149.72279156457307 0 0 0 0 -97.641273533037747 55.411993024179537 0 55.411993024179537 26.201530525955604 0 0 0 0 -167.54137129031551 196.30171347238502 0 196.30171347238502 24.373288979345119 0 0 0 0 -43.572712276975835 69.123840837295575 0 69.123840837295575 66.961041030659544 0 0 0 0 332.24058697460441 111.36600519449166 0 111.36600519449166 2.3751145778223872 0 0 0 0 65.840666709452307 179.32045041497531 0 179.32045041497531 87.800230304539582 0 0 0 0 -1.719009924268903 28.505854668122083 0 28.505854668122083 83.199040031695802 0 0 0 0 -15.880106406982122 11.955750495998728 0 11.955750495998728 78.316329036528884 0 0 0 0 5.1688981687783357 28.168758998119319 0 28.168758998119319 95.509508514899224 0 0 0 0 -8.0186156691738688 24.8309922147007 0 24.8309922147007 90.947577731197271 0 0 0 0 -19.037203335714366 32.390087933153382 0 32.390087933153382 113.31080336751256 0 0 0 0 -7.0802243473408453 25.23768906271539 0 25.23768906271539 106.9884850923354 0 0 0 0 1.5021891796779983 26.915934642300272 0 26.915934642300272 110.87930093344676 0 0 0 0 2.9767126925692082 34.991411353340823 0 34.991411353340823 97.883308906830734 0 0 0 0 6.6498599266572 40.269690238392059 0 40.269690238392059 120.78163679194222 0 0 0 0 -7.6953989075855134 27.662896159094089 0 27.662896159094089 142.59845541759023 0 0 0 0 -7.460977137714508 37.401419854264077 0 37.401419854264077 108.41828735296531 0 0 0 0 109.56056737794916 74.39362182997138 0 74.39362182997138 7.1981929693138227 0 0 0 0 54.008205053872928 81.450795868662453 0 81.450795868662453 17.873918310859153 0 0 0 0 -59.690487256511005 146.57219537016681 0 146.57219537016681 35.337435419081885 0 0 0 0 6.2743331889915455 35.736614522610061 0 35.736614522610061 104.75056146666935 0 0 0 0 47.171742835936584 127.18767605479059 0 127.18767605479059 8.2004069141366926 0 0 0 0 -0.43187723743470841 2.4768906019186154 0 2.4768906019186154 26.593954387068404 0 0 0 0 5.3512111338245703 26.482005577532767 0 26.482005577532767 9.5910361586810851 0 0 0 0 1.6191933907044813 31.20180066888679 0 31.20180066888679 66.044998864606896 0 0 0 0 15.304943154167177 76.738162382293012 0 76.738162382293012 38.936298327495024 0 0 0 0 0.16380148425761021 21.796438114266802 0 21.796438114266802 45.933178988275941 0 0 0 0 -37.585756115590812 19.376518770734037 0 19.376518770734037 129.76742647865831 0 0 0 0 11.167486851227522 29.829976990221439 0 29.829976990221439 56.787835569456547 0 0 0 0 1.2272928667460725 3.8187437737690999 0 3.8187437737690999 4.0091718509902421 0 0 0 0 128.17689370067819 -22.324454980102018 0 -22.324454980102018 -31.51283506519394 0 0 0 0 -210.06584541030406 222.83969203634479 0 222.83969203634479 -63.064274770520569 0 0 0 0 4.5453832978987601 8.0196598421894567 0 8.0196598421894567 -4.8990394426570418 0 0 0 0 -29.923344890730732 128.91000741659082 0 128.91000741659082 -157.88426157375943 0 0 0 0 -39.283422689523832 203.88112837842345 0 203.88112837842345 -60.649115850813018 0 0 0 0 -24.752322806927793 288.50029204659802 0 288.50029204659802 -63.874837698240299 0 0 0 0 224.65405835061574 237.70130459143002 0 237.70130459143002 -186.41028914352864 0 0 0 0 219.29450076272738 212.65570927056888 0 212.65570927056888 -128.76764577731956 0 0 0 0 83.057106336265861 221.76058966783239 0 221.76058966783239 32.589037709900367 0 0 0 0 210.91864536973026 324.5719465513846 0 324.5719465513846 -124.21562705032557 0 0 0 0 -14.165331668862109 50.899871186233213 0 50.899871186233213 -104.50739058948238 0 0 0 0 36.990750597783972 156.49921426706896 0 156.49921426706896 -55.059780618448713 0 0 0 0 -21.523002685571782 85.748048663525879 0 85.748048663525879 -225.44914540968239 0 0 0 0 -89.444913126015308 89.361816630625071 0 89.361816630625071 190.31845580864683 0 0 0 0 -9.7734886486803134 8.5365127995682997 0 8.5365127995682997 -104.09929535316405 0 0 0 0 157.75094457417697 156.03609726666764 0 156.03609726666764 -180.80906239099932 0 0 0 0 176.79325583873515 112.76897228740563 0 112.76897228740563 -101.20865207669658 0 0 0 0 7.5982760280405719 0.97109576266448272 0 0.97109576266448272 0.48674868519614733 0 0 0 0 241.05164965236145 25.013301192848303 0 25.013301192848303 -187.74660718164341 0 0 0 0 484.51128740782679 217.1054477576854 0 217.1054477576854 -186.5741334407046 0 0 0 0 16.093718056937348 60.989674574853325 0 60.989674574853325 818.38393699753942 0 0 0 0 255.49481765472979 206.46091292360506 0 206.46091292360506 592.78509566046341 0 0 0 0 -39.57543215072883 -130.41872085044997 0 -130.41872085044997 593.57824346056805 0 0 0 0 372.13597481683269 -80.818391709546631 0 -80.818391709546631 215.13793478728985 0 0 0 0 -130.10548170463971 -15.918593844668067 0 -15.918593844668067 303.95887433247117 0 0 0 0 -79.598781462072111 172.69303596624741 0 172.69303596624741 31.448248319702543 0 0 0 0 -712.07539774255667 99.796252402365496 0 99.796252402365496 352.07470700664271 0 0 0 0 -0.25140648210519712 1.9498047707530972 0 1.9498047707530972 -1.1762096989209425 0 0 0 0 -42.311632745630959 216.66751419827779 0 216.66751419827779 -107.57694025052842 0 0 0 0 238.09888523969857 502.36304837589705 0 502.36304837589705 247.63419144056388 0 0 0 0 1.8059901491131782 4.6203513448996389 0 4.6203513448996389 4.9718589697843925 0 0 0 0 76.542667517599511 -83.146111305046361 0 -83.146111305046361 3.214057074234006 0 0 0 0 -38.391066588792228 -55.011578225018638 0 -55.011578225018638 57.276208942406811 0 0 0 0 0.077910811000720059 -41.328860404615284 0 -41.328860404615284 -192.39582079110551 0 0 0 0 -10.58403905164414 78.417930389940011 0 78.417930389940011 -146.71324651528266 0 0 0 0 21.860976119522093 47.250394314120058 0 47.250394314120058 -3.3088899623035104 0 0 0 0 132.70020565907362 35.642707719598548 0 35.642707719598548 -136.73146210511186 0 0 0 0 0.031525839292953606 -49.628545552779542 0 -49.628545552779542 -134.79905525963113 0 0 0 0 103.37532007897039 -22.672248427185849 0 -22.672248427185849 -193.00728671973775 0 0 0 0 103.69474495186842 75.916793125476033 0 75.916793125476033 -134.00140910234768 0 0 0 0 2.5827604060369183 3.7889906836232399 0 3.7889906836232399 3.9378051074062004 0 0 0 0 25.576784713771886 7.5900850991181557 0 7.5900850991181557 1.7463967299957908 0 0 0 0 53.923239186646242 66.484006297054293 0 66.484006297054293 -25.710500473759566 0 0 0 0 110.27939981861437 54.855649184653885 0 54.855649184653885 8.584050680632572 0 0 0 0 76.721279286177378 -23.363754699837955 0 -23.363754699837955 -305.6098249879833 0 0 0 0 -7.7908862394124299 25.466852830082644 0 25.466852830082644 -213.0078833819789 0 0 0 0 -120.74654741436552 22.50464466311314 0 22.50464466311314 164.52930230813217 0 0 0 0 -0.14479658197438994 -1.8361850497950201 0 -1.8361850497950201 0.026178995790694159 0 0 0 0 -45.749365462849255 -26.778576805156263 0 -26.778576805156263 -146.20336418532679 0 0 0 0 11.710680504452284 -41.129714913031421 0 -41.129714913031421 -282.45214748387662 0 0 0 0 -37.095662336078931 -15.879545329400571 0 -15.879545329400571 -182.59704645811007 0 0 0 0 -15.030840671705391 14.511871540129505 0 14.511871540129505 -365.74863800210369 0 0 0 0 92.515876913011198 90.999054203157357 0 90.999054203157357 -124.9644314825764 0 0 0 0 -0.64783076676398466 -1.8222164157745908 0 -1.8222164157745908 0.44272038698095528 0 0 0 0 18.711720573340887 5.6777550547894506 0 5.6777550547894506 1.8340009741057663 0 0 0 0 39.555903856614975 66.392236162944755 0 66.392236162944755 314.70007286535474 0 0 0 0 -0.76368453964614957 -25.882416785759688 0 -25.882416785759688 429.81994195163134 0 0 0 0 -20.722744250101414 110.12921118393206 0 110.12921118393206 581.04880499656792 0 0 0 0 -46.642617506439024 63.215476197137832 0 63.215476197137832 606.80640373349888 0 0 0 0 -37.290667686415304 123.30758761815014 0 123.30758761815014 607.87797190858691 0 0 0 0 -28.654596602199661 117.98640321800485 0 117.98640321800485 402.1140281924113 0 0 0 0 -42.540856370399069 32.809126672049388 0 32.809126672049388 385.79411881436681 0 0 0 0 19.752928275464797 -51.679989905407638 0 -51.679989905407638 97.914627813508559 0 0 0 0 44.205666808458773 69.233556509228947 0 69.233556509228947 290.23106066667242 0 0 0 0 114.66516874893728 59.676268153883939 0 59.676268153883939 83.38314905903826 0 0 0 0 108.6972300392631 155.01884473471 0 155.01884473471 282.55493998347674 0 0 0 0 77.031566881023878 91.697152120143983 0 91.697152120143983 283.02420909926877 0 0 0 0 263.48918260428172 457.84674404630641 0 457.84674404630641 575.07028474507752 0 0 0 0 132.04945784641859 -20.232257778985058 0 -20.232257778985058 55.379362067666079 0 0 0 0 44.367424723572185 4.841913940726954 0 4.841913940726954 115.50509896454605 0 0 0 0 178.76333469959263 120.04029613262173 0 120.04029613262173 185.83336406691524 0 0 0 0 12.901257349037223 58.028037626590958 0 58.028037626590958 83.531054789433256 0 0 0 0 110.98209645791303 7.9344359572642134 0 7.9344359572642134 83.396643658030371 0 0 0 0 219.54979795558938 -134.98664319510181 0 -134.98664319510181 673.82534478968591 0 0 0 0 413.60321498283406 333.17036290241685 0 333.17036290241685 824.77551214855339 0 0 0 0 -81.605168990251741 144.68464712503737 0 144.68464712503737 974.23041942575765 0 0 0 0 -64.097726142790293 114.96162439575801 0 114.96162439575801 606.35670350124565 0 0 0 0 57.335391492711636 121.96010376555023 0 121.96010376555023 392.69458847807255 0 0 0 0 -82.56565334737769 146.86258753516813 0 146.86258753516813 661.02164153247304 0 0 0 0 -78.108984878079028 100.55169092355754 0 100.55169092355754 668.52631986566848 0 0 0 0 -47.736456960231379 103.71321632675244 0 103.71321632675244 600.38362683480955 0 0 0 0 -22.435988030709836 50.993188170227768 0 50.993188170227768 709.91024542011291 0 0 0 0 -145.02235849009344 -43.334149444550349 0 -43.334149444550349 9.6182944566608057 0 0 0 0 -77.733679079122112 127.12854550610564 0 127.12854550610564 740.74299307126785 0 0 0 0 -0.70617529384047306 -1.8931650980402281 0 -1.8931650980402281 2.6769069861043704 0 0 0 0 -196.25521338806112 3.2790637784455612 0 3.2790637784455612 120.30113765512215 0 0 0 0 -184.06394282600374 -15.730931459765998 0 -15.730931459765998 16.32125663653278 0 0 0 0 -0.54158491457982905 3.5471523901882591 0 3.5471523901882591 4.6774198033078562 0 0 0 0 7.7024529684148249 14.688758863601834 0 14.688758863601834 23.09402972035241 0 0 0 0 9.2690520780647603 11.298601793437683 0 11.298601793437683 16.131960112841625 0 0 0 0 0.76061579730512463 -2.6509972494199445 0 -2.6509972494199445 4.4985596178524787 0 0 0 0 -12.134185420129143 -165.69313950485412 0 -165.69313950485412 281.87815477242566 0 0 0 0 9.8875209301378923 6.8658191346761583 0 6.8658191346761583 2.3156783946381125 0 0 0 0 46.271337072332926 16.196871292142532 0 16.196871292142532 -10.617719577439857 0 0 0 0 -28.612932255959549 15.303469316875635 0 15.303469316875635 49.41496652202477 0 0 0 0 4.253332900672401 0.26654215804744297 0 0.26654215804744297 1.0146117189919224 0 0 0 0 36.618032915684694 -16.838011167677905 0 -16.838011167677905 -43.410621578972496 0 0 0 0 2.2940077398929315 -0.14848335946397384 0 -0.14848335946397384 0.76085465000871011 0 0 0 0 141.75841303756448 247.82744761900403 0 247.82744761900403 350.34443494602965 0 0 0 0 116.0405440592599 -140.38552457736114 0 -140.38552457736114 315.72451629891111 0 0 0 0 98.825815554807377 -122.98291639969648 0 -122.98291639969648 298.8794443210827 0 0 0 0 110.51165118986683 -102.49831277054182 0 -102.49831277054182 295.95473378232418 0 0 0 0 64.798595902941997 -119.13774320175071 0 -119.13774320175071 395.32386435187072 0 0 0 0 47.318318790725812 -109.13539962189043 0 -109.13539962189043 298.42172187907272 0 0 0 0 84.993004324540379 -73.007629984231244 0 -73.007629984231244 232.71925521866979 0 0 0 0 82.060165667812782 -80.127260717778654 0 -80.127260717778654 357.98568735217486 0 0 0 0 86.097098505981876 25.015367880163467 0 25.015367880163467 415.82357132332618 0 0 0 0 80.416094283567418 69.313955972836993 0 69.313955972836993 595.85054159998708 0 0 0 0 -63.64672467140042 -203.95869660910375 0 -203.95869660910375 262.36845656306105 0 0 0 0 45.258769239664161 -29.49778636726478 0 -29.49778636726478 459.64143550793051 0 0 0 0 140.55287679631738 -113.28482738374532 0 -113.28482738374532 265.114430157264 0 0 0 0 138.78602979289553 -68.241991341876201 0 -68.241991341876201 114.29289424571743 0 0 0 0 78.956053321804802 -138.0043720292465 0 -138.0043720292465 255.42790656058787 0 0 0 0 56.947995622932922 -61.087360675581294 0 -61.087360675581294 26.750519204997545 0 0 0 0 -164.7697435211644 47.674962886325375 0 47.674962886325375 91.459379826819713 0 0 0 0 56.55161325396557 -42.403043158801665 0 -42.403043158801665 59.52696853132511 0 0 0 0 -0.11298978984780206 14.901925316013148 0 14.901925316013148 74.32415604191192 0 0 0 0 -116.07808952768391 37.084336691244971 0 37.084336691244971 92.023599006606673 0 0 0 0 132.88369965037418 -1.5911052581741387 0 -1.5911052581741387 149.80604267516173 0 0 0 0 81.38304005564396 21.659296642093977 0 21.659296642093977 166.34241589498015 0 0 0 0 146.44265715759025 49.763698216921512 0 49.763698216921512 300.99858831799793 0 0 0 0 176.03782137211329 55.400551561215252 0 55.400551561215252 213.39395260400488 0 0 0 0 143.61853389113276 -54.836712890006311 0 -54.836712890006311 307.55942067455908 0 0 0 0 136.91528229772621 -79.894391876772715 0 -79.894391876772715 242.70314667244156 0 0 0 0 113.556180199761 12.598766305232857 0 12.598766305232857 448.43832933838894 0 0 0 0 101.92640718496614 -25.217224205352977 0 -25.217224205352977 348.0120187384382 0 0 0 0 170.52792813129054 6.0052499087832985 0 6.0052499087832985 340.41696975405739 0 0 0 0 155.35271987546594 86.35143128834261 0 86.35143128834261 449.64260538951203 0 0 0 0 3.3705452940824614 -0.5862705668861885 0 -0.5862705668861885 -0.77649184183611908 0 0 0 0 30.53585426700829 -40.310339116629621 0 -40.310339116629621 345.28731871175296 0 0 0 0 44.655598467794334 84.62395535199903 0 84.62395535199903 -427.54986852409274 0 0 0 0 213.13281483325773 230.21220194809939 0 230.21220194809939 398.19204906112464 0 0 0 0 -171.58765358168966 278.04277609384008 0 278.04277609384008 -219.7454372090142 0 0 0 0 -140.04980223474195 22.371637526775885 0 22.371637526775885 181.27288847490126 0 0 0 0 -126.07745802205682 53.872338314249646 0 53.872338314249646 194.54980291730317 0 0 0 0 -355.82148002965914 -41.215718174253198 0 -41.215718174253198 620.77045573836949 0 0 0 0 -380.1433658843398 191.30553265397612 0 191.30553265397612 301.88214380063437 0 0 0 0 -207.54424559497511 -225.3727598034493 0 -225.3727598034493 596.34495314201922 0 0 0 0 -21.450144358506805 -297.50690455183212 0 -297.50690455183212 492.87775508949562 0 0 0 0 -47.44037690406185 -54.648486030226195 0 -54.648486030226195 332.42753344230005 0 0 0 0 -117.87794293909974 -56.059534988628002 0 -56.059534988628002 344.94400322049478 0 0 0 0 113.40328187480827 -747.21763648945853 0 -747.21763648945853 671.45996094934526 0 0 0 0 -17.65786247269989 -27.448184120785299 0 -27.448184120785299 74.615761856381141 0 0 0 0 8.6708662039500375 -13.88969173761881 0 -13.88969173761881 23.794214272217033 0 0 0 0 313.85822795796003 161.22536249478071 0 161.22536249478071 -15.512559311297082 0 0 0 0 274.4524353871675 293.5573766677735 0 293.5573766677735 -785.86175750110124 0 0 0 0 -1.4188478618125178 -1.9320166584251268 0 -1.9320166584251268 6.2149122104064105 0 0 0 0 193.59378067624402 162.56440346570889 0 162.56440346570889 216.74361900127587 0 0 0 0 302.20123910007715 250.19552246287276 0 250.19552246287276 228.4427853274683 0 0 0 0 205.71333921932705 198.5115760896806 0 198.5115760896806 263.04782875069941 0 0 0 0 246.4210007280376 123.52532599883853 0 123.52532599883853 132.87541376418812 0 0 0 0 132.15822756429225 106.55752193525041 0 106.55752193525041 159.85305906016583 0 0 0 0 127.91516496931342 44.628292597897371 0 44.628292597897371 9.7179467653477332 0 0 0 0 262.28795014072512 112.00835729333403 0 112.00835729333403 125.34912900201016 0 0 0 0 -211.51289220619492 -65.531302347630117 0 -65.531302347630117 55.853030080659664 0 0 0 0 -34.483989217755152 -37.623916746895702 0 -37.623916746895702 96.684378817517427 0 0 0 0 58.886994731537015 72.528807881557441 0 72.528807881557441 49.80940353378719 0 0 0 0 -86.53423844272811 -32.811764927202603 0 -32.811764927202603 12.42613328214793 0 0 0 0 -140.26697591132915 41.107129671323491 0 41.107129671323491 -12.147021994969691 0 0 0 0 92.275735853115748 94.326784324992332 0 94.326784324992332 -60.341995896837034 0 0 0 0 161.72887501227456 -142.85736332718079 0 -142.85736332718079 46.301491840458766 0 0 0 0 -324.34447623193614 -105.50176524009839 0 -105.50176524009839 134.17691897009354 0 0 0 0 64.846639531670917 125.62217457986844 0 125.62217457986844 105.26642720302698 0 0 0 0 188.84794651659013 174.70295981765958 0 174.70295981765958 -3.6605472199298674 0 0 0 0 271.84502846616761 292.72883044063565 0 292.72883044063565 93.777211368196731 0 0 0 0 151.68103221576121 206.63930834842176 0 206.63930834842176 206.15812369041669 0 0 0 0 121.91260832923399 258.36568586416251 0 258.36568586416251 172.82767178060385 0 0 0 0 183.92459644445944 317.65980060741276 0 317.65980060741276 223.22776138646441 0 0 0 0 25.450680493086907 153.68725664102112 0 153.68725664102112 304.46272546725959 0 0 0 0 -63.146721791432981 377.44927901089977 0 377.44927901089977 308.70675460941857 0 0 0 0 318.10893603144586 116.22050458204831 0 116.22050458204831 -71.529297311484697 0 0 0 0 149.33750996674354 189.92554126021241 0 189.92554126021241 47.596801039791899 0 0 0 0 2.5282376666133004 3.4224953269688783 0 3.4224953269688783 4.8981081083093727 0 0 0 0 74.686455536968879 56.572810139252397 0 56.572810139252397 81.284041728969896 0 0 0 0 2.3194903564451739 -6.0265834133834311 0 -6.0265834133834311 25.03784784781601 0 0 0 0 35.240618409482522 -44.552822165564066 0 -44.552822165564066 77.711291100247763 0 0 0 0 -45.627271444469784 -23.483134099835524 0 -23.483134099835524 69.449705202467158 0 0 0 0 -6.9553938387434755 60.492835644326988 0 60.492835644326988 129.87947780358354 0 0 0 0 -23.132832318031433 -34.628553372636816 0 -34.628553372636816 143.02987020813453 0 0 0 0 -42.756175368683103 11.770825102562412 0 11.770825102562412 56.921146250446327 0 0 0 0 86.168972727609798 50.820808993030369 0 50.820808993030369 29.000337018154823 0 0 0 0 27.485973095922418 153.46527561631046 0 153.46527561631046 58.653209945405251 0 0 0 0 -0.64037302653823502 -0.10101458663070417 0 -0.10101458663070417 7.1125340279632212 0 0 0 0 43.51326149664601 124.32336882167147 0 124.32336882167147 102.20535984139133 0 0 0 0 14.094086646509822 27.982997874638386 0 27.982997874638386 35.314737263452116 0 0 0 0 -3.556989023427704 0.19569311009024659 0 0.19569311009024659 12.857504469582921 0 0 0 0 -46.127958400553325 123.49774118004279 0 123.49774118004279 54.306204401204013 0 0 0 0 234.8360621015272 -195.79724443341183 0 -195.79724443341183 53.130626028010738 0 0 0 0 151.34960076079005 -296.75501552448259 0 -296.75501552448259 360.00627736872411 0 0 0 0 6.1037358640109289 3.2708875066262095 0 3.2708875066262095 4.0514690049100182 0 0 0 0 27.836476769094588 107.10802090234938 0 107.10802090234938 49.256612330475036 0 0 0 0 100.94911018556741 36.889992997050285 0 36.889992997050285 69.317447141656885 0 0 0 0 31.24091358845908 118.41346823481581 0 118.41346823481581 84.763836292040651 0 0 0 0 71.409551968376036 72.550299234317208 0 72.550299234317208 46.033917742446647 0 0 0 0 135.63639721981963 64.440919261434829 0 64.440919261434829 -56.505748505354859 0 0 0 0 63.853098075242087 113.29059925185175 0 113.29059925185175 0.89211790599802043 0 0 0 0 94.037065842101583 23.598776364407968 0 23.598776364407968 163.45036738284398 0 0 0 0 89.312563994521042 61.92420057614072 0 61.92420057614072 137.66276243193715 0 0 0 0 111.67354326041368 8.5673800673212099 0 8.5673800673212099 147.84165336957085 0 0 0 0 138.7751704743423 39.383861184454872 0 39.383861184454872 30.223728217708413 0 0 0 0 151.19992093120527 -105.38581267380141 0 -105.38581267380141 265.76606894185534 0 0 0 0 402.80850174378065 -53.294308546126558 0 -53.294308546126558 -373.67889808800828 0 0 0 0 302.54435973225918 -172.04447940293176 0 -172.04447940293176 -83.079084180935752 0 0 0 0 -64.398465158468753 135.33385653760342 0 135.33385653760342 7.5469676251741475 0 0 0 0 -350.5082431959072 238.79675375860097 0 238.79675375860097 -68.41018152894685 0 0 0 0 5.1234180003037277 -12.730679366966008 0 -12.730679366966008 25.95590427685265 0 0 0 0 -33.80420100149513 -12.478655823426379 0 -12.478655823426379 103.90129103391337 0 0 0 0 -347.6698968483779 -59.498770288249943 0 -59.498770288249943 28.074946705572074 0 0 0 0 -96.619544497045354 56.003537023108947 0 56.003537023108947 -0.95475500250176992 0 0 0 0 -56.984198509077032 -72.780548718234058 0 -72.780548718234058 -33.246685416750552 0 0 0 0 -135.70820849268421 67.484551728241058 0 67.484551728241058 54.900576943891792 0 0 0 0 -39.710044721348822 114.58551132896719 0 114.58551132896719 3.2224013987579383 0 0 0 0 79.616020949782467 277.42461988655123 0 277.42461988655123 -129.95341372332769 0 0 0 0 -6.3881476122478489 98.670327814375923 0 98.670327814375923 65.751301910357142 0 0 0 0 -24.656296851246523 27.374692477113534 0 27.374692477113534 -28.816412728140179 0 0 0 0 10.537744703075077 93.345329627467436 0 93.345329627467436 61.608604476045002 0 0 0 0 6.0404306635797411 -70.097909552478086 0 -70.097909552478086 -102.98315987200476 0 0 0 0 -7.7069701720441408 19.998232004101041 0 19.998232004101041 -14.295600857622617 0 0 0 0 14.06424081798832 54.670063996836689 0 54.670063996836689 47.650510793449939 0 0 0 0 2.6469227792157426 66.011476971413686 0 66.011476971413686 61.426879384627682 0 0 0 0 -20.372676479143138 65.654767787182209 0 65.654767787182209 71.37336227006017 0 0 0 0 -19.247935609235356 33.967341801682778 0 33.967341801682778 79.404720209553489 0 0 0 0 24.645225062210272 27.440960424509626 0 27.440960424509626 20.609584402151171 0 0 0 0 12.76949434008668 42.16584760902515 0 42.16584760902515 50.484826983381936 0 0 0 0 27.013723440995079 39.300287626196223 0 39.300287626196223 30.569176603639789 0 0 0 0 7.4356552449313442 14.747369317169987 0 14.747369317169987 0.24984275027193803 0 0 0 0 -614.8511765743491 52.939980850846837 0 52.939980850846837 123.7522268032626 0 0 0 0 -283.69088773689236 88.231685577775352 0 88.231685577775352 38.205232788939611 0 0 0 0 -376.38392008976803 -122.03896821729722 0 -122.03896821729722 33.619501285706065 0 0 0 0 -738.74222431656631 159.13222509036132 0 159.13222509036132 34.898368792346446 0 0 0 0 -9.3816372236713299 2.7418810827384945 0 2.7418810827384945 11.85078227393879 0 0 0 0 -538.08231572550767 78.258204004803702 0 78.258204004803702 101.34363172440681 0 0 0 0 19.177881057312334 31.833255933808687 0 31.833255933808687 59.805716324739478 0 0 0 0 -507.89659961520107 -35.919401851118891 0 -35.919401851118891 59.543393813120929 0 0 0 0 1.0605959882807237 25.442728869181138 0 25.442728869181138 64.38159647774873 0 0 0 0 -465.94393327662772 43.37131743244754 0 43.37131743244754 156.19814537673665 0 0 0 0 2.3156446154296617 29.611678324401964 0 29.611678324401964 79.086819319796632 0 0 0 0 -0.83377010843322341 23.98764869726373 0 23.98764869726373 81.911655181313961 0 0 0 0 35.110565453254821 13.783125873131212 0 13.783125873131212 89.907140608920599 0 0 0 0 -6.9265982534006723 31.648057639635834 0 31.648057639635834 96.431503580994331 0 0 0 0 -70.183906490192527 181.60878615790716 0 181.60878615790716 114.93480708916468 0 0 0 0 -80.161941195199688 43.18615812950884 0 43.18615812950884 95.885011066900915 0 0 0 0 -48.847137224397557 20.765939826174872 0 20.765939826174872 95.26658851565935 0 0 0 0 -70.803755104780862 51.0998337864512 0 51.0998337864512 92.995274961183895 0 0 0 0 -171.35834012262785 93.671988159127068 0 93.671988159127068 97.883116000017253 0 0 0 0 -29.447093946783298 74.402155760046298 0 74.402155760046298 85.708343153906753 0 0 0 0 -42.513728643903505 106.73373553422425 0 106.73373553422425 67.854609782691114 0 0 0 0 -68.594934594427968 83.338908526836349 0 83.338908526836349 85.589781440998195 0 0 0 0 -165.29045026764697 89.682314793419209 0 89.682314793419209 95.980543938425399 0 0 0 0 -35.334697839213732 177.22141312459644 0 177.22141312459644 -4.849296080035856 0 0 0 0 139.2775810253188 174.31831637113646 0 174.31831637113646 -5.0342621384443191 0 0 0 0 17.812260559989227 107.3585787397169 0 107.3585787397169 54.857090803299798 0 0 0 0 24.637427547373591 33.95030433320062 0 33.95030433320062 -54.234028673032299 0 0 0 0 27.245869368971398 114.11495140603802 0 114.11495140603802 47.177333133804495 0 0 0 0 7.1078148762899218 122.72420739701192 0 122.72420739701192 44.355555588765128 0 0 0 0 -12.425851770653026 125.06836140621817 0 125.06836140621817 48.335684335164842 0 0 0 0 -111.70440480830621 -62.726015036932949 0 -62.726015036932949 729.41650291410042 0 0 0 0 -121.03432660120552 273.19440111610129 0 273.19440111610129 1316.8435906771265 0 0 0 0 13.135748789316278 -1.5927505252597314 0 -1.5927505252597314 -0.97967583978774542 0 0 0 0 80.020632358789953 74.097268085706673 0 74.097268085706673 -148.49539843508683 0 0 0 0 313.27511264865552 -136.279365219787 0 -136.279365219787 -71.055606307651033 0 0 0 0 889.32898599663508 357.90065258114191 0 357.90065258114191 -746.2847708510235 0 0 0 0 -392.09268664128149 549.52330838152557 0 549.52330838152557 -251.43214119388722 0 0 0 0 -331.84056133798356 92.408802928394834 0 92.408802928394834 162.58910101601214 0 0 0 0 174.4619572508268 168.06273390405113 0 168.06273390405113 457.31089258288557 0 0 0 0 -483.52538520519488 -550.15739274542284 0 -550.15739274542284 1589.1212624628097 0 0 0 0 -397.92125515819447 959.77222648033717 0 959.77222648033717 999.45367499711574 0 0 0 0 224.04467007465635 9.7712542097069672 0 9.7712542097069672 -23.330763589772687 0 0 0 0 0.43193474455561032 -2.7460617183818243 0 -2.7460617183818243 7.6021490876604503 0 0 0 0 145.59732323882105 -288.55947320776613 0 -288.55947320776613 252.97010144105298 0 0 0 0 23.523836510331449 -263.65845172633635 0 -263.65845172633635 840.86711703987385 0 0 0 0 -17.294313389256573 -0.58234020892658123 0 -0.58234020892658123 14.663960235835233 0 0 0 0 970.03132917280527 10.530246864334913 0 10.530246864334913 670.8832831170439 0 0 0 0 -164.33741397202903 35.234999164938927 0 35.234999164938927 172.82069394273276 0 0 0 0 -64.86120025468972 -1.6024051082240476 0 -1.6024051082240476 136.235695856245 0 0 0 0 -927.82671506534814 -352.047742830473 0 -352.047742830473 884.13303588684357 0 0 0 0 -181.7674290156759 55.468731688845992 0 55.468731688845992 133.25972044595983 0 0 0 0 -1.6300749428625014 18.508815846795834 0 18.508815846795834 0.82099994896054795 0 0 0 0 -229.79115169274161 478.94165896012476 0 478.94165896012476 838.73050788967521 0 0 0 0 -109.29471759681869 -432.70584004335979 0 -432.70584004335979 -291.25706672675005 0 0 0 0 2.3079021756307356 -3.4702119314210904 0 -3.4702119314210904 4.3787658024429561 0 0 0 0 -238.17482864706867 351.38642964918836 0 351.38642964918836 901.50506518105976 0 0 0 0 139.74971802423337 -32.524674782827788 0 -32.524674782827788 570.38190910239791 0 0 0 0 -262.06785921227879 -65.744248966315354 0 -65.744248966315354 -83.177842712546408 0 0 0 0 -28.437146693571492 -129.89845165609586 0 -129.89845165609586 -404.31749891757499 0 0 0 0 35.372235516577064 -101.72916621515833 0 -101.72916621515833 -149.89469965742319 0 0 0 0 -75.877757700317858 -24.761425778480771 0 -24.761425778480771 82.757531441093306 0 0 0 0 54.376997048687144 -157.81113628885942 0 -157.81113628885942 -289.67569822410769 0 0 0 0 4.9906470508942675 37.82027092329372 0 37.82027092329372 -17.856375355525415 0 0 0 0 4.4266260233314272 -9.0968355906516081 0 -9.0968355906516081 11.862059561048426 0 0 0 0 -222.27111638675953 -401.50193870141675 0 -401.50193870141675 -309.53972553368658 0 0 0 0 -14.277991678965464 -55.966517592539276 0 -55.966517592539276 15.725939293319243 0 0 0 0 3.6293171432062943 -8.7823670184722005 0 -8.7823670184722005 15.849206945681829 0 0 0 0 -62.095623358527519 -232.72340880211777 0 -232.72340880211777 131.14053453682209 0 0 0 0 4.9831910163379805 -11.765433283731099 0 -11.765433283731099 16.012414689145402 0 0 0 0 -321.86736756894828 -182.67389291312884 0 -182.67389291312884 114.8040144421102 0 0 0 0 -252.73082521184574 -375.25740533485077 0 -375.25740533485077 -112.81689553316392 0 0 0 0 7.002886835835441 -12.323821249788551 0 -12.323821249788551 18.41788448061439 0 0 0 0 -13.945034198383837 16.666882409030222 0 16.666882409030222 35.210904441257298 0 0 0 0 -193.58706436350349 -344.91350471042824 0 -344.91350471042824 -69.964088984685077 0 0 0 0 8.5719697136155446 -41.632551365903055 0 -41.632551365903055 10.363453590718564 0 0 0 0 -97.788830864928968 149.99718973398922 0 149.99718973398922 222.74533788702684 0 0 0 0 -179.20858056136558 110.64905540511245 0 110.64905540511245 622.19109298209878 0 0 0 0 -35.781597808289007 -136.96445461828262 0 -136.96445461828262 -143.20014006162819 0 0 0 0 -164.65901756028234 -440.8113767524992 0 -440.8113767524992 354.5304969345525 0 0 0 0 -2.5829596692259322 4.0012549171687724 0 4.0012549171687724 19.363199310489819 0 0 0 0 627.94850114321889 142.58139038853187 0 142.58139038853187 -731.55329001646896 0 0 0 0 -158.86638273646895 456.82699365824374 0 456.82699365824374 486.87807017487557 0 0 0 0 1.7702770027241499 7.4038345389620304 0 7.4038345389620304 9.6129442532409612 0 0 0 0 3.419929312693057 12.600803634484691 0 12.600803634484691 35.572032393996778 0 0 0 0 3.5706684231954569 7.7104044458428689 0 7.7104044458428689 63.905519699175784 0 0 0 0 2.4471709700944189 20.120633620846689 0 20.120633620846689 7.6988190880370482 0 0 0 0 -4.3234357154135488 2.2602856923983374 0 2.2602856923983374 17.595561519238188 0 0 0 0 1.0342250583957551 7.7851701767917234 0 7.7851701767917234 5.7160537668453024 0 0 0 0 -1.5766064437266323 9.4327017393952701 0 9.4327017393952701 66.392360993530019 0 0 0 0 -0.83577444894399378 -0.074807519518799381 0 -0.074807519518799381 64.696158675717015 0 0 0 0 21.497914352690714 45.571716891747201 0 45.571716891747201 37.97603775573225 0 0 0 0 -0.17737055350581699 8.0598449126879927 0 8.0598449126879927 14.072058184988128 0 0 0 0 13.611179502402592 -0.25948967288786662 0 -0.25948967288786662 42.748636597841141 0 0 0 0 42.030689221068315 74.652583384521677 0 74.652583384521677 62.90980417082028 0 0 0 0 -2.3432170255861706 13.061695304056869 0 13.061695304056869 53.023909277749439 0 0 0 0 -32.377604551607874 19.532227416566457 0 19.532227416566457 67.597214613386313 0 0 0 0 -21.502013097109739 31.68173710188421 0 31.68173710188421 67.6225780901392 0 0 0 0 -9.1110804716172424 20.019804411465884 0 20.019804411465884 40.794014254788635 0 0 0 0 -2.2548723622721258 28.650066878875187 0 28.650066878875187 29.447530010543261 0 0 0 0 -4.4159518527085311 26.8674551140939 0 26.8674551140939 -0.63124939752742648 0 0 0 0 -7.4786770702616998 23.986768882218797 0 23.986768882218797 13.754005055290747 0 0 0 0 -22.190882733782928 31.915140104283637 0 31.915140104283637 92.495751385373296 0 0 0 0 -7.6571116431023256 36.078841491573257 0 36.078841491573257 53.507250702554302 0 0 0 0 -8.062011249343902 15.758916003827892 0 15.758916003827892 48.207390490272417 0 0 0 0 2.3486354553503066 8.8148670018403124 0 8.8148670018403124 -8.7745680895118525 0 0 0 0 -15.274075519466694 26.555232012777765 0 26.555232012777765 23.751413170225081 0 0 0 0 24.214713717969516 120.4598768357173 0 120.4598768357173 -87.855840160038497 0 0 0 0 1.4145112239001021 -1.0542209601509569 0 -1.0542209601509569 -12.244419379486061 0 0 0 0 489.38996258349539 -82.390772997547174 0 -82.390772997547174 467.44811843636126 0 0 0 0 -2.7370519384872054 49.511234506493196 0 49.511234506493196 10.233784095139249 0 0 0 0 4.9851093067591137 24.553284843714209 0 24.553284843714209 -145.71639315287757 0 0 0 0 11.924857461528518 52.588665666189627 0 52.588665666189627 163.67942682895227 0 0 0 0 88.475725807133131 111.686475372524 0 111.686475372524 142.57078606817231 0 0 0 0 -2.0441018780184095 32.710319176665507 0 32.710319176665507 74.211441416395246 0 0 0 0 -34.868360473874418 -10.796737401484279 0 -10.796737401484279 84.225196964533097 0 0 0 0 -1119.3652695987823 126.68584812991321 0 126.68584812991321 650.44774594443152 0 0 0 0 22.606786016594583 132.29643701098394 0 132.29643701098394 132.02334376883209 0 0 0 0 -5.3273721651712549 2.4071535421826411 0 2.4071535421826411 37.554812230955577 0 0 0 0 -20.527281509725679 49.132021890753549 0 49.132021890753549 31.104000489618045 0 0 0 0 -18.22071919666633 17.96907982670524 0 17.96907982670524 28.101368869243629 0 0 0 0 -155.2121905534276 52.217117485459312 0 52.217117485459312 243.1540123342711 0 0 0 0 -224.39139665429371 -477.39547361808945 0 -477.39547361808945 629.78090794952868 0 0 0 0 -168.28790219808155 -396.99466914123332 0 -396.99466914123332 39.061281182279345 0 0 0 0 -321.78127817736419 -248.70565526605787 0 -248.70565526605787 95.40230274561327 0 0 0 0 -51.064034166426943 -184.9090671357917 0 -184.9090671357917 107.05320763828058 0 0 0 0 -34.199834644847243 -247.29664958534704 0 -247.29664958534704 -277.21756391428062 0 0 0 0 -38.384227691114575 -79.328868274584238 0 -79.328868274584238 32.66464021075808 0 0 0 0 -2.7568857761504257 5.9666375689406905 0 5.9666375689406905 56.366066021392157 0 0 0 0 -3.8189957922668327 14.815186533531232 0 14.815186533531232 33.604309202288277 0 0 0 0 -3.8178779505569764 14.611190898962377 0 14.611190898962377 22.664513213093301 0 0 0 0 13.342868468144317 -23.067113568195197 0 -23.067113568195197 33.941290683861297 0 0 0 0 38.48960288627103 14.440695256285835 0 14.440695256285835 87.68762771353795 0 0 0 0 39.778694780055957 -101.88155165838907 0 -101.88155165838907 308.99121033216943 0 0 0 0 6.1310073941819478 -3.8244244873411759 0 -3.8244244873411759 4.661184573191349 0 0 0 0 71.31273414710779 -100.60402807299397 0 -100.60402807299397 -122.41655313788942 0 0 0 0 -46.730208420617501 -125.30047211226338 0 -125.30047211226338 -91.116224683384644 0 0 0 0 12.456704530675552 -157.755775224221 0 -157.755775224221 -86.469129730772693 0 0 0 0 57.309139399113064 118.71936744513368 0 118.71936744513368 55.768642968314452 0 0 0 0 8.3919184362185018 -11.960505997236666 0 -11.960505997236666 18.614622539362102 0 0 0 0 79.684945156120079 400.01941218994989 0 400.01941218994989 358.97102406494378 0 0 0 0 101.76720114690227 203.03000034499837 0 203.03000034499837 322.2915582050191 0 0 0 0 1.0517981728880841 176.4610402444232 0 176.4610402444232 388.93356402411519 0 0 0 0 -47.67887918586348 229.45311764194048 0 229.45311764194048 344.22091789483966 0 0 0 0 -36.847279859181072 60.504448015577509 0 60.504448015577509 188.94413953607727 0 0 0 0 97.907721282352213 205.78488108683814 0 205.78488108683814 313.60615805003908 0 0 0 0 221.44148181882429 5.8385536704754486 0 5.8385536704754486 129.97911808213394 0 0 0 0 -6.6539824456194765 -17.147461442626081 0 -17.147461442626081 134.37822632235475 0 0 0 0 -6.738922753677798 -9.7601622292149841 0 -9.7601622292149841 75.607404584181495 0 0 0 0 10.541153799837048 -73.617199970824004 0 -73.617199970824004 301.70586035371525 0 0 0 0 82.607478416022786 385.82656177458557 0 385.82656177458557 225.09844357290876 0 0 0 0 328.28156041843795 275.02079596451586 0 275.02079596451586 91.590307973790914 0 0 0 0 -118.98026008572378 350.54304706193034 0 350.54304706193034 273.26076501334319 0 0 0 0 72.888886812193959 214.5037713411366 0 214.5037713411366 342.44977290421684 0 0 0 0 46.71886640125831 117.66204012646267 0 117.66204012646267 4.1912744497676613 0 0 0 0 2.2495022253154353 5.9655934434833497 0 5.9655934434833497 6.651913029300573 0 0 0 0 -69.706225939246906 24.194408248156833 0 24.194408248156833 63.34121337414399 0 0 0 0 231.26134326422834 -394.86242235751342 0 -394.86242235751342 608.59399631935685 0 0 0 0 -3.7691469325142037 -6.4368715855163785 0 -6.4368715855163785 27.9676032049274 0 0 0 0 -102.26124174459983 -21.601283881245763 0 -21.601283881245763 156.17239421398335 0 0 0 0 94.981943119342759 -137.29582195794501 0 -137.29582195794501 79.884558580968587 0 0 0 0 -6.7921739457575745 0.64050743786949482 0 0.64050743786949482 110.20245440076019 0 0 0 0 -90.13795656279035 25.563132534691249 0 25.563132534691249 144.75892609418224 0 0 0 0 -20.14143236930795 -61.429987044026348 0 -61.429987044026348 72.185832639697765 0 0 0 0 -185.9337905502889 -54.848658754624921 0 -54.848658754624921 159.96409883872548 0 0 0 0 -15.646957872106164 -34.396548675793134 0 -34.396548675793134 39.106588767018472 0 0 0 0 27.143619775670231 -83.618297945082304 0 -83.618297945082304 205.98586369327313 0 0 0 0 -16.972048707510112 -0.20843148898711661 0 -0.20843148898711661 117.99079499875916 0 0 0 0 -15.830660466255381 -2.4237856189540707 0 -2.4237856189540707 23.621608098566021 0 0 0 0 -118.04217925156627 96.713389521944919 0 96.713389521944919 240.09541318806896 0 0 0 0 1.0178426898493811 1.5608262196127569 0 1.5608262196127569 0.20441369652437302 0 0 0 0 -50.302194745407178 -18.578353528217121 0 -18.578353528217121 169.56424446642995 0 0 0 0 -28.174903122977412 -10.515604121121214 0 -10.515604121121214 112.46054802191793 0 0 0 0 -4.2935980169968389 -35.332154983283544 0 -35.332154983283544 36.064281033060979 0 0 0 0 16.395609387061995 -25.68440703273518 0 -25.68440703273518 0.63385599260072922 0 0 0 0 -17.862310778460596 -15.6324194888075 0 -15.6324194888075 112.16782054808573 0 0 0 0 22.211185847399065 26.307493288177284 0 26.307493288177284 110.77604561995395 0 0 0 0 -0.66981548717012629 52.208424844819092 0 52.208424844819092 158.02929487026631 0 0 0 0 12.828759129886748 -19.442572486885183 0 -19.442572486885183 110.96292095594254 0 0 0 0 -24.238685125899792 51.925688290259131 0 51.925688290259131 97.940589161633397 0 0 0 0 -23.310973725005169 -31.331293155933963 0 -31.331293155933963 29.382660623123229 0 0 0 0 -33.678022391013656 19.255352263222449 0 19.255352263222449 252.60464592368953 0 0 0 0 1.9357349287358403 1.8127036882803083 0 1.8127036882803083 -0.5607352869859703 0 0 0 0 -84.468017986373525 -126.1854061574486 0 -126.1854061574486 161.32290074803677 0 0 0 0 103.45304998787469 15.682617461730842 0 15.682617461730842 45.25861689481826 0 0 0 0 -11.719538944813394 -82.055406203136954 0 -82.055406203136954 111.45873219386704 0 0 0 0 -305.34998791883118 49.527615118080575 0 49.527615118080575 396.59820693419897 0 0 0 0 -129.2636808137886 303.8713690739678 0 303.8713690739678 -301.14002918663027 0 0 0 0 -1.3481413041490713 11.369474294892203 0 11.369474294892203 98.638208618201418 0 0 0 0 -72.297420257368231 -20.764978742716494 0 -20.764978742716494 97.734129039672553 0 0 0 0 4.9019415775474044 3.7274245860462543 0 3.7274245860462543 51.993361340002593 0 0 0 0 -47.772744567357222 -0.692619317507706 0 -0.692619317507706 105.07263216113643 0 0 0 0 -10.603898875993082 7.1631070863467414 0 7.1631070863467414 27.722537290533236 0 0 0 0 3.5309561754074821 8.0566062604884792 0 8.0566062604884792 95.789237654615135 0 0 0 0 -27.159666575028609 23.647596081529855 0 23.647596081529855 70.142097179843404 0 0 0 0 -32.124474741358426 -24.392330747028609 0 -24.392330747028609 70.612026669150509 0 0 0 0 1.3563125890102441 22.641292193581705 0 22.641292193581705 28.814316453822482 0 0 0 0 -16.16895526072949 14.815759854109274 0 14.815759854109274 25.650398688308542 0 0 0 0 -1.9303802942376933 10.94075184873509 0 10.94075184873509 62.194396671828144 0 0 0 0 -2.1583383205323905 13.166902600995542 0 13.166902600995542 50.967604589524711 0 0 0 0 -0.56473071513028117 15.407761700229457 0 15.407761700229457 83.117720954702236 0 0 0 0 0.14131051160494223 1.8624624882431604 0 1.8624624882431604 11.423923386002333 0 0 0 0 -17.233753409529527 2.5762669529758568 0 2.5762669529758568 122.16377148105676 0 0 0 0 -10.78387887455392 5.0627970695095428 0 5.0627970695095428 110.18858952699748 0 0 0 0 -13.37069903421343 10.076671739851918 0 10.076671739851918 151.63201985074556 0 0 0 0 12.850848190748366 -36.481733707958483 0 -36.481733707958483 157.29727109747228 0 0 0 0 -13.408158908921905 -16.899052587963524 0 -16.899052587963524 146.17607929005317 0 0 0 0 -12.609053119620512 -19.198737787608479 0 -19.198737787608479 114.50323900449439 0 0 0 0 -17.651930295334751 -21.779778800952045 0 -21.779778800952045 116.39002306417842 0 0 0 0 -7.7236752112548857 -8.3985455493275367 0 -8.3985455493275367 99.68231170180843 0 0 0 0 -16.64999836367133 -22.820414869263914 0 -22.820414869263914 90.20541310675253 0 0 0 0 -5.5500469289363537 -3.8847345808298996 0 -3.8847345808298996 84.374110789679435 0 0 0 0 -10.708429062585623 16.785993268707756 0 16.785993268707756 40.113047535507576 0 0 0 0 -8.7311491438631492 -13.004713541628007 0 -13.004713541628007 78.632450248127498 0 0 0 0 -16.496361725668976 -0.86664843425205618 0 -0.86664843425205618 93.462060915640905 0 0 0 0 -6.0078459197939083 2.581611755130325 0 2.581611755130325 94.585367602483529 0 0 0 0 -10.046481892643229 4.3238999561718927 0 4.3238999561718927 20.942554587740403 0 0 0 0 -15.402163856003426 -10.153109631598454 0 -10.153109631598454 103.23716763037373 0 0 0 0 1.4388739497041527 2.483176276525171 0 2.483176276525171 19.827801755836298 0 0 0 0 4.1472047097868199 -6.2878597021299356 0 -6.2878597021299356 76.06881977833109 0 0 0 0 -4.0711139654849831 3.4488128376433451 0 3.4488128376433451 59.802761530274438 0 0 0 0 -12.06702288096654 16.323223634697214 0 16.323223634697214 38.775910825117748 0 0 0 0 -1.8638528050871948 -3.2931203720715416 0 -3.2931203720715416 45.06726434221855 0 0 0 0 7.3395782544757822 12.775193425789439 0 12.775193425789439 84.279449353630753 0 0 0 0 -6.0166348105356953 11.516495207021418 0 11.516495207021418 31.261634470467367 0 0 0 0 -6.6202169355910883 19.877026883597864 0 19.877026883597864 67.79004530603379 0 0 0 0 16.001433693213585 14.913693941243764 0 14.913693941243764 61.296171809051884 0 0 0 0 -9.6608319345341442 17.872328549790836 0 17.872328549790836 108.35039166753984 0 0 0 0 0.034860553797138039 -7.1697988090880074 0 -7.1697988090880074 14.970289084217706 0 0 0 0 1.2895089732619454 -7.0227018178276239 0 -7.0227018178276239 108.76517498296198 0 0 0 0 -35.576105198269943 -5.9025824342361375 0 -5.9025824342361375 108.74534809254328 0 0 0 0 1.7716938722733175 -31.739296662806737 0 -31.739296662806737 59.407333514216589 0 0 0 0 -3.8081120267452819 12.525298885153008 0 12.525298885153008 6.1518903070394053 0 0 0 0 0.9439553561669527 14.653275676791964 0 14.653275676791964 85.603695630445145 0 0 0 0 2.2952560276389704 19.564954870951624 0 19.564954870951624 97.062421465408988 0 0 0 0 -1.8023643174421409 21.872343580992528 0 21.872343580992528 60.261194076018221 0 0 0 0 -2.057777026839176 2.7354349060842651 0 2.7354349060842651 77.902892638430785 0 0 0 0 -0.76947264503905899 -2.5304085580137325 0 -2.5304085580137325 83.77575509223243 0 0 0 0 0.53684397047072707 -2.7921322196380061 0 -2.7921322196380061 78.74909299081628 0 0 0 0 -2.3743179623640724 -4.1893831246696474 0 -4.1893831246696474 51.738212941227324 0 0 0 0 -27.793126531976668 18.186038947833367 0 18.186038947833367 69.577854054380623 0 0 0 0 -8.1690708490069106 -1.4603200811284154 0 -1.4603200811284154 37.64392757517561 0 0 0 0 -11.507539753858509 1.2973254196622293 0 1.2973254196622293 42.911029778017109 0 0 0 0 0.3367202757508494 -4.2003360744929523 0 -4.2003360744929523 107.6105335860193 0 0 0 0 -6.1240723795126542 19.810363197768311 0 19.810363197768311 134.85917197596427 0 0 0 0 1.3961155942806727 16.130208879632846 0 16.130208879632846 90.124617148248944 0 0 0 0 -1.6456242917001873 6.2079997217242635 0 6.2079997217242635 103.38989644947287 0 0 0 0 -2.928913690502668 -8.2871888281588326 0 -8.2871888281588326 88.508770262153121 0 0 0 0 0.6324685997637971 4.1500680948802255 0 4.1500680948802255 92.069009233273391 0 0 0 0 68.945736339257564 45.314343234858825 0 45.314343234858825 198.51731436421323 0 0 0 0 -23.034524951863204 -3.4097042723515187 0 -3.4097042723515187 92.303958743569638 0 0 0 0 -12.657694496576621 -2.390200663108125 0 -2.390200663108125 20.239469499960684 0 0 0 0 -7.2556928009089461 11.37228912905266 0 11.37228912905266 38.981534580263542 0 0 0 0 -20.792383245541714 -7.2981079229175521 0 -7.2981079229175521 90.16404361046807 0 0 0 0 1.0793645170511326 3.9233311784963263 0 3.9233311784963263 21.190812320403495 0 0 0 0 -12.572268368654477 30.059390499838628 0 30.059390499838628 195.78089871624252 0 0 0 0 -2.0825552020978648 -13.320466417791977 0 -13.320466417791977 70.904118464524799 0 0 0 0 -10.129424495871092 -12.037567798360257 0 -12.037567798360257 48.327117288279638 0 0 0 0 -24.782729755012156 3.586267039285076 0 3.586267039285076 165.22560398431096 0 0 0 0 -7.5462487974073156 -63.676026475878416 0 -63.676026475878416 173.81092458439798 0 0 0 0 -21.898221066385304 4.8215592849187487 0 4.8215592849187487 93.337971024651779 0 0 0 0 -21.192511207778807 -30.200611475333062 0 -30.200611475333062 108.07686933636842 0 0 0 0 -23.581207267203354 -21.249303905762645 0 -21.249303905762645 116.01865477461934 0 0 0 0 -10.462294028795824 -12.762113062867449 0 -12.762113062867449 91.886801869686948 0 0 0 0 -27.396047352464848 -20.129473524286823 0 -20.129473524286823 78.027088570921023 0 0 0 0 3.5159682711577034 -17.199870965163484 0 -17.199870965163484 10.10028910406254 0 0 0 0 0.56981948384782299 -35.933674374163729 0 -35.933674374163729 28.858865265808618 0 0 0 0 38.10086832880188 30.588628815521361 0 30.588628815521361 66.184974112918326 0 0 0 0 29.591557857834744 -56.638370504606826 0 -56.638370504606826 96.132506143550017 0 0 0 0 27.958663658907426 47.51883144588146 0 47.51883144588146 132.23536462010907 0 0 0 0 -10.574897474256041 -3.911606323367923 0 -3.911606323367923 16.639335558495134 0 0 0 0 -31.328795883662679 -24.195779843796117 0 -24.195779843796117 154.82866670334738 0 0 0 0 -17.4364475017519 -11.478258351684417 0 -11.478258351684417 119.00513428977956 0 0 0 0 -25.232962912962648 -16.395148095803506 0 -16.395148095803506 3.9481918630382964 0 0 0 0 14.806719528999565 -7.3451664588415042 0 -7.3451664588415042 3.9701097600154753 0 0 0 0 -44.598346739587669 -46.963459447657442 0 -46.963459447657442 19.449087089451041 0 0 0 0 -26.655063309701745 -30.162229158547689 0 -30.162229158547689 55.959424981297161 0 0 0 0 3.8027146659346727 11.479759142640546 0 11.479759142640546 80.01437322608399 0 0 0 0 -16.12793848906415 -3.6838726336708305 0 -3.6838726336708305 21.168956387274193 0 0 0 0 -0.80716184219655673 10.094314263315091 0 10.094314263315091 16.524333018161677 0 0 0 0 -14.366169767311476 -17.986765155359535 0 -17.986765155359535 159.53372063520237 0 0 0 0 32.530208959071388 18.834644154316265 0 18.834644154316265 70.296748143676268 0 0 0 0 -9.8253931221788964 -9.3313993338972558 0 -9.3313993338972558 10.535251525670411 0 0 0 0 -27.150026319768585 21.277507744308878 0 21.277507744308878 123.4734169746132 0 0 0 0 15.002965034243971 -5.2872565612433391 0 -5.2872565612433391 59.683627403596802 0 0 0 0 8.6157089814341816 21.783561501001714 0 21.783561501001714 106.69372614020995 0 0 0 0 -16.902948931681749 -8.3934163306212213 0 -8.3934163306212213 84.504443614345291 0 0 0 0 -33.524154823258868 9.8829438677391863 0 9.8829438677391863 92.144361615504749 0 0 0 0 5.2731780990092147 -14.331959623656189 0 -14.331959623656189 27.827830938298803 0 0 0 0 -11.256637239300176 -8.2295472168336801 0 -8.2295472168336801 46.46426165208527 0 0 0 0 -6.6673055927975611 0.36807662433602673 0 0.36807662433602673 0.89541876451494318 0 0 0 0 -6.9995238177510402 -12.041463396250668 0 -12.041463396250668 18.93601363186453 0 0 0 0 -17.961246057398853 0.90323667398195084 0 0.90323667398195084 85.539717026223343 0 0 0 0 -5.5928711258914134 -7.3751506669387368 0 -7.3751506669387368 18.168301354947385 0 0 0 0 1.2076833516848424 -6.9053307234621855 0 -6.9053307234621855 16.602462262841634 0 0 0 0 -26.847873152597458 4.002860173353838 0 4.002860173353838 109.90855151243522 0 0 0 0 -71.931976589243277 -53.479079840908526 0 -53.479079840908526 269.62275027081341 0 0 0 0 -16.866478557956043 -20.285093767992294 0 -20.285093767992294 51.915694687435916 0 0 0 0 -17.590804482118703 7.3205331660401418 0 7.3205331660401418 37.095383338614283 0 0 0 0 -12.104125860954809 6.6499757793135359 0 6.6499757793135359 139.65325558338554 0 0 0 0 13.916322503508127 -26.262354108479485 0 -26.262354108479485 98.928678472460888 0 0 0 0 83.22887408994211 -26.959027138196689 0 -26.959027138196689 109.63474414440861 0 0 0 0 -25.835107338123862 -10.470660536823971 0 -10.470660536823971 121.10242374655354 0 0 0 0 -23.259120482556341 3.7501237986956539 0 3.7501237986956539 93.288937686349527 0 0 0 0 -12.431712511035798 -26.177141518482813 0 -26.177141518482813 96.707098282735387 0 0 0 0 -12.605031359384157 -35.702246069238754 0 -35.702246069238754 125.23247176957375 0 0 0 0 -19.21758449493791 4.7669773749048545 0 4.7669773749048545 71.994850237897481 0 0 0 0 -24.499912063931333 -0.7255485923778906 0 -0.7255485923778906 91.89638024331839 0 0 0 0 7.5956967021738819 -2.7002555729450251 0 -2.7002555729450251 92.017823213849624 0 0 0 0 -19.132101549595973 -8.8782982636985253 0 -8.8782982636985253 108.70762240947442 0 0 0 0 -9.2541130639829134 -10.722664437329513 0 -10.722664437329513 65.997717414211365 0 0 0 0 -3.1550791673474805 -8.4618732634172602 0 -8.4618732634172602 77.967325410672856 0 0 0 0 -10.914526815562862 17.707687420901621 0 17.707687420901621 38.842088069063777 0 0 0 0 -6.0427866222289595 -0.15098122908966616 0 -0.15098122908966616 96.385428303492517 0 0 0 0 -7.9887612199047453 -0.83258063788071013 0 -0.83258063788071013 81.775213516526492 0 0 0 0 -1.1712378269731083 0.0055925540045898003 0 0.0055925540045898003 17.50983567572883 0 0 0 0 -47.484622015706918 -8.960937343182195 0 -8.960937343182195 68.193440132444721 0 0 0 0 -16.686924853087476 -23.608213467777205 0 -23.608213467777205 21.17180708926935 0 0 0 0 0.55285374024571965 0.26049867501089707 0 0.26049867501089707 -1.3939991442130726 0 0 0 0 -5.2628532569269737 2.5832586509222892 0 2.5832586509222892 56.716119493651604 0 0 0 0 2.1199195079798301 10.158522169244407 0 10.158522169244407 96.019042584040221 0 0 0 0 -19.719035191843432 0.57168954210192169 0 0.57168954210192169 132.06870928859644 0 0 0 0 -0.031488332641764316 13.337765693723885 0 13.337765693723885 9.61466527520939 0 0 0 0 5.3533856534121469 -11.425990423351756 0 -11.425990423351756 31.157808536619605 0 0 0 0 3.7684535113357924 -2.6173883816120451 0 -2.6173883816120451 71.782754954136408 0 0 0 0 1.1718857335627035 1.9992158757570451 0 1.9992158757570451 69.274457841067601 0 0 0 0 -6.4749163026344831 10.755490630072927 0 10.755490630072927 182.07961349337256 0 0 0 0 -6.163768459046878 15.299567723150176 0 15.299567723150176 118.28908835885341 0 0 0 0 -0.8331575068679018 19.548239134899553 0 19.548239134899553 2.8729771861408153 0 0 0 0 -8.7897660162460269 24.0590177373182 0 24.0590177373182 75.473227043350136 0 0 0 0 -8.4007529225564213 36.709997881996969 0 36.709997881996969 163.540855226227 0 0 0 0 47.573563921354435 -39.395492933634159 0 -39.395492933634159 90.994394696961535 0 0 0 0 8.7871989395071068 58.176353953089347 0 58.176353953089347 141.20843628161856 0 0 0 0 6.8036183203148539 -26.415754408517387 0 -26.415754408517387 217.63829426030134 0 0 0 0 108.78256429869361 -67.599032215196985 0 -67.599032215196985 132.24501658995723 0 0 0 0 64.24077270268026 -10.252764647302683 0 -10.252764647302683 86.402160379508132 0 0 0 0 -11.164473755446714 -3.1122329670146236 0 -3.1122329670146236 20.962281414795271 0 0 0 0 49.029348806510825 -3.0022790020411776 0 -3.0022790020411776 126.55094152446691 0 0 0 0 -1.8186301448930435 -6.3107147692322192 0 -6.3107147692322192 109.88832174990598 0 0 0 0 -3.2569158260930635 -15.985293086691854 0 -15.985293086691854 139.66920140217371 0 0 0 0 -10.336070125891183 -33.757559370012132 0 -33.757559370012132 94.233639019199472 0 0 0 0 -26.19704269742806 -2.9408425777655793 0 -2.9408425777655793 111.6326074526587 0 0 0 0 -0.92532062317877717 -14.41191584806802 0 -14.41191584806802 132.21856491728249 0 0 0 0 -6.6040859696604457 -28.411500520727714 0 -28.411500520727714 75.143333006555622 0 0 0 0 -1.4580020462499306 -13.020930015621161 0 -13.020930015621161 144.08987454694761 0 0 0 0 20.90115010865884 -45.597439015831696 0 -45.597439015831696 138.96303978827132 0 0 0 0 41.09761799189971 -44.045067017114434 0 -44.045067017114434 122.31344801450905 0 0 0 0 1.1887416351334537 -13.728938376555448 0 -13.728938376555448 129.65495309785371 0 0 0 0 -186.10826967510377 -177.1745388970387 0 -177.1745388970387 11.031755970143422 0 0 0 0 -26.45397631106789 -55.078725457602559 0 -55.078725457602559 77.066808427247452 0 0 0 0 -50.497742027673212 46.303530950707227 0 46.303530950707227 323.4859472907483 0 0 0 0 -66.561963864391146 -8.2967587167586316 0 -8.2967587167586316 250.9931215778538 0 0 0 0 7.3559920532616161 12.554300403948218 0 12.554300403948218 220.12662168813404 0 0 0 0 -3.3918247488900306 -15.632681060432333 0 -15.632681060432333 153.53371833905567 0 0 0 0 -4.9464790165930026 -65.475453525421472 0 -65.475453525421472 144.41065698740931 0 0 0 0 -43.563707542522025 -47.358153972840228 0 -47.358153972840228 175.81073187218954 0 0 0 0 -38.131011000310991 -41.659092157288796 0 -41.659092157288796 171.38285463239299 0 0 0 0 -92.653268733409732 1.0391682326335285 0 1.0391682326335285 248.71048761752536 0 0 0 0 -158.30088983744463 4.415982278526144 0 4.415982278526144 109.57547715864348 0 0 0 0 -88.84751485007655 -55.203651232525772 0 -55.203651232525772 120.1972089263636 0 0 0 0 -96.925383564868753 -46.989920554449782 0 -46.989920554449782 171.13120101689015 0 0 0 0 -27.557219228528083 -69.600485511757142 0 -69.600485511757142 143.75411303854708 0 0 0 0 -85.76969403709154 -57.926552182059822 0 -57.926552182059822 133.13148286059334 0 0 0 0 -38.201284841476081 -83.402700802879735 0 -83.402700802879735 132.15363953135966 0 0 0 0 -8.2236640238277232 -88.836615827308151 0 -88.836615827308151 119.75256574164814 0 0 0 0 -6.7299412350515695 -77.633651104318687 0 -77.633651104318687 137.76118148741443 0 0 0 0 -28.270525632451463 -73.441735337389048 0 -73.441735337389048 156.81047565118206 0 0 0 0 -28.272821843833931 -74.218503918991189 0 -74.218503918991189 103.64122793675051 0 0 0 0 64.227503113022976 -51.225306219790582 0 -51.225306219790582 97.392449497863709 0 0 0 0 -113.03752043319901 -22.802828795491109 0 -22.802828795491109 81.843113577859185 0 0 0 0 -110.94915942887565 -77.598037588752049 0 -77.598037588752049 131.13671089976924 0 0 0 0 -87.959484031377087 -73.795956543368447 0 -73.795956543368447 85.787202761937806 0 0 0 0 -90.022778218813983 -72.625116662469736 0 -72.625116662469736 137.39047146653684 0 0 0 0 -130.97727093501544 -83.155388358944037 0 -83.155388358944037 136.36897637324364 0 0 0 0 -227.32091748708626 -53.971178865152979 0 -53.971178865152979 96.287355816843046 0 0 0 0 -253.20019338264137 43.205416833412528 0 43.205416833412528 97.140746292057884 0 0 0 0 -153.9896058597642 -10.624436747597429 0 -10.624436747597429 71.656150925766269 0 0 0 0 119.47313721926548 -164.48463738969258 0 -164.48463738969258 -110.07958594667434 0 0 0 0 44.018177024942815 -87.895175972343168 0 -87.895175972343168 124.50660683006572 0 0 0 0 80.232720259637063 -31.695282132874127 0 -31.695282132874127 124.29071644408577 0 0 0 0 152.39923197992175 -45.037257894366121 0 -45.037257894366121 114.38018910590108 0 0 0 0 102.12905638350787 -60.493621503886743 0 -60.493621503886743 188.06843528904574 0 0 0 0 105.19239931473703 -97.197376287575025 0 -97.197376287575025 148.54676095843024 0 0 0 0 75.14424351422349 -67.492451391975919 0 -67.492451391975919 122.71373781454895 0 0 0 0 64.249673999515835 -55.452922234218931 0 -55.452922234218931 164.62197336088866 0 0 0 0 149.2239856719425 -42.745213942664122 0 -42.745213942664122 124.9428475724053 0 0 0 0 133.21089062413557 -4.2239138022468978 0 -4.2239138022468978 219.21506541879353 0 0 0 0 295.204376003172 26.742378267106687 0 26.742378267106687 143.0351794592716 0 0 0 0 -12.254346565896789 -22.063865735635368 0 -22.063865735635368 22.873860006547247 0 0 0 0 -1.1142297158427104 -3.0713324686082579 0 -3.0713324686082579 149.31955999118088 0 0 0 0 -749.13131047357501 -23.27445345909473 0 -23.27445345909473 566.18577757163439 0 0 0 0 322.68509132620238 16.754072796706168 0 16.754072796706168 67.082509652836961 0 0 0 0 109.47493939577635 38.068246485646341 0 38.068246485646341 187.32588481482526 0 0 0 0 -340.98748677795629 -512.97870380298991 0 -512.97870380298991 1107.6327938331451 0 0 0 0 6.8549617892690513 -2.0736724072928467 0 -2.0736724072928467 0.70566828410804305 0 0 0 0 -299.2072193764252 467.66935458713851 0 467.66935458713851 663.62383722355298 0 0 0 0 -240.06008420792455 -114.28924785881827 0 -114.28924785881827 379.77369279706909 0 0 0 0 175.716593212921 30.711156709826355 0 30.711156709826355 -14.661464828575845 0 0 0 0 370.25632338885953 -79.832097435235482 0 -79.832097435235482 1015.7589710235625 0 0 0 0 314.00609850486762 -125.8124826802632 0 -125.8124826802632 -55.129194966400973 0 0 0 0 61.28039879701646 -86.241883802358643 0 -86.241883802358643 -46.675243443267391 0 0 0 0 26.030781680578002 8.8588683411344391 0 8.8588683411344391 -17.655426662015088 0 0 0 0 116.5153329578734 -29.181181638297858 0 -29.181181638297858 -44.334522727760486 0 0 0 0 58.648460043950763 182.39428416774172 0 182.39428416774172 353.36183061818065 0 0 0 0 3.70143138435742 -44.946301606112684 0 -44.946301606112684 -15.660889258706447 0 0 0 0 16.763053791747382 -9.2410602669862172 0 -9.2410602669862172 5.4722514002290907 0 0 0 0 -13.755341078553101 -19.359710314727636 0 -19.359710314727636 -4.5890509682431002 0 0 0 0 195.18345952815866 -38.441863560560023 0 -38.441863560560023 282.22119680700416 0 0 0 0 94.329145332247208 30.066910388915858 0 30.066910388915858 235.91721184516609 0 0 0 0 251.34029461036516 291.87562371505555 0 291.87562371505555 603.36578122748324 0 0 0 0 -31.103313677256665 70.460327894761576 0 70.460327894761576 -81.133599723296356 0 0 0 0 -67.661984077663874 32.971142482576397 0 32.971142482576397 199.61354360522819 0 0 0 0 91.699129724811428 -5.2732144586079812 0 -5.2732144586079812 -35.99897199649422 0 0 0 0 -27.343575870512723 -232.54359682561335 0 -232.54359682561335 -337.25497507839464 0 0 0 0 13.053300465008242 -12.347180040270494 0 -12.347180040270494 11.310731253926861 0 0 0 0 -313.96756604840448 -120.87021952549185 0 -120.87021952549185 -34.349722159138764 0 0 0 0 -0.41526218804938253 -42.848245855013374 0 -42.848245855013374 -54.590883725606545 0 0 0 0 -26.882762608620396 -35.496157393627072 0 -35.496157393627072 -236.43082259752555 0 0 0 0 -83.648498674547227 -46.336025972012067 0 -46.336025972012067 107.47269461039104 0 0 0 0 -34.194551981207042 18.087495286148624 0 18.087495286148624 191.49192787488573 0 0 0 0 -19.577576007791322 57.802899890959452 0 57.802899890959452 89.465955732375733 0 0 0 0 2.4809244407406368 -15.364600938686635 0 -15.364600938686635 338.72518160754407 0 0 0 0 88.811559937246784 69.839081214711769 0 69.839081214711769 200.3120570770534 0 0 0 0 -52.544830639999418 80.901906984261586 0 80.901906984261586 181.67148487498343 0 0 0 0 19.548879610254517 -22.729154852602733 0 -22.729154852602733 266.01952263407293 0 0 0 0 7.526412201095809 17.00037208240974 0 17.00037208240974 306.7837399797645 0 0 0 0 -15.910693620568054 -103.7220595190156 0 -103.7220595190156 361.36640738801361 0 0 0 0 22.149386616900301 135.2764576978625 0 135.2764576978625 211.41711763325156 0 0 0 0 33.555328251004539 101.85796872934225 0 101.85796872934225 233.7226477678123 0 0 0 0 111.5532223038681 114.86423636476684 0 114.86423636476684 195.72558051332453 0 0 0 0 25.771702565522911 -17.127549441128814 0 -17.127549441128814 14.00868963572055 0 0 0 0 5.5152542589894438 -15.3958274219749 0 -15.3958274219749 19.802532856290782 0 0 0 0 11.186543172814709 -30.015556929973172 0 -30.015556929973172 36.450962975432049 0 0 0 0 -1.9433844627710641 -27.1159997284376 0 -27.1159997284376 46.007239343187393 0 0 0 0 43.585000100942125 9.9376701817454887 0 9.9376701817454887 269.74108466359939 0 0 0 0 112.73207123406428 34.983364521118347 0 34.983364521118347 176.57780804243521 0 0 0 0 138.81392194957152 -77.352693419219577 0 -77.352693419219577 218.21759009621019 0 0 0 0 382.56894261434354 -150.05379516919493 0 -150.05379516919493 132.14004229296552 0 0 0 0 125.83253753112513 2.2001837150601204 0 2.2001837150601204 192.32861329882144 0 0 0 0 10.898846686068282 28.110408967397234 0 28.110408967397234 290.16694576910231 0 0 0 0 68.444586211873684 10.709026436001295 0 10.709026436001295 269.41197438764357 0 0 0 0 3.7983816412381759 -1.2387526638074107 0 -1.2387526638074107 0.088147032721039409 0 0 0 0 33.159387842941214 111.05938381517626 0 111.05938381517626 95.01728501735488 0 0 0 0 36.744113889842993 76.205858890185482 0 76.205858890185482 206.61007176211569 0 0 0 0 123.93935111377505 23.361685430441867 0 23.361685430441867 33.070315023505827 0 0 0 0 81.873227151518222 59.802057433727896 0 59.802057433727896 30.821706500661094 0 0 0 0 7.314979627491816 0.99340277040431957 0 0.99340277040431957 -2.758258695830861 0 0 0 0 93.642903774139995 136.28025203746802 0 136.28025203746802 297.01740397083631 0 0 0 0 11.363228686452032 55.946435716068208 0 55.946435716068208 392.2586310566985 0 0 0 0 31.290788625949062 -12.094803113173839 0 -12.094803113173839 43.750040262708353 0 0 0 0 0.28410031449451401 -9.8109546045213953 0 -9.8109546045213953 30.705401971565152 0 0 0 0 -5.0987850262645225 -2.5674304907624901 0 -2.5674304907624901 13.558778142214578 0 0 0 0 119.33034665172454 -22.96681852205802 0 -22.96681852205802 -35.583141922805225 0 0 0 0 8.203678146221506 -1.1518642121144076 0 -1.1518642121144076 9.7354741910647391 0 0 0 0 -12.449861447902094 -12.471014689528602 0 -12.471014689528602 6.1050441967672668 0 0 0 0 -51.140046712636831 -26.497510167988366 0 -26.497510167988366 25.393219072429929 0 0 0 0 21.328608606764828 -13.202167376446983 0 -13.202167376446983 -2.0445762495344582 0 0 0 0 83.394619530750788 -36.95984982533264 0 -36.95984982533264 96.255938727641478 0 0 0 0 -3.4971002994155498 4.5632703982136675 0 4.5632703982136675 27.391081406211335 0 0 0 0 6.3309223724891979 -5.3188086083465578 0 -5.3188086083465578 16.375126453306123 0 0 0 0 73.532526858391066 101.05848838789097 0 101.05848838789097 -22.599898842454422 0 0 0 0 13.884877898335105 5.8325054516277959 0 5.8325054516277959 10.969488291185726 0 0 0 0 337.81568705353129 19.30359985625546 0 19.30359985625546 38.061641343869269 0 0 0 0 67.954201431933143 123.2017508559702 0 123.2017508559702 4.1878263885446358 0 0 0 0 5.3393353669598582 10.151971006867825 0 10.151971006867825 23.199125933235337 0 0 0 0 0.82800789441716915 6.6212107368100988 0 6.6212107368100988 28.006158412863442 0 0 0 0 -0.1905947949505653 7.8099187816064948 0 7.8099187816064948 18.124460555618299 0 0 0 0 -12.013445518547201 4.4409981969509147 0 4.4409981969509147 38.968296325598843 0 0 0 0 14.811281780967875 -23.558818408004527 0 -23.558818408004527 59.759922247863869 0 0 0 0 8.6263738156867475 45.100302069191457 0 45.100302069191457 7.7722182117468037 0 0 0 0 12.041038321132419 -38.393979636078711 0 -38.393979636078711 64.287018258681201 0 0 0 0 2.2875322606705595 -36.247916741602239 0 -36.247916741602239 47.58018760122286 0 0 0 0 -4.5582805868034484 -18.216139812851907 0 -18.216139812851907 80.622639986064314 0 0 0 0 -1.9879782043317391 -25.077308730291406 0 -25.077308730291406 55.758023113026866 0 0 0 0 -10.867369609612069 -36.667547870321869 0 -36.667547870321869 72.122932012456658 0 0 0 0 -7.43893888821367 -21.283221375087123 0 -21.283221375087123 80.39806380742084 0 0 0 0 -11.248153182077658 -30.541061038929911 0 -30.541061038929911 89.559615766454954 0 0 0 0 -15.805712075430165 -18.82993227360339 0 -18.82993227360339 107.81347393256874 0 0 0 0 -0.1115981486371993 -40.565015517402458 0 -40.565015517402458 113.30228005218669 0 0 0 0 -13.830783046178112 -34.320260043219605 0 -34.320260043219605 118.27588738421127 0 0 0 0 -3.1975986823836138 -31.13286391323345 0 -31.13286391323345 92.174181085392775 0 0 0 0 -9.3821275091922871 -45.184209800094322 0 -45.184209800094322 63.195260520918964 0 0 0 0 -15.758902900279281 -39.301560676349254 0 -39.301560676349254 92.849865579675225 0 0 0 0 -12.800114377849241 -38.154254800083436 0 -38.154254800083436 92.267401076835995 0 0 0 0 -8.3068646770652776 -32.785905539939449 0 -32.785905539939449 62.761990813443845 0 0 0 0 -5.3517671580284514 -40.677410195928132 0 -40.677410195928132 57.115608402215003 0 0 0 0 -8.6644013244986127 -45.391677766339853 0 -45.391677766339853 60.012294043079237 0 0 0 0 -22.308040629275638 -82.887849904880568 0 -82.887849904880568 20.285072761085758 0 0 0 0 27.361924712722612 -53.603382235023673 0 -53.603382235023673 -50.627436630325974 0 0 0 0 2.8639714859637024 -30.199329634544483 0 -30.199329634544483 22.002817660013534 0 0 0 0 27.165462612634599 -35.783416056213284 0 -35.783416056213284 1.9233921950872173 0 0 0 0 5.9674793804188084 -34.457045422419469 0 -34.457045422419469 10.256877953965159 0 0 0 0 15.728359515145712 -21.333892538559667 0 -21.333892538559667 -8.0124080309687997 0 0 0 0 -1.0945473498250067 -45.666938865790144 0 -45.666938865790144 32.447173021486378 0 0 0 0 34.483138937865874 215.79302940799971 0 215.79302940799971 531.53645284436061 0 0 0 0 -0.00024919232391139301 -12.793437103271572 0 -12.793437103271572 480.16510758655932 0 0 0 0 41.059839924354428 113.15485203424396 0 113.15485203424396 285.31949787584745 0 0 0 0 62.03080275041755 -20.380365224184061 0 -20.380365224184061 -67.053239474320435 0 0 0 0 724.08293895332883 -89.687190431210183 0 -89.687190431210183 -98.567868125765926 0 0 0 0 156.08786212065067 -365.56602432410364 0 -365.56602432410364 533.99270414815692 0 0 0 0 2.1862184314242494 -2.9424263681401754 0 -2.9424263681401754 7.9500448908145813 0 0 0 0 524.01057376373171 22.071497315849228 0 22.071497315849228 733.01283366556163 0 0 0 0 424.05563598762149 386.49858963171391 0 386.49858963171391 603.32805402260419 0 0 0 0 515.05925500743433 599.85648808974656 0 599.85648808974656 914.75046020861919 0 0 0 0 -108.22035298280394 27.429859432988451 0 27.429859432988451 1213.7991580265953 0 0 0 0 14.951406908185177 -103.1718224824217 0 -103.1718224824217 829.18777448400215 0 0 0 0 100.3731386245985 -145.19097475681338 0 -145.19097475681338 527.98667463029415 0 0 0 0 5.5224449777961979 -93.394235209052567 0 -93.394235209052567 931.94257119225949 0 0 0 0 -27.45302589452043 75.442320819162887 0 75.442320819162887 668.96450351343083 0 0 0 0 -0.22944169380731005 -33.527273107552901 0 -33.527273107552901 782.89393092439423 0 0 0 0 -11.667465244688504 -39.646840750705451 0 -39.646840750705451 493.20300823465004 0 0 0 0 -74.705432351077292 -15.596866556981695 0 -15.596866556981695 364.20671976545418 0 0 0 0 127.04767551177386 32.470729192769795 0 32.470729192769795 355.14708075068484 0 0 0 0 0.2055403333697105 11.077075039775082 0 11.077075039775082 352.84313669511175 0 0 0 0 -0.19087810090531038 2.6724186929750431 0 2.6724186929750431 130.69594686089113 0 0 0 0 -13.544124176031355 -75.554647692399158 0 -75.554647692399158 303.78519581718501 0 0 0 0 -29.700316780005693 -67.266768221532402 0 -67.266768221532402 104.89408879312396 0 0 0 0 -1.4883656083749752 9.5289379328678478 0 9.5289379328678478 204.555571860692 0 0 0 0 -67.516217917050426 19.035836995608406 0 19.035836995608406 82.890837707411265 0 0 0 0 -8.5548756980158327 7.5707736501681211 0 7.5707736501681211 24.206697211513529 0 0 0 0 -19.992639254459821 -47.408936953071134 0 -47.408936953071134 76.197246385985636 0 0 0 0 -576.95827087416592 187.69298283881653 0 187.69298283881653 61.981560031577828 0 0 0 0 121.39804221117345 233.2496755421671 0 233.2496755421671 952.46305896685226 0 0 0 0 1.2597664904793722 9.1613211549378022 0 9.1613211549378022 24.456325507286977 0 0 0 0 0.65393524601997977 6.9085807622304642 0 6.9085807622304642 30.819021238234711 0 0 0 0 -431.32760112758342 9.068744129879633 0 9.068744129879633 12.32641270221211 0 0 0 0 -368.0745849193645 276.03658463380998 0 276.03658463380998 -119.23526542160107 0 0 0 0 -247.9545950422457 80.439944795159136 0 80.439944795159136 47.343227595265489 0 0 0 0 -66.739533752461512 1.5259701009927085 0 1.5259701009927085 22.700458608573172 0 0 0 0 -128.98205716206132 98.584020981477806 0 98.584020981477806 -47.661334620512207 0 0 0 0 -90.641722643615367 -65.313695315649966 0 -65.313695315649966 -22.2186413031759 0 0 0 0 -91.220097680208539 -2.4695296715071891 0 -2.4695296715071891 217.27216299140127 0 0 0 0 -42.847798215333739 -25.935699970010319 0 -25.935699970010319 221.83143499893595 0 0 0 0 0.52330270459598083 2.8941072395694221 0 2.8941072395694221 9.3490027319911064 0 0 0 0 -278.37886434721372 -43.420389693586912 0 -43.420389693586912 292.28418479855463 0 0 0 0 444.7686300763196 -344.06241078880703 0 -344.06241078880703 -1572.934043571091 0 0 0 0 -237.87450423929749 33.940690216826624 0 33.940690216826624 -101.34811848797835 0 0 0 0 -153.84910023555858 104.53709538864496 0 104.53709538864496 -61.807990673056338 0 0 0 0 437.88122384521637 297.2277303295923 0 297.2277303295923 -1090.7312516017992 0 0 0 0 -388.03068576181971 678.27905848328373 0 678.27905848328373 1854.413287798845 0 0 0 0 -173.94962163872947 148.13564112154381 0 148.13564112154381 86.89820515786414 0 0 0 0 1.1546362337669847 8.8692941717726974 0 8.8692941717726974 28.12814480407576 0 0 0 0 310.54526534882081 338.12950054037356 0 338.12950054037356 434.38683717026288 0 0 0 0 -153.07537533248393 133.63179809949361 0 133.63179809949361 524.70973482349655 0 0 0 0 78.381570510706126 -209.2700198313396 0 -209.2700198313396 328.24304734160251 0 0 0 0 106.30098381933837 92.845570870125812 0 92.845570870125812 181.49488325645507 0 0 0 0 -382.1671297666802 -511.02083384160323 0 -511.02083384160323 330.79411005051224 0 0 0 0 0.97963161874634785 3.7823640767657789 0 3.7823640767657789 13.094307312232218 0 0 0 0 909.89635392445973 437.6671503714324 0 437.6671503714324 72.729157266119728 0 0 0 0 325.3173125151896 907.97232193148375 0 907.97232193148375 654.73073877482966 0 0 0 0 -116.12915465724586 517.64374049806793 0 517.64374049806793 400.97315359479398 0 0 0 0 -272.48239305473498 630.51419566147888 0 630.51419566147888 545.63619508819829 0 0 0 0 -136.14648345342408 326.69246744908742 0 326.69246744908742 506.16338824648483 0 0 0 0 -147.17679956951315 116.0307623372064 0 116.0307623372064 95.091076248886111 0 0 0 0 4.2925710283921035 211.44155874024727 0 211.44155874024727 68.130347817175789 0 0 0 0 -137.90454491538003 167.75607656800275 0 167.75607656800275 -50.38086668800679 0 0 0 0 -242.43438438708199 145.89208817431063 0 145.89208817431063 28.807926110603148 0 0 0 0 -43.084258700341024 155.27117297583027 0 155.27117297583027 -38.567684499153984 0 0 0 0 -149.42858729541902 150.27782724846838 0 150.27782724846838 96.539633233071072 0 0 0 0 -286.51042395142053 47.381458011375798 0 47.381458011375798 148.15487207235856 0 0 0 0 -38.096209669436462 143.65595810492778 0 143.65595810492778 -16.127657590026502 0 0 0 0 -49.592247326293574 138.28839744741708 0 138.28839744741708 34.192217556425021 0 0 0 0 -28.94576715504445 144.26227573856886 0 144.26227573856886 -16.652845635879203 0 0 0 0 10.374422227804587 102.49619081383571 0 102.49619081383571 30.257657233363716 0 0 0 0 -138.22017535814143 53.829010476969415 0 53.829010476969415 41.939993303414667 0 0 0 0 -279.46956078097332 102.92894516010347 0 102.92894516010347 2.1003816050069872 0 0 0 0 -182.941163954069 171.83638446322584 0 171.83638446322584 -51.73722002809518 0 0 0 0 -306.70381581766628 189.82200829382055 0 189.82200829382055 -7.8001483966945671 0 0 0 0 -189.6566764120339 77.835835689067608 0 77.835835689067608 -46.406412133466802 0 0 0 0 -146.46846739004695 180.46579607357853 0 180.46579607357853 3.084297898953082 0 0 0 0 -53.895688507218267 121.52290170975903 0 121.52290170975903 -23.819855915648077 0 0 0 0 158.72446819622019 16.05207545565645 0 16.05207545565645 26.605990982749063 0 0 0 0 -306.231201677645 -205.34817071654106 0 -205.34817071654106 372.05577259683923 0 0 0 0 -84.880847530217352 197.58999647008386 0 197.58999647008386 -421.59654251072061 0 0 0 0 -84.521165873135487 101.36101998691447 0 101.36101998691447 88.507158386928495 0 0 0 0 -621.27989109221153 330.62670392904784 0 330.62670392904784 461.35848138309666 0 0 0 0 -17.205176486667369 96.703687482533496 0 96.703687482533496 84.195598724560114 0 0 0 0 -606.18179069357575 -282.31507455293468 0 -282.31507455293468 135.98757404506614 0 0 0 0 227.00785204577278 675.02952160842688 0 675.02952160842688 520.60430272801023 0 0 0 0 -1.3740305389574461 3.9164383006066128 0 3.9164383006066128 14.392570552526877 0 0 0 0 358.71124693387787 786.92472257178815 0 786.92472257178815 496.78897679243528 0 0 0 0 -594.73956773786767 -279.26796869387545 0 -279.26796869387545 780.03156176957418 0 0 0 0 152.44516262471097 836.71008356017774 0 836.71008356017774 628.45158748418908 0 0 0 0 -373.07918972758739 127.68539259003592 0 127.68539259003592 841.97031081310706 0 0 0 0 -311.28824943031805 678.85679299206095 0 678.85679299206095 896.71935398582991 0 0 0 0 260.04153455478354 361.52807514767119 0 361.52807514767119 71.527685564069543 0 0 0 0 -16.462658548956234 8.9293074714678085 0 8.9293074714678085 12.151509511467623 0 0 0 0 70.721581058311244 134.04875121569239 0 134.04875121569239 70.781986529240385 0 0 0 0 -19.119269816322685 103.16270195109246 0 103.16270195109246 98.264921620520909 0 0 0 0 -9.5039437654387022 1.5616573926925525 0 1.5616573926925525 16.314748465257992 0 0 0 0 -1062.7833366529844 -795.54765361776663 0 -795.54765361776663 -107.98539923229146 0 0 0 0 -485.78366805914646 278.42448263431834 0 278.42448263431834 300.4438914652128 0 0 0 0 -852.69429140246189 -440.77763164326461 0 -440.77763164326461 -112.91397852551381 0 0 0 0 -451.34811710947855 183.00876548346423 0 183.00876548346423 487.35928675078139 0 0 0 0 -358.58883357829967 589.50435677395581 0 589.50435677395581 1277.4174376106239 0 0 0 0 232.72698399853505 -386.66598337913456 0 -386.66598337913456 537.13265065705855 0 0 0 0 -490.85679144540444 90.940251505608103 0 90.940251505608103 266.61395130979508 0 0 0 0 -816.90106997955888 -860.00321918020927 0 -860.00321918020927 -223.34256416034623 0 0 0 0 30.129438139690933 -67.535540154467526 0 -67.535540154467526 -170.96872498370067 0 0 0 0 199.99822630979259 193.24409345946333 0 193.24409345946333 232.61525241417985 0 0 0 0 -3.6280167295043193 -2.4202500367500903 0 -2.4202500367500903 14.143050035372369 0 0 0 0 139.64318888543085 75.485411850191667 0 75.485411850191667 81.437983505413285 0 0 0 0 18.426006358849918 37.288910787618079 0 37.288910787618079 59.590681718582346 0 0 0 0 21.743313138866142 66.134541992800223 0 66.134541992800223 236.1519900778294 0 0 0 0 86.390394066260797 63.705619046320862 0 63.705619046320862 36.436663459273404 0 0 0 0 122.40752821035699 133.84214725837955 0 133.84214725837955 98.592546792599023 0 0 0 0 -299.95665216156794 35.251417954382759 0 35.251417954382759 87.822245055664098 0 0 0 0 0.24204405875176427 -0.16897241819996367 0 -0.16897241819996367 34.378888810366959 0 0 0 0 -94.426679995679024 69.346011224435642 0 69.346011224435642 135.81221832782467 0 0 0 0 -101.14043457407479 26.890628699435183 0 26.890628699435183 -3.1287994290432835 0 0 0 0 -442.12373747803849 -16.313976646619267 0 -16.313976646619267 119.9625702921403 0 0 0 0 -0.78671616924355003 2.337990982431208 0 2.337990982431208 23.184736576734622 0 0 0 0 33.247308164834976 55.800427003836376 0 55.800427003836376 89.155448835532297 0 0 0 0 279.32907907194658 113.44814743016104 0 113.44814743016104 36.805489242862677 0 0 0 0 58.212738605199547 93.58433427633463 0 93.58433427633463 -22.410257653798908 0 0 0 0 -116.88171337414371 229.64240126242657 0 229.64240126242657 14.942986310998094 0 0 0 0 186.02315979316154 112.3848258368962 0 112.3848258368962 -10.79373869236224 0 0 0 0 -27.837011627076208 15.621915590554636 0 15.621915590554636 66.002636932564201 0 0 0 0 -443.54083595417092 400.50549899963517 0 400.50549899963517 32.091391104465401 0 0 0 0 -2.5969992220626681 42.702501922431637 0 42.702501922431637 121.2124041675514 0 0 0 0 -317.28958151090137 44.02884781310604 0 44.02884781310604 189.71827006366584 0 0 0 0 -502.70809153618177 300.1452663640257 0 300.1452663640257 203.76729631746275 0 0 0 0 -35.323557105810323 120.93379021773944 0 120.93379021773944 31.486396951997449 0 0 0 0 -10.089291322324815 14.11020943445758 0 14.11020943445758 48.865662838947856 0 0 0 0 -15.011705642382239 26.453161646883473 0 26.453161646883473 125.29618207060149 0 0 0 0 -193.58889646678608 62.13547424720673 0 62.13547424720673 101.85279380944121 0 0 0 0 -83.594033042912542 65.113492980271985 0 65.113492980271985 31.499738413014711 0 0 0 0 -71.483827052292781 37.772820985926955 0 37.772820985926955 89.083834934324841 0 0 0 0 34.122466273142891 58.604800288843762 0 58.604800288843762 50.396226321390714 0 0 0 0 -74.36732023507102 57.077813949887059 0 57.077813949887059 76.143257656993228 0 0 0 0 -21.54327139146244 78.758686667824804 0 78.758686667824804 51.885653499193722 0 0 0 0 -23.98857731450132 19.538238301581814 0 19.538238301581814 0.86840538913736509 0 0 0 0 -86.005784414084701 34.644138434428896 0 34.644138434428896 67.941648209874984 0 0 0 0 -64.790601645078823 49.285225666069891 0 49.285225666069891 71.871922517981147 0 0 0 0 -260.0983220668295 -132.49998681059515 0 -132.49998681059515 104.86855011066655 0 0 0 0 -101.97778844535787 48.545015023097221 0 48.545015023097221 89.616840822796803 0 0 0 0 -97.88192505543293 5.3406948521624145 0 5.3406948521624145 15.40010561858071 0 0 0 0 -46.282170492686305 -23.645981004221014 0 -23.645981004221014 56.176188260764206 0 0 0 0 -119.48935793998658 36.596481058155405 0 36.596481058155405 84.338364630413707 0 0 0 0 63.258656863424335 -49.388050061783019 0 -49.388050061783019 -97.569725030713016 0 0 0 0 -74.891605601341325 50.137841419229517 0 50.137841419229517 8.6132379288956145 0 0 0 0 -35.136159740129756 -10.818090774044407 0 -10.818090774044407 30.721753708915912 0 0 0 0 64.470848977784044 -89.324550818213538 0 -89.324550818213538 27.195295338431606 0 0 0 0 -363.95668145329364 53.136816174272099 0 53.136816174272099 32.277678896876751 0 0 0 0 -33.075161543773902 29.698736022852245 0 29.698736022852245 -2.5686022203881294 0 0 0 0 -80.161681553808194 11.634720708192617 0 11.634720708192617 27.60556779342005 0 0 0 0 -36.002516664858248 33.946090788459202 0 33.946090788459202 -2.0101004629462977 0 0 0 0 -45.868249263188773 745.76302636403852 0 745.76302636403852 640.38747823130689 0 0 0 0 -152.89383951040963 326.81956063724647 0 326.81956063724647 633.91787813126575 0 0 0 0 446.83979870107396 975.26044689324408 0 975.26044689324408 1131.3529787979351 0 0 0 0 -14.25868953359867 -4.4694167067136448 0 -4.4694167067136448 14.815933178165977 0 0 0 0 272.06348467861244 -426.86228542328172 0 -426.86228542328172 346.36218472672044 0 0 0 0 378.15010565574994 -34.462491111349664 0 -34.462491111349664 31.963821270179324 0 0 0 0 -309.50156510200759 414.52573843489517 0 414.52573843489517 1528.6033294527151 0 0 0 0 -430.86609418832313 -518.26472302598722 0 -518.26472302598722 1016.3459510268585 0 0 0 0 -446.92905988859638 -37.024482226268447 0 -37.024482226268447 79.602393491833936 0 0 0 0 1208.1480549880762 263.18140917781784 0 263.18140917781784 493.56579793250421 0 0 0 0 53.533604754629778 648.79886091428489 0 648.79886091428489 691.73854340380058 0 0 0 0 282.93197860728105 1109.7766618701426 0 1109.7766618701426 911.8992730254904 0 0 0 0 -398.7463862388322 469.52042454207549 0 469.52042454207549 661.68916726960015 0 0 0 0 143.29009437607147 307.74749319199691 0 307.74749319199691 292.26629898304236 0 0 0 0 337.28755040845135 484.47756375193421 0 484.47756375193421 437.34230976055551 0 0 0 0 116.66476455917382 294.96441462073471 0 294.96441462073471 858.56793216217193 0 0 0 0 610.0634255401128 73.370366414339514 0 73.370366414339514 188.94895590028318 0 0 0 0 255.99304643865617 -10.147366287361365 0 -10.147366287361365 1338.2293853365736 0 0 0 0 -31.477646210677833 -0.076520109862030949 0 -0.076520109862030949 88.897579261305509 0 0 0 0 -39.80008917574439 -35.016300343825122 0 -35.016300343825122 48.867668912553171 0 0 0 0 -27.582227956115275 11.892615213420868 0 11.892615213420868 84.505950148537522 0 0 0 0 -5.5106673528436616 8.2205946814952142 0 8.2205946814952142 30.834070075222073 0 0 0 0 -102.34870523337668 93.094139218323107 0 93.094139218323107 543.5776055206079 0 0 0 0 -277.34801320261977 -20.642727210492012 0 -20.642727210492012 135.62309570329307 0 0 0 0 -194.54525906377967 71.653556133111124 0 71.653556133111124 526.76309971711453 0 0 0 0 -102.50660356072331 343.92484123112808 0 343.92484123112808 395.33560396211396 0 0 0 0 -106.40790600089531 414.07531189529982 0 414.07531189529982 671.6774816403049 0 0 0 0 -539.52757601464327 -426.57821574712943 0 -426.57821574712943 -238.80493932357058 0 0 0 0 -253.75031189182846 199.56074095725489 0 199.56074095725489 1164.2017660145939 0 0 0 0 76.344400237707305 46.727471916514332 0 46.727471916514332 134.76169885747368 0 0 0 0 -1.7897776941579062 -23.830668558218218 0 -23.830668558218218 -3.1194443159360503 0 0 0 0 -577.93955083622131 1067.4362980572914 0 1067.4362980572914 523.17100442695664 0 0 0 0 -1072.8382040084616 575.07562208897434 0 575.07562208897434 1127.8071502656185 0 0 0 0 -403.31000349368696 76.746465487885871 0 76.746465487885871 803.00153565927758 0 0 0 0 -24.165578686887336 -4.8425177318715953 0 -4.8425177318715953 26.828487302174281 0 0 0 0 -13.017703278802189 7.8761543963181921 0 7.8761543963181921 126.92522826816108 0 0 0 0 -722.73929381135827 77.715468062300715 0 77.715468062300715 266.32243772567381 0 0 0 0 -504.09609009723363 -127.68443052965267 0 -127.68443052965267 412.57920091650158 0 0 0 0 -712.65795846347282 -214.42891166876507 0 -214.42891166876507 491.64484996125975 0 0 0 0 -596.31144192606246 -249.01370563821729 0 -249.01370563821729 395.34735878916399 0 0 0 0 -456.79083460899574 -321.7281445633871 0 -321.7281445633871 304.09653499000706 0 0 0 0 -1376.81421791092 691.34420526618487 0 691.34420526618487 -370.37791303108679 0 0 0 0 -9.7012207099834669 2.0726189265960784 0 2.0726189265960784 19.553977039279147 0 0 0 0 -78.512320433234251 -64.482487381659865 0 -64.482487381659865 65.323385457318068 0 0 0 0 -155.57627456599675 11.333697227542871 0 11.333697227542871 367.64193182500821 0 0 0 0 -15.919857690742901 -10.349680037317739 0 -10.349680037317739 88.943450354198575 0 0 0 0 -13.622189523576708 1.5520963091803424 0 1.5520963091803424 41.096294029841374 0 0 0 0 94.326152566582209 -280.08400671675736 0 -280.08400671675736 406.80648180089338 0 0 0 0 162.22934072080545 -207.21205091312731 0 -207.21205091312731 225.26430080876889 0 0 0 0 -268.64201212180592 -18.28126092108505 0 -18.28126092108505 419.91487518047143 0 0 0 0 -229.33839056683468 82.546400815655943 0 82.546400815655943 82.326874646614669 0 0 0 0 -420.38207904979322 -261.76559461037505 0 -261.76559461037505 153.85636331819842 0 0 0 0 -16.872530288487916 25.572549238089842 0 25.572549238089842 139.09032920212712 0 0 0 0 -577.65086831704753 76.758873196881041 0 76.758873196881041 281.17591356079356 0 0 0 0 -269.39449063361872 168.60669495539696 0 168.60669495539696 107.27209623128692 0 0 0 0 56.819091838401619 132.97067052608327 0 132.97067052608327 298.28587572411197 0 0 0 0 -37.564773844215551 -100.64434640425679 0 -100.64434640425679 327.84619105730962 0 0 0 0 -321.16224951196034 28.107974188650587 0 28.107974188650587 311.4036276208135 0 0 0 0 -102.09026669840614 -115.14687382488046 0 -115.14687382488046 449.99837446136007 0 0 0 0 346.12164713995799 -67.655360097101948 0 -67.655360097101948 424.17965040292984 0 0 0 0 113.52817716994878 -192.73189561568506 0 -192.73189561568506 451.28537536924705 0 0 0 0 58.232171237762941 -273.61983132640671 0 -273.61983132640671 593.0852075641742 0 0 0 0 3.7096964759730326 38.631705313968268 0 38.631705313968268 16.606575002213503 0 0 0 0 17.327338993361309 15.454569489524673 0 15.454569489524673 14.005166617996032 0 0 0 0 -18.585143547431016 7.734082794263486 0 7.734082794263486 59.022093042760389 0 0 0 0 32.74204666696005 -68.128873798472341 0 -68.128873798472341 652.02535766263827 0 0 0 0 -4.3424829356759487 4.6210214946926911 0 4.6210214946926911 9.7999302812759268 0 0 0 0 425.07360025168055 -451.03992001771257 0 -451.03992001771257 495.1685989560865 0 0 0 0 -62.530547314099522 -74.734470261728347 0 -74.734470261728347 672.07544290513761 0 0 0 0 5.1970247856544098 5.2547154230667097 0 5.2547154230667097 0.77015697547915352 0 0 0 0 6.2121199312000206 9.5540377629699726 0 9.5540377629699726 45.449736692594186 0 0 0 0 -7.856315834191264 13.019244063605584 0 13.019244063605584 62.921031205951294 0 0 0 0 8.0187402934916463 6.7436177077324828 0 6.7436177077324828 65.908136587877379 0 0 0 0 36.87814477893744 -5.1094949771868414 0 -5.1094949771868414 52.540349732233153 0 0 0 0 16.974723169309073 8.3589857232800568 0 8.3589857232800568 38.529494507554773 0 0 0 0 17.075191285328401 21.873087392730667 0 21.873087392730667 68.464424634519673 0 0 0 0 4.0003214547814423 12.328041342696451 0 12.328041342696451 87.213342833740171 0 0 0 0 -23.689735571066194 69.01287807171957 0 69.01287807171957 141.25073954251638 0 0 0 0 29.606810143716821 16.249455434138397 0 16.249455434138397 22.184218121588984 0 0 0 0 36.544239780483622 79.469649017577467 0 79.469649017577467 76.201862714304298 0 0 0 0 14.038605281733908 19.122892029281502 0 19.122892029281502 151.38712504783507 0 0 0 0 -22.421432477088615 20.149488524286426 0 20.149488524286426 91.89282815016486 0 0 0 0 -26.572886695679149 12.201528618619577 0 12.201528618619577 101.89976532433049 0 0 0 0 -37.228766545738566 4.7740117573365382 0 4.7740117573365382 74.831585995545765 0 0 0 0 -26.852002921242473 20.236374472567306 0 20.236374472567306 75.257500186006084 0 0 0 0 -44.733831656769325 101.98603625503893 0 101.98603625503893 -2.993357549983557 0 0 0 0 24.791242846742534 -2.1240815142355132 0 -2.1240815142355132 -156.94341519252339 0 0 0 0 78.567538068749855 135.14063641638768 0 135.14063641638768 -5.2471443125687074 0 0 0 0 50.622423139226157 64.876138824265581 0 64.876138824265581 44.679203250405408 0 0 0 0 17.29983651961993 150.00276847292616 0 150.00276847292616 148.5515796229738 0 0 0 0 34.657868100857741 80.407727960267948 0 80.407727960267948 -1.7961280190356774 0 0 0 0 44.242606086956584 124.9742889723093 0 124.9742889723093 -100.12547183294191 0 0 0 0 -14.705319395536208 88.778694058379187 0 88.778694058379187 155.76881812575084 0 0 0 0 13.449529403602355 44.349312265427216 0 44.349312265427216 -18.254959942911228 0 0 0 0 32.507576307155979 11.905908394958182 0 11.905908394958182 2.4816773609797806 0 0 0 0 5.4627317881377166 -30.953734148981312 0 -30.953734148981312 78.381050259580661 0 0 0 0 14.473812415297289 -25.596406757427758 0 -25.596406757427758 81.339075063420751 0 0 0 0 106.7931145107832 92.696638940527919 0 92.696638940527919 -266.87476709283146 0 0 0 0 23.768121615895325 19.661240158839064 0 19.661240158839064 103.92885805685921 0 0 0 0 -14.793678049092705 -28.13964723351819 0 -28.13964723351819 102.54145225824323 0 0 0 0 30.536361880712835 12.101717487442656 0 12.101717487442656 3.1231258621057485 0 0 0 0 126.21695264150731 27.70427773702977 0 27.70427773702977 14.943064387625782 0 0 0 0 77.432784711112618 -61.764591982810089 0 -61.764591982810089 27.850355751976167 0 0 0 0 71.456247672217614 -77.260075308957312 0 -77.260075308957312 51.027226915852225 0 0 0 0 13.524405589884736 -3.6453258775181894 0 -3.6453258775181894 53.371415954854456 0 0 0 0 5.1832296227221377 -12.407192223039601 0 -12.407192223039601 46.797915043909597 0 0 0 0 -36.471798672106161 65.494664781756001 0 65.494664781756001 5.5006795877998229 0 0 0 0 118.59515130509016 -334.62511117090537 0 -334.62511117090537 704.6982772012052 0 0 0 0 11.394730389971881 9.2437501363516859 0 9.2437501363516859 7.5939555457205827 0 0 0 0 270.82341601353045 183.30266137309945 0 183.30266137309945 -41.242007940476469 0 0 0 0 14.125549766231416 -72.227566219951768 0 -72.227566219951768 50.893868220417062 0 0 0 0 181.64301928284181 -254.34033668073698 0 -254.34033668073698 717.32330990207993 0 0 0 0 4.3462015365258626 2.8253975845485968 0 2.8253975845485968 2.8995792586796583 0 0 0 0 120.59914528775107 -221.41484884153397 0 -221.41484884153397 1427.256549708829 0 0 0 0 332.87168706883989 208.73407602309248 0 208.73407602309248 610.22874713732745 0 0 0 0 355.42754429458091 42.603461495127704 0 42.603461495127704 437.94712587583854 0 0 0 0 141.97361112611657 -34.406785413362741 0 -34.406785413362741 317.86667141344878 0 0 0 0 54.759346811854357 -112.3462434477733 0 -112.3462434477733 601.62070298586877 0 0 0 0 115.89448488669734 -138.56339529043726 0 -138.56339529043726 346.97567880498536 0 0 0 0 -13.692090051669538 -187.93575688973215 0 -187.93575688973215 491.18102424792778 0 0 0 0 -115.26275941195945 56.000334642940288 0 56.000334642940288 334.70954295072988 0 0 0 0 -27.639265300082116 97.196391776084056 0 97.196391776084056 178.73113492906123 0 0 0 0 -164.16348485557467 39.443788899221545 0 39.443788899221545 120.04647340684824 0 0 0 0 -115.51105860182452 193.62205393849217 0 193.62205393849217 404.54836306853895 0 0 0 0 -205.07731224561758 398.24146013628342 0 398.24146013628342 -72.659049957539537 0 0 0 0 -190.98098434977737 264.36401082711745 0 264.36401082711745 104.21800785121741 0 0 0 0 -615.86897397543953 449.38285921867464 0 449.38285921867464 27.729686122525891 0 0 0 0 0.19361344329621044 47.064074483408234 0 47.064074483408234 129.68254331040015 0 0 0 0 -198.66198491869909 157.67468028321309 0 157.67468028321309 -244.03023998619756 0 0 0 0 -170.76718679682267 256.98921381407308 0 256.98921381407308 79.604547309558257 0 0 0 0 215.07708445686012 38.658359112032485 0 38.658359112032485 17.00307584512484 0 0 0 0 429.67879548148858 89.439930441873003 0 89.439930441873003 20.693731577972358 0 0 0 0 57.344222888572631 326.37100639105302 0 326.37100639105302 34.996506614224927 0 0 0 0 275.48860527639408 142.06004476433372 0 142.06004476433372 168.31293411386469 0 0 0 0 162.20782787487906 270.46084190652618 0 270.46084190652618 292.6639891359257 0 0 0 0 16.35856864300149 81.625472512664601 0 81.625472512664601 87.625539677716006 0 0 0 0 -2.0356700284896831 54.338832980084817 0 54.338832980084817 121.98230696228714 0 0 0 0 -20.03986322020819 143.98059653540986 0 143.98059653540986 -175.27606579010626 0 0 0 0 -47.967240217169092 97.988003461679909 0 97.988003461679909 -191.15508511490043 0 0 0 0 -31.45250412025165 42.510674345245675 0 42.510674345245675 -34.481919687421211 0 0 0 0 74.079892677874795 164.19758395885219 0 164.19758395885219 -223.85878684911222 0 0 0 0 -215.67202964731985 38.833707902553215 0 38.833707902553215 185.41408791377035 0 0 0 0 -6.6778998923617721 11.981855531970186 0 11.981855531970186 8.2134519405547053 0 0 0 0 27.702784300138092 136.96099966481779 0 136.96099966481779 -163.48163499488146 0 0 0 0 -91.238170659147158 -56.551572595701145 0 -56.551572595701145 22.595853233919115 0 0 0 0 39.583349007065181 18.774451839792164 0 18.774451839792164 -254.92042069236049 0 0 0 0 37.111806890143441 15.747997261743876 0 15.747997261743876 -182.32906487383298 0 0 0 0 7.1485890967906016 74.567999982460606 0 74.567999982460606 -343.04354228456214 0 0 0 0 8.3431681180700252 494.88631500825431 0 494.88631500825431 257.96916008810786 0 0 0 0 0.46409105165585363 -0.057894718208785889 0 -0.057894718208785889 -0.037909730238752104 0 0 0 0 31.197144939317923 160.05984729770717 0 160.05984729770717 -299.30554501446022 0 0 0 0 -386.17207515517384 317.83824442287732 0 317.83824442287732 -333.35322037882679 0 0 0 0 3.6021281109023588 48.254692125238904 0 48.254692125238904 130.97680980487274 0 0 0 0 -20.88257814855524 597.77555670850779 0 597.77555670850779 -57.526701813234467 0 0 0 0 -210.77614291647976 218.24589428228956 0 218.24589428228956 136.4886942908488 0 0 0 0 -291.64624448119685 525.7622804990242 0 525.7622804990242 61.984136911807582 0 0 0 0 -39.951791517821221 528.85333594346594 0 528.85333594346594 -252.40494672326781 0 0 0 0 -153.6540052908083 70.421527501814126 0 70.421527501814126 113.10348785889846 0 0 0 0 -140.55193056074157 -15.63912996429417 0 -15.63912996429417 252.66073271498317 0 0 0 0 -149.49313167639502 64.170194386984804 0 64.170194386984804 174.92435510469659 0 0 0 0 -127.10888736970492 54.748250838740205 0 54.748250838740205 132.06337079464379 0 0 0 0 -114.89417527538467 -14.829588906402932 0 -14.829588906402932 187.24629264879331 0 0 0 0 -65.396832801124276 -87.595506520333856 0 -87.595506520333856 245.92256953734613 0 0 0 0 -77.268949024121838 -21.137153173772276 0 -21.137153173772276 147.20212259065011 0 0 0 0 -54.034730532603589 9.3199979404744226 0 9.3199979404744226 119.41231228537072 0 0 0 0 -24.696472738477826 24.724867604957865 0 24.724867604957865 59.567498346106078 0 0 0 0 -16.568873085071345 56.041926402060199 0 56.041926402060199 170.07465229636 0 0 0 0 -31.242921596089218 49.223932990349567 0 49.223932990349567 124.18223505271453 0 0 0 0 3.4487046287295895 11.97822162040535 0 11.97822162040535 24.748292925036424 0 0 0 0 67.386258507904586 104.81667883618502 0 104.81667883618502 84.12016103125643 0 0 0 0 -114.97080959669859 7.7787869114596333 0 7.7787869114596333 100.97846914904949 0 0 0 0 -128.88287042475832 62.998649773721809 0 62.998649773721809 128.05861228350841 0 0 0 0 -14.733187032749825 30.057029661878914 0 30.057029661878914 169.83011739366339 0 0 0 0 -41.232180186665573 32.748679201875348 0 32.748679201875348 61.043498667015228 0 0 0 0 -21.732565372061394 49.662047060566323 0 49.662047060566323 51.456201251358635 0 0 0 0 -25.8408692796407 68.296382432516964 0 68.296382432516964 39.281939824221723 0 0 0 0 27.666640593847205 111.56869901324853 0 111.56869901324853 26.026429160236148 0 0 0 0 -37.359421740502512 63.36131610917073 0 63.36131610917073 14.336717335085268 0 0 0 0 109.80997771869443 104.9235883995716 0 104.9235883995716 26.017292758420808 0 0 0 0 -42.806618744074818 52.686543099357777 0 52.686543099357777 39.988749735537596 0 0 0 0 7.0341013074498733 122.45544625492948 0 122.45544625492948 56.82320981103112 0 0 0 0 62.994577317134826 132.34789173137688 0 132.34789173137688 34.144209383404814 0 0 0 0 13.30479300362822 29.789230094189406 0 29.789230094189406 78.469175165079832 0 0 0 0 55.471719914228743 166.87970385306107 0 166.87970385306107 97.098973066706094 0 0 0 0 -13.518809397744455 -0.51827488976479685 0 -0.51827488976479685 8.4068864132178192 0 0 0 0 60.102011154963293 93.190222903180256 0 93.190222903180256 -26.863428485368786 0 0 0 0 66.70532198901401 182.1751475998899 0 182.1751475998899 471.79648848615761 0 0 0 0 32.913896833399441 9.4333231196091134 0 9.4333231196091134 9.6515758727606311 0 0 0 0 210.66060125935201 417.82874814065508 0 417.82874814065508 857.5537688829645 0 0 0 0 35.061086480004178 128.07793399852017 0 128.07793399852017 720.83026662451448 0 0 0 0 -178.31227885047883 25.347622052977385 0 25.347622052977385 694.90530707659127 0 0 0 0 -42.568491189741508 5.9004678444689489 0 5.9004678444689489 390.14539284510829 0 0 0 0 -52.609083877845478 -26.486473847209709 0 -26.486473847209709 406.45542517789727 0 0 0 0 -59.51687284618697 -7.0033771894713936 0 -7.0033771894713936 1063.0734755723824 0 0 0 0 378.92423810438322 -443.92360840454421 0 -443.92360840454421 499.56909591959993 0 0 0 0 150.76223679192924 -39.685715975377207 0 -39.685715975377207 27.28981043274689 0 0 0 0 77.576043195778766 -153.07535070319136 0 -153.07535070319136 -17.960637410058553 0 0 0 0 -152.71597093275705 -105.97454856638069 0 -105.97454856638069 -11.432676276243001 0 0 0 0 87.449437765222683 -98.160419868123427 0 -98.160419868123427 -188.36688993271673 0 0 0 0 121.9468321661459 -218.64370384776794 0 -218.64370384776794 34.763739490212174 0 0 0 0 6.1589833392512716 5.8891011420772088 0 5.8891011420772088 5.5070729480872842 0 0 0 0 28.539016973781145 389.78128808948532 0 389.78128808948532 -117.85966685894164 0 0 0 0 -114.4432621144706 108.93369741711649 0 108.93369741711649 -18.258408773410338 0 0 0 0 277.02162676782245 -48.129145357415837 0 -48.129145357415837 -275.71200464013964 0 0 0 0 852.22665354211676 96.274718863329326 0 96.274718863329326 -108.40192565630787 0 0 0 0 -664.56297428097332 17.066213541675097 0 17.066213541675097 68.530492394900648 0 0 0 0 97.637045072917317 595.41770926006939 0 595.41770926006939 409.84395753279387 0 0 0 0 0.39232327785906485 -0.043671664247355579 0 -0.043671664247355579 11.622217563704339 0 0 0 0 217.15400682507607 506.68790941770203 0 506.68790941770203 915.99215334528708 0 0 0 0 -624.78435456297257 -840.90302115688428 0 -840.90302115688428 762.56276803968649 0 0 0 0 0.047303021689183211 -1.5078127006864008 0 -1.5078127006864008 4.8461941761151479 0 0 0 0 242.49155658130258 -488.71687346223189 0 -488.71687346223189 548.6673919264249 0 0 0 0 2.3187054638957232 -3.7153707280242259 0 -3.7153707280242259 14.906495450182717 0 0 0 0 -24.985738583305025 1.7750976637940994 0 1.7750976637940994 8.6936827118168978 0 0 0 0 236.69658007462567 147.73007634058013 0 147.73007634058013 -27.183463168865273 0 0 0 0 -41.789794632541998 -507.75064682948323 0 -507.75064682948323 767.89643366368546 0 0 0 0 -182.59585279168459 -1.6573922935640439 0 -1.6573922935640439 1297.5256301865593 0 0 0 0 -74.642804854905989 -30.912022819662525 0 -30.912022819662525 499.16787068374106 0 0 0 0 108.94499250845547 -181.02433911541084 0 -181.02433911541084 77.789984295020986 0 0 0 0 -195.76636762105045 -114.35545037146221 0 -114.35545037146221 604.28001915755158 0 0 0 0 -93.788781358968663 -66.427947350464819 0 -66.427947350464819 501.24351874076456 0 0 0 0 -43.804288821105729 -119.38721022503705 0 -119.38721022503705 717.57514021352108 0 0 0 0 -125.42230011180891 48.779745037390967 0 48.779745037390967 574.73285711716744 0 0 0 0 -20.707013813695085 15.087841963031678 0 15.087841963031678 538.0724646422168 0 0 0 0 -27.862288092468589 -128.6108341844083 0 -128.6108341844083 410.874179147424 0 0 0 0 -108.40809375005119 114.16181913943728 0 114.16181913943728 810.63871157659742 0 0 0 0 80.573082766269181 193.62351840978954 0 193.62351840978954 218.64796976970683 0 0 0 0 65.311499485878812 68.387694184551947 0 68.387694184551947 101.79991003504983 0 0 0 0 -3.6817140479306545 -33.464295664576639 0 -33.464295664576639 123.74118867167272 0 0 0 0 3.1419548183643133 3.6433961355746192 0 3.6433961355746192 6.6963672148014552 0 0 0 0 -29.995464197797446 34.835354895421915 0 34.835354895421915 13.670296654454432 0 0 0 0 1.5785649916924438 1.5838430016736993 0 1.5838430016736993 1.6606303668274336 0 0 0 0 48.759644178583585 33.236722500805627 0 33.236722500805627 -60.771361462051573 0 0 0 0 -47.572950127516378 -2.054797655378934 0 -2.054797655378934 85.7711499115685 0 0 0 0 165.04497414007346 -57.469970944424858 0 -57.469970944424858 74.377872771976399 0 0 0 0 -57.172492936428625 12.488841228325327 0 12.488841228325327 90.681954945961479 0 0 0 0 16.910688768781938 15.708370598937108 0 15.708370598937108 15.499932353122858 0 0 0 0 -0.4217026539180182 -0.35115844543246055 0 -0.35115844543246055 1.1408940473901339 0 0 0 0 9.8828189822816057 4.2521876865066588 0 4.2521876865066588 -1.3434632946737111 0 0 0 0 -9.2038146778559167 -15.357350399972347 0 -15.357350399972347 40.491085957703035 0 0 0 0 5.2009527504924336 7.618053959813551 0 7.618053959813551 48.120976463949773 0 0 0 0 5.1942649033553607 -7.65879090049566 0 -7.65879090049566 15.149236190645979 0 0 0 0 0.98927390732645293 1.4179759873945699 0 1.4179759873945699 11.662855387770378 0 0 0 0 11.100717865274873 -9.5244868298359506 0 -9.5244868298359506 26.06209046280128 0 0 0 0 0.4487072546570694 -0.035878062169445002 0 -0.035878062169445002 0.065308670290846749 0 0 0 0 -8.7514347541527968 16.264385396425496 0 16.264385396425496 79.511735330532247 0 0 0 0 10.531714147633465 54.54795563555308 0 54.54795563555308 72.51629491210042 0 0 0 0 15.818405106771934 25.913230506426771 0 25.913230506426771 29.281677840685006 0 0 0 0 110.64608385580686 131.77833347339038 0 131.77833347339038 93.081760540728283 0 0 0 0 115.26592786446963 3.3583922135294415 0 3.3583922135294415 -26.917284572322387 0 0 0 0 -37.220539814228687 14.901631117048964 0 14.901631117048964 217.58287639707851 0 0 0 0 -16.638671702648253 92.468014472195136 0 92.468014472195136 190.36157963681035 0 0 0 0 -31.405829511456318 1.206269747179249 0 1.206269747179249 324.27529311839317 0 0 0 0 -0.038506636034071562 171.2948760861982 0 171.2948760861982 417.08598143323616 0 0 0 0 -11.661175802702928 -74.281585174860083 0 -74.281585174860083 506.0145414273502 0 0 0 0 159.05204321939914 -61.467040117662691 0 -61.467040117662691 391.16279241368466 0 0 0 0 26.642760485065992 92.993891563790385 0 92.993891563790385 666.07331073269961 0 0 0 0 4.8757308706080948 -75.197149392864958 0 -75.197149392864958 396.95669344886119 0 0 0 0 14.676706703461832 -92.540304115542313 0 -92.540304115542313 345.74294007163553 0 0 0 0 -133.74365886458054 246.70708644075421 0 246.70708644075421 756.6750438822346 0 0 0 0 419.79151911389636 -67.580278974870453 0 -67.580278974870453 -165.16078276330518 0 0 0 0 -3.1878824217384292 4.0072620516774009 0 4.0072620516774009 2.0586886753910534 0 0 0 0 67.625855147713537 -73.107515729101578 0 -73.107515729101578 275.43197104615683 0 0 0 0 12.501198417938213 -134.11527142577688 0 -134.11527142577688 27.568018131469216 0 0 0 0 -9.3027248954404307 1.2099392789768899 0 1.2099392789768899 0.083211099604689309 0 0 0 0 -73.480617166817865 11.201001653069397 0 11.201001653069397 244.93906205539696 0 0 0 0 -65.942412897689564 -159.76485822320683 0 -159.76485822320683 523.88595981826802 0 0 0 0 113.1488674925854 273.38672222247988 0 273.38672222247988 749.97812027655891 0 0 0 0 -78.439701830548984 1.5668618266827252 0 1.5668618266827252 367.88952518712904 0 0 0 0 -26.546148005422765 174.7088441095766 0 174.7088441095766 198.58223046806233 0 0 0 0 -2.8925705908241071 252.13517354654687 0 252.13517354654687 424.17354132897162 0 0 0 0 295.84990513134198 75.921340688135388 0 75.921340688135388 59.866085265326547 0 0 0 0 -121.38519010906839 44.578123459781636 0 44.578123459781636 16.341117759104236 0 0 0 0 -122.83438271306285 -40.504264376017716 0 -40.504264376017716 263.76905698078917 0 0 0 0 -232.16710423425047 -141.16882387534861 0 -141.16882387534861 650.79131438673357 0 0 0 0 688.47988814491919 382.35842202161075 0 382.35842202161075 270.57648614439677 0 0 0 0 -218.37907657047344 -311.46970605746174 0 -311.46970605746174 191.59203365129906 0 0 0 0 0.11274423233304232 0.56114938313585228 0 0.56114938313585228 8.4789490251184247 0 0 0 0 -41.731424355258696 -50.697303917637328 0 -50.697303917637328 455.75309376724181 0 0 0 0 -106.91508474537613 -29.306680625595618 0 -29.306680625595618 472.78204378282317 0 0 0 0 -146.46999258901383 -131.7502573530619 0 -131.7502573530619 212.73915155637951 0 0 0 0 64.636635207998665 77.579827581192149 0 77.579827581192149 235.44915288986522 0 0 0 0 56.64229316857859 106.21276818579827 0 106.21276818579827 267.25151875818847 0 0 0 0 272.77312095030436 421.69917510501182 0 421.69917510501182 714.29895027450402 0 0 0 0 -0.013508576657792037 -2.01512023912872 0 -2.01512023912872 5.1516776508088924 0 0 0 0 -412.42767562814674 -901.26787753180542 0 -901.26787753180542 -404.27662071419581 0 0 0 0 -147.19069003967161 -116.90511777707434 0 -116.90511777707434 798.76174109278145 0 0 0 0 -66.055615755315557 -110.69934645805188 0 -110.69934645805188 458.66024173788173 0 0 0 0 260.27530321398092 -108.6092740924214 0 -108.6092740924214 175.45171290218423 0 0 0 0 -12.459829615955385 4.7586290032845113 0 4.7586290032845113 2.4095747962078065 0 0 0 0 9.0973308110958442 -51.555528163304189 0 -51.555528163304189 358.92698438861407 0 0 0 0 -8.7809528752454753 -106.64590280370612 0 -106.64590280370612 330.51309080082865 0 0 0 0 34.740497339082822 -83.039423022572009 0 -83.039423022572009 287.39898366527632 0 0 0 0 3.8010754943093161 -91.442016519464232 0 -91.442016519464232 395.94511734087973 0 0 0 0 22.512884722871149 -79.688839920250757 0 -79.688839920250757 323.5365477403102 0 0 0 0 -7.672467460060556 4.6574832029098445 0 4.6574832029098445 3.033347609898648 0 0 0 0 -19.182712825533372 -48.634986054115871 0 -48.634986054115871 382.3945217205619 0 0 0 0 -129.21086121484814 100.81118182056889 0 100.81118182056889 223.5643350806713 0 0 0 0 -3.82963622184824 5.0558981056958885 0 5.0558981056958885 2.6639822464068885 0 0 0 0 8.9477218343099594 -93.613471920114534 0 -93.613471920114534 349.51012107714632 0 0 0 0 -9.865100002309191 -68.713946923548065 0 -68.713946923548065 387.01297740235896 0 0 0 0 -19.614261624106803 -31.641723016495234 0 -31.641723016495234 311.77618539832838 0 0 0 0 14.730647340225914 -34.675519334967248 0 -34.675519334967248 280.64917990045069 0 0 0 0 -14.423985088667905 2.1447802203692845 0 2.1447802203692845 321.6598254966957 0 0 0 0 -3.3428459042597751 36.704712749815371 0 36.704712749815371 191.73069430581381 0 0 0 0 -1.322900384575064 34.793531536408409 0 34.793531536408409 190.84515665628714 0 0 0 0 22.938705337740203 46.756172686255013 0 46.756172686255013 149.83172976125934 0 0 0 0 0.3106597332673644 0.25136969517473062 0 0.25136969517473062 0.08589672090479894 0 0 0 0 -6.3926306090161233 17.756183135337778 0 17.756183135337778 62.447384731218335 0 0 0 0 26.666368978263563 36.334743562278163 0 36.334743562278163 95.217266220592137 0 0 0 0 0.76203803701417883 0.21336018130978118 0 0.21336018130978118 0.067030222424669716 0 0 0 0 28.348137624985384 84.343953029403565 0 84.343953029403565 130.8012974486046 0 0 0 0 8.3303167917799783 63.70359191978423 0 63.70359191978423 139.31531078426633 0 0 0 0 32.840373234707158 -19.629960864687746 0 -19.629960864687746 199.81279198837001 0 0 0 0 38.678794690672021 -29.437057354265562 0 -29.437057354265562 36.013519179265131 0 0 0 0 41.420255532681949 -17.261972489955951 0 -17.261972489955951 155.83157043695064 0 0 0 0 16.238535561631437 -7.2623393135042988 0 -7.2623393135042988 196.71694401056448 0 0 0 0 20.441355664272578 -61.811979491671082 0 -61.811979491671082 307.68848664863617 0 0 0 0 28.124695158797522 -54.582913252379512 0 -54.582913252379512 155.72683623319608 0 0 0 0 -6.59358333734599 -67.181736174345133 0 -67.181736174345133 181.87142357709308 0 0 0 0 10.464521243201489 -114.39559357726102 0 -114.39559357726102 173.02969290727924 0 0 0 0 -47.405213193431337 -116.25438131179544 0 -116.25438131179544 225.17369989787403 0 0 0 0 22.281459145776353 -144.50349894288229 0 -144.50349894288229 103.12469772356053 0 0 0 0 -10.40692757180841 -23.064246578302118 0 -23.064246578302118 5.0198477785161231 0 0 0 0 -10.932818848012175 -126.97231971396832 0 -126.97231971396832 111.04481264427886 0 0 0 0 21.175035763696769 -109.43399364451398 0 -109.43399364451398 -101.02074526416254 0 0 0 0 -90.412758828621008 -7.5216600593994372 0 -7.5216600593994372 73.446785522886785 0 0 0 0 0.74294308829899514 3.9454598797238702 0 3.9454598797238702 11.817130937884713 0 0 0 0 -93.327293688259005 84.543595327871685 0 84.543595327871685 8.825611526845023 0 0 0 0 26.851020874278674 2.5091308235787437 0 2.5091308235787437 -131.70971640490461 0 0 0 0 16.105895808875175 -22.594195364057668 0 -22.594195364057668 114.11890051748196 0 0 0 0 15.982399347828959 -73.956714646090404 0 -73.956714646090404 87.974288334255107 0 0 0 0 24.335790028946576 -4.5369331680849427 0 -4.5369331680849427 23.597997615390341 0 0 0 0 34.441043238271959 85.716563938767649 0 85.716563938767649 109.79253739945307 0 0 0 0 33.626955766105766 60.849885943342088 0 60.849885943342088 -43.08089139301228 0 0 0 0 79.787913506443601 -203.66216682217782 0 -203.66216682217782 189.70213623948803 0 0 0 0 -189.75413654010435 115.00301984892212 0 115.00301984892212 84.723479173357191 0 0 0 0 -0.0023285172380305141 0.92054645932893209 0 0.92054645932893209 4.0807330797561008 0 0 0 0 0.0014079632833869041 7.919554860356584 0 7.919554860356584 21.306914219419923 0 0 0 0 0.82680384652990979 5.0751594792108676 0 5.0751594792108676 26.348286539765468 0 0 0 0 -5.6437329320715257 7.0556633729911482 0 7.0556633729911482 27.514378467210918 0 0 0 0 -125.96344416141574 -155.32176285030437 0 -155.32176285030437 161.96480207144123 0 0 0 0 -3.0443972984930063 5.0681900815034169 0 5.0681900815034169 20.170653122961085 0 0 0 0 -0.0022356665231984063 5.8705506947117101 0 5.8705506947117101 14.59455139671627 0 0 0 0 -1.2449370629778045 6.2861128945223754 0 6.2861128945223754 13.398490197418141 0 0 0 0 -2.1395234636968219 4.2420476742190658 0 4.2420476742190658 17.013070498112938 0 0 0 0 -105.12228119265228 11.716026462367154 0 11.716026462367154 19.351134842261672 0 0 0 0 0.71478366396083626 3.4691437448250682 0 3.4691437448250682 17.361442779640356 0 0 0 0 82.227590690374655 -129.51189438006259 0 -129.51189438006259 2.9008883657807019 0 0 0 0 -3.2117616304495002 -2.2533014504077897 0 -2.2533014504077897 3.5574076019058793 0 0 0 0 12.678323575603827 -85.468019226114848 0 -85.468019226114848 42.263122533913702 0 0 0 0 -58.351565928799459 112.22432808989834 0 112.22432808989834 337.48485864687245 0 0 0 0 -29.506862259768695 -174.34784256086277 0 -174.34784256086277 72.717907483805902 0 0 0 0 0.44184277963575941 2.6952539576832493 0 2.6952539576832493 8.7366292883064602 0 0 0 0 1.3783366811983626 6.5183169687483087 0 6.5183169687483087 17.957950021043359 0 0 0 0 65.55107135365256 -26.707089185510995 0 -26.707089185510995 -0.029638385942234891 0 0 0 0 -68.20450795348097 266.62015679046453 0 266.62015679046453 -23.560428573167883 0 0 0 0 -1.0839295603898265 3.5655407310696319 0 3.5655407310696319 9.9465468384732958 0 0 0 0 -3.3547235041584642 3.4688321170251584 0 3.4688321170251584 11.200235958298435 0 0 0 0 -2.8085914217726389 1.0476383839413757 0 1.0476383839413757 8.4060863901831908 0 0 0 0 153.98815224640546 -366.79088983248221 0 -366.79088983248221 -496.13544247069512 0 0 0 0 0.065368104165981766 0.54022427193933709 0 0.54022427193933709 2.8355233402626254 0 0 0 0 -0.0042957747644487461 3.7975351310196857 0 3.7975351310196857 3.7877265944043756 0 0 0 0 4.1836215024864822 -573.35608223164763 0 -573.35608223164763 830.19233636464924 0 0 0 0 -1.5842091979811839 358.40382665355719 0 358.40382665355719 597.77326521696523 0 0 0 0 -0.10115715508644008 2.5814940768602099 0 2.5814940768602099 11.492816343320499 0 0 0 0 -4.8082615801474002 -3.1043312112081765 0 -3.1043312112081765 7.6698561804418546 0 0 0 0 -3.3275283376742664 -601.56202568748449 0 -601.56202568748449 1282.5603920018475 0 0 0 0 17.490855309776634 264.47855126818467 0 264.47855126818467 711.4146955963879 0 0 0 0 351.77263386263394 -677.37747758188198 0 -677.37747758188198 633.9404258269642 0 0 0 0 19.7187417230748 -241.81444299039504 0 -241.81444299039504 480.45266937706037 0 0 0 0 542.38664889944585 -737.51780330351539 0 -737.51780330351539 759.81216258830682 0 0 0 0 1025.5448706294965 -149.26568654326547 0 -149.26568654326547 -389.92224867283949 0 0 0 0 775.61162214062097 195.7016140488995 0 195.7016140488995 -366.16404677662103 0 0 0 0 37.715662651621642 -155.94175989901123 0 -155.94175989901123 228.25069613531105 0 0 0 0 -9.1088078027314623 -237.70812402813499 0 -237.70812402813499 363.27179263721337 0 0 0 0 -16.544941168355763 -129.57038863979687 0 -129.57038863979687 292.49733794675558 0 0 0 0 -62.405343737046678 -100.08773612915684 0 -100.08773612915684 466.90758060677035 0 0 0 0 -93.212513137852511 -12.093459796946263 0 -12.093459796946263 1005.0281313374289 0 0 0 0 -72.806634107108039 -93.047478052336373 0 -93.047478052336373 462.61940329206118 0 0 0 0 78.108738588967753 129.56822367743007 0 129.56822367743007 339.4894942084502 0 0 0 0 6.6477552591325093 -47.478297871424729 0 -47.478297871424729 70.24405363920232 0 0 0 0 -19.739068583757906 2.899802334389932 0 2.899802334389932 7.0739761595146291 0 0 0 0 -120.91690289484359 -65.211299441725714 0 -65.211299441725714 383.79628058590606 0 0 0 0 28.402971704499009 -307.93182950467963 0 -307.93182950467963 271.71762944178772 0 0 0 0 150.9535652110078 -121.8013902823659 0 -121.8013902823659 105.57621056636708 0 0 0 0 55.56424238577199 -245.9570059211328 0 -245.9570059211328 -52.771097531476698 0 0 0 0 -1.5873318064913908 -7.9034906500202382 0 -7.9034906500202382 22.735393112752718 0 0 0 0 -71.730268607317967 -53.790939870421425 0 -53.790939870421425 56.357030113977089 0 0 0 0 0.1405794308351212 -48.30461680965891 0 -48.30461680965891 -6.6552697055740282 0 0 0 0 -8.7470223632758586 -1.5531625083011136 0 -1.5531625083011136 4.9429437300393317 0 0 0 0 354.93044507701143 -86.533969330506807 0 -86.533969330506807 88.73094584690989 0 0 0 0 8.1668940600800397 -15.369465301773744 0 -15.369465301773744 -64.552510674708174 0 0 0 0 -15.811995251756617 1476.0842099433939 0 1476.0842099433939 3132.0104221038637 0 0 0 0 -1.7884967524540678 -20.930017291808326 0 -20.930017291808326 501.21487464931852 0 0 0 0 0.045579703935573479 -1.3060935451794649 0 -1.3060935451794649 501.35723487350333 0 0 0 0 -8.9309915833723288 -2.8010512099135667 0 -2.8010512099135667 523.74454436811357 0 0 0 0 11.22151505984829 -61.519164401623129 0 -61.519164401623129 563.80071450928881 0 0 0 0 -26.965692698091054 1.9035457464342471 0 1.9035457464342471 655.78871592055657 0 0 0 0 1.1372468528600266 -1.0816746486599982 0 -1.0816746486599982 1.3888685677237333 0 0 0 0 -27.703333683867697 21.603191476016946 0 21.603191476016946 1086.1707435854805 0 0 0 0 46.076682861445022 -61.66691672818888 0 -61.66691672818888 282.73611239143065 0 0 0 0 18.74527730508623 34.043875666575332 0 34.043875666575332 308.20473896899784 0 0 0 0 0.53606142565453752 -101.49063313855731 0 -101.49063313855731 539.87249184557004 0 0 0 0 40.440342459448011 -12.953288814496773 0 -12.953288814496773 236.36967693174665 0 0 0 0 0.46246901387392547 -0.62305511408564485 0 -0.62305511408564485 0.78236992750537127 0 0 0 0 -6.3027678818921231 13.670847007902921 0 13.670847007902921 147.69515570492877 0 0 0 0 2.4919611502455297 68.424014122687367 0 68.424014122687367 238.24451584627968 0 0 0 0 0.57408950919966739 -0.54050920731529573 0 -0.54050920731529573 0.62520148308122714 0 0 0 0 3.0754032819156691 64.143721735465078 0 64.143721735465078 160.34605302184355 0 0 0 0 39.532502562609494 39.270035570345499 0 39.270035570345499 99.807912485121051 0 0 0 0 -13.902220238826686 42.125525606228621 0 42.125525606228621 166.5374716081642 0 0 0 0 14.789077551831021 46.288292847264529 0 46.288292847264529 97.682318330436829 0 0 0 0 -0.013013134375312312 38.022546983331267 0 38.022546983331267 134.46197712997309 0 0 0 0 0.18173009924899264 -0.28846099839734052 0 -0.28846099839734052 0.76458567385307674 0 0 0 0 6.1348697404693135 -17.985185132547485 0 -17.985185132547485 473.22677409295284 0 0 0 0 0.47198081265954528 8.6445368972636061 0 8.6445368972636061 101.88348672385473 0 0 0 0 -5.183330858901158 8.3953094930038787 0 8.3953094930038787 38.788444268480816 0 0 0 0 0.014677325677577908 38.30398782198715 0 38.30398782198715 63.899610941312858 0 0 0 0 0.45017398097013483 -2.7832000980561133 0 -2.7832000980561133 63.090159275678161 0 0 0 0 11.847008905765644 23.511279632530204 0 23.511279632530204 8.7689791697339388 0 0 0 0 -3.3658388785905515 33.218325472083961 0 33.218325472083961 34.992020765159396 0 0 0 0 8.5673970747037345 22.931708987169259 0 22.931708987169259 8.7016678349173162 0 0 0 0 -14.515773483904596 30.737198668546625 0 30.737198668546625 9.9678687590931077 0 0 0 0 25.338725004803109 73.496248513140017 0 73.496248513140017 31.804014728986658 0 0 0 0 26.611468524985867 24.776185846858425 0 24.776185846858425 -15.448783294275927 0 0 0 0 13.079694237304807 13.193151013998431 0 13.193151013998431 -25.28696018163464 0 0 0 0 4.7569038082775954 7.3469315628494769 0 7.3469315628494769 -17.717139306303579 0 0 0 0 -0.043059410981986845 1.3104694408086459 0 1.3104694408086459 1.3948303431603861 0 0 0 0 4.4681176624447403 11.579714494379004 0 11.579714494379004 -12.775848060497083 0 0 0 0 -0.016408304774406184 35.510236612120934 0 35.510236612120934 3.0325894975030678 0 0 0 0 3.7546022097680378 10.832875637817779 0 10.832875637817779 -50.983431744229165 0 0 0 0 -0.008111234353234905 10.72558780165491 0 10.72558780165491 41.799150204819853 0 0 0 0 -0.098799110004046536 -0.14402790523033104 0 -0.14402790523033104 0.098004512653197651 0 0 0 0 -6.4445326453630791 11.24373972011017 0 11.24373972011017 34.063711490744026 0 0 0 0 48.818656771511769 46.275655087621999 0 46.275655087621999 -1.1566184741532197 0 0 0 0 0.9095696552272774 8.8639433132432472 0 8.8639433132432472 31.327746681352608 0 0 0 0 -0.38839678845746944 2.5095490896327988 0 2.5095490896327988 6.3799113916164831 0 0 0 0 -7.7639375125925199 0.69467494892887771 0 0.69467494892887771 17.446481985534774 0 0 0 0 -0.047921274213038448 6.3624271967310051 0 6.3624271967310051 27.35779125856061 0 0 0 0 151.80481593852983 189.50124788761605 0 189.50124788761605 -92.845844006449624 0 0 0 0 -72.349516376607426 226.55079178752203 0 226.55079178752203 108.6956824019544 0 0 0 0 1.8580218404968036 7.8667091456300113 0 7.8667091456300113 -41.932479589619106 0 0 0 0 6.2087332239003548 16.856919298731157 0 16.856919298731157 2.1901609256601464 0 0 0 0 22.584916619452997 85.490981583705434 0 85.490981583705434 -176.56110487232945 0 0 0 0 -180.57256490216696 143.51120421264204 0 143.51120421264204 45.096876442272332 0 0 0 0 10.581260499676805 14.804444205792755 0 14.804444205792755 -1.9530174038329164 0 0 0 0 15.161171408695736 24.248031178445672 0 24.248031178445672 -47.182026357193536 0 0 0 0 22.866827704208731 2.6137748880282743 0 2.6137748880282743 -10.860070668262779 0 0 0 0 5.722313267218917 1.8741047244747904 0 1.8741047244747904 -0.29246175446500544 0 0 0 0 2.3932189505541146 -18.347892359350226 0 -18.347892359350226 16.09334488051536 0 0 0 0 -18.853231687512618 13.512753329079715 0 13.512753329079715 14.424130755229271 0 0 0 0 1.4777216985484147 0.57931623865776771 0 0.57931623865776771 -0.47896587649358935 0 0 0 0 -0.25404921800500802 15.018031593732303 0 15.018031593732303 17.322794187406544 0 0 0 0 -0.65216044253202199 22.505742410110543 0 22.505742410110543 103.74262905948672 0 0 0 0 12.403517524686777 -1.8346026172948768 0 -1.8346026172948768 35.823970699799247 0 0 0 0 0.42123004077789966 50.126727430686998 0 50.126727430686998 44.561650485120481 0 0 0 0 -2.8671620665350019 7.2465574023226509 0 7.2465574023226509 63.674891458504135 0 0 0 0 15.815916328255071 18.807107014086796 0 18.807107014086796 40.136326579631714 0 0 0 0 21.636743906712582 44.963960097458767 0 44.963960097458767 73.891231913701631 0 0 0 0 3.8649311651626022 22.898986662730749 0 22.898986662730749 134.26301603787579 0 0 0 0 31.152649215789552 35.651525091823714 0 35.651525091823714 94.172438313211387 0 0 0 0 28.008896631421294 33.042045745205542 0 33.042045745205542 67.710661925098975 0 0 0 0 3.2103046498002641 28.517075656229281 0 28.517075656229281 94.097504984945772 0 0 0 0 21.429059127611026 30.752197086978413 0 30.752197086978413 63.076899448555196 0 0 0 0 8.9199132286552185 59.92769844380382 0 59.92769844380382 147.62243188916909 0 0 0 0 0.21758689545958987 26.038136920789839 0 26.038136920789839 122.72991928216652 0 0 0 0 21.492923656858011 36.23991972215299 0 36.23991972215299 118.88345424192812 0 0 0 0 3.9679476401399572 1.4047199960257899 0 1.4047199960257899 0.24167063576027203 0 0 0 0 24.674871884183347 11.722104737400514 0 11.722104737400514 33.195697818453482 0 0 0 0 12.038049338513702 12.727211210556561 0 12.727211210556561 -78.62359093503801 0 0 0 0 -17.531247977227167 -7.893411334924167 0 -7.893411334924167 107.14634026374551 0 0 0 0 4.641073712123216 31.166388630896108 0 31.166388630896108 67.560443887201473 0 0 0 0 -23.646844873955729 3.8706416502827778 0 3.8706416502827778 61.819299133637742 0 0 0 0 39.837836462606447 18.776199780801107 0 18.776199780801107 -109.14044837310939 0 0 0 0 9.049003866900005 15.625634043385929 0 15.625634043385929 -1.2655475099737421 0 0 0 0 -7.0477655115324751 -3.884573753879522 0 -3.884573753879522 -67.270296248389059 0 0 0 0 14.780572166308957 -41.307772500304054 0 -41.307772500304054 -6.4389946548762964 0 0 0 0 40.180020250419147 -83.121372832873021 0 -83.121372832873021 172.17267870452361 0 0 0 0 15.800742909100791 -12.82350527277049 0 -12.82350527277049 -2.3547856447694357 0 0 0 0 -12.543365790642383 18.534664675767999 0 18.534664675767999 88.665635160952661 0 0 0 0 10.294117791689436 15.557438354503375 0 15.557438354503375 -0.84228757097143969 0 0 0 0 43.289751119669745 -4.8485285332535568 0 -4.8485285332535568 -122.82835190416517 0 0 0 0 10.677869025039399 6.1022136411847896 0 6.1022136411847896 -97.287028915176052 0 0 0 0 -18.366015710790634 6.1882317365525523 0 6.1882317365525523 -5.9165051953750663 0 0 0 0 116.40607788337707 125.52712775159307 0 125.52712775159307 16.338206041269586 0 0 0 0 -21.874114448476575 -11.169034779573849 0 -11.169034779573849 -74.073391762474785 0 0 0 0 46.010259499804761 65.978054391700425 0 65.978054391700425 158.757137354929 0 0 0 0 13.380337888068425 45.281741695274832 0 45.281741695274832 178.17953320906236 0 0 0 0 1.3748707742782349 0.73294406183381966 0 0.73294406183381966 0.16649299509366955 0 0 0 0 -3.2833049624405248 25.678111513319891 0 25.678111513319891 161.97112399051548 0 0 0 0 0.52318894694720086 0.20441663644263031 0 0.20441663644263031 -0.015021532537261351 0 0 0 0 18.737593357139474 50.275627425217408 0 50.275627425217408 141.12828684755368 0 0 0 0 33.342259800799184 49.298783843420097 0 49.298783843420097 139.98447216324712 0 0 0 0 10.570272277746881 45.854936520583578 0 45.854936520583578 8.0831453212158522 0 0 0 0 0.81129406583471964 -0.53815272037601858 0 -0.53815272037601858 0.40564242075691936 0 0 0 0 -25.495826162505125 4.3165513615094824 0 4.3165513615094824 300.45907801114663 0 0 0 0 -22.303707827679091 4.1005405934847659 0 4.1005405934847659 300.46612245039046 0 0 0 0 37.373725323740928 -16.446301581418084 0 -16.446301581418084 -17.337298417274724 0 0 0 0 -4.0467013720879663 -50.180188001973875 0 -50.180188001973875 191.62131293013226 0 0 0 0 0.70134686869330798 -0.2305166461021031 0 -0.2305166461021031 0.30399021299413675 0 0 0 0 25.267749017834603 -33.030741841022973 0 -33.030741841022973 39.482269688196538 0 0 0 0 -21.600142974931714 40.23907788743054 0 40.23907788743054 186.27195298321021 0 0 0 0 -25.468234138020307 42.925682191962551 0 42.925682191962551 251.11748501265538 0 0 0 0 -28.11806222715677 3.5517829468444688 0 3.5517829468444688 237.55253360600909 0 0 0 0 -8.0983589462507553 23.769832135203615 0 23.769832135203615 240.18053183174925 0 0 0 0 0.88381131122196166 15.96664979041816 0 15.96664979041816 240.98236672209168 0 0 0 0 3.1449398412403298 6.9107271055327146 0 6.9107271055327146 175.20579365899903 0 0 0 0 20.802787990181955 12.499851560532989 0 12.499851560532989 636.87618358356849 0 0 0 0 3.5002781430128809 -3.1447066475512884 0 -3.1447066475512884 2.2206334554806944 0 0 0 0 30.932579931041353 1.2402749401626352 0 1.2402749401626352 320.52974895162333 0 0 0 0 -22.359967882084185 47.005779974380857 0 47.005779974380857 634.9705405808927 0 0 0 0 -58.946153226091283 45.947950039204443 0 45.947950039204443 425.42123234577593 0 0 0 0 -39.925311765061778 -57.85559191412176 0 -57.85559191412176 544.117577345256 0 0 0 0 5.7719040799011356 -4.1094632410226382 0 -4.1094632410226382 2.2271281406073484 0 0 0 0 22.674698545132173 24.462915664562388 0 24.462915664562388 297.76732843338687 0 0 0 0 19.499410139950896 38.392723711243889 0 38.392723711243889 239.26997439002298 0 0 0 0 -190.99193621605522 -43.703893055324443 0 -43.703893055324443 202.71818578784587 0 0 0 0 -99.200891828704357 113.4335829172378 0 113.4335829172378 143.80718409307883 0 0 0 0 -13.718779852487103 82.652411012155426 0 82.652411012155426 146.11732720193686 0 0 0 0 25.289998513177807 -144.12222850974649 0 -144.12222850974649 43.615588199296326 0 0 0 0 183.10349623697221 146.68181941186776 0 146.68181941186776 299.19439477633568 0 0 0 0 6.8237938712013104 -3.6911258295469054 0 -3.6911258295469054 1.7752646519139574 0 0 0 0 -62.423333648120206 -17.50960846493399 0 -17.50960846493399 421.26191015381482 0 0 0 0 57.236279810024428 -2.0446016929781763 0 -2.0446016929781763 108.67170822289336 0 0 0 0 -34.927928939895651 -100.70607714132893 0 -100.70607714132893 591.60099006735254 0 0 0 0 23.639794708676732 -45.718010837765178 0 -45.718010837765178 430.17002935850905 0 0 0 0 -52.654485336047372 -19.840545127106452 0 -19.840545127106452 656.65315851490595 0 0 0 0 40.045979570382315 -109.67562715173699 0 -109.67562715173699 219.96617729888385 0 0 0 0 61.08602445023098 -88.576358801918104 0 -88.576358801918104 366.40520955467946 0 0 0 0 53.084658694830637 64.408440255017922 0 64.408440255017922 446.4253359711729 0 0 0 0 164.21961115141403 23.984779986581998 0 23.984779986581998 180.45988878069329 0 0 0 0 170.47775183452495 -143.00966197180242 0 -143.00966197180242 383.05465726202965 0 0 0 0 91.623909652965722 -174.36112747800507 0 -174.36112747800507 292.17173106783594 0 0 0 0 114.36987191451203 -44.76570244452887 0 -44.76570244452887 604.27910117986903 0 0 0 0 101.92726031396955 -250.54115042273952 0 -250.54115042273952 181.74288599169813 0 0 0 0 188.49941004552056 -154.68900458067219 0 -154.68900458067219 123.16558571711357 0 0 0 0 3.5555428075142439 -1.2922027258121034 0 -1.2922027258121034 0.82396347729891772 0 0 0 0 216.32384747318611 -29.272535986667208 0 -29.272535986667208 -172.97070303729561 0 0 0 0 206.17017733556713 28.305206429351529 0 28.305206429351529 28.560063720564358 0 0 0 0 -41.986130196628437 -72.21451712664566 0 -72.21451712664566 782.48463043486117 0 0 0 0 37.562068315456941 -242.68021499991119 0 -242.68021499991119 649.87465251873073 0 0 0 0 276.11237792271265 230.37870145093621 0 230.37870145093621 -58.649021188452025 0 0 0 0 -417.15333750664377 275.78833857886275 0 275.78833857886275 53.564809989293281 0 0 0 0 2.341042985728091 6.2780893631007757 0 6.2780893631007757 10.269760987862242 0 0 0 0 -42.515502360919982 -40.612768028371647 0 -40.612768028371647 -0.65591759656672366 0 0 0 0 273.41530961056287 200.22762756676093 0 200.22762756676093 -362.97557724567014 0 0 0 0 194.22354564241766 38.534915887767056 0 38.534915887767056 43.734598814524361 0 0 0 0 -42.743624760626517 17.457337398795062 0 17.457337398795062 -11.901828904286958 0 0 0 0 21.823942714615896 25.392756251618266 0 25.392756251618266 -19.896451527463796 0 0 0 0 221.36749676298223 125.52339588967516 0 125.52339588967516 556.27848258594167 0 0 0 0 6.1693551232374375 -100.88775036863808 0 -100.88775036863808 85.140177172521362 0 0 0 0 0.29948962793860057 -0.62353177754964406 0 -0.62353177754964406 2.9457076844637413 0 0 0 0 -46.751255441913599 -1.9730656112988072 0 -1.9730656112988072 638.59202139121771 0 0 0 0 -45.382768835563184 -106.9003272059781 0 -106.9003272059781 361.97509897726559 0 0 0 0 -45.093800455545932 67.089916180602813 0 67.089916180602813 488.1842071897845 0 0 0 0 49.758304146261708 -39.676606597917271 0 -39.676606597917271 -15.396504628602997 0 0 0 0 1.2487804241038702 37.796051762390562 0 37.796051762390562 92.289933911859407 0 0 0 0 84.965386848950288 5.3136493847396196 0 5.3136493847396196 26.115255585784325 0 0 0 0 1.0104361286737635 -0.93442127032018618 0 -0.93442127032018618 0.81147966205119815 0 0 0 0 -16.46869528930074 -58.047915724701852 0 -58.047915724701852 77.696761416445952 0 0 0 0 3.2591710856831924 -22.419857177890663 0 -22.419857177890663 -20.196188542468008 0 0 0 0 -61.149291819642713 -8.8162276944822224 0 -8.8162276944822224 0.54974437100463547 0 0 0 0 0.61525044460340172 -2.570431496565007 0 -2.570431496565007 7.5227462902245179 0 0 0 0 -33.791578361680422 -10.961133165641513 0 -10.961133165641513 -9.1877068884641631 0 0 0 0 3.725278150389002 3.3410962474855523 0 3.3410962474855523 -18.917449237662368 0 0 0 0 0.56762867821068497 -0.33489699798212769 0 -0.33489699798212769 0.18295499968553486 0 0 0 0 2.9542054871824348 75.302926504669813 0 75.302926504669813 74.984248970678891 0 0 0 0 -26.499988100109476 -8.6102452782142791 0 -8.6102452782142791 -9.2359822445869213 0 0 0 0 -30.749491321947062 28.261071989181801 0 28.261071989181801 81.752175766829168 0 0 0 0 65.53529402940103 34.342296089816955 0 34.342296089816955 -57.55200144200353 0 0 0 0 10.171998973960269 15.50938883647413 0 15.50938883647413 -0.8279889405732872 0 0 0 0 22.68380855992109 0.51003728357318323 0 0.51003728357318323 -70.674446392553136 0 0 0 0 -72.135262325302392 74.706971874526062 0 74.706971874526062 83.226313158636913 0 0 0 0 75.381437700916649 -16.80093638348626 0 -16.80093638348626 44.460661519835412 0 0 0 0 13.804002361249331 1.3562836490018526 0 1.3562836490018526 -38.52506363332941 0 0 0 0 8.3476436518220059 15.491088964167716 0 15.491088964167716 -0.56753197516948628 0 0 0 0 -0.46352947442397863 -0.54932951401087848 0 -0.54932951401087848 -7.8087922366685234 0 0 0 0 7.9789583450146893 6.4196078196400777 0 6.4196078196400777 25.514168304072882 0 0 0 0 18.512420424377979 0.22841075919131981 0 0.22841075919131981 -8.2365073665278032 0 0 0 0 10.965892039080927 14.621222137608129 0 14.621222137608129 -4.4564449624594999 0 0 0 0 -1.5762242881428961 12.538756443094371 0 12.538756443094371 -4.7487540114379954 0 0 0 0 6.0612857052124127 0.97712181542738108 0 0.97712181542738108 13.801954589027446 0 0 0 0 2.9562717933713429 9.6599410099734087 0 9.6599410099734087 0.9485765602439642 0 0 0 0 1.052271381031872 5.1802395844627824 0 5.1802395844627824 -1.2923367989415624 0 0 0 0 0.6337479384170841 6.2163999760560671 0 6.2163999760560671 9.4366095681008062 0 0 0 0 -1.5107560736460073 -1.8334319129862706 0 -1.8334319129862706 -0.80846273644920075 0 0 0 0 1.4482365113353808 5.8058669257043221 0 5.8058669257043221 -10.657505884177226 0 0 0 0 10.884498670631501 -3.5624762984080007 0 -3.5624762984080007 -2.8924326388223562 0 0 0 0 1.728286277873849 10.764967878047173 0 10.764967878047173 13.238813067800947 0 0 0 0 25.667979792715869 53.478641755980789 0 53.478641755980789 -19.209160776736098 0 0 0 0 4.5750995202205171 10.179969512041509 0 10.179969512041509 -0.21305835036142895 0 0 0 0 -11.752691370045795 18.30486189268413 0 18.30486189268413 49.779023154354945 0 0 0 0 -0.11010685931432818 67.020813276845729 0 67.020813276845729 72.733687611951609 0 0 0 0 20.701983892950011 47.717604024364846 0 47.717604024364846 64.115728176839184 0 0 0 0 -8.7049007662826625 68.071680362874758 0 68.071680362874758 123.63026525036548 0 0 0 0 -21.538926203242227 42.329468938260106 0 42.329468938260106 142.23137221754587 0 0 0 0 -25.876025582334478 46.228201233403524 0 46.228201233403524 147.73920454445761 0 0 0 0 -25.884695972217742 57.122382229124923 0 57.122382229124923 168.62174842841341 0 0 0 0 -32.874827923031262 18.755331989057595 0 18.755331989057595 112.09630971874867 0 0 0 0 1.9655716632770357 0.46554256077733669 0 0.46554256077733669 10.060881466838225 0 0 0 0 -40.902918668910843 -38.581424444964796 0 -38.581424444964796 64.256810356251663 0 0 0 0 11.033241275819137 -52.75671894340303 0 -52.75671894340303 45.015468504774617 0 0 0 0 -10.676127307798197 64.907537913815759 0 64.907537913815759 54.774006060441025 0 0 0 0 294.61172238600102 -163.00039346513222 0 -163.00039346513222 -115.03178788779769 0 0 0 0 -21.655188868031473 66.604146403158666 0 66.604146403158666 206.56865049678891 0 0 0 0 71.817614408710142 102.14501864534395 0 102.14501864534395 117.96299548615934 0 0 0 0 525.02373360397542 238.58704740501707 0 238.58704740501707 57.321027338617569 0 0 0 0 71.699795898352022 29.407817753235577 0 29.407817753235577 52.746696209185757 0 0 0 0 0.89632876738460787 2.7020336546111992 0 2.7020336546111992 4.5852039738219332 0 0 0 0 42.88867682995442 208.5564545682937 0 208.5564545682937 -99.066583079445991 0 0 0 0 76.436738805578898 356.87760655396414 0 356.87760655396414 -206.53573026421509 0 0 0 0 -57.921156982075445 -0.27644187658734154 0 -0.27644187658734154 302.90745838079602 0 0 0 0 60.764850708438644 300.9034256998566 0 300.9034256998566 360.07420002960134 0 0 0 0 982.29706362979778 -63.895698706735857 0 -63.895698706735857 -484.88358254707418 0 0 0 0 101.61073149003732 202.60766322001291 0 202.60766322001291 353.88977144417004 0 0 0 0 -79.072733797177307 -58.640830603144423 0 -58.640830603144423 188.84659169486258 0 0 0 0 -69.600077803101158 -8.7773221801617183 0 -8.7773221801617183 162.07835321462335 0 0 0 0 -68.05456737835874 -37.254537840006833 0 -37.254537840006833 145.37497684152913 0 0 0 0 -59.930240886626962 30.587280072017165 0 30.587280072017165 258.333709752711 0 0 0 0 -53.321171117901031 15.528861321290606 0 15.528861321290606 225.05525243791635 0 0 0 0 75.939332895020925 116.07750202398165 0 116.07750202398165 350.61666485086607 0 0 0 0 98.167203509858155 -196.08264556610084 0 -196.08264556610084 26.847007436037529 0 0 0 0 -22.508597242962423 -150.2950278314529 0 -150.2950278314529 391.62730359193301 0 0 0 0 -10.581099154238473 8.9678502506576478 0 8.9678502506576478 17.416150866948556 0 0 0 0 27.415373675203227 -71.558276053096051 0 -71.558276053096051 105.86924248718424 0 0 0 0 -39.856775942133027 -68.06650185061153 0 -68.06650185061153 172.81535724800779 0 0 0 0 -28.427951146817577 -55.675364616457955 0 -55.675364616457955 133.69637416419573 0 0 0 0 -36.671867710905644 9.9362406370346434 0 9.9362406370346434 216.98408350572572 0 0 0 0 11.412699648524722 -7.2438657239254098 0 -7.2438657239254098 145.80487759044627 0 0 0 0 -0.00041253883318859152 -39.948791720380541 0 -39.948791720380541 351.77063794018977 0 0 0 0 60.673572682546364 158.56425194469921 0 158.56425194469921 328.14169981541818 0 0 0 0 -64.474217935796332 -22.982429587573279 0 -22.982429587573279 -6.7761313844239339 0 0 0 0 3.6070498004758118 -0.17478876509811414 0 -0.17478876509811414 0.076246198571652712 0 0 0 0 -76.778407632480594 -59.701799767557532 0 -59.701799767557532 7.1633482292818371 0 0 0 0 2.285848837244167 1.2516326017618553 0 1.2516326017618553 -0.73165213009212948 0 0 0 0 33.191729559169289 76.633071961539827 0 76.633071961539827 109.71854313591029 0 0 0 0 -11.783878499876664 32.431082784227328 0 32.431082784227328 93.40740189627104 0 0 0 0 9.0242692613537656 15.864967875560978 0 15.864967875560978 33.209091798984446 0 0 0 0 -34.328764292345568 -8.4282039158661064 0 -8.4282039158661064 50.337894127704203 0 0 0 0 -3.5123153908972746 -4.0047110669171673 0 -4.0047110669171673 22.643587022811289 0 0 0 0 -4.5039248577407527 10.608144827939242 0 10.608144827939242 4.6053173378406598 0 0 0 0 -24.834637180935715 10.129601037919201 0 10.129601037919201 36.173150555638131 0 0 0 0 -12.712641975163933 18.437341016811843 0 18.437341016811843 59.418037254057708 0 0 0 0 -10.552981377196204 -4.4008535260813915 0 -4.4008535260813915 47.037904007389443 0 0 0 0 -14.178203842049243 -17.682405929681408 0 -17.682405929681408 59.631182414566865 0 0 0 0 -30.059641396319421 13.943798092535872 0 13.943798092535872 103.73277227004291 0 0 0 0 -16.62229648893117 -29.874709213792812 0 -29.874709213792812 127.46937733978848 0 0 0 0 -23.132220975825476 2.4878788665737375 0 2.4878788665737375 52.92194832972018 0 0 0 0 -21.094577090005259 10.227268501621438 0 10.227268501621438 81.170707077690167 0 0 0 0 -17.310789430266595 11.15277226393664 0 11.15277226393664 70.34713141885004 0 0 0 0 -13.350574668307672 28.012027595003019 0 28.012027595003019 67.63742189698678 0 0 0 0 -2.8205162441184406 9.7278933373899577 0 9.7278933373899577 6.5967775665659723 0 0 0 0 -2.6309862649040952 13.612001339366543 0 13.612001339366543 15.300984738101306 0 0 0 0 -12.19782546980241 21.988564887316898 0 21.988564887316898 51.412895912784734 0 0 0 0 1.3154359339853752 7.7870771544738773 0 7.7870771544738773 7.5603431869177484 0 0 0 0 8.9262879684346501 -5.8229394726113242 0 -5.8229394726113242 27.061823823780287 0 0 0 0 2.0454925120880105 -0.29446160098984819 0 -0.29446160098984819 11.822395942208377 0 0 0 0 -1.7025871868027025 1.7755219208920607 0 1.7755219208920607 28.658712479832047 0 0 0 0 -5.3992347515161399 8.1031801765707598 0 8.1031801765707598 22.700544171959791 0 0 0 0 4.9601863080788462 0.066381470089254435 0 0.066381470089254435 18.785840135380568 0 0 0 0 8.230955947503503 2.1436908014056826 0 2.1436908014056826 14.762788324500434 0 0 0 0 4.3456660430291674 -12.143188723534593 0 -12.143188723534593 20.086787283616729 0 0 0 0 -25.765560321873636 -123.52814903629769 0 -123.52814903629769 -190.29514570032552 0 0 0 0 -10.48094894824635 -3.7398942738036567 0 -3.7398942738036567 31.150819697228144 0 0 0 0 9.6453300239495157 -12.959012582679719 0 -12.959012582679719 18.748221916047186 0 0 0 0 76.192356793403633 61.349072882156179 0 61.349072882156179 -299.50751782798034 0 0 0 0 7.9331444207676327 1.3303822563955237 0 1.3303822563955237 5.9322027289289281 0 0 0 0 6.4002246127984108 -5.9824804248055443 0 -5.9824804248055443 29.415913961274782 0 0 0 0 3.9356517654217935 -9.4105517700743064 0 -9.4105517700743064 19.115597744082777 0 0 0 0 11.66965914718168 -19.155292185480036 0 -19.155292185480036 24.624536354630209 0 0 0 0 1.3413273005517112 -12.580018263703096 0 -12.580018263703096 24.962616631877609 0 0 0 0 -2.9148436577416081 0.55877816706524186 0 0.55877816706524186 20.193881649996541 0 0 0 0 1.3971730209799045 -15.607725746812548 0 -15.607725746812548 36.737219256597086 0 0 0 0 2.736185450834455 3.0986317469069036 0 3.0986317469069036 32.41110453311012 0 0 0 0 1.9877127020586123 -5.826102237023548 0 -5.826102237023548 29.964645639182358 0 0 0 0 -86.69683905780505 76.296438166515145 0 76.296438166515145 -55.333059443509228 0 0 0 0 3.9813158475972159 -15.439242478954839 0 -15.439242478954839 18.707456515490776 0 0 0 0 20.400440807727477 -19.743907294381643 0 -19.743907294381643 30.871665111984839 0 0 0 0 -181.29011823954943 -69.830979241451132 0 -69.830979241451132 32.099191154316941 0 0 0 0 0.16104101245218266 -1.8278068939771117 0 -1.8278068939771117 5.0857519148422412 0 0 0 0 -10.315434019998293 -25.140412520879181 0 -25.140412520879181 -23.893254364076711 0 0 0 0 -38.545425220639117 -47.989760627373471 0 -47.989760627373471 0.70272486229441711 0 0 0 0 -2.5848242243491741 -5.548996402032941 0 -5.548996402032941 35.749709356554185 0 0 0 0 13.683685634814132 -45.478635397632388 0 -45.478635397632388 101.05683223158849 0 0 0 0 0.75528595021623879 -33.268225067098854 0 -33.268225067098854 107.48951653650875 0 0 0 0 -0.33313574809146684 -1.9620643563281703 0 -1.9620643563281703 2.7350931892525523 0 0 0 0 -12.850467332729409 48.708767598561735 0 48.708767598561735 86.328363958338741 0 0 0 0 -18.057430202941109 20.366829729037633 0 20.366829729037633 47.562705554175437 0 0 0 0 1.0491671300063672 -20.85847306256619 0 -20.85847306256619 87.75618464418767 0 0 0 0 6.5863201355749652 -28.060390841881599 0 -28.060390841881599 88.829550934184226 0 0 0 0 1.5521407298801932 5.0045950061467011 0 5.0045950061467011 29.452360196388327 0 0 0 0 2.9121838435025467 -8.7879514935366529 0 -8.7879514935366529 43.743945326335478 0 0 0 0 -27.361315009424288 -1.7876312076987233 0 -1.7876312076987233 89.023904244837468 0 0 0 0 -30.324537323740515 11.693952617621107 0 11.693952617621107 124.18512070148427 0 0 0 0 -21.605895983359687 -25.183774095393801 0 -25.183774095393801 99.043030581000494 0 0 0 0 -23.906060607086797 18.213357957909039 0 18.213357957909039 41.503246978207869 0 0 0 0 -23.674499271546665 -12.585621758436901 0 -12.585621758436901 105.04877054017561 0 0 0 0 -18.25205963618555 -17.54574609188785 0 -17.54574609188785 97.878134088488878 0 0 0 0 -26.685882712768944 -32.037717184328358 0 -32.037717184328358 73.268733348522801 0 0 0 0 -8.266408209308338 -23.489300541205012 0 -23.489300541205012 67.563110161660006 0 0 0 0 -9.6344844281188671 -28.97395452875935 0 -28.97395452875935 52.065247351856669 0 0 0 0 -29.207889576704474 -22.449412662645045 0 -22.449412662645045 73.012592345505254 0 0 0 0 -39.715941495354855 0.091313337230531033 0 0.091313337230531033 28.538197345624212 0 0 0 0 -24.621602458102643 -21.276987948738679 0 -21.276987948738679 41.790608295123093 0 0 0 0 1.7411088744938752 -31.734778570193157 0 -31.734778570193157 47.090911219856935 0 0 0 0 -23.466191051673377 -16.931789909373038 0 -16.931789909373038 53.888911380025093 0 0 0 0 -26.954177607358361 10.355580824820208 0 10.355580824820208 -33.098399303256883 0 0 0 0 -44.006033712119461 -23.653793906996725 0 -23.653793906996725 9.9686209695792058 0 0 0 0 -32.816727622261169 -4.2975789956690278 0 -4.2975789956690278 19.356739772600122 0 0 0 0 -40.218012763381012 -23.224920492961246 0 -23.224920492961246 61.679598179325694 0 0 0 0 -27.04741357299099 -29.561178410309367 0 -29.561178410309367 39.728840551295434 0 0 0 0 -24.772561270126062 -14.283872642292408 0 -14.283872642292408 14.390379061573185 0 0 0 0 -38.523673221105128 -47.560996528249234 0 -47.560996528249234 54.006892297460581 0 0 0 0 -40.723334507276377 -28.342594770227151 0 -28.342594770227151 99.207157626515254 0 0 0 0 -29.744800358042994 -20.072892325217254 0 -20.072892325217254 80.816465953394072 0 0 0 0 -34.275562386035745 -37.084416914309259 0 -37.084416914309259 66.193394888079638 0 0 0 0 -41.896465868934683 -21.553811848629266 0 -21.553811848629266 101.07471010972222 0 0 0 0 -35.585077914302019 -24.077048198829289 0 -24.077048198829289 101.83563113992568 0 0 0 0 -44.524073302039142 -16.908778498724132 0 -16.908778498724132 144.95707925237366 0 0 0 0 -33.275514997192658 -44.808745586400619 0 -44.808745586400619 116.76951836596709 0 0 0 0 -19.830292293079765 -38.256821873808804 0 -38.256821873808804 89.83952799247345 0 0 0 0 -29.485688770129855 -28.134562405146426 0 -28.134562405146426 154.67255590038258 0 0 0 0 -12.609876980503941 -4.7477685462654335 0 -4.7477685462654335 144.02597899563261 0 0 0 0 33.844138517369174 -45.311053634504788 0 -45.311053634504788 54.312174575694371 0 0 0 0 -20.013078984742606 6.6968030471762177 0 6.6968030471762177 41.561918882915052 0 0 0 0 -90.161302734060882 29.496152895299019 0 29.496152895299019 42.485462997901777 0 0 0 0 -78.342232367227552 154.58507615004783 0 154.58507615004783 -2.1648150470007295 0 0 0 0 65.969665121587241 74.303225665993523 0 74.303225665993523 43.839395894305198 0 0 0 0 -28.178404649660934 -28.137289434012928 0 -28.137289434012928 152.87026155591593 0 0 0 0 144.76656929030105 -44.366494258298189 0 -44.366494258298189 139.49581189994933 0 0 0 0 -8.2008285065739983 35.00722431253962 0 35.00722431253962 -87.009561291881255 0 0 0 0 -50.36202137345208 -19.430453950248193 0 -19.430453950248193 21.041510239927447 0 0 0 0 -36.52688500439217 22.938609170669224 0 22.938609170669224 -46.000717582253856 0 0 0 0 -59.628611119207562 -5.7082437907884014 0 -5.7082437907884014 -89.72096530123963 0 0 0 0 -123.95109911175496 19.263209297525464 0 19.263209297525464 -30.24094404537027 0 0 0 0 -117.88908461510255 108.85232805938722 0 108.85232805938722 -70.464725489162447 0 0 0 0 -37.726095666552283 48.960291603420046 0 48.960291603420046 -116.97892064916959 0 0 0 0 -231.86053699063632 -78.275627261100453 0 -78.275627261100453 289.23587446752936 0 0 0 0 1.2764872832081409 5.7257654678342931 0 5.7257654678342931 11.014535810981727 0 0 0 0 -226.22742426355899 236.27338623313699 0 236.27338623313699 85.197979905569809 0 0 0 0 -153.3927344660201 -23.820135940422915 0 -23.820135940422915 689.83649102911295 0 0 0 0 -31.650129482489319 -229.81447105604457 0 -229.81447105604457 227.04723075923357 0 0 0 0 -31.35250959399815 -253.80612428440884 0 -253.80612428440884 939.2172410418716 0 0 0 0 -0.47800921110222561 1.9477414828315176 0 1.9477414828315176 5.8621300186677274 0 0 0 0 -169.12484184634377 159.79117405635043 0 159.79117405635043 670.2030573739612 0 0 0 0 -167.05594251448747 224.08999904539814 0 224.08999904539814 57.489390036200348 0 0 0 0 -44.030562064061087 50.219685289586778 0 50.219685289586778 -1.4574378426623298 0 0 0 0 -211.2549653849635 -80.866185558338657 0 -80.866185558338657 206.96921201806981 0 0 0 0 -44.837264782639977 53.460530167532852 0 53.460530167532852 25.543854704330442 0 0 0 0 -61.350586695538368 71.938426033681026 0 71.938426033681026 15.654649920688826 0 0 0 0 -206.74821661556962 15.113869101274759 0 15.113869101274759 764.69073094072519 0 0 0 0 -326.04048963614878 62.274146106938133 0 62.274146106938133 1361.8860275608313 0 0 0 0 111.97575686245182 389.49245627786149 0 389.49245627786149 690.13768929202342 0 0 0 0 1.0105874979797314 -2.0770403857761721 0 -2.0770403857761721 3.3560162745943956 0 0 0 0 -135.87618793673209 -99.502732110653596 0 -99.502732110653596 23.636505443311762 0 0 0 0 -136.78578761826793 33.078020743618254 0 33.078020743618254 1008.6396506210513 0 0 0 0 -62.946446933128755 245.6997495208052 0 245.6997495208052 911.19728515201132 0 0 0 0 -89.039687153475825 71.844300650656805 0 71.844300650656805 680.09123274557351 0 0 0 0 54.807815565502096 193.20821922068717 0 193.20821922068717 574.89945627581619 0 0 0 0 -17.489354593739336 123.88785545821884 0 123.88785545821884 509.03475305077154 0 0 0 0 -50.02890735490746 21.133415201529715 0 21.133415201529715 -12.05678115048795 0 0 0 0 -25.409735198416911 -27.284114020661946 0 -27.284114020661946 -105.63959102946683 0 0 0 0 -35.444766398845786 -14.414184619916341 0 -14.414184619916341 70.447521009104094 0 0 0 0 -19.090484575510345 99.257260667596711 0 99.257260667596711 -17.153525873523904 0 0 0 0 -30.00042089119961 17.712442711817857 0 17.712442711817857 -29.464697792311199 0 0 0 0 -50.421410202539846 17.400180005948641 0 17.400180005948641 32.012675750036578 0 0 0 0 -25.448169478451746 22.024703446368221 0 22.024703446368221 -28.54716959092184 0 0 0 0 -55.910834910617268 9.2912865189864533 0 9.2912865189864533 -29.3777470322093 0 0 0 0 -37.991796884923133 64.760989195550792 0 64.760989195550792 -31.039011051238049 0 0 0 0 -24.765003815358796 27.533182197992573 0 27.533182197992573 -56.118812646454899 0 0 0 0 -75.227593581260408 -334.14404326972726 0 -334.14404326972726 -139.9825828326866 0 0 0 0 -234.30087409250336 12.210380333614012 0 12.210380333614012 2.9269497955319821 0 0 0 0 -124.78889789764253 -89.348325093415042 0 -89.348325093415042 -15.362997861928307 0 0 0 0 95.544737611007804 -120.40478061728209 0 -120.40478061728209 -618.90597674576566 0 0 0 0 -39.480265400583448 -231.78565995248937 0 -231.78565995248937 66.571472384850495 0 0 0 0 -105.91014507387808 -201.47851721939878 0 -201.47851721939878 431.31264728828683 0 0 0 0 -114.01925194529758 -167.09827190851502 0 -167.09827190851502 393.99524693121202 0 0 0 0 -71.278364032605168 -73.515298903163057 0 -73.515298903163057 394.12125979838311 0 0 0 0 -129.51495301892101 -107.64287103976676 0 -107.64287103976676 639.45939724371419 0 0 0 0 -43.581412276598712 48.822405914703268 0 48.822405914703268 597.36830669522169 0 0 0 0 -5.9830916075716232 -210.24076988339948 0 -210.24076988339948 807.93415896239458 0 0 0 0 -2.813561496528564 -51.446164406152093 0 -51.446164406152093 464.99910599601935 0 0 0 0 184.51433685237862 -38.848072420318204 0 -38.848072420318204 685.34098005545093 0 0 0 0 98.68074264439565 -67.651060934505949 0 -67.651060934505949 1385.0687824788038 0 0 0 0 37.843590076241526 -270.85387472073489 0 -270.85387472073489 561.94823963414819 0 0 0 0 31.149946654691121 -62.490082116892154 0 -62.490082116892154 147.5883694627264 0 0 0 0 -44.239057878856329 -222.14968210881489 0 -222.14968210881489 210.3059151803609 0 0 0 0 86.394548339039829 58.263649558375619 0 58.263649558375619 565.13308168257936 0 0 0 0 275.6951599031454 -102.89800920941343 0 -102.89800920941343 660.83633829838072 0 0 0 0 16.641278063575555 183.73016523620026 0 183.73016523620026 873.11907236141269 0 0 0 0 -218.54379511489606 52.371467839810066 0 52.371467839810066 1071.0289431366473 0 0 0 0 -237.53312495356477 -44.432187444326701 0 -44.432187444326701 885.90365664009005 0 0 0 0 -226.16432991238798 71.634526559982532 0 71.634526559982532 784.82942102248489 0 0 0 0 -72.15865519264662 -6.2853701536587323 0 -6.2853701536587323 588.57314081139339 0 0 0 0 -179.85317327575831 50.02340780137456 0 50.02340780137456 569.27103054872714 0 0 0 0 39.415007542149397 -1.9493005927215563 0 -1.9493005927215563 688.35546852480957 0 0 0 0 -124.3410540080622 -135.11867884262756 0 -135.11867884262756 718.73720648784365 0 0 0 0 210.74755269443622 -464.87494960266758 0 -464.87494960266758 1280.0949591599492 0 0 0 0 -24.711668835252567 76.477132764368434 0 76.477132764368434 343.67657165545097 0 0 0 0 155.14662864473939 -61.531171663933492 0 -61.531171663933492 445.97085521327972 0 0 0 0 -453.78721652130207 -593.82524466167524 0 -593.82524466167524 288.22639082948808 0 0 0 0 -64.764517209376208 140.58814665604586 0 140.58814665604586 -336.73768856223614 0 0 0 0 -230.60686049885408 -257.99985974899027 0 -257.99985974899027 -46.269033188538742 0 0 0 0 -324.00890056983189 3.1148358204518445 0 3.1148358204518445 623.81674033080344 0 0 0 0 -62.562542315265375 -192.91417549528387 0 -192.91417549528387 226.77631922063301 0 0 0 0 -144.36831779133172 -36.671008773224457 0 -36.671008773224457 610.41985115466377 0 0 0 0 -4.2086208885030061 0.22927017633494984 0 0.22927017633494984 -0.34179879912646349 0 0 0 0 131.78482870761172 -544.79350909083587 0 -544.79350909083587 -1276.9866526921323 0 0 0 0 88.51755580309009 -178.83942466742883 0 -178.83942466742883 -772.82588842645055 0 0 0 0 -66.496590313445267 -252.34361089306913 0 -252.34361089306913 -350.56219157169107 0 0 0 0 -74.551579298444949 -453.43403544127432 0 -453.43403544127432 -678.61384188193188 0 0 0 0 48.491438295582157 -45.987426989719097 0 -45.987426989719097 54.684479765739525 0 0 0 0 -177.85273159760072 -62.948936707245593 0 -62.948936707245593 62.050307248413446 0 0 0 0 -85.209791961910014 71.35933759866748 0 71.35933759866748 54.021347144178435 0 0 0 0 57.944661242394432 -41.740216936792422 0 -41.740216936792422 186.45809963216743 0 0 0 0 -138.03311472360474 -157.71562191720295 0 -157.71562191720295 124.19683658801659 0 0 0 0 1.2823617601688966 -152.9616089289575 0 -152.9616089289575 163.20783963895519 0 0 0 0 11.428789389019585 -41.78133281994451 0 -41.78133281994451 53.175489762186771 0 0 0 0 -14.973294936523462 -2.5936693285710817 0 -2.5936693285710817 -1.6602613041564158 0 0 0 0 -47.09352894561016 -35.756950446011615 0 -35.756950446011615 360.29907075521533 0 0 0 0 -0.37737734549409652 -82.414009235028061 0 -82.414009235028061 77.000745375480619 0 0 0 0 -38.412933489995339 -177.71279709124792 0 -177.71279709124792 30.496609658861416 0 0 0 0 30.494602689088424 -119.68865872969764 0 -119.68865872969764 19.209429779402853 0 0 0 0 -132.26863619986079 -34.544427651644583 0 -34.544427651644583 166.5287239460813 0 0 0 0 22.926253056688715 -57.324117157981206 0 -57.324117157981206 116.02393382804293 0 0 0 0 1.1646228698611587 -15.151027648310162 0 -15.151027648310162 28.46197875812328 0 0 0 0 -262.90570274541824 -13.57714143350313 0 -13.57714143350313 146.25163560299279 0 0 0 0 26.919400531587371 -134.90970572151491 0 -134.90970572151491 -30.023867415104178 0 0 0 0 -166.44862872364865 -134.94339752183805 0 -134.94339752183805 150.08361607262486 0 0 0 0 17.830047252043276 -1.191119639446363 0 -1.191119639446363 -14.410962355407804 0 0 0 0 75.120544367647085 -57.725668926068465 0 -57.725668926068465 123.67665472329827 0 0 0 0 32.574099467701807 -37.395079282151642 0 -37.395079282151642 54.860739469808124 0 0 0 0 73.938945211085311 -113.22030883444677 0 -113.22030883444677 393.03404736357334 0 0 0 0 -262.55550365543786 22.265961017536029 0 22.265961017536029 155.99995745869455 0 0 0 0 15.847095753135367 16.775016342828813 0 16.775016342828813 53.998876248584921 0 0 0 0 78.76097224490789 -738.6226400891901 0 -738.6226400891901 1749.8252495139277 0 0 0 0 217.09147660034586 209.75158537128573 0 209.75158537128573 573.90421215110837 0 0 0 0 43.56883092162542 -154.23221436419772 0 -154.23221436419772 715.23516360619396 0 0 0 0 -214.1365315635432 207.65099808508239 0 207.65099808508239 2114.9954516116632 0 0 0 0 -51.417217686429723 -231.0344818237445 0 -231.0344818237445 412.80296026001452 0 0 0 0 208.38968217085625 568.49393096916538 0 568.49393096916538 930.88890704594814 0 0 0 0 -477.62324444044219 -55.666395495474717 0 -55.666395495474717 2174.7133428890902 0 0 0 0 -421.9213722989636 737.24812726126765 0 737.24812726126765 3499.2717310556254 0 0 0 0 -474.06894760366924 -5.4021417334483885 0 -5.4021417334483885 2295.4183899136769 0 0 0 0 2483.3786931811978 -590.47518435127495 0 -590.47518435127495 -312.71190886356635 0 0 0 0 702.15827092964389 1801.2823122534028 0 1801.2823122534028 3496.5049318274901 0 0 0 0 10.499214544733556 -8.6388167640623124 0 -8.6388167640623124 14.916309881167138 0 0 0 0 33.883970860911404 673.76623112407106 0 673.76623112407106 1623.5835504014176 0 0 0 0 21.440429745792549 -27.77135431500102 0 -27.77135431500102 36.533256004702764 0 0 0 0 116.35973203074366 394.41956562250198 0 394.41956562250198 1624.2695302623583 0 0 0 0 -4.485618639587301 -331.86915576696629 0 -331.86915576696629 -8.4908526912913658 0 0 0 0 1099.677291872423 -80.499283712997567 0 -80.499283712997567 -357.15429058488371 0 0 0 0 -2.8657008211012709 -318.14046031644125 0 -318.14046031644125 -12.579730494406249 0 0 0 0 -5.3241695860024265 -62.823262100748252 0 -62.823262100748252 418.1076806797937 0 0 0 0 176.11097653895052 -537.57837980063869 0 -537.57837980063869 531.20840941023198 0 0 0 0 -3.450919711129476 -0.066369825477721633 0 -0.066369825477721633 2.4503651783008422 0 0 0 0 -17.170011318012257 -122.18955466752959 0 -122.18955466752959 -82.687500549531251 0 0 0 0 -20.269194925794181 -227.32008979412785 0 -227.32008979412785 120.83485870662844 0 0 0 0 -47.760785837091589 84.447255329534528 0 84.447255329534528 48.725373749221035 0 0 0 0 178.61697888434628 -549.77158655448147 0 -549.77158655448147 755.79441277814658 0 0 0 0 326.11520146101998 -194.81072823551949 0 -194.81072823551949 281.90155508585588 0 0 0 0 -48.362902576825036 -4.3214103539212374 0 -4.3214103539212374 281.70722487685833 0 0 0 0 158.46247753354987 -290.07683901584824 0 -290.07683901584824 190.93850208763615 0 0 0 0 -25.162370363603003 -125.28834168339381 0 -125.28834168339381 641.53648899848486 0 0 0 0 375.93166304047196 -133.51764805713537 0 -133.51764805713537 233.19341837869433 0 0 0 0 86.314624186440625 -1288.4238791167754 0 -1288.4238791167754 1321.6335797725624 0 0 0 0 103.0959098403938 -794.85658670742851 0 -794.85658670742851 918.77323381525639 0 0 0 0 97.347791518007512 -1279.3810598576601 0 -1279.3810598576601 970.63393416900999 0 0 0 0 -4.8755975254195665 -3.0478215029366709 0 -3.0478215029366709 1.2830320346112103 0 0 0 0 138.07930358884772 -537.76838328316444 0 -537.76838328316444 1826.2069397237065 0 0 0 0 709.88289045615454 -1479.9090477801128 0 -1479.9090477801128 872.92716916197969 0 0 0 0 -24.259675922851454 -833.92161768446022 0 -833.92161768446022 1235.0312203824942 0 0 0 0 1059.4132983953032 -2621.3687445380992 0 -2621.3687445380992 3492.9845858786575 0 0 0 0 0.95070462584369642 -5.4123546564511997 0 -5.4123546564511997 10.260483862224277 0 0 0 0 -140.41688470408116 -1418.810386531457 0 -1418.810386531457 400.56334471699665 0 0 0 0 -96.041073863567817 -467.72141800190138 0 -467.72141800190138 258.95862233219668 0 0 0 0 -1382.3895113639592 87.711572352400253 0 87.711572352400253 3495.5369125588454 0 0 0 0 7.6836680440911778 -1557.9102672177651 0 -1557.9102672177651 586.75189555324323 0 0 0 0 -422.63994868335368 487.69551695464361 0 487.69551695464361 261.44372225429106 0 0 0 0 -204.41945984906295 -12.332947741277167 0 -12.332947741277167 1108.1922782772745 0 0 0 0 -668.68255263799006 97.426866523173885 0 97.426866523173885 1207.1535894901463 0 0 0 0 -934.01369451700498 177.6153527327715 0 177.6153527327715 1605.6641982568544 0 0 0 0 -350.32796136180934 -566.77926601866056 0 -566.77926601866056 2111.9886109939325 0 0 0 0 1.770800796284913 -5.6002893788236747 0 -5.6002893788236747 9.8280531033048817 0 0 0 0 978.51390004466998 -945.02095266318429 0 -945.02095266318429 1162.2286950970738 0 0 0 0 178.62778331512027 -654.41993770001864 0 -654.41993770001864 589.94435524225264 0 0 0 0 -6.6178223468034822 -4.7826774906122722 0 -4.7826774906122722 -0.30275393450551746 0 0 0 0 117.58353766603318 -519.28598233064986 0 -519.28598233064986 1101.1938267751138 0 0 0 0 -366.25939478355201 -28.128774829798203 0 -28.128774829798203 1257.4233384863219 0 0 0 0 163.29766248080719 -414.9641173923319 0 -414.9641173923319 835.52533352567116 0 0 0 0 -3.6729509172674444 -2.6327549719599261 0 -2.6327549719599261 -0.63357015079751022 0 0 0 0 527.59808576583646 -62.526101026778633 0 -62.526101026778633 -522.0292354849953 0 0 0 0 23.830845809169887 -692.50117748330013 0 -692.50117748330013 -387.83796929748496 0 0 0 0 119.29826180393184 -602.03472986447741 0 -602.03472986447741 -1049.1672665038786 0 0 0 0 -356.64335772342747 -255.50082634283172 0 -255.50082634283172 -549.38499342517753 0 0 0 0 12.834932886021335 141.99116618875996 0 141.99116618875996 1108.6466500441165 0 0 0 0 9.4019584171087871 -21.420173643503944 0 -21.420173643503944 7.0859154863518512 0 0 0 0 367.44735270712044 -301.498277990926 0 -301.498277990926 -1429.6620466673121 0 0 0 0 -110.39057143015657 -144.15349257904745 0 -144.15349257904745 492.97749065591779 0 0 0 0 274.37809638789054 -111.50016228595632 0 -111.50016228595632 -470.00705197319621 0 0 0 0 -62.4551808104369 -330.47105128180556 0 -330.47105128180556 150.37771424371749 0 0 0 0 -18.928272848097322 21.696612807216297 0 21.696612807216297 -356.85429937174194 0 0 0 0 -31.787630779817846 -257.28239517693146 0 -257.28239517693146 -342.55470506124402 0 0 0 0 59.330981178755053 36.679060539494458 0 36.679060539494458 -71.598797697253758 0 0 0 0 -99.343909939701916 152.97913420832629 0 152.97913420832629 -846.93338507041335 0 0 0 0 -204.60001697623966 -396.79923305908596 0 -396.79923305908596 -545.0017396302992 0 0 0 0 201.84368188000838 209.82555163020152 0 209.82555163020152 1139.9100520261636 0 0 0 0 247.15598353475406 -330.5778660991964 0 -330.5778660991964 -1557.0739316546096 0 0 0 0 -207.5497162965562 46.420924189718789 0 46.420924189718789 1963.1364669389368 0 0 0 0 4.9153611084680948 -3.5607681531588184 0 -3.5607681531588184 1.2234491112777306 0 0 0 0 202.40337467609061 -91.331085022193292 0 -91.331085022193292 623.29164963624498 0 0 0 0 6.3213804100578272 61.879243233637681 0 61.879243233637681 922.09812075849914 0 0 0 0 50.721441414919127 34.418000407233194 0 34.418000407233194 761.13536172273598 0 0 0 0 60.02222187919341 -170.89106792531311 0 -170.89106792531311 1011.7840622957883 0 0 0 0 -55.211228636555006 47.085876669145364 0 47.085876669145364 967.85520266358071 0 0 0 0 122.29902436581119 -50.171810898355034 0 -50.171810898355034 559.67011457262561 0 0 0 0 32.246051469401039 -140.40629724003884 0 -140.40629724003884 732.28696147576557 0 0 0 0 -64.939437778201523 -9.0800797968477127 0 -9.0800797968477127 695.22601738624508 0 0 0 0 -59.621446849170496 -10.352512249271967 0 -10.352512249271967 893.75224137757323 0 0 0 0 -3.3056771727684691 -31.285791457194136 0 -31.285791457194136 702.90817131051153 0 0 0 0 63.257921099073364 -10.332597746722513 0 -10.332597746722513 892.1963744321838 0 0 0 0 -47.341728535627141 -16.867328405089211 0 -16.867328405089211 1006.1609238473102 0 0 0 0 9.919610156073027 -14.449430154587333 0 -14.449430154587333 4.3248008735115064 0 0 0 0 -49.262294351681135 57.099856285043643 0 57.099856285043643 1313.9212242647718 0 0 0 0 81.207617435765258 135.22390292561613 0 135.22390292561613 924.32556385906355 0 0 0 0 -50.226915677773135 -9.8195339745434467 0 -9.8195339745434467 858.75499291671986 0 0 0 0 -15.20399127682953 -45.54764569834515 0 -45.54764569834515 765.19570474978536 0 0 0 0 18.024901474685784 32.958454402119969 0 32.958454402119969 850.74485164471844 0 0 0 0 39.277501694931516 28.928564673289657 0 28.928564673289657 805.65416727139382 0 0 0 0 -7.325117293248482 10.863646868834621 0 10.863646868834621 697.34082899201894 0 0 0 0 -42.421539248797544 -65.976337351503389 0 -65.976337351503389 759.46622011343425 0 0 0 0 -14.555764436849842 28.136592151851801 0 28.136592151851801 577.70322458838928 0 0 0 0 -18.192367302749101 -59.554417092205995 0 -59.554417092205995 687.79844150220742 0 0 0 0 -13.561563854764415 -9.1210889947396936 0 -9.1210889947396936 740.79442165687215 0 0 0 0 -25.680985033064086 -22.404016856722592 0 -22.404016856722592 782.38359919284994 0 0 0 0 -16.299320232854768 -40.668743785601691 0 -40.668743785601691 815.0179389151308 0 0 0 0 27.615346944063447 78.841912370960927 0 78.841912370960927 755.63817364759598 0 0 0 0 24.024279235329402 -59.886034569997719 0 -59.886034569997719 775.59832977296901 0 0 0 0 9.3446033607593222 -38.357926204051182 0 -38.357926204051182 747.11496432112472 0 0 0 0 -12.168093269147263 -37.531102311229915 0 -37.531102311229915 780.22550109381336 0 0 0 0 -24.263344092566335 -28.475302343940712 0 -28.475302343940712 809.05032549498719 0 0 0 0 5.5813563406696201 -27.1452180685977 0 -27.1452180685977 6.1347593028889875 0 0 0 0 -5.7904443763803544 -2.94714640219172 0 -2.94714640219172 784.00910789197951 0 0 0 0 51.407832212267749 -131.00576841309521 0 -131.00576841309521 -222.88586041037343 0 0 0 0 24.356164090868319 -18.688209757623554 0 -18.688209757623554 638.22873020118277 0 0 0 0 2.7107923220136612 -29.369826217777302 0 -29.369826217777302 5.9076962213813538 0 0 0 0 -7.1923035710554188 11.247471051974571 0 11.247471051974571 749.16228594509357 0 0 0 0 69.316010229878017 -64.080511381889664 0 -64.080511381889664 -114.35760609373392 0 0 0 0 -57.644698380485977 -28.121364155007541 0 -28.121364155007541 319.64609884962556 0 0 0 0 -157.43397690756262 -102.06355178401645 0 -102.06355178401645 523.39053614065051 0 0 0 0 4.0271530462337068 17.504812697356101 0 17.504812697356101 -17.79279835948546 0 0 0 0 -130.65186929960373 -270.44195546992705 0 -270.44195546992705 -32.138783349029836 0 0 0 0 -309.32461102668992 -213.55061544563796 0 -213.55061544563796 647.89984644808283 0 0 0 0 -44.049786744960329 -65.717778270198323 0 -65.717778270198323 -79.169513964145153 0 0 0 0 53.799436034033079 -62.827155763327028 0 -62.827155763327028 -413.22635263633856 0 0 0 0 -21.84520753832976 -28.836740202212241 0 -28.836740202212241 -371.76501552696391 0 0 0 0 -11.234375646435236 38.640442980879016 0 38.640442980879016 905.4203003969742 0 0 0 0 6.4981396715215753 -25.145067457520327 0 -25.145067457520327 6.0096835224356084 0 0 0 0 -1.7094989933379274 8.2537935886648484 0 8.2537935886648484 800.44469774781646 0 0 0 0 -221.48843909632706 -345.85938659467502 0 -345.85938659467502 -485.04812770699209 0 0 0 0 7.2614568841376848 -23.996112282223834 0 -23.996112282223834 8.1285772113414794 0 0 0 0 -41.269942711567438 68.111958607682027 0 68.111958607682027 1018.0855694997008 0 0 0 0 -345.31844751756762 -233.93493849820516 0 -233.93493849820516 -360.27700586218998 0 0 0 0 -394.07724558211271 -581.78883347775991 0 -581.78883347775991 -17.53909798452878 0 0 0 0 -318.14885288246114 -145.27930765538622 0 -145.27930765538622 733.13071813827264 0 0 0 0 -386.75072063494156 -147.6203659203311 0 -147.6203659203311 1104.449913228731 0 0 0 0 -289.89296266727399 1.8045834873337299 0 1.8045834873337299 1098.933239785154 0 0 0 0 -254.87503503902985 -28.116692178271478 0 -28.116692178271478 688.2058001882142 0 0 0 0 -336.63247775536979 52.250854231166159 0 52.250854231166159 1261.3266822634796 0 0 0 0 -261.0502319204827 -59.093677220842437 0 -59.093677220842437 1120.2323598841176 0 0 0 0 -266.71813908944193 -247.90200702853099 0 -247.90200702853099 1660.5747407658491 0 0 0 0 -752.99815658718069 -377.65540152231551 0 -377.65540152231551 1626.4779243266166 0 0 0 0 -783.87391932492721 -303.09652744924915 0 -303.09652744924915 3499.751941557166 0 0 0 0 -604.59265590088739 -1267.0882451297202 0 -1267.0882451297202 3492.2964259961518 0 0 0 0 -675.53466320873713 860.48901489198761 0 860.48901489198761 3501.0247721501364 0 0 0 0 -633.87258652374476 379.80990498034953 0 379.80990498034953 2498.7959676417304 0 0 0 0 -632.96398216289822 271.58823418350221 0 271.58823418350221 1967.7783563144403 0 0 0 0 -72.102377748730021 661.79464678929435 0 661.79464678929435 1576.2488020149322 0 0 0 0 -196.80035471007551 193.23854147282691 0 193.23854147282691 1089.2793376977061 0 0 0 0 -385.06864576184807 30.958763524475216 0 30.958763524475216 1946.4867355910201 0 0 0 0 -184.53096725860757 243.22738060048596 0 243.22738060048596 1089.9114577558357 0 0 0 0 -163.60722756865198 15.255099608693854 0 15.255099608693854 1055.6148712479917 0 0 0 0 -106.73496646284502 -34.485316972713917 0 -34.485316972713917 511.04113797670288 0 0 0 0 6.4337342084679676 291.95024351464235 0 291.95024351464235 940.8101036882872 0 0 0 0 -26.602427778548588 81.353552515520278 0 81.353552515520278 314.52309300587513 0 0 0 0 164.3539536911473 131.3247501266851 0 131.3247501266851 235.30166951865749 0 0 0 0 146.16153107548416 82.797864874206425 0 82.797864874206425 -80.37468173301022 0 0 0 0 -121.52175531724629 181.73195876512182 0 181.73195876512182 592.91896380460821 0 0 0 0 51.466400490075671 160.77559710221431 0 160.77559710221431 658.1446208874695 0 0 0 0 525.3543133738583 717.20075477570936 0 717.20075477570936 685.21755537158333 0 0 0 0 -91.5360363635467 620.28424084330618 0 620.28424084330618 1849.6082728895126 0 0 0 0 264.63142868591581 169.21656218906355 0 169.21656218906355 363.01705328848038 0 0 0 0 -0.51921044066817368 1613.9066272072241 0 1613.9066272072241 3492.9258426641245 0 0 0 0 -151.77372343056794 1150.8154471295929 0 1150.8154471295929 2172.3866743053732 0 0 0 0 0.74066440414909029 -180.61656556346861 0 -180.61656556346861 1155.7009910402703 0 0 0 0 -251.53507366464643 -811.78362909162388 0 -811.78362909162388 3486.3486659451019 0 0 0 0 1.4899121533180186 2.0060227591386912 0 2.0060227591386912 22.971554065132125 0 0 0 0 312.04276965806145 -1042.8633832838623 0 -1042.8633832838623 1225.0686876544787 0 0 0 0 1971.4910002822842 1928.6091582741865 0 1928.6091582741865 1345.9322800479131 0 0 0 0 532.43897942363083 54.929271590543067 0 54.929271590543067 -282.22005539251404 0 0 0 0 0.00013762968426814237 87.925697896349448 0 87.925697896349448 13.479171710205264 0 0 0 0 -221.59632101440889 74.977456982469448 0 74.977456982469448 83.473973314154136 0 0 0 0 -0.79310218823954737 2.0268362499955508 0 2.0268362499955508 52.33188699811717 0 0 0 0 -24.505825799348912 96.882027969651972 0 96.882027969651972 50.797753706217918 0 0 0 0 -0.12683942609900253 0.88069372160123294 0 0.88069372160123294 0.64682192743883604 0 0 0 0 -6.2480288103996173 61.280561103747459 0 61.280561103747459 -57.5204961100535 0 0 0 0 -0.095101941934195924 6.3583271970128408 0 6.3583271970128408 662.4077777446073 0 0 0 0 -28.928703038242521 83.088605989265488 0 83.088605989265488 536.06571976239502 0 0 0 0 -18.138225147817259 31.521200466013397 0 31.521200466013397 596.82641983078793 0 0 0 0 139.12875907639241 113.33437277753546 0 113.33437277753546 282.85683353364584 0 0 0 0 -66.1535971000323 79.931117938183888 0 79.931117938183888 859.51968030221178 0 0 0 0 135.25930744879665 340.35574753727997 0 340.35574753727997 607.80135157889163 0 0 0 0 -3.2030153015367393 -2.9936805608849788 0 -2.9936805608849788 61.841578765175484 0 0 0 0 -1.0854493649318211 0.92824520382350784 0 0.92824520382350784 12.221243072920437 0 0 0 0 -72.309674880300861 28.935160594814079 0 28.935160594814079 46.300190724039567 0 0 0 0 -24.227625910310479 70.983579404892225 0 70.983579404892225 31.744206445728196 0 0 0 0 -166.87098594869235 -127.61461864012381 0 -127.61461864012381 150.54832451973925 0 0 0 0 22.493810061912939 -79.195715048168495 0 -79.195715048168495 -49.019009824929526 0 0 0 0 -44.374031291139623 -48.874086974596139 0 -48.874086974596139 255.265617405787 0 0 0 0 -47.038641154964154 8.2808715949431644 0 8.2808715949431644 716.85794913432619 0 0 0 0 -2.365605267556897 -28.507234064069905 0 -28.507234064069905 13.62394101811762 0 0 0 0 51.072136867670451 -23.844631071115145 0 -23.844631071115145 452.34483280571112 0 0 0 0 1.8983751489672747 -9.0412777287547286 0 -9.0412777287547286 -0.58994610183788154 0 0 0 0 -59.523911219667383 -185.04371308612463 0 -185.04371308612463 846.91802075260784 0 0 0 0 -5.657849836848186 56.581409499522124 0 56.581409499522124 703.98395798032288 0 0 0 0 86.922640016184005 97.684932590360404 0 97.684932590360404 685.15526624519043 0 0 0 0 35.925566132602114 -4.745259702707699 0 -4.745259702707699 717.98028214400256 0 0 0 0 36.332507929036069 6.2754506408537054 0 6.2754506408537054 735.31575121867354 0 0 0 0 49.51865595101799 -70.004099732883333 0 -70.004099732883333 852.70584889611928 0 0 0 0 57.746485834307322 -17.553839451538806 0 -17.553839451538806 735.32044660016254 0 0 0 0 69.413615123920195 0.24639359744105604 0 0.24639359744105604 640.23589092538168 0 0 0 0 -0.034672148886503606 -2.4072317233731155 0 -2.4072317233731155 644.22602935032046 0 0 0 0 -14.228943830580041 -5.2349906929748613 0 -5.2349906929748613 653.9365830355091 0 0 0 0 -17.780927523246472 0.39615971317834919 0 0.39615971317834919 724.15214327886497 0 0 0 0 134.16818645839754 -61.522764876994188 0 -61.522764876994188 744.40576831600629 0 0 0 0 24.159955557141132 -9.2773237393716954 0 -9.2773237393716954 90.970705233003173 0 0 0 0 -23.292708101317658 -18.838405480851179 0 -18.838405480851179 102.99304734473571 0 0 0 0 57.806384851965504 -132.1643702568831 0 -132.1643702568831 291.74452763818408 0 0 0 0 1.4084238195260896 1.5760739568267557 0 1.5760739568267557 1.8045241761812711 0 0 0 0 -3.2124601135400326 -36.0976930207039 0 -36.0976930207039 187.39573554633171 0 0 0 0 27.682901171457956 -115.06075746882743 0 -115.06075746882743 195.60406622209041 0 0 0 0 4.8409699194029354 4.2962429087714078 0 4.2962429087714078 5.4002289979836675 0 0 0 0 51.340788239743006 -85.154276063849466 0 -85.154276063849466 137.35555374303203 0 0 0 0 -32.279499543754582 -50.583230977936182 0 -50.583230977936182 87.52240840236891 0 0 0 0 -9.498520107165632 -18.625258727666278 0 -18.625258727666278 113.46006637949176 0 0 0 0 -4.3716371937398115 -6.0471419815442289 0 -6.0471419815442289 59.113011411831074 0 0 0 0 -74.161048142840798 -15.628216510878929 0 -15.628216510878929 104.58832360330416 0 0 0 0 -23.166130365390472 27.248647083216383 0 27.248647083216383 43.16416388699372 0 0 0 0 -12.11144511678998 -3.1735784205914115 0 -3.1735784205914115 52.307988842218037 0 0 0 0 -95.39780013009522 24.069929969148689 0 24.069929969148689 82.25912311565753 0 0 0 0 -1.8477955418688263 -0.78163173475790249 0 -0.78163173475790249 48.84128741991136 0 0 0 0 -3.796691528300852 -6.3236251143056634 0 -6.3236251143056634 41.477179088933596 0 0 0 0 -7.2302272783348371 -6.4220230138225816 0 -6.4220230138225816 48.220396832400183 0 0 0 0 -9.8549033089842339 18.166274289798594 0 18.166274289798594 19.570134562295152 0 0 0 0 -30.32097025171538 11.932749485638851 0 11.932749485638851 18.695389440117197 0 0 0 0 27.669655211198702 -9.0433663699488989 0 -9.0433663699488989 -50.6335961027753 0 0 0 0 7.228450946264104 45.657532757405761 0 45.657532757405761 61.110970974991915 0 0 0 0 -11.407743252559158 73.678854274213336 0 73.678854274213336 195.22955212393026 0 0 0 0 -14.134602542213663 -18.181810109538379 0 -18.181810109538379 23.804432820228428 0 0 0 0 27.865012043471097 60.008288373477626 0 60.008288373477626 149.37019944530311 0 0 0 0 36.057715584176549 55.027811063390573 0 55.027811063390573 136.47615964222223 0 0 0 0 40.689730595615856 48.36698816718831 0 48.36698816718831 119.21867027236294 0 0 0 0 156.62967540251202 -140.87437588236799 0 -140.87437588236799 -139.37982639350321 0 0 0 0 -8.008824625165861 -22.188459365764754 0 -22.188459365764754 27.92812289887873 0 0 0 0 -0.28102012456201919 32.265048630662932 0 32.265048630662932 117.75136738342007 0 0 0 0 7.0725692180594706 26.446682288429656 0 26.446682288429656 116.53760386593035 0 0 0 0 9.0150387466802613 16.79525393115 0 16.79525393115 77.015444061858943 0 0 0 0 -0.59828001648133977 24.221587078565335 0 24.221587078565335 119.75950976495733 0 0 0 0 14.340068254032303 32.226726913249877 0 32.226726913249877 118.7406184809895 0 0 0 0 12.112131291596597 38.553987351475598 0 38.553987351475598 114.29852249404848 0 0 0 0 24.632308067996291 34.050751079146721 0 34.050751079146721 115.86217992919683 0 0 0 0 19.533816232765503 28.766431015518265 0 28.766431015518265 149.71993636517618 0 0 0 0 16.685112977437711 53.34558867146734 0 53.34558867146734 170.11927906404708 0 0 0 0 23.415934668717 40.039716878736726 0 40.039716878736726 140.67489794519133 0 0 0 0 12.160157124094667 29.206865685894627 0 29.206865685894627 138.36937136963388 0 0 0 0 19.659303662509046 41.985017010303636 0 41.985017010303636 140.07358227739837 0 0 0 0 3.4977579337162297 28.37526155424348 0 28.37526155424348 134.4372191257462 0 0 0 0 17.053768158784351 31.962400635959057 0 31.962400635959057 132.59096668659549 0 0 0 0 13.569194394391616 32.542201181056043 0 32.542201181056043 140.24540088749563 0 0 0 0 27.459448281800178 37.486521401962818 0 37.486521401962818 139.05848501421042 0 0 0 0 21.207243088836549 42.657626875082315 0 42.657626875082315 149.38066856137448 0 0 0 0 18.529959484404571 31.202964880904801 0 31.202964880904801 143.59124668846925 0 0 0 0 11.406458122952245 24.352338454458732 0 24.352338454458732 136.17020183116642 0 0 0 0 21.457489077023638 29.988685842006817 0 29.988685842006817 135.27399741956333 0 0 0 0 7.3103433326754725 19.385861709175515 0 19.385861709175515 126.6512794436785 0 0 0 0 10.688539468845647 26.557104658663775 0 26.557104658663775 131.86723907881424 0 0 0 0 21.26461096403807 40.944301598280617 0 40.944301598280617 146.35076227487298 0 0 0 0 21.771258519034745 33.605623733403263 0 33.605623733403263 140.12340258433142 0 0 0 0 19.578090390368743 35.741943084225568 0 35.741943084225568 146.38700640622483 0 0 0 0 32.569805166617243 35.359295902158919 0 35.359295902158919 142.42871242256479 0 0 0 0 46.746877741436037 51.930229892362604 0 51.930229892362604 144.71796824660123 0 0 0 0 -4.5675169624510392 -25.305524019357474 0 -25.305524019357474 33.298703326592658 0 0 0 0 -104.74878349559071 -84.819594035835507 0 -84.819594035835507 46.001227321503393 0 0 0 0 29.238166406870732 66.17681384176467 0 66.17681384176467 163.62942207040942 0 0 0 0 -32.486938608985383 34.839502363626707 0 34.839502363626707 46.064835832197787 0 0 0 0 -84.227587618859388 0.28007700180137363 0 0.28007700180137363 118.69597021364825 0 0 0 0 -3.0873476593985072 1.3160067600809213 0 1.3160067600809213 56.815595751592326 0 0 0 0 -19.686123444144229 36.191394763440258 0 36.191394763440258 51.553572773531414 0 0 0 0 -4.7278400771112743 -0.76711166582153112 0 -0.76711166582153112 9.8012168952866823 0 0 0 0 -18.240554361403014 31.893042394421855 0 31.893042394421855 62.693972676112026 0 0 0 0 -124.77387235478625 -34.998663417244643 0 -34.998663417244643 309.83633614161045 0 0 0 0 -32.461432487873935 34.205934225119563 0 34.205934225119563 51.461858640957871 0 0 0 0 67.24394024601429 118.43826342264765 0 118.43826342264765 121.73229907351424 0 0 0 0 89.592805078565334 17.957187377526679 0 17.957187377526679 -0.072379725714199594 0 0 0 0 27.724433700079601 7.8082468221552972 0 7.8082468221552972 28.315060530841947 0 0 0 0 -25.401462385791433 18.481680251476973 0 18.481680251476973 40.585402630375029 0 0 0 0 9.7436046680843447 44.620179031999669 0 44.620179031999669 39.668616949215448 0 0 0 0 -23.430813375858406 27.208606720405896 0 27.208606720405896 43.789357956127787 0 0 0 0 -0.25380832995801939 5.4102956955994159 0 5.4102956955994159 34.405518331800522 0 0 0 0 -24.056781293541594 20.660085758876562 0 20.660085758876562 84.426672925741514 0 0 0 0 -27.054724832182387 9.5207549828910487 0 9.5207549828910487 51.014541269444493 0 0 0 0 -60.531239005463817 26.210780433591481 0 26.210780433591481 59.002783212088616 0 0 0 0 -1.6708865343131292 3.2233270852919462 0 3.2233270852919462 53.370147509800773 0 0 0 0 -66.353081750452475 38.439103444174179 0 38.439103444174179 56.723541928452505 0 0 0 0 -67.032878963632299 5.7633087206024811 0 5.7633087206024811 45.211426916459459 0 0 0 0 -4.2882103782588965 5.5012666656226639 0 5.5012666656226639 49.298473711696971 0 0 0 0 -67.636356952386905 14.760306996390682 0 14.760306996390682 61.969472376556041 0 0 0 0 -21.905480439151916 6.2740326602861387 0 6.2740326602861387 44.59586051453789 0 0 0 0 -18.427381179546501 10.813329938837796 0 10.813329938837796 48.412659355655705 0 0 0 0 17.13418115093836 -16.545000031698805 0 -16.545000031698805 39.88645280271885 0 0 0 0 23.203545296881487 6.4253729654674316 0 6.4253729654674316 46.722368622799195 0 0 0 0 -5.5997166552531681 -11.122604033136668 0 -11.122604033136668 67.574254075467252 0 0 0 0 6.6904689025255895 15.545394235327308 0 15.545394235327308 62.889993427930676 0 0 0 0 -8.0391534466905341 -22.960064353539565 0 -22.960064353539565 85.136442633575257 0 0 0 0 -18.555625288325245 14.801130408194695 0 14.801130408194695 79.142992069415413 0 0 0 0 12.555881181245226 55.159594424059208 0 55.159594424059208 195.09606607133173 0 0 0 0 -53.892035462711419 -88.260784240833345 0 -88.260784240833345 227.75289269467066 0 0 0 0 -6.7882830632902227 -10.052267982332154 0 -10.052267982332154 40.983091034546305 0 0 0 0 -17.460683521980769 27.493871499613476 0 27.493871499613476 41.19038443680256 0 0 0 0 -1.0960096405725688 0.94279336902728339 0 0.94279336902728339 7.7963226781391048 0 0 0 0 39.750227834870202 -100.81414771836694 0 -100.81414771836694 238.77753347911312 0 0 0 0 -37.482481170192159 44.855501629331229 0 44.855501629331229 -34.277802428731775 0 0 0 0 -98.349452038505888 -1.2871235788702506 0 -1.2871235788702506 460.95713733722732 0 0 0 0 0.49513639810648868 -2.0950971365160784 0 -2.0950971365160784 0.78325336746716712 0 0 0 0 -70.151202337374116 35.355821091235157 0 35.355821091235157 258.45040315124766 0 0 0 0 -0.078229754114786831 -4.3328134047870899 0 -4.3328134047870899 4.6856474367940582 0 0 0 0 151.27952188993021 -115.94885475508954 0 -115.94885475508954 207.88448522663839 0 0 0 0 -56.112214557188828 68.594383595891031 0 68.594383595891031 309.85456314243493 0 0 0 0 -73.885357718063801 18.865894047275106 0 18.865894047275106 223.54467460287401 0 0 0 0 49.850415464492556 112.86610484875609 0 112.86610484875609 179.31960769058878 0 0 0 0 -6.7361802574358762 11.478804129817036 0 11.478804129817036 40.266730726523747 0 0 0 0 117.70141015117133 103.94584990578505 0 103.94584990578505 209.0171828741934 0 0 0 0 -10.028503297273245 20.973720810928533 0 20.973720810928533 14.361603050889144 0 0 0 0 -6.9616050399192773 14.013370077209402 0 14.013370077209402 53.871411964321851 0 0 0 0 0.71278928823595677 5.2125620040080838 0 5.2125620040080838 -1.7879438400841714 0 0 0 0 -5.6951595436423759 -42.138458680104577 0 -42.138458680104577 -33.353552816276988 0 0 0 0 -28.797485479760326 109.09512221887871 0 109.09512221887871 396.13919528645965 0 0 0 0 70.555764148045455 58.937740683481024 0 58.937740683481024 381.19471287354372 0 0 0 0 -63.995180793636791 -40.236468208524002 0 -40.236468208524002 17.231943262698223 0 0 0 0 -94.152231951969043 31.50157035940731 0 31.50157035940731 -56.850977151662846 0 0 0 0 46.38015244347298 -144.89535015053934 0 -144.89535015053934 -195.11767868613174 0 0 0 0 -168.04078757785965 42.360840314078132 0 42.360840314078132 653.48217421393383 0 0 0 0 0.25718380616504 -0.3706590874732667 0 -0.3706590874732667 0.52495556113296438 0 0 0 0 3.6692016178676568 -44.052349571368268 0 -44.052349571368268 -13.553655224953218 0 0 0 0 45.460725278473546 -0.59548006708246248 0 -0.59548006708246248 -167.41914588195596 0 0 0 0 36.208504349358918 -22.227886300749105 0 -22.227886300749105 -103.6096269360587 0 0 0 0 29.512729003183267 -82.189947439705975 0 -82.189947439705975 -116.05849579168421 0 0 0 0 2.7219431574594637 -11.711855445864785 0 -11.711855445864785 2.2412089265726536 0 0 0 0 -8.9888673924598237 -10.011605234958672 0 -10.011605234958672 84.169135980207386 0 0 0 0 -39.721195544048896 -89.113294724497791 0 -89.113294724497791 -9.5046911159834053 0 0 0 0 -42.409612322164548 -41.371858881464846 0 -41.371858881464846 119.13367368429954 0 0 0 0 -21.562020548002693 -80.655351706313013 0 -80.655351706313013 -40.465546403872395 0 0 0 0 -9.1664714886719594 -46.8178375696167 0 -46.8178375696167 26.925770703574017 0 0 0 0 -39.618111694834965 -98.317730824686976 0 -98.317730824686976 262.37458890511152 0 0 0 0 -99.421048279433307 -266.4817412383353 0 -266.4817412383353 466.23996695973983 0 0 0 0 -97.520642090388719 -251.98782729432151 0 -251.98782729432151 79.455503301508543 0 0 0 0 -26.826767500601818 0.066501809933470213 0 0.066501809933470213 89.117643003515695 0 0 0 0 -18.370753706748474 4.0527394760010793 0 4.0527394760010793 77.443876748275216 0 0 0 0 -24.931302366513556 12.874182029615859 0 12.874182029615859 35.199923264043989 0 0 0 0 317.25550103027444 92.516693902161933 0 92.516693902161933 -25.655802478995611 0 0 0 0 -10.418177862738048 -2.1889879546906741 0 -2.1889879546906741 82.302386515966646 0 0 0 0 -5.1910414073630591 -22.898641742038308 0 -22.898641742038308 -9.227999768765585 0 0 0 0 -3.6205657865486036 -7.9091524959198027 0 -7.9091524959198027 60.727479484398131 0 0 0 0 -89.70441566602949 -165.8140891700732 0 -165.8140891700732 178.47781697062692 0 0 0 0 -16.082497206620964 18.553730222522582 0 18.553730222522582 26.092015168845666 0 0 0 0 -9.7837189643669262 5.3009003768138427 0 5.3009003768138427 56.814038303141842 0 0 0 0 -15.134115394213381 -2.7261813096852165 0 -2.7261813096852165 44.771240836880679 0 0 0 0 168.32490196487197 -230.05902182725549 0 -230.05902182725549 471.08393691423407 0 0 0 0 0.24047905278962389 0.2796581989086917 0 0.2796581989086917 43.448159067512279 0 0 0 0 3.2481430580746644 -8.0689531693417926 0 -8.0689531693417926 28.487869208241712 0 0 0 0 -0.52871120501242785 -7.1952989873950628 0 -7.1952989873950628 31.398920516536236 0 0 0 0 4.6333485634556837 -3.280795152187693 0 -3.280795152187693 25.371656621864076 0 0 0 0 1.4149238212992259 6.1419532239401633 0 6.1419532239401633 22.061776485241353 0 0 0 0 -0.69354063736363969 -43.937374926733355 0 -43.937374926733355 76.068720192192814 0 0 0 0 -5.8692355838902586 -11.733229357040372 0 -11.733229357040372 46.386316204061131 0 0 0 0 -9.6088103334240191 -9.2612405840661012 0 -9.2612405840661012 1.1136536728227497 0 0 0 0 -18.129252055931829 -61.962490015670483 0 -61.962490015670483 120.19002837898358 0 0 0 0 -9.4112265756721172 -9.841177444679488 0 -9.841177444679488 1.9893456950976542 0 0 0 0 -8.9366904342393809 -21.677579631812023 0 -21.677579631812023 6.7483347665183828 0 0 0 0 1.9403466459489209 -15.819881018680462 0 -15.819881018680462 62.112418926779355 0 0 0 0 5.6834884647410391 -5.2252013495238572 0 -5.2252013495238572 -1.4437595876786844 0 0 0 0 -2.3625015088082364 20.658128878676507 0 20.658128878676507 34.242776500432228 0 0 0 0 -13.079053387202748 -8.9665525714390242 0 -8.9665525714390242 38.242242684555094 0 0 0 0 -12.19508426265044 -3.3312073033968375 0 -3.3312073033968375 33.179036393377253 0 0 0 0 -15.253414838598019 -25.84861823974461 0 -25.84861823974461 80.638650675500685 0 0 0 0 -10.908182183329245 9.7689218056821119 0 9.7689218056821119 80.854293481934292 0 0 0 0 3.4585787193555007 -12.416103154933808 0 -12.416103154933808 74.924699325121765 0 0 0 0 -16.777214691701374 -20.128411320778469 0 -20.128411320778469 149.2326012749254 0 0 0 0 26.68268703587546 12.818867932855937 0 12.818867932855937 78.813244467088225 0 0 0 0 0.57352697560099841 -3.0825915011428151 0 -3.0825915011428151 181.81315977075428 0 0 0 0 -20.038512126166097 -55.055273056321312 0 -55.055273056321312 167.46874359956018 0 0 0 0 6.2161912678379831 -1.4173478323826174 0 -1.4173478323826174 -3.7005898682056113 0 0 0 0 -17.666584247815535 186.61142485686287 0 186.61142485686287 352.52143036553753 0 0 0 0 56.977230949325985 91.430697602067085 0 91.430697602067085 234.96701154984476 0 0 0 0 -140.33077757290857 -81.530104591020063 0 -81.530104591020063 230.19222905314348 0 0 0 0 -8.9043319462339952 17.893031686885102 0 17.893031686885102 14.728904358724478 0 0 0 0 -3.8676815360522596 -24.391327603785612 0 -24.391327603785612 86.841433959794813 0 0 0 0 -5.4429484487536683 2.6215998324805696 0 2.6215998324805696 89.172507254745142 0 0 0 0 -185.90110757269622 35.221884864433378 0 35.221884864433378 422.70897022762801 0 0 0 0 -39.716230086256473 -87.232818593922275 0 -87.232818593922275 115.22336904233816 0 0 0 0 -13.873580781833653 6.9885395640494608 0 6.9885395640494608 106.14201675710501 0 0 0 0 -21.961495270468731 -50.851504338796076 0 -50.851504338796076 57.453995771204063 0 0 0 0 17.770687205926151 -63.421650389824208 0 -63.421650389824208 131.83792198324227 0 0 0 0 31.27029707890506 -4.1193231220313464 0 -4.1193231220313464 152.94551051026792 0 0 0 0 -27.065198521922866 27.387165497202659 0 27.387165497202659 241.07936512987362 0 0 0 0 0.59441922079079057 4.2163842818274642 0 4.2163842818274642 -0.31861103894215148 0 0 0 0 15.93606245954652 -68.093855519051431 0 -68.093855519051431 221.91007192409597 0 0 0 0 -4.6535023289834498 -13.27933565443891 0 -13.27933565443891 102.92005600324774 0 0 0 0 -12.829613666022336 -12.842695053505958 0 -12.842695053505958 43.498447535663189 0 0 0 0 1.9290714185414117 -8.804561508884035 0 -8.804561508884035 9.3540788598620566 0 0 0 0 -13.596989935873353 -25.962255851361988 0 -25.962255851361988 166.58922484760114 0 0 0 0 -2.3207003031221873 3.8283324448053477 0 3.8283324448053477 8.6409513019744715 0 0 0 0 1.2277133860370668 -30.310256396111072 0 -30.310256396111072 67.197163371063652 0 0 0 0 -39.278894895564918 -12.286472586642049 0 -12.286472586642049 137.38664132391204 0 0 0 0 -69.979515107233738 -59.478846444661031 0 -59.478846444661031 192.90085202291084 0 0 0 0 0.13485119622088781 -1.5960800704424098 0 -1.5960800704424098 -0.065182485241564336 0 0 0 0 -2.695481096403455 -8.728668277007273 0 -8.728668277007273 7.837896477751201 0 0 0 0 -10.810746913862587 -13.285690211184317 0 -13.285690211184317 69.887254252830303 0 0 0 0 -7.6872694619087394 -16.117091495314227 0 -16.117091495314227 17.310751139609408 0 0 0 0 -7.9027120724626911 5.277652704877255 0 5.277652704877255 45.273907738443086 0 0 0 0 16.867320747023768 -70.643520852696383 0 -70.643520852696383 46.659949193279317 0 0 0 0 -14.673509152237656 -0.48290997046805728 0 -0.48290997046805728 28.522396522033944 0 0 0 0 -9.1896906667297458 -24.747108629570178 0 -24.747108629570178 25.469496704200033 0 0 0 0 71.996892081276201 -158.85390174278837 0 -158.85390174278837 11.701902632928977 0 0 0 0 -37.456078936353151 -1.5125312186428346 0 -1.5125312186428346 58.296504630852723 0 0 0 0 -12.32297642421463 23.03058072069507 0 23.03058072069507 81.955252272600774 0 0 0 0 1.1211464967445366 -3.2390131090989058 0 -3.2390131090989058 -7.4071048020504406 0 0 0 0 -246.92587899231694 -65.091632006275177 0 -65.091632006275177 50.012714385702566 0 0 0 0 80.219946022767544 4.8601306920754723 0 4.8601306920754723 0.16837850899901241 0 0 0 0 7.3644299904644868 77.450814663094206 0 77.450814663094206 169.31998387473868 0 0 0 0 -1.0184257627968449 -11.74862819280942 0 -11.74862819280942 7.3558525472707501 0 0 0 0 -6.2876109181379434 -7.370257930830121 0 -7.370257930830121 9.3209264343095128 0 0 0 0 -0.059115437760922873 -31.05498135270885 0 -31.05498135270885 18.423881115064887 0 0 0 0 -3.7106249447721851 -0.10973697329154675 0 -0.10973697329154675 31.016370016992539 0 0 0 0 -2.0334773545822884 -3.2869071953152798 0 -3.2869071953152798 9.4324680015811921 0 0 0 0 -5.8757170656899689 11.232355638581794 0 11.232355638581794 61.024327109844307 0 0 0 0 -45.370170362053614 -8.5803582613298204 0 -8.5803582613298204 66.537697949941503 0 0 0 0 -286.01941765341599 -8.8628446989387157 0 -8.8628446989387157 377.2912614037632 0 0 0 0 76.916408841841076 99.706620461471175 0 99.706620461471175 427.05320334012504 0 0 0 0 -278.58946025292789 91.179280109892716 0 91.179280109892716 295.09399215237499 0 0 0 0 29.548561101385985 238.34606062590683 0 238.34606062590683 89.338701004540781 0 0 0 0 104.24370359078284 80.537761541836517 0 80.537761541836517 -86.032665718506905 0 0 0 0 -10.35758750792165 -13.302532111339076 0 -13.302532111339076 38.534844982351132 0 0 0 0 -7.423609490641411 -18.244144776934263 0 -18.244144776934263 -17.277694855045411 0 0 0 0 37.579582580323404 58.342673350907717 0 58.342673350907717 42.191727000052197 0 0 0 0 -29.542723092454253 3.1253378514375072 0 3.1253378514375072 166.0323114240673 0 0 0 0 -7.0632812455333376 -13.995723542843294 0 -13.995723542843294 36.421947139974804 0 0 0 0 -47.596812012138344 -482.57409841279878 0 -482.57409841279878 43.032634332625094 0 0 0 0 -0.34495815192072854 -146.74387498667511 0 -146.74387498667511 105.35415692698734 0 0 0 0 16.8319568008842 -28.606437755996012 0 -28.606437755996012 -0.56688923220644938 0 0 0 0 29.976642226686181 233.12818070220965 0 233.12818070220965 148.25323609007773 0 0 0 0 -1.3681968687629276 -1.5957067335075692 0 -1.5957067335075692 3.1995050104100642 0 0 0 0 -10.100630299020395 7.6817906959877291 0 7.6817906959877291 34.861566252831835 0 0 0 0 -13.476639836944514 -17.137527799792224 0 -17.137527799792224 44.389743295461813 0 0 0 0 15.598314189244775 -48.908811369172327 0 -48.908811369172327 75.853282356976706 0 0 0 0 -50.287595101465513 -37.765390892462165 0 -37.765390892462165 67.202658722380875 0 0 0 0 -2.7556036457470343 -2.991754922511884 0 -2.991754922511884 64.244453159773173 0 0 0 0 -41.64357569051208 -31.122385011953156 0 -31.122385011953156 97.381239516798814 0 0 0 0 -0.079389862083644402 11.731823937108857 0 11.731823937108857 113.45302701151377 0 0 0 0 1.6111212656910538 9.0283275293113547 0 9.0283275293113547 48.527697313527369 0 0 0 0 -8.5372673240377051 -6.7928096279932291 0 -6.7928096279932291 47.831169448498656 0 0 0 0 -4.2994093579913315 -1.9064279854582935 0 -1.9064279854582935 50.2935733602841 0 0 0 0 -13.103724279633752 -0.72459047217125772 0 -0.72459047217125772 69.98462550640761 0 0 0 0 8.9621989133904663 -19.123413061650353 0 -19.123413061650353 39.256779261064366 0 0 0 0 -35.669670322801039 -36.75332694817007 0 -36.75332694817007 59.999133462020836 0 0 0 0 -29.631359351368701 2.3201228783691477 0 2.3201228783691477 56.126672009228059 0 0 0 0 -6.0847228080457008 -2.893018314037926 0 -2.893018314037926 58.317205143492203 0 0 0 0 -28.946656066466971 1.0783469886764578 0 1.0783469886764578 53.236075635810266 0 0 0 0 -189.79518175756527 92.981342372564541 0 92.981342372564541 100.97456167040082 0 0 0 0 -235.46183790456166 -15.089147716833395 0 -15.089147716833395 94.533844952333311 0 0 0 0 -249.154459276642 -26.167926778616675 0 -26.167926778616675 85.859801740123658 0 0 0 0 -149.1064419323593 -101.03117013339943 0 -101.03117013339943 -106.26861590267799 0 0 0 0 -200.04512953298655 -27.101562423840733 0 -27.101562423840733 80.019926367938751 0 0 0 0 -73.366581385966128 -90.406393932093124 0 -90.406393932093124 77.224026546697132 0 0 0 0 -221.34962907357567 -218.97804980642832 0 -218.97804980642832 188.37701435410418 0 0 0 0 -64.959067035333419 133.9553851564051 0 133.9553851564051 158.13288238575842 0 0 0 0 -251.0325760650972 17.237561863701899 0 17.237561863701899 324.84684294793988 0 0 0 0 643.66177095811452 -87.174447384273662 0 -87.174447384273662 79.845053546727286 0 0 0 0 37.149746748031475 353.60373712256114 0 353.60373712256114 544.02852340049162 0 0 0 0 1.8333121204207146 -321.41573349157261 0 -321.41573349157261 555.78063482801088 0 0 0 0 1.8242574193812562 -3.0545664855803523 0 -3.0545664855803523 6.8981898026594308 0 0 0 0 508.17640066162494 607.65847249568469 0 607.65847249568469 501.5876507121211 0 0 0 0 298.93369748923675 52.03602766970107 0 52.03602766970107 63.002791646445985 0 0 0 0 -92.990469505275087 34.29413135984214 0 34.29413135984214 800.41475849351264 0 0 0 0 -20.53666412292435 138.11369098136686 0 138.11369098136686 6.1411539979671943 0 0 0 0 1.3240770745287613 -3.8054886416966553 0 -3.8054886416966553 3.7183380639976491 0 0 0 0 -38.775514274901866 -70.586187193345268 0 -70.586187193345268 173.90617597106029 0 0 0 0 65.844991509507054 188.8167924805166 0 188.8167924805166 24.659022979802103 0 0 0 0 -8.9492190410499575 -10.693271122925381 0 -10.693271122925381 31.428176708610863 0 0 0 0 100.85699364822926 73.041732896663234 0 73.041732896663234 0.031653099984396249 0 0 0 0 36.419588619760589 -80.759117650803091 0 -80.759117650803091 -132.00546388708608 0 0 0 0 -4.5101933230287727 131.9288683264167 0 131.9288683264167 70.922975614492316 0 0 0 0 -173.65187856534135 55.725284262720379 0 55.725284262720379 104.76690947535099 0 0 0 0 -96.480094712263707 67.771594265417662 0 67.771594265417662 54.245958413986955 0 0 0 0 -64.937006953278654 -17.56557666025401 0 -17.56557666025401 106.50401073314788 0 0 0 0 17.633113893174595 -17.551365896870266 0 -17.551365896870266 74.627892229706049 0 0 0 0 0.79673301437509636 1.5940805884566203 0 1.5940805884566203 5.4110409732197411 0 0 0 0 10.774833873680109 -12.373157306545181 0 -12.373157306545181 68.012425100727341 0 0 0 0 3.6669162369111135 -4.2559455044861068 0 -4.2559455044861068 10.324138697305301 0 0 0 0 -7.6654843712640286 -28.99152257660171 0 -28.99152257660171 83.12720518221613 0 0 0 0 14.720977539625892 -16.985483067226596 0 -16.985483067226596 48.751248006665264 0 0 0 0 8.1037059923980905 -20.547096344174861 0 -20.547096344174861 66.328526144832722 0 0 0 0 7.3779490208162315 -17.395553701331664 0 -17.395553701331664 69.921372875287489 0 0 0 0 -22.428261956229676 14.916448812742601 0 14.916448812742601 -23.641561281114264 0 0 0 0 -15.446214765088371 -13.358286257469445 0 -13.358286257469445 120.27158740596497 0 0 0 0 -18.646610912670326 39.689839800510526 0 39.689839800510526 61.399299930406414 0 0 0 0 -28.287176711449394 9.4062839973998109 0 9.4062839973998109 50.096650750589163 0 0 0 0 -41.301895059857543 44.985111784635592 0 44.985111784635592 67.051218671898823 0 0 0 0 -28.196162457183163 -0.75697455763292965 0 -0.75697455763292965 -43.010299529807526 0 0 0 0 -17.312854852241184 -2.2113078683431127 0 -2.2113078683431127 77.068093857473883 0 0 0 0 -20.274237679318958 30.565271577237581 0 30.565271577237581 80.793946629361017 0 0 0 0 1.3556450558709514 -9.2816733605795889 0 -9.2816733605795889 71.30184531429768 0 0 0 0 -12.39722392643489 76.097511242463952 0 76.097511242463952 40.358077997647342 0 0 0 0 -0.21723939683614191 -7.4215470424023806 0 -7.4215470424023806 88.385739923919118 0 0 0 0 -18.847666271616966 25.799302858509975 0 25.799302858509975 46.884331025718382 0 0 0 0 -16.462846755020273 -0.92489884482104401 0 -0.92489884482104401 32.340180310853981 0 0 0 0 3.8421209167264836 -1.3521585817734234 0 -1.3521585817734234 23.431339800188368 0 0 0 0 -4.0135066985976664 1.0597167797823204 0 1.0597167797823204 193.62281907725264 0 0 0 0 2.6235587046496676 13.611023902318266 0 13.611023902318266 86.419016154439305 0 0 0 0 -4.6496463583969216 0.93070149487175513 0 0.93070149487175513 78.867800836495007 0 0 0 0 3.222936347622666 15.485130829249101 0 15.485130829249101 61.064373024884844 0 0 0 0 5.555189538963532 10.667870826640865 0 10.667870826640865 41.517069352194085 0 0 0 0 -10.621379158591481 -9.3200117144879187 0 -9.3200117144879187 34.255277184362058 0 0 0 0 -3.6018118964137784 -1.5940010383055778 0 -1.5940010383055778 53.7154820567157 0 0 0 0 -14.977571962288266 2.9372423566637735 0 2.9372423566637735 67.051312467097887 0 0 0 0 -15.934068774259686 4.7066385364651069 0 4.7066385364651069 44.864243415067904 0 0 0 0 -16.986413429517597 -3.5763150233906345 0 -3.5763150233906345 69.607392322373926 0 0 0 0 -2.7284617850034465 5.4553489626096052 0 5.4553489626096052 75.11343193614448 0 0 0 0 -23.282982964928802 13.323291133066363 0 13.323291133066363 58.356115800312779 0 0 0 0 -58.033671200067829 13.986874665378309 0 13.986874665378309 149.31386903618113 0 0 0 0 -20.356454021627997 -4.9294510321087728 0 -4.9294510321087728 78.746661979454075 0 0 0 0 -245.34644063707674 -2.0757575246752822 0 -2.0757575246752822 149.97128216072906 0 0 0 0 -404.93789648055463 -66.480219418270281 0 -66.480219418270281 -238.18221011629794 0 0 0 0 -5.0663229481078691 -57.822713734326925 0 -57.822713734326925 110.66098207380497 0 0 0 0 -69.606687556205543 201.29998253263329 0 201.29998253263329 60.670432530736434 0 0 0 0 59.950801452227097 31.166930289866286 0 31.166930289866286 98.028984350537939 0 0 0 0 122.96736961440638 -14.418772935816378 0 -14.418772935816378 121.94907290651463 0 0 0 0 76.917414493529577 -55.276122255716473 0 -55.276122255716473 85.69881142534723 0 0 0 0 131.23491724527958 -146.17247013763699 0 -146.17247013763699 208.18550138653131 0 0 0 0 0.74709256374899269 -48.281860225048149 0 -48.281860225048149 206.18585640011588 0 0 0 0 19.723431709961005 31.515733429179818 0 31.515733429179818 32.48733455016918 0 0 0 0 -56.972183950330646 16.845717040427189 0 16.845717040427189 110.73424843781686 0 0 0 0 5.1985536659922218 38.942655860402738 0 38.942655860402738 58.716415316288476 0 0 0 0 4.9986298968724441 12.292745776459924 0 12.292745776459924 124.64080371608725 0 0 0 0 -13.412564166210359 29.609821137382824 0 29.609821137382824 125.86396881009568 0 0 0 0 12.928265856435246 6.4503644941505627 0 6.4503644941505627 96.457574578205822 0 0 0 0 20.708483665501262 28.645778138015885 0 28.645778138015885 134.33407036341669 0 0 0 0 4.932482982700094 32.011158357476234 0 32.011158357476234 188.99219942459604 0 0 0 0 26.489949972008617 16.643536211020546 0 16.643536211020546 140.95813878963236 0 0 0 0 -8.1368517257396888 22.677288859398686 0 22.677288859398686 151.00862086232519 0 0 0 0 5.5565470280562295 8.788580594045925 0 8.788580594045925 128.27532057585449 0 0 0 0 0.067649967113538878 -23.017652979935519 0 -23.017652979935519 152.90753932615416 0 0 0 0 -78.691258055791508 -155.63085117937726 0 -155.63085117937726 385.33253521283041 0 0 0 0 -94.488974036365107 -69.364817490190035 0 -69.364817490190035 333.80506607722054 0 0 0 0 -76.871373349953501 -100.82688109324954 0 -100.82688109324954 375.36144051098381 0 0 0 0 0.92308960502487025 -41.879105170228286 0 -41.879105170228286 221.48476682051478 0 0 0 0 -32.282377013571022 -8.8307928027861635 0 -8.8307928027861635 342.79870268536615 0 0 0 0 -36.402171097126484 21.672338189717266 0 21.672338189717266 255.86473561503226 0 0 0 0 -18.974931333101267 76.685859918899951 0 76.685859918899951 428.57003077535774 0 0 0 0 -80.46739683742635 -38.06623343865067 0 -38.06623343865067 403.15524963100324 0 0 0 0 -98.680492073038295 -7.3838098577252822 0 -7.3838098577252822 493.30162695806939 0 0 0 0 -9.4234276293136645 106.65202872989175 0 106.65202872989175 543.00612518527487 0 0 0 0 -72.333892947627191 0.23210207959527906 0 0.23210207959527906 468.65084279450821 0 0 0 0 227.931666529832 291.42331493337406 0 291.42331493337406 378.72669270585175 0 0 0 0 -30.868053751410116 31.466510684331297 0 31.466510684331297 391.02782900865714 0 0 0 0 165.72135709689701 157.34843178671872 0 157.34843178671872 171.61834260169417 0 0 0 0 112.42005176142266 55.777278045308776 0 55.777278045308776 54.907849345821887 0 0 0 0 40.292036533875944 70.742859373334795 0 70.742859373334795 251.48787546985113 0 0 0 0 80.22190972421231 -11.705168123269686 0 -11.705168123269686 55.209072536294855 0 0 0 0 -24.519096470083809 -4.0056704977432673 0 -4.0056704977432673 63.781214733447996 0 0 0 0 -9.2269564434561744 -11.1967740938926 0 -11.1967740938926 35.011536959194927 0 0 0 0 -4.8268110950889866 -9.3885299433628653 0 -9.3885299433628653 65.626114337542191 0 0 0 0 -11.122613408803245 -1.6222964469600214 0 -1.6222964469600214 44.708080780040063 0 0 0 0 -40.180397806797828 -16.179449097713587 0 -16.179449097713587 34.050519572760095 0 0 0 0 -8.378837745197524 6.5545155075611348 0 6.5545155075611348 38.307706357875276 0 0 0 0 5.3902522773610144 -10.762308911984292 0 -10.762308911984292 50.265718824486477 0 0 0 0 7.03736984283114 -16.530568199012123 0 -16.530568199012123 60.076079671587195 0 0 0 0 -26.961795122727438 -5.6372516066485332 0 -5.6372516066485332 55.166281762387371 0 0 0 0 -2.1038286777638859 -2.0709393342913245 0 -2.0709393342913245 65.457710821499859 0 0 0 0 -1.1527932285430325 3.0599386093526846 0 3.0599386093526846 50.266670062193732 0 0 0 0 9.6402970026392723 83.050560733739985 0 83.050560733739985 39.799467674320113 0 0 0 0 -81.545528344131753 -7.6917632147524273 0 -7.6917632147524273 165.22315929729666 0 0 0 0 0.38783867105121317 2.0365470716060372 0 2.0365470716060372 124.21067559736548 0 0 0 0 -2.2697158903730408 -19.196036495839163 0 -19.196036495839163 42.207763761680468 0 0 0 0 -9.0536590553045784 -11.809893411820987 0 -11.809893411820987 13.937988058682123 0 0 0 0 -2.7601362535424414 -11.792004586888652 0 -11.792004586888652 46.278370766041917 0 0 0 0 -8.1706735252300859 -0.46056129536009394 0 -0.46056129536009394 39.762501912995504 0 0 0 0 -3.2806643247891998 -10.354112011706093 0 -10.354112011706093 58.913944958971115 0 0 0 0 -10.821460753392785 -5.471726898351335 0 -5.471726898351335 52.299663828584016 0 0 0 0 -13.397371947602551 -8.4690494763563038 0 -8.4690494763563038 58.846629137117134 0 0 0 0 -17.460512154861135 -2.5300445350148948 0 -2.5300445350148948 77.025387180357939 0 0 0 0 -7.276916794009594 -20.720255838663434 0 -20.720255838663434 59.833013192743238 0 0 0 0 -12.141559093779961 -15.643670455250685 0 -15.643670455250685 85.311865754425526 0 0 0 0 -18.977895064429504 1.519705759077624 0 1.519705759077624 90.647047960870623 0 0 0 0 -6.2938185284434951 -31.425720219700452 0 -31.425720219700452 50.832666218120721 0 0 0 0 -35.469120435300511 -38.558565761442878 0 -38.558565761442878 130.66917751754227 0 0 0 0 -7.0333450114290637 -16.417335883197463 0 -16.417335883197463 40.675671550576766 0 0 0 0 -4.8444967576493321 3.1957791158242799 0 3.1957791158242799 12.384970017704902 0 0 0 0 -5.9341252589810409 -9.072268083142788 0 -9.072268083142788 54.456582276876929 0 0 0 0 -18.614045019002788 -1.8399550082758651 0 -1.8399550082758651 47.670528501578247 0 0 0 0 -9.729857108894187 -13.563668462999637 0 -13.563668462999637 39.73296148286488 0 0 0 0 1.5314635448154945 -24.82117656457558 0 -24.82117656457558 20.633329316988238 0 0 0 0 -22.919716254222294 -12.720339750267158 0 -12.720339750267158 62.105912335966423 0 0 0 0 -18.975584559262643 -0.17099007697834168 0 -0.17099007697834168 75.434741761080659 0 0 0 0 -16.896820033507741 -6.5081997358965822 0 -6.5081997358965822 43.970299047747005 0 0 0 0 15.026301389480565 -21.720788138553573 0 -21.720788138553573 7.9766847451459171 0 0 0 0 -218.8379524932293 -218.16815209363449 0 -218.16815209363449 -161.84232453050572 0 0 0 0 -12.068905633561371 -13.620609778081416 0 -13.620609778081416 68.840921280469047 0 0 0 0 -30.023499234927009 -60.674426867945485 0 -60.674426867945485 98.955563724390061 0 0 0 0 2.392648863527187 -23.815478144769571 0 -23.815478144769571 15.569918873207371 0 0 0 0 -28.753666437409265 9.927328350222524 0 9.927328350222524 -15.445758390094852 0 0 0 0 -35.286171405668938 -28.72789734142134 0 -28.72789734142134 24.358320655373973 0 0 0 0 -17.196032966794064 -18.606993681492895 0 -18.606993681492895 28.81396821681119 0 0 0 0 -15.040997471939974 -19.091493317338973 0 -19.091493317338973 42.481387663181522 0 0 0 0 -1.1727483518829969 -13.559824891448802 0 -13.559824891448802 25.525009306653843 0 0 0 0 -3.023333019420761 -21.562115987569996 0 -21.562115987569996 36.552350633142396 0 0 0 0 3.1236247545050446 -15.289155589196525 0 -15.289155589196525 42.202341958440229 0 0 0 0 -2.7426353124438947 -26.085180526481054 0 -26.085180526481054 56.276536333680269 0 0 0 0 5.6614155121960721 -9.7761862569877849 0 -9.7761862569877849 44.460282561646636 0 0 0 0 -8.704112507304913 1.4385786742102802 0 1.4385786742102802 41.509087382210836 0 0 0 0 6.1391657822098296 -21.083695273695412 0 -21.083695273695412 48.141702684777556 0 0 0 0 22.354943211535556 -13.296482795293741 0 -13.296482795293741 38.314888871351286 0 0 0 0 11.85737114996391 -4.1617998071087641 0 -4.1617998071087641 47.100819360747437 0 0 0 0 8.8567749833969174 -5.4235539976164091 0 -5.4235539976164091 47.600920880839112 0 0 0 0 10.462817824875358 1.8148290780761727 0 1.8148290780761727 30.574108070497459 0 0 0 0 -3.977802418520584 6.5166102360874092 0 6.5166102360874092 14.307926956525144 0 0 0 0 2.5869143887841801 -13.595577789425079 0 -13.595577789425079 24.227021672293631 0 0 0 0 -1.8555257790764017 -8.6115994811807468 0 -8.6115994811807468 35.366473403978489 0 0 0 0 3.0446546057470414 -14.751388603992382 0 -14.751388603992382 34.417724574432214 0 0 0 0 -9.2016767129654866 0.42156603998896713 0 0.42156603998896713 13.612662236874129 0 0 0 0 -3.8715401399754228 4.436313828548009 0 4.436313828548009 38.644492442625051 0 0 0 0 -0.68469520387823724 -0.95341970431518064 0 -0.95341970431518064 -0.2601040233190588 0 0 0 0 74.903364937994411 -122.66405809119897 0 -122.66405809119897 -2.0216885710979113 0 0 0 0 -7.7174784615267527 -56.05978153736578 0 -56.05978153736578 44.448257068597741 0 0 0 0 16.342896010283766 -25.368921735131153 0 -25.368921735131153 7.279144220334274 0 0 0 0 30.9615389263613 -13.485165813071944 0 -13.485165813071944 6.8510852452818654 0 0 0 0 -0.10231784451862691 -0.034707261942727996 0 -0.034707261942727996 0.79119591688974822 0 0 0 0 46.676835491056181 -38.643627767416547 0 -38.643627767416547 47.016602958701696 0 0 0 0 26.075221328358055 6.6093576929365554 0 6.6093576929365554 101.09671921336849 0 0 0 0 2.4112380136268712 -13.027750062021369 0 -13.027750062021369 23.032928741060459 0 0 0 0 12.335860336964743 -28.00676748598562 0 -28.00676748598562 41.948442163620257 0 0 0 0 22.139323883202678 -12.052291020170742 0 -12.052291020170742 -0.19822833958460251 0 0 0 0 7.1434513274292932 -7.7513021144900307 0 -7.7513021144900307 7.6208147455006028 0 0 0 0 14.845482609242026 -12.862006798050061 0 -12.862006798050061 -0.28604130696476204 0 0 0 0 1.3162831947963416 -1.2464526038886596 0 -1.2464526038886596 1.9030528160617877 0 0 0 0 9.4277661342316605 -8.477037233316878 0 -8.477037233316878 3.8503430984819715 0 0 0 0 175.02734380110894 -15.477684759274325 0 -15.477684759274325 -5.6939213302175631 0 0 0 0 15.661314816153208 -5.5032919762961683 0 -5.5032919762961683 4.6089996277387399 0 0 0 0 104.53337933116052 -142.70836066628908 0 -142.70836066628908 210.44309503239856 0 0 0 0 -217.27550717342024 -11.652340404631104 0 -11.652340404631104 74.156741220363983 0 0 0 0 0.80598728417173204 -0.91629377924589583 0 -0.91629377924589583 12.356791922415226 0 0 0 0 524.69619389385548 101.24541444205533 0 101.24541444205533 10.412268527350534 0 0 0 0 0.65555356194740932 -0.29687693918661751 0 -0.29687693918661751 2.8104379464807465 0 0 0 0 97.352913354370287 -173.15270851933201 0 -173.15270851933201 -57.810141311875668 0 0 0 0 -24.525477693082848 63.909898399784652 0 63.909898399784652 81.680373767423589 0 0 0 0 255.33537064178404 -8.3749851332795515 0 -8.3749851332795515 99.650530007518682 0 0 0 0 39.935833418820764 147.63932962678609 0 147.63932962678609 128.61974726061453 0 0 0 0 -63.51667024838008 227.32795147558863 0 227.32795147558863 86.500130151251142 0 0 0 0 28.404282423857641 -40.483559903729429 0 -40.483559903729429 -68.585979066516302 0 0 0 0 17.828071761604903 65.483989120450246 0 65.483989120450246 20.340221787133487 0 0 0 0 4.5023303787689004 0.31253751351285075 0 0.31253751351285075 5.2259154420524894 0 0 0 0 130.38185962154645 32.739561954902001 0 32.739561954902001 -60.429200043414312 0 0 0 0 10.554532914013363 -8.3482031199414166 0 -8.3482031199414166 8.6605945220668943 0 0 0 0 -85.699750112987658 -207.61399871719186 0 -207.61399871719186 -17.33136604266474 0 0 0 0 -22.508360040894331 -191.07914372824598 0 -191.07914372824598 -151.30393520722282 0 0 0 0 -69.182500468659782 -161.47494370077402 0 -161.47494370077402 96.429731703654397 0 0 0 0 -74.427320958720884 -77.213400182052283 0 -77.213400182052283 22.604182742506964 0 0 0 0 -86.670399951521176 -104.64427377768152 0 -104.64427377768152 93.43272317807714 0 0 0 0 -113.30321810939495 -83.026548517213087 0 -83.026548517213087 353.96886895374337 0 0 0 0 -92.387730239854136 -197.80023805392557 0 -197.80023805392557 197.87749696223182 0 0 0 0 -98.128719279593497 -9.1733152062952286 0 -9.1733152062952286 503.94909988353902 0 0 0 0 -125.52051096800278 -64.871266694608494 0 -64.871266694608494 426.46024407402729 0 0 0 0 -117.30553823582795 -124.90395581431949 0 -124.90395581431949 419.60987431151443 0 0 0 0 -133.62360402931881 -68.022522668325109 0 -68.022522668325109 376.04091348881775 0 0 0 0 -105.2447715783901 -92.360155224756454 0 -92.360155224756454 395.96562111203093 0 0 0 0 -108.23675706353788 -74.38297166567645 0 -74.38297166567645 214.89450023222889 0 0 0 0 -123.30245198482726 -143.86948699327149 0 -143.86948699327149 303.07265680609271 0 0 0 0 -139.81659715526439 -49.706209170239163 0 -49.706209170239163 303.17458303662715 0 0 0 0 -106.40751021410324 -109.05973364828969 0 -109.05973364828969 199.09452921591583 0 0 0 0 -142.06323268537221 -116.45435254440144 0 -116.45435254440144 377.67052130308002 0 0 0 0 -84.096344013001726 -133.1156629602774 0 -133.1156629602774 371.56442967131443 0 0 0 0 -136.30171150166814 -108.09461626790517 0 -108.09461626790517 443.26455607119715 0 0 0 0 -72.243778397631104 68.617626036677393 0 68.617626036677393 170.84922720339091 0 0 0 0 -30.975811188774969 -71.618543303276965 0 -71.618543303276965 -75.743724723550258 0 0 0 0 -49.960304689651821 -117.33942719332117 0 -117.33942719332117 -22.854386503226124 0 0 0 0 -72.407883410793147 -36.862250551173929 0 -36.862250551173929 126.45520835122443 0 0 0 0 -93.364764583153374 -58.686290468016523 0 -58.686290468016523 -71.319916127657052 0 0 0 0 3.1526193661149495 -20.42201460162849 0 -20.42201460162849 -3.7874428787281431 0 0 0 0 -1161.0374114961935 606.97102881938918 0 606.97102881938918 -1388.3790776839887 0 0 0 0 -162.7097186345527 -105.51692128224386 0 -105.51692128224386 -93.248664957180154 0 0 0 0 -89.645100243775232 -138.88722592317208 0 -138.88722592317208 -41.07687773386715 0 0 0 0 -788.0281053871895 -55.788830604768009 0 -55.788830604768009 -910.99387593541178 0 0 0 0 -20.58077590698872 -158.44507790533498 0 -158.44507790533498 707.90248528845814 0 0 0 0 5.7365278596105131 -5.162061024184041 0 -5.162061024184041 5.9529838901118524 0 0 0 0 11.792216190773569 -68.164666776367284 0 -68.164666776367284 120.26920987829179 0 0 0 0 461.31851160991255 -1151.1219399288893 0 -1151.1219399288893 529.95679871174434 0 0 0 0 41.397137481470054 -373.37778902272839 0 -373.37778902272839 -34.957379946943547 0 0 0 0 176.45849239413087 -1441.5868993181575 0 -1441.5868993181575 1080.1160552240908 0 0 0 0 705.71742704146334 -688.67811221263219 0 -688.67811221263219 -1129.6726692934899 0 0 0 0 -168.88072629731869 467.35857687002863 0 467.35857687002863 -472.30972558702342 0 0 0 0 1.8599288989034957 -3.0351688680991771 0 -3.0351688680991771 3.9083918349437283 0 0 0 0 -75.915274462993466 22.757975888349392 0 22.757975888349392 531.29776257037884 0 0 0 0 -15.837573489716306 -281.7876723616173 0 -281.7876723616173 654.09914921884774 0 0 0 0 483.89164026965955 -347.68421513565409 0 -347.68421513565409 237.60394524495496 0 0 0 0 60.091387653954598 -896.08147291644127 0 -896.08147291644127 592.93172216846142 0 0 0 0 7.2063775988299312 71.956284575720929 0 71.956284575720929 -90.175555461766635 0 0 0 0 -95.537960105779348 -809.13552970196179 0 -809.13552970196179 -170.57720739202341 0 0 0 0 13.540415772463632 -62.976154243454843 0 -62.976154243454843 116.44886708224193 0 0 0 0 267.32967253241577 75.540340613661101 0 75.540340613661101 -130.03139934742649 0 0 0 0 -24.911994921259065 -36.22396136828138 0 -36.22396136828138 224.0818016869307 0 0 0 0 173.8953970038915 -422.73722384637222 0 -422.73722384637222 439.25194951893718 0 0 0 0 141.57929089093753 -250.12125137907248 0 -250.12125137907248 29.830158135751844 0 0 0 0 142.63793806038211 -104.48667198118346 0 -104.48667198118346 -42.00408459152095 0 0 0 0 312.85123102052376 -155.0566949251006 0 -155.0566949251006 -33.63319504649553 0 0 0 0 335.10764308165335 -313.26121495694679 0 -313.26121495694679 3.8492385345816729 0 0 0 0 275.33248325327463 -225.46468415671188 0 -225.46468415671188 -112.56503046092257 0 0 0 0 494.83017263316947 -267.25201933418305 0 -267.25201933418305 62.635592134080071 0 0 0 0 274.24195352321431 -45.167837002649321 0 -45.167837002649321 202.80622393421254 0 0 0 0 305.7912515924661 -125.91351457447308 0 -125.91351457447308 -42.932743839006434 0 0 0 0 13.627635501080931 -135.87818569509182 0 -135.87818569509182 143.86670851747476 0 0 0 0 314.47324630708238 -143.8498589857154 0 -143.8498589857154 -220.36029316710483 0 0 0 0 272.79321022827889 -200.80425974488389 0 -200.80425974488389 146.29054112256927 0 0 0 0 25.398010858760131 -141.91914011368044 0 -141.91914011368044 -72.177042471492314 0 0 0 0 155.81323049720845 33.664568966289153 0 33.664568966289153 -533.01437801748398 0 0 0 0 -321.38275199973805 -176.75612227536294 0 -176.75612227536294 -51.021316737940651 0 0 0 0 229.46301079231534 -188.76595997277764 0 -188.76595997277764 -154.30588091597019 0 0 0 0 297.25591624498793 -420.89797855891447 0 -420.89797855891447 -336.48422707893769 0 0 0 0 344.69943954757116 -256.45586055982722 0 -256.45586055982722 -310.99343662087631 0 0 0 0 282.45234783568958 -436.23059189201376 0 -436.23059189201376 -143.89226894300373 0 0 0 0 52.843264650808351 405.6296028928009 0 405.6296028928009 -1416.5311111076589 0 0 0 0 510.16957484699515 -334.31818232276419 0 -334.31818232276419 -384.10134301135258 0 0 0 0 19.257628060483352 -49.494427472967836 0 -49.494427472967836 54.253274127170158 0 0 0 0 -80.802873362083119 -124.75131145163323 0 -124.75131145163323 -21.790379241393111 0 0 0 0 -427.58926861852473 -407.41497396420209 0 -407.41497396420209 -96.333202969210106 0 0 0 0 -363.15974193524767 -77.316084153397242 0 -77.316084153397242 -276.59192760906808 0 0 0 0 -2.2387511252387569 -7.5488222379668528 0 -7.5488222379668528 25.507518139012546 0 0 0 0 -1814.8767657171115 -467.02611098616762 0 -467.02611098616762 -11.19056631627609 0 0 0 0 -20.336805302337524 -52.106841300941596 0 -52.106841300941596 129.46879243788487 0 0 0 0 -192.5041452796263 -188.56937616174037 0 -188.56937616174037 -111.32121418291536 0 0 0 0 -272.8381848480301 -229.85462373639712 0 -229.85462373639712 258.10725744688898 0 0 0 0 -193.46059039722604 -191.81046335527208 0 -191.81046335527208 -52.303202349925414 0 0 0 0 -297.01168476315343 -259.12289873340524 0 -259.12289873340524 139.94330098481805 0 0 0 0 6.4886539187660786 -30.277130435027452 0 -30.277130435027452 76.431040092172452 0 0 0 0 24.918841134886968 -41.717717737059445 0 -41.717717737059445 42.99742673774665 0 0 0 0 -87.234131739995064 -75.250889687944436 0 -75.250889687944436 157.52162775242095 0 0 0 0 -29.011106862350257 -7.7321072472877859 0 -7.7321072472877859 17.038930098427308 0 0 0 0 -52.90430018537154 -135.30749707928044 0 -135.30749707928044 -56.698482708190568 0 0 0 0 14.618500972723353 -40.719393635381479 0 -40.719393635381479 57.000775172317049 0 0 0 0 8.7730306869270862 -105.78189333937189 0 -105.78189333937189 -234.93470043210255 0 0 0 0 -250.00931512560919 -30.802410552732908 0 -30.802410552732908 270.10533071301916 0 0 0 0 -290.69962102356794 -144.85106239215747 0 -144.85106239215747 253.74745569804509 0 0 0 0 -217.00608391829667 -114.81084684608686 0 -114.81084684608686 140.76117204714319 0 0 0 0 -286.9795095037577 -113.28418273598072 0 -113.28418273598072 465.29225048064836 0 0 0 0 -19.744248408945168 -189.24592706984185 0 -189.24592706984185 211.37240691040461 0 0 0 0 -191.79158824937008 60.1984923200107 0 60.1984923200107 363.70676465316137 0 0 0 0 -216.25273626781745 -5.5980199332570919 0 -5.5980199332570919 203.1297549632618 0 0 0 0 -137.92461870016473 -91.160068714933004 0 -91.160068714933004 764.32606110169581 0 0 0 0 -55.607274041597293 -140.9741622664842 0 -140.9741622664842 460.55710180488677 0 0 0 0 297.84398345463808 -137.54828809038372 0 -137.54828809038372 358.27825313737048 0 0 0 0 565.01772446256382 -250.770414816634 0 -250.770414816634 347.13328282345174 0 0 0 0 250.29127262600144 39.218303149998064 0 39.218303149998064 689.5977782261034 0 0 0 0 234.32194602623863 468.43064446006611 0 468.43064446006611 1132.5348691574909 0 0 0 0 238.11932330709607 -164.45869055162984 0 -164.45869055162984 982.01693462132971 0 0 0 0 354.45368643527786 754.95559831591527 0 754.95559831591527 1628.2640993735949 0 0 0 0 35.119593461710153 827.09016828904032 0 827.09016828904032 1614.8603487039582 0 0 0 0 293.6171751634356 2033.4284351931383 0 2033.4284351931383 3490.9693160134475 0 0 0 0 913.2099735831921 1411.4119754792355 0 1411.4119754792355 -231.98849762087775 0 0 0 0 590.56288149392469 252.34607602611004 0 252.34607602611004 278.10953481670731 0 0 0 0 -51.58037501948229 -90.045963088177814 0 -90.045963088177814 167.64658149296883 0 0 0 0 675.45545618822644 -1736.9598096126865 0 -1736.9598096126865 3497.2772469579504 0 0 0 0 4.6282914744789947 7.3455284212778054 0 7.3455284212778054 13.683967559850231 0 0 0 0 -421.5300989475387 -699.54023455872812 0 -699.54023455872812 3499.4186034963336 0 0 0 0 310.09457835041201 -981.19561230837098 0 -981.19561230837098 1945.1088758779952 0 0 0 0 -663.9682657895637 426.94353047870754 0 426.94353047870754 192.79179220246078 0 0 0 0 96.278022401935459 -427.08556965681782 0 -427.08556965681782 1790.5163485382527 0 0 0 0 9.0852342357739033 21.550637728365089 0 21.550637728365089 28.100042268280632 0 0 0 0 -33.906358221912626 -72.348218634780096 0 -72.348218634780096 1500.3164764431094 0 0 0 0 -36.947575771815195 -296.94255385913675 0 -296.94255385913675 1298.9174508563556 0 0 0 0 132.91446234606519 -129.97087215331157 0 -129.97087215331157 516.88486965973789 0 0 0 0 64.868207000300686 12.120546994797223 0 12.120546994797223 545.14577572776761 0 0 0 0 173.18551397638649 22.851784334123295 0 22.851784334123295 -82.035602634561656 0 0 0 0 56.688685740782091 143.2137334458148 0 143.2137334458148 660.07748202343282 0 0 0 0 202.19601404210809 -61.90659290001895 0 -61.90659290001895 -11.16608912612719 0 0 0 0 -10.027330987202632 597.61029183369101 0 597.61029183369101 650.94789587727064 0 0 0 0 587.40722443283562 -80.094432615435835 0 -80.094432615435835 40.565356740931747 0 0 0 0 0.3480644663181432 0.46441074597809617 0 0.46441074597809617 5.4628345151378426 0 0 0 0 607.88244788250495 -683.23074292636011 0 -683.23074292636011 759.40117187903888 0 0 0 0 402.08230535488701 218.94992419086157 0 218.94992419086157 1558.8062336887106 0 0 0 0 273.54296334084472 25.178313946649723 0 25.178313946649723 1739.8843523246323 0 0 0 0 -136.2400392785928 55.329937944054109 0 55.329937944054109 1760.4763849299779 0 0 0 0 382.0838253267251 -44.897970196478127 0 -44.897970196478127 1683.5793571581426 0 0 0 0 91.084099637141549 110.45455596181273 0 110.45455596181273 669.22038836967658 0 0 0 0 -164.38989098738648 -98.289445129408705 0 -98.289445129408705 2284.0190806700775 0 0 0 0 217.53326362221776 326.2544837693913 0 326.2544837693913 1973.9999463495296 0 0 0 0 4.326434140567919 754.54605214264848 0 754.54605214264848 2009.5269775321867 0 0 0 0 -282.44674760789002 478.03634161811533 0 478.03634161811533 3501.1644421895762 0 0 0 0 -415.03701054945407 60.651578194954709 0 60.651578194954709 2331.096419964666 0 0 0 0 -599.02295428042396 -187.59465835944866 0 -187.59465835944866 3498.4886059119453 0 0 0 0 -123.75948306734756 -222.71863538589787 0 -222.71863538589787 1485.7471115244994 0 0 0 0 -258.95272157151317 -407.47166145006031 0 -407.47166145006031 2364.0407496587504 0 0 0 0 -20.71530096895205 -560.23510880090816 0 -560.23510880090816 1247.2820614619195 0 0 0 0 -570.80648963632871 -543.19976101100474 0 -543.19976101100474 2352.5597897519629 0 0 0 0 -547.50072261255377 -872.21549620624683 0 -872.21549620624683 3501.1364201025972 0 0 0 0 -40.863109934509573 -1156.9378402739239 0 -1156.9378402739239 2150.345768580104 0 0 0 0 1725.1805178136685 -1975.4678588954157 0 -1975.4678588954157 1625.7937707802193 0 0 0 0 61.17670864185002 -1565.6290487381004 0 -1565.6290487381004 3492.7891108195872 0 0 0 0 730.25831461803887 -589.44863964396245 0 -589.44863964396245 391.42217730700759 0 0 0 0 -106.91119425283546 -742.23596666874255 0 -742.23596666874255 2133.1712618817328 0 0 0 0 -1.6548645587794788 -4.8071909858801121 0 -4.8071909858801121 6.2155632065625852 0 0 0 0 -71.948138852270432 -100.95458751593469 0 -100.95458751593469 3495.9541703307341 0 0 0 0 -147.0083692121047 796.16916213908735 0 796.16916213908735 4032.4375180797233 0 0 0 0 -95.519598235655906 -182.66877646008015 0 -182.66877646008015 28.130854144674231 0 0 0 0 -254.14969045858439 -134.02933323328216 0 -134.02933323328216 640.22966066928348 0 0 0 0 502.00097181849753 534.12532445125134 0 534.12532445125134 739.28343587405834 0 0 0 0 1.6873964811927751 -0.92152995087519951 0 -0.92152995087519951 21.866372317767592 0 0 0 0 -134.89825795226369 518.0062723610863 0 518.0062723610863 3100.8365684222263 0 0 0 0 497.54972517306282 46.046843894870108 0 46.046843894870108 -124.85277021175716 0 0 0 0 129.03789048134621 350.01282540135799 0 350.01282540135799 365.8995129489922 0 0 0 0 -22.638863853502016 119.09710838056435 0 119.09710838056435 32.066678169503575 0 0 0 0 16.459066650161493 25.760585283293501 0 25.760585283293501 26.244612978404227 0 0 0 0 123.52977112780187 5.7229373108521031 0 5.7229373108521031 -84.072730475536446 0 0 0 0 -16.707096386303135 112.11420159827867 0 112.11420159827867 31.815187638403586 0 0 0 0 24.675304768058595 -91.487552569465151 0 -91.487552569465151 -107.8715608301851 0 0 0 0 6.0175804262956252 2.4325033230123143 0 2.4325033230123143 -5.5518430737951192 0 0 0 0 -29.822942696742246 2.7034457930526514 0 2.7034457930526514 76.305187122703501 0 0 0 0 31.075581829576663 -0.23126915472665388 0 -0.23126915472665388 112.50936549502603 0 0 0 0 1.4948075082190586 -5.1505793722239233 0 -5.1505793722239233 37.513380100726764 0 0 0 0 20.270500737180555 11.423091563210392 0 11.423091563210392 100.00535451300061 0 0 0 0 5.8417262950622444 -4.9477266143329643 0 -4.9477266143329643 133.01421046955602 0 0 0 0 286.91761655636947 -264.88677002712575 0 -264.88677002712575 318.87310001352307 0 0 0 0 -105.26261436391337 -2.935042543005693 0 -2.935042543005693 706.12692967147632 0 0 0 0 -99.793560221081066 -169.01599272302383 0 -169.01599272302383 350.95330038703105 0 0 0 0 -1.7400338887248523 1.8653039730645578 0 1.8653039730645578 51.548998716269253 0 0 0 0 -2.0249738919214906 13.075020318729003 0 13.075020318729003 33.035042718067416 0 0 0 0 5.1121969615312954 17.177620039790167 0 17.177620039790167 58.91443797460245 0 0 0 0 -3.9977056722630016 -2.8246436826928658 0 -2.8246436826928658 13.428533706684895 0 0 0 0 -215.34620575869369 34.670569902973511 0 34.670569902973511 453.54940360890851 0 0 0 0 38.28124091482411 300.71336292448905 0 300.71336292448905 -218.22610088300462 0 0 0 0 -132.12367488568225 56.519068208221142 0 56.519068208221142 97.131127708849817 0 0 0 0 78.790821792216093 286.45536140934928 0 286.45536140934928 301.26887113831981 0 0 0 0 -51.587501016410613 47.107403732537932 0 47.107403732537932 40.739218730126595 0 0 0 0 -114.53552516596488 36.846716750347696 0 36.846716750347696 -208.11986083413285 0 0 0 0 1.0523603689452687 1.1314649600652302 0 1.1314649600652302 1.1522204338332926 0 0 0 0 -41.750583696143664 -22.010000605357391 0 -22.010000605357391 392.02151126725948 0 0 0 0 83.193684626244163 -350.6633306558947 0 -350.6633306558947 -495.38977755672386 0 0 0 0 3.1099642475376199 3.4339044919624158 0 3.4339044919624158 4.0083762573283082 0 0 0 0 122.68934740369502 -77.703296513504029 0 -77.703296513504029 -272.1205005405518 0 0 0 0 2.9851521891205044 14.998811507219564 0 14.998811507219564 46.698109503826117 0 0 0 0 58.519522276799762 34.451411422577621 0 34.451411422577621 60.44197807537239 0 0 0 0 -67.32599308985391 22.289151286813649 0 22.289151286813649 50.926264192814415 0 0 0 0 -4.5827526017702791 2.4668593049410052 0 2.4668593049410052 60.525102171093017 0 0 0 0 6.6146793438820168 -49.375955593510298 0 -49.375955593510298 -21.35952988412464 0 0 0 0 5.3790163509952436 359.82273848081968 0 359.82273848081968 629.42599836361478 0 0 0 0 4.8518939617730439 152.4676709723044 0 152.4676709723044 435.3517329696042 0 0 0 0 -0.41072639828827739 -0.74038564543374363 0 -0.74038564543374363 31.326041900251546 0 0 0 0 50.007576728830827 33.116579396325506 0 33.116579396325506 82.904688180135281 0 0 0 0 81.912257227844748 21.163416898381001 0 21.163416898381001 87.171209162283958 0 0 0 0 -3.7556724506488308 0.0088897468231152743 0 0.0088897468231152743 117.90402512448418 0 0 0 0 62.053397263292936 0.16285086205834887 0 0.16285086205834887 96.885317480834601 0 0 0 0 -108.34060405438612 -113.59529928354459 0 -113.59529928354459 -1.3366428058579913 0 0 0 0 6.8630082326864361 14.574439000165439 0 14.574439000165439 47.874803397633308 0 0 0 0 185.27962430341358 148.37015220296416 0 148.37015220296416 196.16836012952672 0 0 0 0 -185.45207831243533 117.82261724290174 0 117.82261724290174 448.35195640658276 0 0 0 0 -13.377753936499683 -15.00809096400593 0 -15.00809096400593 18.349934004123011 0 0 0 0 106.96835555400321 -191.65201121646714 0 -191.65201121646714 273.30231656958813 0 0 0 0 238.99870170739538 141.35479330385351 0 141.35479330385351 -235.04988777231483 0 0 0 0 8.0682838301927475 34.531764627064163 0 34.531764627064163 83.512537674291494 0 0 0 0 -24.931382451490208 -22.953009746871885 0 -22.953009746871885 103.73006451765946 0 0 0 0 29.729614941145883 14.853294388089125 0 14.853294388089125 48.827105148425744 0 0 0 0 30.930948768042981 -5.581680836054602 0 -5.581680836054602 96.579282373225396 0 0 0 0 28.39561740069621 22.715182031814948 0 22.715182031814948 153.55459055190659 0 0 0 0 -5.7290888687472261 -50.869169845832801 0 -50.869169845832801 -22.532187633684316 0 0 0 0 -0.66613266728094089 -0.8653041274746327 0 -0.8653041274746327 0.80582393443748401 0 0 0 0 0.5555719542130646 4.7185977533495134 0 4.7185977533495134 3.292644626364563 0 0 0 0 -9.4585872418010695 -9.2761818002757082 0 -9.2761818002757082 43.797430802913368 0 0 0 0 25.944029624147333 10.433315928132856 0 10.433315928132856 92.931953944884299 0 0 0 0 55.499997573906512 43.38730936906677 0 43.38730936906677 53.65600643066864 0 0 0 0 24.45325843511182 44.052553398150394 0 44.052553398150394 88.115836674784987 0 0 0 0 31.024620129785035 47.32849852151503 0 47.32849852151503 60.699246289385428 0 0 0 0 30.263820540035795 49.657207181214517 0 49.657207181214517 45.54964969539175 0 0 0 0 15.245156137385948 11.169318856145424 0 11.169318856145424 -3.8492476810024527 0 0 0 0 37.052995553179244 54.732085388159703 0 54.732085388159703 120.00096990293218 0 0 0 0 19.797091578940808 32.894681432829884 0 32.894681432829884 93.819061215735019 0 0 0 0 19.173732050428953 34.754220428104929 0 34.754220428104929 100.40773027750947 0 0 0 0 -20.373292041141301 -9.3567045152484134 0 -9.3567045152484134 32.310589393776354 0 0 0 0 -8.3233564955627379 0.28205075864815399 0 0.28205075864815399 43.13340183404015 0 0 0 0 -6.8390124677490576 -3.4650379643262568 0 -3.4650379643262568 53.099326580155321 0 0 0 0 -5.5110091354589628 7.4109089320457748 0 7.4109089320457748 46.19014131786011 0 0 0 0 -33.786116634432346 10.974373794703752 0 10.974373794703752 60.653750740291798 0 0 0 0 93.066801971370751 -727.00294706880231 0 -727.00294706880231 142.74590782062296 0 0 0 0 10.851749323416602 2.7065597657113969 0 2.7065597657113969 14.865509823654008 0 0 0 0 73.511352735310879 434.21442507930624 0 434.21442507930624 -162.94613730786295 0 0 0 0 -15.07861815553315 13.438980156373873 0 13.438980156373873 43.938515717025439 0 0 0 0 -511.8833392829182 299.32047799048451 0 299.32047799048451 1066.161025558511 0 0 0 0 1.7858006187896436 11.508561423881369 0 11.508561423881369 51.072696445409619 0 0 0 0 44.303974823901171 30.586210382351737 0 30.586210382351737 59.429690534050678 0 0 0 0 -6.7215140180443864 5.8369374340222961 0 5.8369374340222961 64.860102767934421 0 0 0 0 9.86801121316239 15.213152138894657 0 15.213152138894657 87.295894496747451 0 0 0 0 1.2613355024186603 0.037912372729351773 0 0.037912372729351773 4.7574198060573281 0 0 0 0 -0.70065990411079704 -1.6081674383996152 0 -1.6081674383996152 3.6913951445227955 0 0 0 0 -0.12297282622333228 -0.8895101900394593 0 -0.8895101900394593 6.8730945856977996 0 0 0 0 -3.5504955990292046 -10.48633489638496 0 -10.48633489638496 3.0912910518330818 0 0 0 0 19.425284966270169 6.9440728586143905 0 6.9440728586143905 30.141569597917623 0 0 0 0 0.6087368827412325 -0.47694322752056628 0 -0.47694322752056628 0.71006439427734314 0 0 0 0 4.7912698493422567 24.983726647290496 0 24.983726647290496 74.196276914418377 0 0 0 0 -4.0281082488445463 8.3021234799643935 0 8.3021234799643935 95.359921918947748 0 0 0 0 17.241722315386596 28.216219720967615 0 28.216219720967615 80.310226477612559 0 0 0 0 2.4054305523386574 21.510619829370626 0 21.510619829370626 131.14337223532414 0 0 0 0 0.63659459797142226 -0.4332106540336369 0 -0.4332106540336369 0.049407808627706995 0 0 0 0 0.25831005986081834 -0.63710723713239226 0 -0.63710723713239226 0.14587839492622834 0 0 0 0 11.94451691880522 51.437613621739729 0 51.437613621739729 161.26318226665808 0 0 0 0 -6.0813144240200927 4.6175890482572868 0 4.6175890482572868 4.0729738358122631 0 0 0 0 11.137892969806671 5.3516008974925171 0 5.3516008974925171 -10.452974283756674 0 0 0 0 -2.3346141508552591 2.2446761839860301 0 2.2446761839860301 5.2485175659508059 0 0 0 0 -5.739951340729931 1.4262876006021088 0 1.4262876006021088 6.8079763075916162 0 0 0 0 -10.176719934729249 -9.5360050556822671 0 -9.5360050556822671 0.38259298727962232 0 0 0 0 -2.799081762341757 -0.45550771185344274 0 -0.45550771185344274 7.9989274029567241 0 0 0 0 -0.40894119028717579 -0.091567625334547209 0 -0.091567625334547209 0.35933615412294984 0 0 0 0 3.8669695553383008 16.842540873761436 0 16.842540873761436 18.908988942202996 0 0 0 0 -20.984384113765373 -1.4039267379839657 0 -1.4039267379839657 24.489595614122948 0 0 0 0 10.623211443915807 63.48551508026776 0 63.48551508026776 205.05381256608268 0 0 0 0 15.741245445834465 64.256926366589141 0 64.256926366589141 179.93558193736931 0 0 0 0 5.0300000046499918 45.220827935451325 0 45.220827935451325 173.2529443250819 0 0 0 0 13.05616757214375 50.738930964500469 0 50.738930964500469 187.66161832320722 0 0 0 0 -1.0401588422966057 -1.3909668910686457 0 -1.3909668910686457 1.8293311988226506 0 0 0 0 27.459587664351602 41.246782323258685 0 41.246782323258685 166.30021514267355 0 0 0 0 20.73950262998369 29.637127796202321 0 29.637127796202321 122.68622028713116 0 0 0 0 15.187361660305214 44.28539313948113 0 44.28539313948113 147.1728979570571 0 0 0 0 11.395654363307585 38.842695740421732 0 38.842695740421732 122.00413616490914 0 0 0 0 14.257647565618868 30.514112007842158 0 30.514112007842158 131.63159871154312 0 0 0 0 6.5788726606260752 36.664132153384344 0 36.664132153384344 145.92958021193954 0 0 0 0 13.18084490693218 42.369039057708505 0 42.369039057708505 146.0430900809684 0 0 0 0 32.365042462293786 48.880432413188828 0 48.880432413188828 147.1024980803378 0 0 0 0 5.3051202000306148 35.613402644382404 0 35.613402644382404 115.36877491837731 0 0 0 0 3.2052819795299001 33.750814232772427 0 33.750814232772427 130.84482164240649 0 0 0 0 1.614056210648414 40.734280044749539 0 40.734280044749539 142.79883065511785 0 0 0 0 9.0604320462171017 35.323168648901628 0 35.323168648901628 130.51740871930383 0 0 0 0 1.3363504060453408 35.709551644966353 0 35.709551644966353 132.30508787174767 0 0 0 0 -1.8643049577913189 39.561496655737756 0 39.561496655737756 151.43437198177162 0 0 0 0 4.8719184146557382 35.291341364060827 0 35.291341364060827 147.58158128799187 0 0 0 0 4.903579232645825 45.258913048377508 0 45.258913048377508 152.45543302425176 0 0 0 0 2.3443541208828265 45.679415502494066 0 45.679415502494066 160.11640034026459 0 0 0 0 -0.022754921707019093 50.706096926724058 0 50.706096926724058 152.92522284121878 0 0 0 0 16.699381333477504 43.315909528605516 0 43.315909528605516 164.75903065400053 0 0 0 0 5.7738179069619946 38.38237478109022 0 38.38237478109022 164.13448553159105 0 0 0 0 18.379802355411812 36.874422227097057 0 36.874422227097057 151.72691986430618 0 0 0 0 7.4671636596413009 52.382123049763322 0 52.382123049763322 163.48916446862034 0 0 0 0 12.66503958264525 44.962775435776393 0 44.962775435776393 173.98158453476208 0 0 0 0 26.270372317390866 52.737940184952095 0 52.737940184952095 208.31046733294716 0 0 0 0 44.133825868650092 73.936415227411999 0 73.936415227411999 175.60722714883104 0 0 0 0 31.455643738307117 41.232971022114725 0 41.232971022114725 164.61147974535925 0 0 0 0 16.250523752530171 55.307735137240797 0 55.307735137240797 194.14190153087111 0 0 0 0 50.776099676488229 107.08594052427179 0 107.08594052427179 236.88094654072574 0 0 0 0 -2.8058699166231236 -0.60557338165085639 0 -0.60557338165085639 4.6823613945617808 0 0 0 0 -5.3678583451014674 -2.4131624274527894 0 -2.4131624274527894 11.26186026094183 0 0 0 0 7.4664378970196594 55.11385342108224 0 55.11385342108224 160.04888980687929 0 0 0 0 -1.2509034063326672 -0.15253734781439388 0 -0.15253734781439388 0.94670315341399647 0 0 0 0 -0.90881696545061841 -1.638853230352562 0 -1.638853230352562 3.5006139911080609 0 0 0 0 31.177454770228906 60.035095774490401 0 60.035095774490401 160.9585345235555 0 0 0 0 0.061403858024732472 57.091710582416454 0 57.091710582416454 160.43109575878267 0 0 0 0 6.5632792409733156 7.353215058468777 0 7.353215058468777 -0.38128380177545296 0 0 0 0 6.9931283321907358 56.466568604087115 0 56.466568604087115 150.76505092251318 0 0 0 0 8.2641400950973534 37.688091323811037 0 37.688091323811037 142.63260695645931 0 0 0 0 -13.293345028036015 31.370870575285153 0 31.370870575285153 144.81222410303235 0 0 0 0 -29.065704667577734 38.492228949091441 0 38.492228949091441 145.53906539664786 0 0 0 0 -3.6451499589165905 45.130377537744607 0 45.130377537744607 151.51715432773852 0 0 0 0 -1.0340437378288243 47.294056798292331 0 47.294056798292331 143.60743385459864 0 0 0 0 -6.6842084859790702 37.111292938570841 0 37.111292938570841 140.02980073807225 0 0 0 0 -2.6472276883987433 45.058315504219536 0 45.058315504219536 142.9831752875989 0 0 0 0 -11.610042484608584 43.098540813195086 0 43.098540813195086 133.10381157883421 0 0 0 0 -6.2173214903532426 35.916189831629708 0 35.916189831629708 126.18139625505046 0 0 0 0 -2.3599287406336771 39.557385126262488 0 39.557385126262488 118.05202490952979 0 0 0 0 -2.856791859497207 36.750247513298746 0 36.750247513298746 132.0486615045379 0 0 0 0 -13.363297209745269 38.289178502756386 0 38.289178502756386 138.34406649482298 0 0 0 0 -13.219062335832177 50.490806733901536 0 50.490806733901536 129.23015331145416 0 0 0 0 -7.1984214913164806 43.843109408565851 0 43.843109408565851 117.29941002136547 0 0 0 0 -6.3163762636640968 42.588679982501617 0 42.588679982501617 101.06621099111999 0 0 0 0 -5.7901375178330454 43.201676443113229 0 43.201676443113229 100.58793777909068 0 0 0 0 4.5662298995341644 42.168185293939587 0 42.168185293939587 42.309500644419131 0 0 0 0 1.3616993513032867 39.415530677489187 0 39.415530677489187 78.276329015303418 0 0 0 0 0.56049121011665193 32.055836520366938 0 32.055836520366938 79.061534601456287 0 0 0 0 4.0623958197415959 39.974406588822148 0 39.974406588822148 67.136264029204995 0 0 0 0 5.8468543491471792 26.403806709569835 0 26.403806709569835 82.009064742302144 0 0 0 0 1.2589388971971402 39.086441061527694 0 39.086441061527694 96.085446732285163 0 0 0 0 -0.98785598855056378 33.489077213272139 0 33.489077213272139 98.53260737788878 0 0 0 0 -0.98905688416925841 39.444023040572574 0 39.444023040572574 98.937414955479653 0 0 0 0 -1.9948674544302776 37.023613887797637 0 37.023613887797637 118.12840631186555 0 0 0 0 4.6147578949330637 33.266281673085814 0 33.266281673085814 99.855291681725248 0 0 0 0 2.8785101996472804 31.783522612816341 0 31.783522612816341 116.29305068216513 0 0 0 0 11.772581192655252 33.573938410162782 0 33.573938410162782 94.723582814614929 0 0 0 0 15.774297844072976 42.621768500024928 0 42.621768500024928 113.41514712285425 0 0 0 0 9.7777181646797544 27.051173011655919 0 27.051173011655919 115.69393805560435 0 0 0 0 12.495680448770258 34.650636110813252 0 34.650636110813252 87.615331720144241 0 0 0 0 14.769153532259224 23.896564596368307 0 23.896564596368307 69.206157369380435 0 0 0 0 5.4286525655052174 34.821226226217277 0 34.821226226217277 94.501166687777982 0 0 0 0 11.589192253318288 17.245721003031349 0 17.245721003031349 45.501934610297667 0 0 0 0 11.604456247481835 34.57136431770541 0 34.57136431770541 58.702659511225647 0 0 0 0 17.016426597310556 29.466833399628001 0 29.466833399628001 41.911172910502046 0 0 0 0 7.3122009945800528 21.008380270982002 0 21.008380270982002 36.933523638369536 0 0 0 0 11.276889926828062 25.88491115906379 0 25.88491115906379 29.806946219230667 0 0 0 0 20.236195625329856 47.99189262659138 0 47.99189262659138 59.108629215864198 0 0 0 0 -0.21627690742798222 15.870698042421054 0 15.870698042421054 33.546231125965051 0 0 0 0 1.3751465831578571 7.5395867370764336 0 7.5395867370764336 24.127551310110846 0 0 0 0 -0.40824900463375435 -0.29731943497305569 0 -0.29731943497305569 0.76780764943868274 0 0 0 0 9.18708240065871 34.36412635776469 0 34.36412635776469 13.613542619830014 0 0 0 0 16.763012366463499 9.5794185496606588 0 9.5794185496606588 -6.3058041024746672 0 0 0 0 5.3646453252151787 28.809167430454636 0 28.809167430454636 46.039274070866668 0 0 0 0 14.579947273104835 32.695584956254152 0 32.695584956254152 14.128526847072862 0 0 0 0 11.453481467226595 23.522660272185959 0 23.522660272185959 48.709580541191826 0 0 0 0 4.9978803748203973 29.508742782693844 0 29.508742782693844 44.839759442576906 0 0 0 0 12.041953179501434 22.948665164896283 0 22.948665164896283 19.034420848633545 0 0 0 0 15.155389319848723 25.056505337061367 0 25.056505337061367 127.22753010129372 0 0 0 0 12.182591027677518 42.420274995402451 0 42.420274995402451 113.69494168614324 0 0 0 0 21.520610717423551 25.976428524776338 0 25.976428524776338 81.182519076733115 0 0 0 0 11.268920700576018 23.560564039242308 0 23.560564039242308 102.48202741062096 0 0 0 0 22.684834309960024 32.026576287549517 0 32.026576287549517 17.46459411162499 0 0 0 0 15.025271144997873 27.803949089599058 0 27.803949089599058 80.975497288155566 0 0 0 0 16.621319861839311 20.156989586058671 0 20.156989586058671 56.517650431198945 0 0 0 0 23.499992353154084 11.964148030332353 0 11.964148030332353 33.379980615916566 0 0 0 0 15.798518828234654 27.756270726268571 0 27.756270726268571 21.003168734714489 0 0 0 0 4.2180403994593689 123.44403319489356 0 123.44403319489356 -11.993113907146835 0 0 0 0 29.680582813155979 38.594088655003304 0 38.594088655003304 54.124995014712908 0 0 0 0 10.74625006479846 13.179487227104346 0 13.179487227104346 84.141553525895233 0 0 0 0 -30.317772648014852 47.161418060123651 0 47.161418060123651 35.943568296455851 0 0 0 0 -46.459728946022665 81.45515994786274 0 81.45515994786274 168.41906323817238 0 0 0 0 -25.892814700146459 31.191015809298278 0 31.191015809298278 85.915326443035156 0 0 0 0 -4.1441680976748714 -7.5345595622140991 0 -7.5345595622140991 17.79835915308001 0 0 0 0 14.146005436486535 27.34153096087816 0 27.34153096087816 23.464938861693113 0 0 0 0 383.21106007580158 669.76618135415117 0 669.76618135415117 2677.9745076226081 0 0 0 0 149.13952191227355 -559.76494617093795 0 -559.76494617093795 1983.7454058984586 0 0 0 0 -164.23799936555247 991.61244278252525 0 991.61244278252525 3500.8130935649988 0 0 0 0 917.94519593922519 1265.2173276647877 0 1265.2173276647877 1768.2387394826635 0 0 0 0 45.969266124730552 821.73621653193504 0 821.73621653193504 2867.4449663210789 0 0 0 0 11.62922083914097 22.319525523289713 0 22.319525523289713 64.84780856038401 0 0 0 0 1.4405083930425655 -1.3911364457225521 0 -1.3911364457225521 9.2504245774718541 0 0 0 0 0.06220957054627263 0.22889782937453623 0 0.22889782937453623 2.6092177663327085 0 0 0 0 0.37623086639718117 3.4360205508093804 0 3.4360205508093804 13.446479316134855 0 0 0 0 12.307392503122173 12.66242796351969 0 12.66242796351969 19.382567818078201 0 0 0 0 20.463798687956228 6.8499925073176655 0 6.8499925073176655 34.46727412699147 0 0 0 0 10.320121899575497 24.59105432251198 0 24.59105432251198 62.244653989626897 0 0 0 0 4.4315836087147957 10.810847677520886 0 10.810847677520886 19.26902207100526 0 0 0 0 703.70469452296129 1641.7953119172325 0 1641.7953119172325 3854.1317308461976 0 0 0 0 0.91081337549026431 -2.6716346394961095 0 -2.6716346394961095 10.191739469847356 0 0 0 0 598.32222657435932 1242.6044845457459 0 1242.6044845457459 3500.456981062277 0 0 0 0 375.09262071570288 593.40606466825716 0 593.40606466825716 4810.5605142440791 0 0 0 0 325.02295834512302 791.53415052189473 0 791.53415052189473 2847.8504694385992 0 0 0 0 -202.68760373361408 813.71304689258295 0 813.71304689258295 3499.8803124049191 0 0 0 0 50.135052370697949 1028.2016877996541 0 1028.2016877996541 2388.7711169637005 0 0 0 0 46.253906410215791 454.41535696631399 0 454.41535696631399 1544.7526307054422 0 0 0 0 -302.45902708442304 458.50372600931314 0 458.50372600931314 2947.9253003235399 0 0 0 0 -285.24302304334469 764.13367595660316 0 764.13367595660316 2885.5911988419539 0 0 0 0 135.01936098324654 256.19455812617844 0 256.19455812617844 3498.9592888539519 0 0 0 0 -63.03613911073775 -161.04329500662379 0 -161.04329500662379 2941.1570310067373 0 0 0 0 -226.80156905882865 70.535392184348439 0 70.535392184348439 1916.044137970026 0 0 0 0 -345.09453921389809 173.49885699644665 0 173.49885699644665 3287.4990628657779 0 0 0 0 -651.76539954207897 222.11046506545063 0 222.11046506545063 3153.0086698262994 0 0 0 0 73.568834775273928 -974.00887323726943 0 -974.00887323726943 1712.8852831138283 0 0 0 0 0.12043327141039228 -0.82117892772948498 0 -0.82117892772948498 10.941992662517684 0 0 0 0 174.9790906316623 304.94606924319214 0 304.94606924319214 110.59603944942955 0 0 0 0 590.35765469080889 1248.872836798947 0 1248.872836798947 2125.7754456424345 0 0 0 0 109.01901221062849 533.74809626626597 0 533.74809626626597 1591.1131487029415 0 0 0 0 305.15890560620073 206.84676000805393 0 206.84676000805393 95.673856361290746 0 0 0 0 -92.961171991797215 -96.908537143621288 0 -96.908537143621288 371.06124432619254 0 0 0 0 0.25370746414027745 -4.829676699280065 0 -4.829676699280065 24.038886900508512 0 0 0 0 170.16166079080324 -27.043670331358044 0 -27.043670331358044 -112.68511535213111 0 0 0 0 4.5287359251850372 9.6540815561715299 0 9.6540815561715299 22.828896073629071 0 0 0 0 15.414054936325556 24.516232213398325 0 24.516232213398325 -115.09793818492653 0 0 0 0 -6.0047835904931883 -1.3759925522499152 0 -1.3759925522499152 13.414738553631636 0 0 0 0 37.85981863049085 -104.54433710035028 0 -104.54433710035028 -83.837407273241524 0 0 0 0 -16.575909577397297 24.863869032523439 0 24.863869032523439 16.080693512611106 0 0 0 0 17.785166787572393 89.94128392082041 0 89.94128392082041 105.73587274714009 0 0 0 0 76.789274014794728 104.47644187130868 0 104.47644187130868 -22.43110524882519 0 0 0 0 -12.272467980702459 54.308823262283568 0 54.308823262283568 99.266930370047248 0 0 0 0 -4.1431968869844695 41.4087167752798 0 41.4087167752798 85.982106982364712 0 0 0 0 11.659487597156385 50.2632204957265 0 50.2632204957265 44.564584150647988 0 0 0 0 0.47446831331618 43.258863934912142 0 43.258863934912142 84.541770416934014 0 0 0 0 12.570198719850453 46.545802762925405 0 46.545802762925405 -1.44435362592003 0 0 0 0 0.96934273040949392 21.092336207876087 0 21.092336207876087 29.505597653150289 0 0 0 0 10.817121450882951 26.299703342036082 0 26.299703342036082 18.71037205911307 0 0 0 0 3.358330027219381 28.562011580911076 0 28.562011580911076 18.027788395120979 0 0 0 0 1.4993411090547113 26.321577184382591 0 26.321577184382591 34.147647545694781 0 0 0 0 30.123611594438103 -191.03341294282836 0 -191.03341294282836 1527.8262963861309 0 0 0 0 -0.692950846949143 -6.4520403770049066 0 -6.4520403770049066 7.3490343066591688 0 0 0 0 41.543891726502238 2.2761270650050847 0 2.2761270650050847 -44.682542400228158 0 0 0 0 67.692812441270306 -759.46204717662295 0 -759.46204717662295 1790.1820333984904 0 0 0 0 11.903901564486301 38.865310125622408 0 38.865310125622408 57.849494075259685 0 0 0 0 -17.918001245544524 -1004.6311791646358 0 -1004.6311791646358 1847.1431063013952 0 0 0 0 408.12507569712915 -1935.6032787651138 0 -1935.6032787651138 3493.1064846321806 0 0 0 0 -17.75342320694293 -932.86910198161775 0 -932.86910198161775 2050.724925312803 0 0 0 0 72.516483870382942 -676.05693914887888 0 -676.05693914887888 2078.6802343841218 0 0 0 0 -580.67375312384058 -666.42439726226212 0 -666.42439726226212 3500.8201412420058 0 0 0 0 -504.14418126080761 -11.218749207876044 0 -11.218749207876044 3499.5608437925885 0 0 0 0 -555.21989582195761 -472.80472123634991 0 -472.80472123634991 2599.4455628025275 0 0 0 0 -412.07400705583973 160.07368699726703 0 160.07368699726703 2409.1363263371463 0 0 0 0 211.83963712111685 189.98806951573889 0 189.98806951573889 161.10869958866715 0 0 0 0 198.90351738038999 -41.58038030030184 0 -41.58038030030184 445.34556077075285 0 0 0 0 57.416889206101246 213.09103947656513 0 213.09103947656513 157.70377968823254 0 0 0 0 11.137808793234246 43.466982233738364 0 43.466982233738364 58.545006851385864 0 0 0 0 1.6857326589512809 177.7784159878147 0 177.7784159878147 305.40463659165835 0 0 0 0 25.582023776977849 7.6785152998818376 0 7.6785152998818376 -140.5973848512549 0 0 0 0 1.0955280485889864 13.608562998899821 0 13.608562998899821 4.8590407799040918 0 0 0 0 -43.715123352278056 -316.55507178759763 0 -316.55507178759763 1406.8960072881364 0 0 0 0 -16.84674753683403 -55.582382061537942 0 -55.582382061537942 982.81309595758103 0 0 0 0 12.0513995998125 42.18181442666063 0 42.18181442666063 61.904663750296507 0 0 0 0 -16.391192555948692 35.947299226019823 0 35.947299226019823 80.07318995480955 0 0 0 0 -59.215446432466706 85.671771674802585 0 85.671771674802585 74.486322112454218 0 0 0 0 -48.236627459461033 32.83906370290606 0 32.83906370290606 149.08300083614449 0 0 0 0 -21.254926308472932 41.649601985223853 0 41.649601985223853 103.29435779198684 0 0 0 0 -28.844407832394154 33.532115226581482 0 33.532115226581482 177.73267060740909 0 0 0 0 -44.54684287280088 36.28041922372131 0 36.28041922372131 105.25294046777708 0 0 0 0 -39.922153334036011 150.84623619992635 0 150.84623619992635 -3.3320713991997764 0 0 0 0 3.6668794941188025 -23.51333735767912 0 -23.51333735767912 136.21928251461941 0 0 0 0 -3.8110068781902555 -2.8729437936617614 0 -2.8729437936617614 89.414176399979624 0 0 0 0 -26.248583730071232 12.672038495527886 0 12.672038495527886 167.6575867338106 0 0 0 0 -28.937389096654442 17.969569912282168 0 17.969569912282168 131.04437159140798 0 0 0 0 -24.398166065740497 11.218420558762773 0 11.218420558762773 139.61656203059829 0 0 0 0 -9.1943653360222015 3.2537517460878007 0 3.2537517460878007 123.61321237129414 0 0 0 0 -8.8795332310692174 21.201408439825173 0 21.201408439825173 87.146011695855123 0 0 0 0 -12.295548299260872 15.21240481620498 0 15.21240481620498 92.494569524111284 0 0 0 0 -2.64630436808784 31.72989920314285 0 31.72989920314285 74.444948137977917 0 0 0 0 3.4285930205160184 -0.35432899307852495 0 -0.35432899307852495 52.224361802054773 0 0 0 0 23.179073573869118 -3.9012803799678295 0 -3.9012803799678295 116.533097386593 0 0 0 0 8.0116684851964237 44.75509292830975 0 44.75509292830975 112.27925939895795 0 0 0 0 -4.2192977436143337 11.187149880855941 0 11.187149880855941 121.98973541801388 0 0 0 0 9.0701668012327445 35.873120989663221 0 35.873120989663221 83.549066026214859 0 0 0 0 -26.604670895834147 26.950753095965865 0 26.950753095965865 140.42128983062139 0 0 0 0 1.6189041169600955 7.3434503412538419 0 7.3434503412538419 22.08153184438649 0 0 0 0 -1.3255063501528639 28.52604242486268 0 28.52604242486268 154.93244830967888 0 0 0 0 -10.206715932255179 6.4837213574319321 0 6.4837213574319321 -30.906429437352926 0 0 0 0 0.71048521672122744 33.112612086549149 0 33.112612086549149 37.368382395944835 0 0 0 0 -4.6379178766293405 24.13361128072594 0 24.13361128072594 43.337133756349218 0 0 0 0 -12.630468295958735 16.097520747644012 0 16.097520747644012 32.222717121934693 0 0 0 0 8.5228436450267466 17.592463302287733 0 17.592463302287733 44.159782409956279 0 0 0 0 26.652515708176452 25.849962683358171 0 25.849962683358171 42.613635370209522 0 0 0 0 -4.6316873679528143 2.6543063780838203 0 2.6543063780838203 61.070851242812054 0 0 0 0 -8.6809316311532712 6.7368531911670289 0 6.7368531911670289 123.73094518895959 0 0 0 0 -16.11186064106127 -0.79763533806089981 0 -0.79763533806089981 55.073563181409554 0 0 0 0 3.7677622101136876 26.695038866924733 0 26.695038866924733 76.320123575264006 0 0 0 0 -16.31840832097614 8.4046303154552611 0 8.4046303154552611 66.627653760914143 0 0 0 0 -3.2846396674858882 -6.3354823608429669 0 -6.3354823608429669 21.177515337048753 0 0 0 0 -64.284952462518049 -12.523493159396821 0 -12.523493159396821 12.678931409151119 0 0 0 0 -47.350820258617318 31.269590207449255 0 31.269590207449255 114.73251873212575 0 0 0 0 -9.8140852314072458 2.6138836193007808 0 2.6138836193007808 84.374965771547835 0 0 0 0 -137.64657057436125 -178.51142227184573 0 -178.51142227184573 143.77520613031811 0 0 0 0 -1.6762852311310539 10.720256815215272 0 10.720256815215272 18.458841288978434 0 0 0 0 305.90093824643645 311.20191638403503 0 311.20191638403503 26.22520205071487 0 0 0 0 -136.55874776638939 168.88166949231345 0 168.88166949231345 -223.78376132495941 0 0 0 0 -2.9331167040488646 10.353203059566848 0 10.353203059566848 76.616174930832699 0 0 0 0 -0.51059247566263721 0.75568063527152063 0 0.75568063527152063 8.0371183839426976 0 0 0 0 -21.671824469685816 30.496903875253338 0 30.496903875253338 78.057341072657891 0 0 0 0 -79.219960675624861 -41.680369304918713 0 -41.680369304918713 122.72329943854129 0 0 0 0 -64.334284786111311 -20.886545167842996 0 -20.886545167842996 79.38332331777201 0 0 0 0 -61.523341521743987 0.061885212533525191 0 0.061885212533525191 202.07752364309272 0 0 0 0 -45.483035787761764 56.348883426631801 0 56.348883426631801 120.29083108210762 0 0 0 0 -71.87433502575368 49.479704858167679 0 49.479704858167679 135.45834663967253 0 0 0 0 0.77820803922910819 3.2857878579569899 0 3.2857878579569899 -0.68489607496071159 0 0 0 0 -11.835231435585229 82.427298577546026 0 82.427298577546026 127.73770873455214 0 0 0 0 73.057257829903392 71.1835898704594 0 71.1835898704594 67.93433973066567 0 0 0 0 -12.430105511831243 48.581802367261844 0 48.581802367261844 94.134996363485698 0 0 0 0 4.2934244357093121 2.2574763590819202 0 2.2574763590819202 32.089380299163167 0 0 0 0 1.1206904234127251 4.1806478589496692 0 4.1806478589496692 86.479239597123524 0 0 0 0 383.38526809736231 -301.99259399020775 0 -301.99259399020775 135.19430572759302 0 0 0 0 2.2860240125455764 -0.53729406854137096 0 -0.53729406854137096 0.77320540900406343 0 0 0 0 -1.9261497769257403 -0.76190853750449605 0 -0.76190853750449605 79.836364935224992 0 0 0 0 -363.18946681547368 333.04951825923126 0 333.04951825923126 349.4705982345331 0 0 0 0 -0.17661973608750969 0.19058572731522361 0 0.19058572731522361 0.40498049969893657 0 0 0 0 -235.87247074245533 492.21706875937525 0 492.21706875937525 -118.37959212540591 0 0 0 0 2.3799228686825105 1.4820567283717869 0 1.4820567283717869 6.2654812480690509 0 0 0 0 -78.500335061063197 78.917796866870049 0 78.917796866870049 239.14331887188382 0 0 0 0 -225.94875512411272 -68.892366475338349 0 -68.892366475338349 590.47543535615841 0 0 0 0 135.18374607627038 -120.45238459672146 0 -120.45238459672146 130.45452568066685 0 0 0 0 89.296167755646366 104.94595745242805 0 104.94595745242805 121.0296529809566 0 0 0 0 20.865738725184201 152.32865133405357 0 152.32865133405357 184.12130920461914 0 0 0 0 -96.672168122850053 56.776963873711793 0 56.776963873711793 416.57826576408843 0 0 0 0 18.980839192844542 -42.416730753026059 0 -42.416730753026059 -23.240598040432815 0 0 0 0 12.778338641837763 -14.48905674595153 0 -14.48905674595153 93.453805228113197 0 0 0 0 1.0491862650061954 -0.23996271587499507 0 -0.23996271587499507 0.22550784800748858 0 0 0 0 -65.857345868149423 44.475879432589863 0 44.475879432589863 180.9936955923913 0 0 0 0 -31.399000951270864 -4.5835813506892009 0 -4.5835813506892009 19.951318222301779 0 0 0 0 -20.428829821429645 6.4181862213408749 0 6.4181862213408749 3.3896478783353814 0 0 0 0 0.20276558942251555 2.5645307433230755 0 2.5645307433230755 2.3523712717917817 0 0 0 0 12.252015902930793 -77.308368565434648 0 -77.308368565434648 257.5484632054322 0 0 0 0 9.0063001175493405 -16.908513980883754 0 -16.908513980883754 45.293790639146209 0 0 0 0 -48.411425237764689 -6.3060506227811857 0 -6.3060506227811857 192.4308722458683 0 0 0 0 -18.412721168125294 2.4801982064127515 0 2.4801982064127515 108.5686422729791 0 0 0 0 -0.85006358241031377 -0.52782696821434705 0 -0.52782696821434705 0.55793607102596265 0 0 0 0 -5.2235522157137027 5.4536515847635201 0 5.4536515847635201 19.848364919440428 0 0 0 0 -11.148312109033498 61.680989578916922 0 61.680989578916922 128.27097360074049 0 0 0 0 -33.379073474363082 61.600889359078337 0 61.600889359078337 191.46479506661609 0 0 0 0 -29.277665796186707 44.134607595939741 0 44.134607595939741 149.66526346756564 0 0 0 0 -12.879914544702245 63.556724597960056 0 63.556724597960056 136.65844629023923 0 0 0 0 -22.149650196782204 77.674335351900481 0 77.674335351900481 145.51834741042831 0 0 0 0 6.7364173282471711 162.93184906930003 0 162.93184906930003 397.12707398951534 0 0 0 0 18.141956870887952 85.616290185168964 0 85.616290185168964 -2.8872209983644552 0 0 0 0 561.13907031483495 -106.2285739855397 0 -106.2285739855397 64.876444541110232 0 0 0 0 -137.99751378034171 88.153791958096463 0 88.153791958096463 708.635896505245 0 0 0 0 -7.4750794473243252 7.4609355826659431 0 7.4609355826659431 47.396350789266208 0 0 0 0 -8.5717005220567444 15.446984394988249 0 15.446984394988249 50.612078629123062 0 0 0 0 -346.94935820076262 -252.9628496911796 0 -252.9628496911796 335.28976789700118 0 0 0 0 -5.2789150413223638 18.672799449959712 0 18.672799449959712 52.633808872735244 0 0 0 0 -116.90912628073465 -17.691921938809173 0 -17.691921938809173 -45.770347420098915 0 0 0 0 -5.2106031733913207 -4.5252710123450264 0 -4.5252710123450264 42.599212214988626 0 0 0 0 -15.108579088424904 1.5086254193029163 0 1.5086254193029163 52.187278641402372 0 0 0 0 373.81650535544418 188.60040336271095 0 188.60040336271095 -166.90896439906646 0 0 0 0 -10.550276810966336 -2.6387493521574044 0 -2.6387493521574044 57.737824523918164 0 0 0 0 -292.05375185914954 77.948959565399036 0 77.948959565399036 60.138875400079996 0 0 0 0 -224.89940862158619 231.46646746075839 0 231.46646746075839 304.44625891929354 0 0 0 0 -2.2492116303285972 0.71875044179154202 0 0.71875044179154202 15.496102455887502 0 0 0 0 90.55849765039784 -27.02867476116262 0 -27.02867476116262 -59.959989640800814 0 0 0 0 400.81421478882703 504.09157837861494 0 504.09157837861494 95.155820452512671 0 0 0 0 -0.53413972700102774 0.11903778801823517 0 0.11903778801823517 8.1956674397699629 0 0 0 0 79.624737398895604 -43.338534147752398 0 -43.338534147752398 39.665187479935412 0 0 0 0 31.85305521826831 25.765426119751282 0 25.765426119751282 -4.8750546826413483 0 0 0 0 2.6505606022892607 -9.8679966026465991 0 -9.8679966026465991 -23.430610304649235 0 0 0 0 51.905284493088402 70.405921273292734 0 70.405921273292734 184.56022375627799 0 0 0 0 44.760031912252089 43.424688552993757 0 43.424688552993757 84.399800983712339 0 0 0 0 85.79292967776928 -26.527624215972537 0 -26.527624215972537 108.44967914337394 0 0 0 0 31.294999935593296 22.209499543863785 0 22.209499543863785 211.57945722559998 0 0 0 0 -22.915389540732804 -24.989020423022794 0 -24.989020423022794 14.489112045146612 0 0 0 0 -0.093336593134511148 -4.71322019287987 0 -4.71322019287987 22.421143813199642 0 0 0 0 25.576148356345584 116.19223989190414 0 116.19223989190414 118.57121373404334 0 0 0 0 22.690196750254472 104.31241986744408 0 104.31241986744408 207.72719516667007 0 0 0 0 -0.04912537812714346 -0.76547073660080578 0 -0.76547073660080578 -0.016727368479576787 0 0 0 0 49.393516097121051 1.503769630197894 0 1.503769630197894 -59.675259186841686 0 0 0 0 27.63742826186126 -14.707846558018446 0 -14.707846558018446 10.51365104445722 0 0 0 0 15.976118171092864 -46.413984028980352 0 -46.413984028980352 18.423475648991371 0 0 0 0 15.050072098608325 -19.042300772567614 0 -19.042300772567614 14.079639546711405 0 0 0 0 -4.1606891474262966 4.2681539688792327 0 4.2681539688792327 8.8700720421431924 0 0 0 0 -8.5613430845602743 -35.204642357416333 0 -35.204642357416333 45.990101078171392 0 0 0 0 43.166446296909044 9.4320578099859631 0 9.4320578099859631 -47.778255547425033 0 0 0 0 -9.4666357853976137 -15.397010388424633 0 -15.397010388424633 -13.10166300542096 0 0 0 0 -7.6512774970157125 -6.5090185316062161 0 -6.5090185316062161 16.237302702514853 0 0 0 0 -1.0996001442254055 -2.1360418326385116 0 -2.1360418326385116 48.48937807258153 0 0 0 0 -0.39838279092348083 -1.2063949006405927 0 -1.2063949006405927 0.96218217825332408 0 0 0 0 -7.173321919064847 -0.38458330667822338 0 -0.38458330667822338 4.4998392722727658 0 0 0 0 -0.04814391009282154 -1.1330347344469427 0 -1.1330347344469427 2.4665005021942612 0 0 0 0 15.033145752927339 37.000604502277383 0 37.000604502277383 65.88556336871352 0 0 0 0 7.0291147121162965 51.262389452028401 0 51.262389452028401 140.76129691817914 0 0 0 0 5.6752503705679374 17.849299099307245 0 17.849299099307245 125.78762815263099 0 0 0 0 -1.6862070018266877 24.408525978105899 0 24.408525978105899 124.26533875485075 0 0 0 0 -0.45938183439728619 -0.46048546525839029 0 -0.46048546525839029 1.4024261616094797 0 0 0 0 48.919963270970356 -15.162886096001785 0 -15.162886096001785 0.98601761569580049 0 0 0 0 9.3504462651766858 41.599537228013446 0 41.599537228013446 175.48395464454188 0 0 0 0 19.716488458568506 5.9014506230159895 0 5.9014506230159895 128.25589839310624 0 0 0 0 20.384551919584737 -2.9281885601822069 0 -2.9281885601822069 179.44024538700182 0 0 0 0 35.040513684121493 12.928925885767512 0 12.928925885767512 113.99900886436262 0 0 0 0 81.173856769349186 -11.018363041688644 0 -11.018363041688644 117.14131564945637 0 0 0 0 28.624149149154277 20.203060263473617 0 20.203060263473617 109.24534388095344 0 0 0 0 8.28144977526145 18.006264286295391 0 18.006264286295391 132.1147170853219 0 0 0 0 8.5376343704339206 20.991388959800133 0 20.991388959800133 128.62434504592784 0 0 0 0 5.0345088548750709 10.493996909277485 0 10.493996909277485 131.49920322879734 0 0 0 0 19.484534860556096 9.7090449918096056 0 9.7090449918096056 131.24328985187981 0 0 0 0 14.548938779168338 21.325440721625455 0 21.325440721625455 133.86935257298774 0 0 0 0 27.095903373453268 41.408908738973878 0 41.408908738973878 136.50404587913181 0 0 0 0 17.246991756018303 24.862808658755512 0 24.862808658755512 128.9226335849562 0 0 0 0 27.076829022368827 39.586359290076871 0 39.586359290076871 105.64728148519862 0 0 0 0 19.380804595050904 50.682964431394794 0 50.682964431394794 96.339047558981747 0 0 0 0 28.42222644310425 33.163605467911111 0 33.163605467911111 91.170814183937182 0 0 0 0 -4.4001731503273902 30.220593315813858 0 30.220593315813858 60.191404310332018 0 0 0 0 0.50741442976959661 32.921470085344481 0 32.921470085344481 119.45352335776988 0 0 0 0 -29.188375757253652 17.839318377664313 0 17.839318377664313 115.46048483577215 0 0 0 0 11.697604604767839 38.840667557575983 0 38.840667557575983 81.445489787109395 0 0 0 0 18.398397757714747 56.015175863691184 0 56.015175863691184 68.49886143345384 0 0 0 0 10.633404235925269 30.148574927755838 0 30.148574927755838 84.663384707856181 0 0 0 0 10.521455802360833 32.512459082974601 0 32.512459082974601 78.81179328443568 0 0 0 0 -8.7564774137509431 42.047072350252137 0 42.047072350252137 93.291313116707897 0 0 0 0 16.528394857853982 45.176505112198356 0 45.176505112198356 92.787742613180853 0 0 0 0 23.625709089768861 44.277156717723301 0 44.277156717723301 87.493612942773325 0 0 0 0 13.984861411815018 39.136486284247439 0 39.136486284247439 99.116399288561297 0 0 0 0 41.400087775643669 28.718996209003308 0 28.718996209003308 92.117241994766118 0 0 0 0 5.9108178249234697 53.791067309109167 0 53.791067309109167 88.832774986678487 0 0 0 0 18.314656464832751 41.808696066757875 0 41.808696066757875 43.445149849132576 0 0 0 0 5.8384779213743059 55.720502838808898 0 55.720502838808898 96.019766846322455 0 0 0 0 -0.49088722363921988 60.080970136506949 0 60.080970136506949 91.24471901373181 0 0 0 0 -9.0249299882143674 53.963975340705531 0 53.963975340705531 96.680485919012426 0 0 0 0 -10.574330170605027 2.7726910775614293 0 2.7726910775614293 21.816952671286607 0 0 0 0 -1.1761027521247343 44.547422031633687 0 44.547422031633687 70.04533885552155 0 0 0 0 9.1457290075645048 20.558578693365536 0 20.558578693365536 40.078814622096289 0 0 0 0 10.244572704633191 21.553303058016219 0 21.553303058016219 49.065986946073721 0 0 0 0 -41.528700195944907 -6.1304920089860389 0 -6.1304920089860389 84.407799944805447 0 0 0 0 -3.496517767571504 17.091961201708727 0 17.091961201708727 48.784297261014217 0 0 0 0 0.727636666954254 35.320736337698008 0 35.320736337698008 94.976440444421314 0 0 0 0 7.2810541272833689 32.379687391395237 0 32.379687391395237 85.374534559959557 0 0 0 0 19.241292498695884 47.551956653241177 0 47.551956653241177 101.15383581919559 0 0 0 0 5.1254838234744966 20.30822238350629 0 20.30822238350629 104.64436229331 0 0 0 0 6.2769464621787847 19.019646102923616 0 19.019646102923616 71.920802201683728 0 0 0 0 45.672683154433344 49.077791999326337 0 49.077791999326337 119.08002770955864 0 0 0 0 4.9937254444685095 -20.345076799363596 0 -20.345076799363596 145.31420576960204 0 0 0 0 3.8446494920847272 -5.0324669787119092 0 -5.0324669787119092 18.507733856293271 0 0 0 0 49.098687807712786 -52.683070025247297 0 -52.683070025247297 39.503954722344133 0 0 0 0 4.1062718207715978 -5.5828416412867874 0 -5.5828416412867874 36.967195062962773 0 0 0 0 -32.857545367195144 16.011631795866833 0 16.011631795866833 97.020966441624296 0 0 0 0 -297.88870231420287 -451.91663425506022 0 -451.91663425506022 937.73759678083297 0 0 0 0 -40.931594560762278 -226.36562785964179 0 -226.36562785964179 242.00879387734449 0 0 0 0 335.88204072419239 292.67908454127064 0 292.67908454127064 -584.55569477685458 0 0 0 0 -55.424320811895996 12.06310510764888 0 12.06310510764888 46.980936987689347 0 0 0 0 -9.663437329565113 -3.9949308287541498 0 -3.9949308287541498 45.47103187946027 0 0 0 0 -11.398771812388311 -7.7150084255464435 0 -7.7150084255464435 16.192705182233027 0 0 0 0 -5.0584770223204032 -75.759785951730009 0 -75.759785951730009 127.06536611102274 0 0 0 0 -3.6660075607423686 4.330005092172442 0 4.330005092172442 13.322308548522741 0 0 0 0 1.9771791308285174 -8.6248594941534975 0 -8.6248594941534975 -77.505017687128657 0 0 0 0 4.670398554319882 6.6982091228762659 0 6.6982091228762659 29.265775878369851 0 0 0 0 0.91757609347132529 3.5705805305442482 0 3.5705805305442482 28.607403523135872 0 0 0 0 -44.928143412978898 183.51533733918041 0 183.51533733918041 -105.27380772904326 0 0 0 0 28.850929633221313 130.03229274187652 0 130.03229274187652 -359.66054829006316 0 0 0 0 0.96478421710973628 9.1609687652294838 0 9.1609687652294838 2.9826724576486754 0 0 0 0 11.752324321299884 21.402427994223324 0 21.402427994223324 26.291173030439964 0 0 0 0 4.6920287471068605 21.454858023724228 0 21.454858023724228 40.368445526501091 0 0 0 0 11.011568309205709 13.002478598023457 0 13.002478598023457 38.172203226332215 0 0 0 0 2.4831584060722207 11.189052153712055 0 11.189052153712055 38.849048402295011 0 0 0 0 18.507932493262736 32.969643879292676 0 32.969643879292676 33.154963863870861 0 0 0 0 68.994269888501094 77.58183666070363 0 77.58183666070363 95.554851728826179 0 0 0 0 -30.6244470601996 63.648324236397457 0 63.648324236397457 13.306593125320433 0 0 0 0 17.533295785030667 17.613664982711128 0 17.613664982711128 17.164153286005629 0 0 0 0 51.16582268816137 -12.996560776006845 0 -12.996560776006845 34.013908024375269 0 0 0 0 -142.42998297619943 -98.124923380626569 0 -98.124923380626569 -53.006502627933514 0 0 0 0 -20.229385358263244 43.743647034538299 0 43.743647034538299 26.718200728690135 0 0 0 0 1.0962329631394767 17.952019135100176 0 17.952019135100176 36.212977827245993 0 0 0 0 -35.089877904581954 48.603226933841142 0 48.603226933841142 54.233822671194503 0 0 0 0 -34.091408320107803 17.407281122083077 0 17.407281122083077 43.510159725366975 0 0 0 0 -31.193919413695767 26.980709450981522 0 26.980709450981522 64.507250070411828 0 0 0 0 -355.32683257676945 67.85534173601809 0 67.85534173601809 526.55011025157728 0 0 0 0 -4.2372925037090585 17.036671474435057 0 17.036671474435057 34.210085557393 0 0 0 0 -50.549512007393787 7.6422515159647446 0 7.6422515159647446 67.562752205340075 0 0 0 0 104.20013270848358 -178.8482108548269 0 -178.8482108548269 -74.438794345522183 0 0 0 0 -66.90501394622288 102.39801151486608 0 102.39801151486608 -23.636870668480697 0 0 0 0 -26.927982165213166 180.82912299781333 0 180.82912299781333 -427.38685638390598 0 0 0 0 -3.7591629626196976 5.0088742144384639 0 5.0088742144384639 9.9987283808369334 0 0 0 0 -29.393287565369555 -0.51065088858021568 0 -0.51065088858021568 7.8688403282776349 0 0 0 0 -32.333903379811545 31.061230599720147 0 31.061230599720147 -6.7752351798844757 0 0 0 0 -48.999680306567825 15.395029350049299 0 15.395029350049299 83.604036528413417 0 0 0 0 -93.911198770347255 310.09306614940579 0 310.09306614940579 118.2901833653259 0 0 0 0 -111.4104916520173 62.172211725519446 0 62.172211725519446 107.35222881957588 0 0 0 0 -82.465261666224251 103.52030508427924 0 103.52030508427924 73.995090004444137 0 0 0 0 1.0886293993372833 13.07775969863523 0 13.07775969863523 8.8214537779779079 0 0 0 0 -1.7896780414434517 23.057663492487336 0 23.057663492487336 27.282553214339714 0 0 0 0 29.634706599015772 77.447028063521429 0 77.447028063521429 77.380366011401748 0 0 0 0 -319.72042126173619 117.40120286453021 0 117.40120286453021 -18.979025730208377 0 0 0 0 -19.839025268056503 166.32687348127365 0 166.32687348127365 -51.868494335416472 0 0 0 0 4.2561202707020129 346.18160082359827 0 346.18160082359827 -13.399431026293314 0 0 0 0 59.345510816598448 -33.069409710190939 0 -33.069409710190939 -80.123568126582541 0 0 0 0 -36.905056483054523 189.6044933692574 0 189.6044933692574 92.541056519432459 0 0 0 0 233.48289392467814 43.694695260521257 0 43.694695260521257 -240.2257570416441 0 0 0 0 211.61590964931929 -359.15533517474614 0 -359.15533517474614 740.01126994410879 0 0 0 0 676.56929968096483 81.994965501929983 0 81.994965501929983 -58.925818758656533 0 0 0 0 -98.833779795919327 141.53776632840163 0 141.53776632840163 606.54770709977311 0 0 0 0 205.99675525315797 419.23828160360063 0 419.23828160360063 305.2754753657282 0 0 0 0 0.081768607425331208 -0.032734738208036518 0 -0.032734738208036518 8.6255125663791432 0 0 0 0 36.519165159050317 -170.91575501595617 0 -170.91575501595617 146.25023415091709 0 0 0 0 732.16415719096676 308.75350484869341 0 308.75350484869341 -423.08578465472965 0 0 0 0 -87.907206073848101 -119.76908172521507 0 -119.76908172521507 470.79196852383029 0 0 0 0 -38.479727050117845 375.4069063875404 0 375.4069063875404 695.56727813174075 0 0 0 0 -42.433008008283196 -36.987868196600175 0 -36.987868196600175 151.46868556994741 0 0 0 0 -213.19455030166364 44.51094459279193 0 44.51094459279193 291.77870406978764 0 0 0 0 -92.544008950996101 -74.833986685337322 0 -74.833986685337322 202.0433870737761 0 0 0 0 5.0059999314021297 -0.99498786160984309 0 -0.99498786160984309 70.78217991902784 0 0 0 0 2.8972501089756406 1.8265194809209788 0 1.8265194809209788 67.370107803304563 0 0 0 0 19.345632911615212 -68.721198699688102 0 -68.721198699688102 74.1411054260534 0 0 0 0 5.3803415616318944 -20.786083325306208 0 -20.786083325306208 -9.8951919412065763 0 0 0 0 -0.20683592048583588 -1.6690534432714026 0 -1.6690534432714026 26.40336881157333 0 0 0 0 -130.32161559465112 -14.067024559059064 0 -14.067024559059064 66.74568722978438 0 0 0 0 -11.881540780247633 -18.789446767299523 0 -18.789446767299523 39.627958373821457 0 0 0 0 -72.225864010067198 31.677521988171065 0 31.677521988171065 19.288850847566209 0 0 0 0 -36.424903350394288 -24.25914449926313 0 -24.25914449926313 22.124448521492013 0 0 0 0 7.420984801110535 31.021580393404292 0 31.021580393404292 37.789702191339984 0 0 0 0 -8.6523575629083922 -8.8374223031928736 0 -8.8374223031928736 9.7284791134122628 0 0 0 0 1.1104998791830667 34.560264235173236 0 34.560264235173236 89.24670972275635 0 0 0 0 -26.280669548929836 -56.264097347324423 0 -56.264097347324423 57.03217535238764 0 0 0 0 -65.609436699749267 25.553621519178705 0 25.553621519178705 87.572874644778494 0 0 0 0 -44.319769646384884 42.356820536402665 0 42.356820536402665 21.669038349005859 0 0 0 0 -31.300842510847815 175.5648450154913 0 175.5648450154913 247.37929424281174 0 0 0 0 -6.6007015459479454 2.4771939104515468 0 2.4771939104515468 25.415365774862948 0 0 0 0 100.05668657953788 66.910344807332876 0 66.910344807332876 64.489576246189245 0 0 0 0 10.618991953404475 102.03136446705321 0 102.03136446705321 330.55243457626057 0 0 0 0 -60.977488158683173 5.6532808014380862 0 5.6532808014380862 39.224903840968182 0 0 0 0 84.278397288807355 -168.52090189563023 0 -168.52090189563023 161.34666537000885 0 0 0 0 752.1050145799195 258.36234889340267 0 258.36234889340267 -609.86936331329343 0 0 0 0 0.54499415967257991 1.2500968887295061 0 1.2500968887295061 8.1767009944475149 0 0 0 0 -82.266003307175197 -157.67133777391791 0 -157.67133777391791 277.33430756154121 0 0 0 0 -74.332590136945328 -73.089862787004677 0 -73.089862787004677 260.29390553481062 0 0 0 0 -2.3394432178777862 -6.2015962874255308 0 -6.2015962874255308 0.26723949250887813 0 0 0 0 116.98487640103878 453.2220490343218 0 453.2220490343218 109.52968481109565 0 0 0 0 24.886868608459736 -0.32306969268393004 0 -0.32306969268393004 3.394803200394449 0 0 0 0 -482.40556132739448 -334.94730751420502 0 -334.94730751420502 1190.1354376787349 0 0 0 0 -3.4989377583322359 -8.7013035728194499 0 -8.7013035728194499 37.304798278100833 0 0 0 0 59.648621369063108 -143.46490933843688 0 -143.46490933843688 -756.66957324545365 0 0 0 0 -3.2948843392371421 -5.6437737904402923 0 -5.6437737904402923 25.064783283923177 0 0 0 0 -7.0185393159717933 -0.10640264432004187 0 -0.10640264432004187 13.413228060002439 0 0 0 0 -11.835364542768179 2.1373306100878793 0 2.1373306100878793 23.850860213130005 0 0 0 0 22.493788743407777 0.39058949951140676 0 0.39058949951140676 21.176518932603358 0 0 0 0 102.45686852223957 96.177472081304586 0 96.177472081304586 144.63790853977844 0 0 0 0 26.314206230409582 -29.102406231104396 0 -29.102406231104396 82.35064057353884 0 0 0 0 2.979205753745493 -1.3142052592505138 0 -1.3142052592505138 11.449998378873602 0 0 0 0 25.889609645939345 -28.868570946862746 0 -28.868570946862746 87.835944081685739 0 0 0 0 15.555106230464389 23.759993840008974 0 23.759993840008974 -22.934085077387863 0 0 0 0 -5.1062562481543248 0.99997334611451549 0 0.99997334611451549 26.122596161307214 0 0 0 0 2.9553930833109492 0.28832932221629903 0 0.28832932221629903 -0.17864214540020384 0 0 0 0 -48.714842124185452 -68.09047307993751 0 -68.09047307993751 190.04566573194461 0 0 0 0 42.495313552934931 -21.494706612833397 0 -21.494706612833397 3.7474887363624703 0 0 0 0 6.5025099723422954 16.466652831896681 0 16.466652831896681 161.35926904798544 0 0 0 0 42.449850009103784 42.680084617602915 0 42.680084617602915 68.224621634237337 0 0 0 0 11.79191517921663 18.921381246105739 0 18.921381246105739 49.989259611348189 0 0 0 0 10.937761321657945 12.001712177314857 0 12.001712177314857 54.960028194946062 0 0 0 0 -20.637578789461219 1.572628508241074 0 1.572628508241074 16.106869036336725 0 0 0 0 -21.811281072110432 34.907070051307528 0 34.907070051307528 60.740320569937467 0 0 0 0 -53.308423664780548 17.51627258488088 0 17.51627258488088 64.828633041441208 0 0 0 0 -29.911937205228014 8.4637244702971657 0 8.4637244702971657 252.81033453707641 0 0 0 0 -22.864378528686757 49.253992068945081 0 49.253992068945081 20.61184313310423 0 0 0 0 12.495846540389842 8.0738912083746825 0 8.0738912083746825 9.5563795577092918 0 0 0 0 -53.360972516413767 34.589947943448351 0 34.589947943448351 47.027666946542013 0 0 0 0 -121.90904811855944 57.852547044167295 0 57.852547044167295 239.67459325514756 0 0 0 0 181.06548256133942 54.738797859812621 0 54.738797859812621 -56.407675771630238 0 0 0 0 4.0569410780017279 -28.215964174700275 0 -28.215964174700275 18.018205175249022 0 0 0 0 84.378514514793324 44.479421862240997 0 44.479421862240997 48.091288123320737 0 0 0 0 78.229898133211009 63.539747683527821 0 63.539747683527821 6.7122095609229291 0 0 0 0 288.81719581085372 212.30637768326778 0 212.30637768326778 78.749251109264151 0 0 0 0 -179.29177426822116 98.079081490061071 0 98.079081490061071 176.90878819027057 0 0 0 0 100.29944241196256 148.14883836650597 0 148.14883836650597 131.53912287632556 0 0 0 0 30.679873122428489 59.430264303637159 0 59.430264303637159 90.290744895426542 0 0 0 0 -18.697509723276198 74.504183374276181 0 74.504183374276181 85.982979666747269 0 0 0 0 -12.926744828974677 30.797544215386893 0 30.797544215386893 99.07064037136297 0 0 0 0 11.102738705014417 33.742074941555984 0 33.742074941555984 97.614868312075487 0 0 0 0 -62.584950143725564 1.8843602957658732 0 1.8843602957658732 84.981908894184016 0 0 0 0 -42.093289051461397 24.535894040947824 0 24.535894040947824 108.64701818650974 0 0 0 0 -209.99096976052681 120.8375218604333 0 120.8375218604333 507.44327488882209 0 0 0 0 -6.3562350880015845 7.2747458536232852 0 7.2747458536232852 104.62063590690843 0 0 0 0 -30.808359437163404 15.353052751411724 0 15.353052751411724 -21.183467460745305 0 0 0 0 -111.31157659199653 67.80915678470501 0 67.80915678470501 464.15579048008567 0 0 0 0 -2.9588472707753111 3.3760703194531381 0 3.3760703194531381 1.5985003589076534 0 0 0 0 120.04669255426541 293.04332696306119 0 293.04332696306119 41.23290572546648 0 0 0 0 -0.88654817155156707 74.338299016073506 0 74.338299016073506 462.60724634154394 0 0 0 0 -164.19318844875556 -11.190234897392656 0 -11.190234897392656 493.16068115433518 0 0 0 0 -92.422243878158497 -13.019411346700508 0 -13.019411346700508 493.20133795315689 0 0 0 0 130.15105227740582 -141.07105034359665 0 -141.07105034359665 312.2206510434753 0 0 0 0 1.0681485074947235 1.160124947226512 0 1.160124947226512 1.1114901596456157 0 0 0 0 52.247326587569759 64.615517648780283 0 64.615517648780283 38.483030033978139 0 0 0 0 23.240680839598483 -32.509994405432735 0 -32.509994405432735 -5.8035631578341054 0 0 0 0 44.909344920898093 7.8955079206511982 0 7.8955079206511982 59.697812388480997 0 0 0 0 -85.655167934107567 -107.96945105078021 0 -107.96945105078021 22.589558388261594 0 0 0 0 0.88770141365712618 9.8520429919779069 0 9.8520429919779069 87.328549309113981 0 0 0 0 135.47977263214761 -74.277855205948072 0 -74.277855205948072 -69.707805336055571 0 0 0 0 -2.6939806703316962 -2.5637579248986606 0 -2.5637579248986606 14.089939252471432 0 0 0 0 60.40566037443773 -44.496153941155171 0 -44.496153941155171 70.364827981829876 0 0 0 0 -28.237261478203436 -12.838752981249399 0 -12.838752981249399 48.982300080748246 0 0 0 0 25.740885577576989 -9.0328161111938243 0 -9.0328161111938243 44.980966433987305 0 0 0 0 -2.2082116731373986 -20.860778584406034 0 -20.860778584406034 44.509565805336024 0 0 0 0 -1.5107351872771915 -27.949502131797544 0 -27.949502131797544 75.843632150988924 0 0 0 0 -2.9902387835706321 40.210756868884346 0 40.210756868884346 129.01493543932156 0 0 0 0 -0.46596272947135731 -26.204837794196919 0 -26.204837794196919 142.17204583106286 0 0 0 0 -7.5677690355567364 -6.1010418780351756 0 -6.1010418780351756 63.250038900990148 0 0 0 0 -7.5344493924637561 -2.4344466393085895 0 -2.4344466393085895 81.329243781308378 0 0 0 0 100.20779096993499 -2.1826053351160226 0 -2.1826053351160226 84.775772377566682 0 0 0 0 4.0205760640260744 -0.55179526152837433 0 -0.55179526152837433 20.058882313377786 0 0 0 0 3.3536076808437345 11.802484726097944 0 11.802484726097944 3.6005585187399696 0 0 0 0 12.974753636889725 25.819118298226524 0 25.819118298226524 71.862996127737432 0 0 0 0 10.062511326066073 116.79609979305258 0 116.79609979305258 109.48046546310979 0 0 0 0 5.0084997478688376 -9.7485397935074474 0 -9.7485397935074474 33.328497426650216 0 0 0 0 19.962421593072577 25.03547365250779 0 25.03547365250779 112.62912271068626 0 0 0 0 21.045230019764404 2.791770813826588 0 2.791770813826588 110.02943522887654 0 0 0 0 6.2029778847991111 39.07099078653664 0 39.07099078653664 100.64062742556416 0 0 0 0 5.6564976080829865 29.578659791437531 0 29.578659791437531 99.649898761759687 0 0 0 0 26.074665818772701 27.450783874186527 0 27.450783874186527 99.676309623435372 0 0 0 0 17.297364055089929 39.068136429894366 0 39.068136429894366 100.30043690499588 0 0 0 0 11.806021619123385 1.4638358406009502 0 1.4638358406009502 106.80210109344989 0 0 0 0 -19.619680456194146 -9.83536196147179 0 -9.83536196147179 103.03854282111934 0 0 0 0 -19.675913962563357 -9.8082563466631427 0 -9.8082563466631427 210.34267708697007 0 0 0 0 -11.24377751218617 -45.091099078927073 0 -45.091099078927073 123.11721870290421 0 0 0 0 42.100991986943882 -127.59350130470011 0 -127.59350130470011 169.99606271897937 0 0 0 0 -14.675432650781659 -44.984508025132527 0 -44.984508025132527 133.96218299286193 0 0 0 0 -194.74620880062139 99.357772798019141 0 99.357772798019141 45.146924379165284 0 0 0 0 4.0510097909539873 7.227332885259699 0 7.227332885259699 13.3773684892071 0 0 0 0 -116.07363470846212 15.352632667607395 0 15.352632667607395 20.201041748263378 0 0 0 0 28.647389561745513 82.02446247818807 0 82.02446247818807 12.681918989328551 0 0 0 0 -123.70917254300252 66.92676153663524 0 66.92676153663524 55.437958262817119 0 0 0 0 -125.6030256746044 58.164458616141928 0 58.164458616141928 20.664321361848124 0 0 0 0 -109.17421028293393 48.201581293680647 0 48.201581293680647 26.689994578067854 0 0 0 0 -206.33573244324407 43.064071238877659 0 43.064071238877659 33.225348042047699 0 0 0 0 -15.375898492537999 31.524450977824017 0 31.524450977824017 2.3894867704220815 0 0 0 0 -133.43412399504814 118.51211185584543 0 118.51211185584543 -61.704613460697146 0 0 0 0 8.4562937110376879 -25.291975076488598 0 -25.291975076488598 -174.52416241465107 0 0 0 0 -169.7715392898026 148.09024388229591 0 148.09024388229591 -73.38174735467328 0 0 0 0 -1.4206441720343719 25.912446885755344 0 25.912446885755344 -96.717309302781359 0 0 0 0 3.5596307726455052 75.481834380774671 0 75.481834380774671 -244.93966528199962 0 0 0 0 -2.6112478336501823 1.9727943522243834 0 1.9727943522243834 3.4895451162005457 0 0 0 0 6.5347887891609062 13.761254811364381 0 13.761254811364381 17.781413069471 0 0 0 0 -140.91092703675304 -21.1706339147986 0 -21.1706339147986 11.114339469400875 0 0 0 0 -72.236776168011147 -24.489195211619517 0 -24.489195211619517 4.1276583652870613 0 0 0 0 9.5904756123823063 13.155077192617682 0 13.155077192617682 55.098926133105124 0 0 0 0 8.8845762748066655 14.313196970614598 0 14.313196970614598 -8.1634865974098574 0 0 0 0 18.910444603448923 31.904728337773122 0 31.904728337773122 1.5390527777381067 0 0 0 0 4.475240014125081 2.7813928130264287 0 2.7813928130264287 -6.1555884494603106 0 0 0 0 37.924519522515766 12.962086217201431 0 12.962086217201431 -7.5207661890453892 0 0 0 0 19.949881763426674 41.414684422292339 0 41.414684422292339 -28.533075639286835 0 0 0 0 18.945233655740594 31.507236392921186 0 31.507236392921186 -60.762758027529344 0 0 0 0 -4.8884197002844303 50.02670760503679 0 50.02670760503679 -36.474351964468951 0 0 0 0 25.817684198798815 87.110306205395318 0 87.110306205395318 -93.067095186401275 0 0 0 0 25.850063656772363 73.500378623499273 0 73.500378623499273 -27.223340517317411 0 0 0 0 20.98250192991145 60.429308652517648 0 60.429308652517648 -5.0323774623684585 0 0 0 0 23.35231408839536 66.880125429073814 0 66.880125429073814 -44.485999293341592 0 0 0 0 22.640198016822978 34.930369552846969 0 34.930369552846969 -15.845923765620682 0 0 0 0 7.0807840113102429 51.917680308608396 0 51.917680308608396 -4.8437678198388312 0 0 0 0 4.521674470128346 50.604609719557629 0 50.604609719557629 16.46851906819802 0 0 0 0 -7.18152851141258 40.855091537627231 0 40.855091537627231 19.121214576087368 0 0 0 0 0.10925338439119514 37.298480416695384 0 37.298480416695384 18.733814147585235 0 0 0 0 0.13054268569101524 14.937120442133391 0 14.937120442133391 37.483484843074848 0 0 0 0 0.84088970797529328 34.722717499465944 0 34.722717499465944 25.811638432525797 0 0 0 0 10.329561891712135 11.942873405512927 0 11.942873405512927 -4.5623114743509916 0 0 0 0 19.205390373574119 36.333032352456939 0 36.333032352456939 -11.082392603086191 0 0 0 0 19.166493482709484 30.043709643316106 0 30.043709643316106 5.8577422547023161 0 0 0 0 -79.628912397640306 -70.506682073177217 0 -70.506682073177217 214.54107027000282 0 0 0 0 -86.583366443653176 19.915761846190435 0 19.915761846190435 75.048135114884076 0 0 0 0 58.081168155036721 -64.396792043152345 0 -64.396792043152345 39.826620860840194 0 0 0 0 -22.911452666503465 44.744762360707682 0 44.744762360707682 30.164896540081827 0 0 0 0 -21.474825655761379 54.398432644178683 0 54.398432644178683 31.933720182714751 0 0 0 0 5.2067415000069666 24.811476981257286 0 24.811476981257286 52.220945668004077 0 0 0 0 9.6642672426842182 -5.0599144366751716 0 -5.0599144366751716 76.099803423038111 0 0 0 0 18.650487558457371 -14.061582365663526 0 -14.061582365663526 37.110802680668712 0 0 0 0 -0.12709000372251467 -31.863551903836196 0 -31.863551903836196 28.693759272253374 0 0 0 0 -2.1402621024817563 -31.524874746395653 0 -31.524874746395653 34.892683366906567 0 0 0 0 17.875285071280814 -4.8963872673994047 0 -4.8963872673994047 29.942991291911085 0 0 0 0 -113.83625367758259 -48.012007711015031 0 -48.012007711015031 347.5830997496887 0 0 0 0 -151.73557540372531 -105.67682369979229 0 -105.67682369979229 260.05428575216501 0 0 0 0 7.1413608194985834 0.55902107708197946 0 0.55902107708197946 -2.0881420940960709 0 0 0 0 -66.719090936428984 20.584351977769984 0 20.584351977769984 316.14941123591416 0 0 0 0 6.7207407562873414 -42.826254469484411 0 -42.826254469484411 484.66002068387388 0 0 0 0 10.275231708369574 -14.198675113693753 0 -14.198675113693753 37.509658889575803 0 0 0 0 -16.214026028064836 52.343635803219513 0 52.343635803219513 335.0309420498088 0 0 0 0 21.479913472338012 55.026074227833305 0 55.026074227833305 300.61669087654172 0 0 0 0 48.868697980195066 -4.6556053897074889 0 -4.6556053897074889 275.27816593837633 0 0 0 0 98.025503514865704 41.612158383693895 0 41.612158383693895 301.20979093441656 0 0 0 0 160.38371472531799 -20.287217714358121 0 -20.287217714358121 310.8720134292962 0 0 0 0 159.37370789343186 -102.75183082112926 0 -102.75183082112926 377.39886625832878 0 0 0 0 79.766422461278125 -52.10156016331166 0 -52.10156016331166 349.09732995924423 0 0 0 0 123.93828150739137 15.665343194821617 0 15.665343194821617 280.15222965995781 0 0 0 0 81.793346772319637 -38.213296747388085 0 -38.213296747388085 298.5853930102312 0 0 0 0 -10.865639650379308 25.022233381208935 0 25.022233381208935 212.2218196473259 0 0 0 0 31.663520995356521 -10.794321939887595 0 -10.794321939887595 298.95043413817416 0 0 0 0 72.517786136513678 24.937573048529885 0 24.937573048529885 198.03105321558542 0 0 0 0 40.121308630512885 -30.582688685994071 0 -30.582688685994071 94.565853891646839 0 0 0 0 24.783534058711666 66.618460730502193 0 66.618460730502193 133.80464118511009 0 0 0 0 -16.513417357176877 -3.4336638644563209 0 -3.4336638644563209 211.53508547907404 0 0 0 0 -73.98036934926813 21.525985604537709 0 21.525985604537709 149.58771777711399 0 0 0 0 -74.252302710757249 -15.813995617965702 0 -15.813995617965702 145.70353682639688 0 0 0 0 -17.459330957968206 40.902846031449371 0 40.902846031449371 273.50189791806042 0 0 0 0 -17.138627187002385 50.514613692314015 0 50.514613692314015 123.60890464605473 0 0 0 0 98.331314945420672 52.103367176176107 0 52.103367176176107 28.546220682728745 0 0 0 0 99.47369577606878 -69.568607791050454 0 -69.568607791050454 210.76157788923592 0 0 0 0 40.065696697000931 -46.467578690180744 0 -46.467578690180744 429.44066044338979 0 0 0 0 18.924547517904823 -5.3647341136604041 0 -5.3647341136604041 7.59508381294863 0 0 0 0 7.5152961698798535 -0.48738418820238394 0 -0.48738418820238394 -3.1542753101903998 0 0 0 0 12.835590513879652 0.018284649697307032 0 0.018284649697307032 427.25608885141264 0 0 0 0 30.396074218853755 17.5019907288588 0 17.5019907288588 346.97553570570744 0 0 0 0 16.49296464348663 -60.374963734309858 0 -60.374963734309858 422.55839565928909 0 0 0 0 61.062180861170418 59.732393587786646 0 59.732393587786646 404.2152615860341 0 0 0 0 49.889861626032143 -22.333246483278344 0 -22.333246483278344 238.90953202355013 0 0 0 0 -8.6223468783173303 -34.176050284215307 0 -34.176050284215307 240.53294506704424 0 0 0 0 61.262175876522178 -46.123889824928483 0 -46.123889824928483 219.68560969654936 0 0 0 0 25.676687730254343 24.551676976312592 0 24.551676976312592 190.11849605652242 0 0 0 0 -12.188977986143072 -35.968571186913323 0 -35.968571186913323 207.73538046054455 0 0 0 0 75.13756152473934 -65.283021547427779 0 -65.283021547427779 102.07078734089009 0 0 0 0 -9.4059712844891692 -66.393849033258448 0 -66.393849033258448 156.66640794094201 0 0 0 0 -43.929063263477929 4.5601270223887695 0 4.5601270223887695 88.041577914167647 0 0 0 0 42.098089205122051 -7.3612419005858101 0 -7.3612419005858101 -123.63172920799843 0 0 0 0 -41.539670632317211 -18.613424452509207 0 -18.613424452509207 238.47985336432248 0 0 0 0 -13.616729127214878 0.27565145136003366 0 0.27565145136003366 0.88376071717113547 0 0 0 0 -22.404246680090637 -16.76764324605756 0 -16.76764324605756 45.874391265271697 0 0 0 0 13.60959683238525 87.170847463974496 0 87.170847463974496 -84.485236738099047 0 0 0 0 -20.58908775119594 -0.51834748328340652 0 -0.51834748328340652 -0.084593837355583901 0 0 0 0 -41.9086427212942 7.5847635138088663 0 7.5847635138088663 92.674600228982172 0 0 0 0 -47.385381760293967 6.1042006779825897 0 6.1042006779825897 161.59552641773189 0 0 0 0 3.3963983433577596 -18.50724025740783 0 -18.50724025740783 132.529893961575 0 0 0 0 -19.669315744760297 0.59368882636044873 0 0.59368882636044873 92.269797564047622 0 0 0 0 -32.025801328595662 50.678027109832328 0 50.678027109832328 28.872563233308028 0 0 0 0 -56.170251646335601 55.531207883279421 0 55.531207883279421 90.703373689533009 0 0 0 0 -65.701914967089579 32.228253169789241 0 32.228253169789241 146.66001578901341 0 0 0 0 -28.976317115620077 38.236018813515329 0 38.236018813515329 53.542520488445007 0 0 0 0 -75.167074040871739 74.160399989141297 0 74.160399989141297 51.456086016764402 0 0 0 0 -33.130680964550265 41.250608482068856 0 41.250608482068856 9.2685118248773506 0 0 0 0 -42.757760476501062 52.713430458821676 0 52.713430458821676 30.091173013926891 0 0 0 0 -29.204121638640572 61.822702306655628 0 61.822702306655628 -53.739616879051027 0 0 0 0 -52.66618990803272 9.6684011163633841 0 9.6684011163633841 165.14893555880917 0 0 0 0 0.69132329101489631 -38.715210614996522 0 -38.715210614996522 194.96946091509017 0 0 0 0 10.122352284431031 10.363217225850349 0 10.363217225850349 139.05872934689978 0 0 0 0 -38.893585097342111 65.947398182495817 0 65.947398182495817 58.667582458863762 0 0 0 0 9.0609606183720643 7.5360976087358722 0 7.5360976087358722 51.990748364165484 0 0 0 0 30.028694846979306 38.70382048547981 0 38.70382048547981 218.80781358863533 0 0 0 0 24.302891045104843 60.721603117010091 0 60.721603117010091 166.94134051701985 0 0 0 0 158.19665873358917 115.10115718704037 0 115.10115718704037 71.242547218298569 0 0 0 0 36.001811846002056 87.135204796033577 0 87.135204796033577 509.11880662135081 0 0 0 0 26.339815178037497 6.492811353491561 0 6.492811353491561 191.98710315122662 0 0 0 0 -49.029842363339412 39.880657277935825 0 39.880657277935825 -46.411812666090555 0 0 0 0 -7.1728575844469908 0.34861873501344576 0 0.34861873501344576 0.63950591332302764 0 0 0 0 6.0968576526302058 7.8731576663885789 0 7.8731576663885789 293.214216825123 0 0 0 0 -1.9126015644367804 -0.096379857182185447 0 -0.096379857182185447 0.17921827065562468 0 0 0 0 -58.578295066769385 -81.112467985355693 0 -81.112467985355693 158.10092107326636 0 0 0 0 57.298978503217768 -54.119598891520582 0 -54.119598891520582 139.50763510971592 0 0 0 0 -30.438884161816247 -72.087258541900383 0 -72.087258541900383 109.27939995483757 0 0 0 0 71.93608335457543 333.24174905520704 0 333.24174905520704 311.36208322626771 0 0 0 0 128.63136296976563 269.53672317679957 0 269.53672317679957 -31.508828287758206 0 0 0 0 2.3844813047313558 2.8079899520462206 0 2.8079899520462206 3.9560487563752531 0 0 0 0 227.48630974714274 -349.23416372433894 0 -349.23416372433894 436.48462960569304 0 0 0 0 105.95601192583945 182.15970701930564 0 182.15970701930564 -240.70358188316823 0 0 0 0 -75.933006344566365 233.61548888906145 0 233.61548888906145 622.48806942565716 0 0 0 0 526.52377436689494 147.725589571608 0 147.725589571608 149.38773539477552 0 0 0 0 279.16302896146362 109.25392902917883 0 109.25392902917883 129.65591241546645 0 0 0 0 163.83402158945864 166.96856206334269 0 166.96856206334269 154.83217885129125 0 0 0 0 153.30123566262182 158.58835073925366 0 158.58835073925366 181.59383871666068 0 0 0 0 118.13472611355337 133.55163505611563 0 133.55163505611563 182.78428483480388 0 0 0 0 148.91215406475476 95.390133231792788 0 95.390133231792788 118.36377376414748 0 0 0 0 140.10676082461487 98.687957130747236 0 98.687957130747236 130.7967902261953 0 0 0 0 56.700822313558319 102.38849240985292 0 102.38849240985292 118.00271895096375 0 0 0 0 7.7084515850426101 -8.4550085008527276 0 -8.4550085008527276 25.667356760575785 0 0 0 0 0.39759476565859586 95.682065692217293 0 95.682065692217293 118.8596610262739 0 0 0 0 35.073170104786186 71.219121328602341 0 71.219121328602341 46.562775419231912 0 0 0 0 13.243613361715688 157.61807402049453 0 157.61807402049453 326.39554430746648 0 0 0 0 121.79642456326246 161.42919612684636 0 161.42919612684636 73.21880259594036 0 0 0 0 157.33431321258831 117.25816470593236 0 117.25816470593236 100.90578548706253 0 0 0 0 133.24044357311232 129.68895866879757 0 129.68895866879757 89.744899477005674 0 0 0 0 97.691762802795978 79.720462465945559 0 79.720462465945559 -51.258988493602374 0 0 0 0 97.487398430343092 87.284243691377924 0 87.284243691377924 61.677997597344074 0 0 0 0 138.13066026435331 267.49257452857319 0 267.49257452857319 -304.28166980810784 0 0 0 0 243.22725512407578 136.42367346833998 0 136.42367346833998 -54.619520136122446 0 0 0 0 234.64605738445698 248.54401036833951 0 248.54401036833951 139.88339324706976 0 0 0 0 -0.89206082405804565 -0.19547847578457578 0 -0.19547847578457578 3.311177014461407 0 0 0 0 131.86873082800048 9.1618716936754936 0 9.1618716936754936 -27.164678105327766 0 0 0 0 143.46116770693243 326.0709956436076 0 326.0709956436076 198.14052104634902 0 0 0 0 90.818839331897834 13.165067565631034 0 13.165067565631034 749.0474052605714 0 0 0 0 176.68466555937312 600.71313385936355 0 600.71313385936355 310.72240739395784 0 0 0 0 184.38472086453476 60.254114617637242 0 60.254114617637242 -132.33795731780992 0 0 0 0 -8.5053322338676551 -138.51345011016656 0 -138.51345011016656 -13.303565387315757 0 0 0 0 14.510572918906325 -10.818394889923823 0 -10.818394889923823 7.4262150684271546 0 0 0 0 -10.788902602786038 -50.561026647716062 0 -50.561026647716062 6.1364084100314358 0 0 0 0 -28.109144938162814 -5.1874093744881975 0 -5.1874093744881975 170.94490772388235 0 0 0 0 181.12492054360686 60.067580287497549 0 60.067580287497549 182.63970346978044 0 0 0 0 287.60849979474949 71.463689614980467 0 71.463689614980467 -34.540255490486743 0 0 0 0 107.4557271002989 -32.521672972528904 0 -32.521672972528904 -48.107448383809242 0 0 0 0 -42.300255358458344 -36.436985935844859 0 -36.436985935844859 229.39401983725838 0 0 0 0 -19.112245327556593 -119.56276763058122 0 -119.56276763058122 39.575846734194783 0 0 0 0 12.357746434184616 -9.0298470181657464 0 -9.0298470181657464 6.3869989883933016 0 0 0 0 -16.100010112219024 -31.579373992834007 0 -31.579373992834007 63.743571311097185 0 0 0 0 35.256808121761424 -70.61106246745112 0 -70.61106246745112 22.319520546705462 0 0 0 0 -10.705898686710952 -89.722187293884417 0 -89.722187293884417 221.29245949804317 0 0 0 0 14.611547075972503 13.566343658919337 0 13.566343658919337 10.550596030790615 0 0 0 0 96.464461348912664 -49.17261899386358 0 -49.17261899386358 236.27111068925296 0 0 0 0 -95.580605577617462 -185.66295239965257 0 -185.66295239965257 298.60936634576865 0 0 0 0 -101.16802603769429 77.047288470610511 0 77.047288470610511 13.413760204996379 0 0 0 0 -58.05778118755552 140.62879004830029 0 140.62879004830029 -78.533217614036403 0 0 0 0 106.49189009091879 -53.466739739502373 0 -53.466739739502373 99.578690818019822 0 0 0 0 14.082840715036127 -152.74067810551242 0 -152.74067810551242 266.44263251130178 0 0 0 0 8.9870503842444798 9.0692449099355628 0 9.0692449099355628 7.6622833523852876 0 0 0 0 -78.106182587541298 172.64698624071025 0 172.64698624071025 -164.21026589630492 0 0 0 0 -44.716308299493903 109.32412336453126 0 109.32412336453126 52.094096868202421 0 0 0 0 -124.77245681731893 58.062696374709049 0 58.062696374709049 23.872690311014594 0 0 0 0 -22.488784381586811 -4.1364789014096459 0 -4.1364789014096459 -104.66849418221318 0 0 0 0 -69.763644892375851 -5.8379723020043457 0 -5.8379723020043457 1028.6971511613337 0 0 0 0 3.8011373314676149 3.0147657613282917 0 3.0147657613282917 2.5303835975916229 0 0 0 0 75.323282893467422 40.239384929886 0 40.239384929886 463.05745767409826 0 0 0 0 80.268057132312606 89.646833644252183 0 89.646833644252183 286.2793429255762 0 0 0 0 59.434434856064399 202.50177349231672 0 202.50177349231672 433.6163645235938 0 0 0 0 188.196711216567 224.028043378137 0 224.028043378137 227.46400212086155 0 0 0 0 151.18520568669919 49.56959321492468 0 49.56959321492468 49.555596570993657 0 0 0 0 156.66926386737396 173.53197040694431 0 173.53197040694431 174.22411742232362 0 0 0 0 69.27357556384959 92.379394773524837 0 92.379394773524837 197.48691131546911 0 0 0 0 96.275353867176818 43.903196432323966 0 43.903196432323966 -96.447171993560914 0 0 0 0 -77.924153973871398 -24.710179575660732 0 -24.710179575660732 143.63549949388471 0 0 0 0 0.31773632800612361 1.1389475392858373 0 1.1389475392858373 1.223194083262193 0 0 0 0 21.147990219965777 12.051305047874848 0 12.051305047874848 167.67490791543969 0 0 0 0 18.360654606921344 45.776433914466907 0 45.776433914466907 514.16173716740377 0 0 0 0 20.336414323503959 12.295652773442271 0 12.295652773442271 143.02415949419446 0 0 0 0 0.5814063764746038 2.4724739993108358 0 2.4724739993108358 2.2950888349937699 0 0 0 0 12.297221654600435 63.531038737004565 0 63.531038737004565 -18.799632489070063 0 0 0 0 3.9894983499752925 -8.8549075518094469 0 -8.8549075518094469 211.7104474134685 0 0 0 0 -54.499731075085265 72.28089326924237 0 72.28089326924237 154.26439807917632 0 0 0 0 75.23372680193188 24.475051576806436 0 24.475051576806436 95.680688867050776 0 0 0 0 135.34500598405111 110.62706221910139 0 110.62706221910139 164.84968136728276 0 0 0 0 25.313360136522078 33.749242717403831 0 33.749242717403831 195.41526889210945 0 0 0 0 1.5300447989247488 0.74845086024369323 0 0.74845086024369323 0.18985121401851046 0 0 0 0 63.994009221260058 -37.349911072611576 0 -37.349911072611576 -1.1700971977800236 0 0 0 0 108.79327178055382 142.60194149752169 0 142.60194149752169 144.74734110503778 0 0 0 0 67.074770138304302 28.192042231305095 0 28.192042231305095 -34.304342783718312 0 0 0 0 3.7809471366058354 -1.3044398617986559 0 -1.3044398617986559 -2.9179471504365484 0 0 0 0 0.77681021928492555 -11.767736034951668 0 -11.767736034951668 -19.692577187881852 0 0 0 0 51.287125912458578 37.219567292238935 0 37.219567292238935 10.728065157229139 0 0 0 0 85.769477764259136 20.328475640573743 0 20.328475640573743 -30.997596966539277 0 0 0 0 19.764928481718016 37.608051963743492 0 37.608051963743492 91.337787503347499 0 0 0 0 28.189576499140458 99.281107113260077 0 99.281107113260077 168.54223416348395 0 0 0 0 127.04791217403181 84.512618416672922 0 84.512618416672922 6.543286845579587 0 0 0 0 64.497749307872255 3.6169646578746324 0 3.6169646578746324 29.110298378291191 0 0 0 0 42.693904554676919 63.51237284715171 0 63.51237284715171 67.711959874424792 0 0 0 0 -5.746110553296603 42.093487877813459 0 42.093487877813459 13.419494301808299 0 0 0 0 12.000095192927802 22.074962709328247 0 22.074962709328247 -69.764632671431173 0 0 0 0 3.0165856857911422 -3.2560339425617713 0 -3.2560339425617713 2.5096464230155107 0 0 0 0 15.766613925512143 0.90652762048550528 0 0.90652762048550528 16.744790375416699 0 0 0 0 -15.419796514128393 -74.896569852651737 0 -74.896569852651737 -104.95836015410896 0 0 0 0 7.5608183555751776 -1.0559964583581376 0 -1.0559964583581376 5.6302029647626597 0 0 0 0 -25.783390187090845 1.9383029500240809 0 1.9383029500240809 -30.893148773815483 0 0 0 0 84.796320705931066 33.821400641085347 0 33.821400641085347 -48.776251958639477 0 0 0 0 49.19579272392582 13.187196140203014 0 13.187196140203014 49.754225742901099 0 0 0 0 9.7947751718706648 2.9548623015375313 0 2.9548623015375313 1.9875226813308293 0 0 0 0 13.290737219706163 88.752600170682854 0 88.752600170682854 84.185627192040556 0 0 0 0 87.031130811933551 343.69149758282583 0 343.69149758282583 1127.0763820197972 0 0 0 0 1.7414287908316124 -0.62783270084900877 0 -0.62783270084900877 27.673633202329682 0 0 0 0 0.19227730365978968 -0.58974560596688619 0 -0.58974560596688619 10.655235128006595 0 0 0 0 695.49282364450482 883.1593409140005 0 883.1593409140005 844.87538126514846 0 0 0 0 247.14782515247526 1017.7305127262462 0 1017.7305127262462 3451.3676512526363 0 0 0 0 1399.5421519811209 2115.7550324536933 0 2115.7550324536933 2740.6789878812378 0 0 0 0 377.95468656078941 2040.9013305955123 0 2040.9013305955123 2869.5655714849026 0 0 0 0 700.2623237512729 1285.27119383217 0 1285.27119383217 3495.1527503888574 0 0 0 0 -441.26524293396551 452.80189335589421 0 452.80189335589421 2672.4932679153426 0 0 0 0 -62.913601257407777 -30.01363829706861 0 -30.01363829706861 98.065939147265453 0 0 0 0 16.021696237006633 8.054348356659645 0 8.054348356659645 -16.665452745949779 0 0 0 0 54.772287805078122 -8.9878789590729866 0 -8.9878789590729866 -33.131067329743018 0 0 0 0 3.3660217842980842 7.6077626961177884 0 7.6077626961177884 -31.384113236876146 0 0 0 0 474.57572479985913 -263.75214012404649 0 -263.75214012404649 604.94357677529479 0 0 0 0 12.874177015740221 11.260016140408354 0 11.260016140408354 -13.163844925634606 0 0 0 0 12.137226294126879 11.260616614097671 0 11.260616614097671 3491.4861824753207 0 0 0 0 1765.7018606942868 1572.0227447181478 0 1572.0227447181478 -120.22296132758493 0 0 0 0 7.1899984542309152 2.7264565945537385 0 2.7264565945537385 0.24097503538276044 0 0 0 0 11.44331415824047 32.167685537709048 0 32.167685537709048 46.168371855635314 0 0 0 0 1966.3381661846861 -854.16991171483096 0 -854.16991171483096 438.62419494404094 0 0 0 0 8.071482348347681 4.0888559663729183 0 4.0888559663729183 16.744152251657553 0 0 0 0 172.02228941546036 86.165110631620337 0 86.165110631620337 -69.307563548281905 0 0 0 0 7.8134852855882855 107.26184435569303 0 107.26184435569303 -71.492205338818621 0 0 0 0 77.446550877409976 -9.4620099593266787 0 -9.4620099593266787 53.219375139669864 0 0 0 0 1.8521717229335031 1.9583584516289818 0 1.9583584516289818 0.76106864470975655 0 0 0 0 4.3067659898008515 398.1689723685522 0 398.1689723685522 1855.4219629815823 0 0 0 0 39.174521637745329 26.158934523900825 0 26.158934523900825 985.30567977963494 0 0 0 0 162.37785241141586 88.465568825853552 0 88.465568825853552 983.76549192486698 0 0 0 0 328.12517933917593 35.788709777394615 0 35.788709777394615 181.64001520790043 0 0 0 0 256.86008179847437 177.75593796349131 0 177.75593796349131 113.77740921350778 0 0 0 0 -16.604639143342524 40.037751091600512 0 40.037751091600512 56.160955467115855 0 0 0 0 -60.010006245553086 -68.381821287781349 0 -68.381821287781349 33.645091107107874 0 0 0 0 73.192627212642037 1.9460615868338209 0 1.9460615868338209 -25.803549727803329 0 0 0 0 13.873738268625621 -10.073720216922972 0 -10.073720216922972 10.103895355063429 0 0 0 0 3.7554635003237777 -0.56064907764362815 0 -0.56064907764362815 3.0091558431089425 0 0 0 0 56.94775067372575 -95.411060992024431 0 -95.411060992024431 -15.184439023279992 0 0 0 0 -31.926835346902237 -30.102944127476803 0 -30.102944127476803 41.177019764640136 0 0 0 0 -5.2905410398880122 7.1639186773336405 0 7.1639186773336405 56.172350773151265 0 0 0 0 388.15887114959179 516.0725343378399 0 516.0725343378399 816.33625284056711 0 0 0 0 3.1777334168985871 3.4284300222888646 0 3.4284300222888646 5.6060826798543104 0 0 0 0 -169.07708201612871 384.19006708867164 0 384.19006708867164 2332.6189668660081 0 0 0 0 0.24584198929545664 377.74581390950334 0 377.74581390950334 1234.5331950398322 0 0 0 0 266.67349211336 1187.1039245256852 0 1187.1039245256852 2351.9076221539945 0 0 0 0 -61.078096839931625 1250.596329945598 0 1250.596329945598 3500.9312175133455 0 0 0 0 -331.35649805536792 724.15560717676817 0 724.15560717676817 2889.6842956137498 0 0 0 0 -521.92751931040902 326.03634438784138 0 326.03634438784138 3498.3657567829978 0 0 0 0 -342.90072494482865 634.43690813519243 0 634.43690813519243 2346.0258042364148 0 0 0 0 -455.49910563983178 -1.6876896997055155 0 -1.6876896997055155 2371.8172410743064 0 0 0 0 71.375838362090008 244.48943248347132 0 244.48943248347132 2187.9748509756027 0 0 0 0 -33.658907072420277 -367.76099847975274 0 -367.76099847975274 2074.4692572519052 0 0 0 0 -418.08200604190085 -132.02443761854556 0 -132.02443761854556 2218.0117708912003 0 0 0 0 -587.35981407267104 -644.75115192980229 0 -644.75115192980229 3500.8786713850955 0 0 0 0 -535.21267706338722 -885.60712998030431 0 -885.60712998030431 2085.373361371283 0 0 0 0 -465.67140738636579 -1371.1791028197786 0 -1371.1791028197786 3492.3361613586239 0 0 0 0 144.19185017764187 -211.49625903922606 0 -211.49625903922606 39.796152715673088 0 0 0 0 458.35225870820534 -788.15748508890465 0 -788.15748508890465 708.90350075869355 0 0 0 0 14.235243419659241 -791.30733923934167 0 -791.30733923934167 2100.1595629187677 0 0 0 0 -0.60488063159060346 -283.55959006998319 0 -283.55959006998319 1036.5397319009498 0 0 0 0 279.58809240182882 -368.37163061921456 0 -368.37163061921456 823.39864250805113 0 0 0 0 150.17296113204526 3.1290530254664191 0 3.1290530254664191 405.08230425876718 0 0 0 0 -32.551650398827611 -131.53269596028622 0 -131.53269596028622 334.15128074219683 0 0 0 0 -66.026327125767125 17.825661123849386 0 17.825661123849386 65.350694935405045 0 0 0 0 122.79973418975649 149.68569686134288 0 149.68569686134288 126.88087949898181 0 0 0 0 -108.42811987551534 69.672620098127481 0 69.672620098127481 -39.87530216309824 0 0 0 0 -108.38992817929751 72.844060133740356 0 72.844060133740356 120.15305740378972 0 0 0 0 131.42027527799573 111.80254077439167 0 111.80254077439167 -16.391042741619458 0 0 0 0 123.33237508353486 106.72435676137684 0 106.72435676137684 118.61205612154026 0 0 0 0 208.44608357517475 108.00861617085502 0 108.00861617085502 452.43872984435438 0 0 0 0 253.27210578499825 -3.3529331631070818 0 -3.3529331631070818 100.1912294813319 0 0 0 0 973.4038354152417 694.70018968988734 0 694.70018968988734 408.35094851502799 0 0 0 0 850.23770540087583 662.48610121011734 0 662.48610121011734 615.5942298170412 0 0 0 0 909.1275696182197 454.93427742631502 0 454.93427742631502 116.98691517705447 0 0 0 0 -10.96253779389521 3.9812510018296194 0 3.9812510018296194 25.00153092670962 0 0 0 0 -600.89049296125086 140.34103706600581 0 140.34103706600581 7.139059318411455 0 0 0 0 -895.42905315340067 -288.87829807085654 0 -288.87829807085654 -42.730342397335335 0 0 0 0 -341.61570924399518 89.899412693623162 0 89.899412693623162 53.956854453834239 0 0 0 0 -351.46635106957677 14.305058233238015 0 14.305058233238015 7.0640365948784165 0 0 0 0 -426.84613602551906 -32.345551118538424 0 -32.345551118538424 197.20298186162108 0 0 0 0 -410.51318752985139 -89.155752211903746 0 -89.155752211903746 -167.00410546984494 0 0 0 0 -6.9086282693191921 -3.565380930553907 0 -3.565380930553907 85.497221824694833 0 0 0 0 -856.77817501360335 -153.45543529059796 0 -153.45543529059796 316.89121019835147 0 0 0 0 -604.39932830261353 144.79381049653603 0 144.79381049653603 369.96406798861426 0 0 0 0 -864.65722844352797 -103.63988097695983 0 -103.63988097695983 91.564666204511013 0 0 0 0 937.70694924927238 728.59431245550149 0 728.59431245550149 792.4823298946867 0 0 0 0 1956.8374063963176 2648.5096926052283 0 2648.5096926052283 3495.64894587647 0 0 0 0 1110.884197864543 731.60960310664086 0 731.60960310664086 650.66108643710322 0 0 0 0 2925.1680231183009 1858.326606891118 0 1858.326606891118 1065.9485812010098 0 0 0 0 952.43782550844958 -1669.5831505143324 0 -1669.5831505143324 1245.0271748459963 0 0 0 0 3833.5438766011603 2862.7486194285102 0 2862.7486194285102 1980.2261147760291 0 0 0 0 3.0953161343201967 1.5166771619660082 0 1.5166771619660082 35.182482744534809 0 0 0 0 854.20465615708679 1844.89083263047 0 1844.89083263047 2932.12467506752 0 0 0 0 16.629139171581311 1754.7728204835857 0 1754.7728204835857 3500.1904818598487 0 0 0 0 774.22446114858633 1615.2684959451362 0 1615.2684959451362 2151.817299011836 0 0 0 0 836.25669828326033 1725.9969876295399 0 1725.9969876295399 2145.0079738819259 0 0 0 0 -271.18001314797374 1154.5110180035736 0 1154.5110180035736 2586.8615831188363 0 0 0 0 -306.6760729962345 971.10474228981502 0 971.10474228981502 2228.545692671978 0 0 0 0 -4.1095617619400002 1062.164307874983 0 1062.164307874983 2100.4256062787608 0 0 0 0 372.82493548192969 1473.9654500540928 0 1473.9654500540928 2102.2657119072319 0 0 0 0 10.471948141230136 993.91917656323812 0 993.91917656323812 1545.1555751981359 0 0 0 0 390.40134542533008 1004.9267347738642 0 1004.9267347738642 1407.4790517309084 0 0 0 0 -79.514499448718425 610.67217741861896 0 610.67217741861896 1638.0697238455468 0 0 0 0 1467.3665834109686 1169.9832443396954 0 1169.9832443396954 889.48250054480741 0 0 0 0 814.40009754099765 928.43571372599581 0 928.43571372599581 967.20052860450232 0 0 0 0 566.75025809427541 1190.4980144297042 0 1190.4980144297042 1376.9120212303314 0 0 0 0 530.95124602488545 1122.668613517184 0 1122.668613517184 1412.7221324620259 0 0 0 0 393.22639246183286 830.99921781583544 0 830.99921781583544 971.87407126976177 0 0 0 0 856.37035405793802 824.89759320364828 0 824.89759320364828 710.6189071071276 0 0 0 0 433.78229757760346 723.62565649447788 0 723.62565649447788 822.34954984585056 0 0 0 0 690.11139620707399 656.82771658273123 0 656.82771658273123 694.31265658089251 0 0 0 0 614.71307653984331 654.3268511497954 0 654.3268511497954 646.40231994312489 0 0 0 0 668.45652284981952 445.42419300880283 0 445.42419300880283 392.69192945174291 0 0 0 0 -66.289477809230448 424.66236948245205 0 424.66236948245205 686.13413931708783 0 0 0 0 362.2749483124735 289.49905706137361 0 289.49905706137361 518.54551086273568 0 0 0 0 -28.114663762615237 -24.343872796540381 0 -24.343872796540381 55.362475793976046 0 0 0 0 620.68709374552191 661.14575837507437 0 661.14575837507437 661.52212482914911 0 0 0 0 0.92521038093751828 -13.535281505649685 0 -13.535281505649685 -9.6875948527775222 0 0 0 0 404.00659326431924 695.28794006991666 0 695.28794006991666 656.14648863206821 0 0 0 0 418.26211385502984 589.06847834680957 0 589.06847834680957 739.62185543362284 0 0 0 0 211.13275321399942 670.43581598751189 0 670.43581598751189 789.35492868340225 0 0 0 0 203.70500384075422 441.71217790080118 0 441.71217790080118 659.14069735410158 0 0 0 0 479.79302686775861 826.98200497222751 0 826.98200497222751 953.21803024127439 0 0 0 0 550.78928875256133 696.36895709054807 0 696.36895709054807 710.18066080924473 0 0 0 0 438.72170957747539 613.81106466554047 0 613.81106466554047 770.19748134494876 0 0 0 0 362.35700417266753 641.24722897096945 0 641.24722897096945 882.3536604154142 0 0 0 0 412.84597811736216 635.01448298470496 0 635.01448298470496 761.67735767431441 0 0 0 0 488.60306404085986 588.76669192778354 0 588.76669192778354 628.93904162858962 0 0 0 0 458.17423796705407 559.60164878736396 0 559.60164878736396 678.31498263047251 0 0 0 0 -77.290597515178888 -41.682013619676582 0 -41.682013619676582 36.856107810650428 0 0 0 0 -23.184196747015811 -4.4804272729826806 0 -4.4804272729826806 32.230821285562286 0 0 0 0 345.71166577058102 479.62910135436687 0 479.62910135436687 661.79463821015815 0 0 0 0 263.48599127365264 646.44586495628391 0 646.44586495628391 767.31868241910706 0 0 0 0 0.13509350384379104 -17.144674287932048 0 -17.144674287932048 22.861004944104934 0 0 0 0 1.6988989416843356 -20.215791250022477 0 -20.215791250022477 35.790243906575228 0 0 0 0 -24.135279420795939 -44.219570317329271 0 -44.219570317329271 19.775214809487807 0 0 0 0 -23.951997111510536 -29.119106319572893 0 -29.119106319572893 54.184697080123442 0 0 0 0 -20.52889682021646 -30.548135105207621 0 -30.548135105207621 38.544076611229684 0 0 0 0 -20.014655366788475 -32.729278818220337 0 -32.729278818220337 45.452957523870282 0 0 0 0 248.53686585492238 766.92919325240337 0 766.92919325240337 1188.480225884472 0 0 0 0 27.922040268565183 595.49820512212682 0 595.49820512212682 1117.2508908495947 0 0 0 0 234.57426384128783 666.19988404816104 0 666.19988404816104 1062.1032167085141 0 0 0 0 361.02503968076178 697.35379259611364 0 697.35379259611364 992.96635213654372 0 0 0 0 478.94456723373202 439.74792729649198 0 439.74792729649198 869.92116122049629 0 0 0 0 -2.8423178684240611 64.241274352563778 0 64.241274352563778 712.25043387507685 0 0 0 0 439.59304068958261 566.70613265069551 0 566.70613265069551 543.39349538930401 0 0 0 0 488.9520323801014 700.67284683043545 0 700.67284683043545 982.0151510714677 0 0 0 0 258.1915059755878 530.22525403265172 0 530.22525403265172 844.3650276665212 0 0 0 0 257.69634596909191 528.59359347072814 0 528.59359347072814 958.67906592471991 0 0 0 0 108.21593090665687 590.36283766827546 0 590.36283766827546 953.87129646067842 0 0 0 0 72.62165060903942 321.8690984621644 0 321.8690984621644 258.01912849178188 0 0 0 0 11.57327159437682 296.68784038734157 0 296.68784038734157 661.48738982484792 0 0 0 0 68.95670840267428 512.71882928670129 0 512.71882928670129 713.12844722671434 0 0 0 0 59.506074627423686 386.39709149845294 0 386.39709149845294 666.46925980024389 0 0 0 0 66.881148409996499 424.06497644468755 0 424.06497644468755 638.52626591073931 0 0 0 0 -59.973319761105358 29.178852639684919 0 29.178852639684919 217.04318101332319 0 0 0 0 201.2724363316463 408.63547316730546 0 408.63547316730546 80.730017122259596 0 0 0 0 -1.7844793943755621 3.7696313067608997 0 3.7696313067608997 10.753879186859081 0 0 0 0 133.56588870631447 328.73905284505599 0 328.73905284505599 508.96813454703079 0 0 0 0 332.4540811616107 421.40882446196338 0 421.40882446196338 547.61884647086845 0 0 0 0 -1.2205052949301407 -5.3139380248153429 0 -5.3139380248153429 -2.1622183496121465 0 0 0 0 -45.801445174829496 21.907512503865291 0 21.907512503865291 81.954944933168008 0 0 0 0 -15.311007414452803 -7.2732524720100429 0 -7.2732524720100429 34.526421802194733 0 0 0 0 -15.559024481786764 -46.210976297559682 0 -46.210976297559682 35.766662123831338 0 0 0 0 -58.053521652366726 -37.257112441438949 0 -37.257112441438949 94.382595293267514 0 0 0 0 -4.373954094806777 -13.572182277202955 0 -13.572182277202955 11.559610731666908 0 0 0 0 -10.833483746119327 16.703350083253099 0 16.703350083253099 10.617511251737596 0 0 0 0 -95.932462805763862 1.8920336457631493 0 1.8920336457631493 19.706858208563062 0 0 0 0 -334.02305433803616 -46.311660481158469 0 -46.311660481158469 57.555734931142069 0 0 0 0 -9.3149384147234411 -3.7719930359696434 0 -3.7719930359696434 54.601309085431296 0 0 0 0 -67.378945548438423 -28.868676057812991 0 -28.868676057812991 31.541948321799282 0 0 0 0 -32.915565614503976 14.155378873394511 0 14.155378873394511 6.0608901753439568 0 0 0 0 -62.611141998328094 -2.1281115081219468 0 -2.1281115081219468 17.340822422491328 0 0 0 0 -61.03458141358351 0.69776086192723596 0 0.69776086192723596 -32.644829060183838 0 0 0 0 -51.589470417984558 1.2950984969065757 0 1.2950984969065757 68.206330918095773 0 0 0 0 -49.417925765896598 2.4445927648521319 0 2.4445927648521319 -8.0377977335010655 0 0 0 0 -403.34165634319459 203.62778085102764 0 203.62778085102764 495.92485492493142 0 0 0 0 -177.0414185968931 642.11119081551806 0 642.11119081551806 524.28399260988226 0 0 0 0 371.9214180446773 966.71552186383451 0 966.71552186383451 530.07838288263883 0 0 0 0 453.42208775695536 191.46513809290718 0 191.46513809290718 252.37878715957049 0 0 0 0 160.37372753798559 10.444382373301778 0 10.444382373301778 210.8022647597536 0 0 0 0 68.808031636318447 89.694948849239154 0 89.694948849239154 305.97595185009413 0 0 0 0 13.238574523297643 193.91661426248174 0 193.91661426248174 393.86680786166107 0 0 0 0 58.208653331388973 125.85586214438808 0 125.85586214438808 267.65666204245645 0 0 0 0 39.040019612882588 -6.0776200739128399 0 -6.0776200739128399 -20.592040363993874 0 0 0 0 -3.6731874422343935 -6.7719767674025206 0 -6.7719767674025206 2.3147317224465951 0 0 0 0 2.5488170181573793 -32.228870010173978 0 -32.228870010173978 -26.19798684635316 0 0 0 0 -32.545472093370336 8.3313325531344162 0 8.3313325531344162 35.116604167647893 0 0 0 0 -44.177727571493961 -47.133279639412649 0 -47.133279639412649 4.6566065784281818 0 0 0 0 -95.874795376370059 -127.67119089305379 0 -127.67119089305379 78.703102802421199 0 0 0 0 5.4205526543859186 -13.970968451120044 0 -13.970968451120044 40.737246217357779 0 0 0 0 -119.3885388450999 -59.754601484106388 0 -59.754601484106388 42.95561375561374 0 0 0 0 110.51684757087077 50.453780979440126 0 50.453780979440126 -167.86887902696617 0 0 0 0 -13.049697574712354 -15.646865946993785 0 -15.646865946993785 84.497051802954957 0 0 0 0 -0.12334883991758172 -2.3392285792555541 0 -2.3392285792555541 33.801548962837643 0 0 0 0 24.423598107292719 19.410919094501878 0 19.410919094501878 26.630921010801103 0 0 0 0 -462.0638273730375 -41.443811553108389 0 -41.443811553108389 142.71431211005256 0 0 0 0 -304.12548431378366 103.36178320721956 0 103.36178320721956 86.343262961247092 0 0 0 0 -141.62328913745162 -12.095039303725571 0 -12.095039303725571 71.899635523339384 0 0 0 0 -515.71345548629643 -166.72582071141005 0 -166.72582071141005 130.23474312171311 0 0 0 0 0.53817456123005869 -6.3517619387982762 0 -6.3517619387982762 40.476933981684454 0 0 0 0 -273.57063403814766 -216.50020011456945 0 -216.50020011456945 -11.761254272212682 0 0 0 0 -187.7648263911646 27.389833425026154 0 27.389833425026154 110.18430214619366 0 0 0 0 -89.438267329348506 138.79453971693147 0 138.79453971693147 391.51872479956728 0 0 0 0 130.6118841765196 -155.0967906818787 0 -155.0967906818787 87.2259196470186 0 0 0 0 2.1547258058504606 -1.7745606750171845 0 -1.7745606750171845 2.1461831916030576 0 0 0 0 107.56443808760241 85.183464920106417 0 85.183464920106417 54.094136250118027 0 0 0 0 16.392569520090092 -14.756152746398584 0 -14.756152746398584 149.47156831654047 0 0 0 0 7.8289560139778063 -5.5166586039129655 0 -5.5166586039129655 4.2491284966108083 0 0 0 0 33.885210741120147 35.643043127445708 0 35.643043127445708 74.250762597588619 0 0 0 0 356.72885969107244 267.89385163027237 0 267.89385163027237 150.32873693581496 0 0 0 0 199.71392274891224 93.925632999464142 0 93.925632999464142 6.9176959535834612 0 0 0 0 -7.2426067189181254 114.83150487975581 0 114.83150487975581 16.718451027340052 0 0 0 0 214.7238931980657 162.4969299344084 0 162.4969299344084 29.102485839015571 0 0 0 0 218.49878169379338 107.21125669392859 0 107.21125669392859 -1.817597682134874 0 0 0 0 156.87708904048924 126.00441414762099 0 126.00441414762099 8.5567700711399084 0 0 0 0 261.39104383349201 114.05777777813455 0 114.05777777813455 -9.4272961345704971 0 0 0 0 154.03881663222785 113.13597141526407 0 113.13597141526407 -47.291070163810218 0 0 0 0 -49.252629822954304 88.888683215755464 0 88.888683215755464 -26.776631314205588 0 0 0 0 -53.218508340521851 115.01240163970442 0 115.01240163970442 27.297667405888205 0 0 0 0 -443.9075790576544 -53.089595548397483 0 -53.089595548397483 59.551705039222725 0 0 0 0 -320.70311190483022 -30.917463035024412 0 -30.917463035024412 -0.58660976628743811 0 0 0 0 -465.16217726799402 34.845701939018909 0 34.845701939018909 86.864969977628789 0 0 0 0 -502.25095949756184 -162.58493181382983 0 -162.58493181382983 84.442322368828172 0 0 0 0 545.33764939978209 196.65381522672396 0 196.65381522672396 308.78115518772393 0 0 0 0 -28.823970524080323 -21.949584556106856 0 -21.949584556106856 52.234245054147323 0 0 0 0 -0.40558434459523474 -13.995752267482803 0 -13.995752267482803 41.548045307463809 0 0 0 0 -17.412827533678357 -15.4998102664253 0 -15.4998102664253 53.938858692878512 0 0 0 0 -29.04095080168463 -22.460653052432463 0 -22.460653052432463 53.830930353316944 0 0 0 0 -28.60867528338099 -22.088467756067985 0 -22.088467756067985 48.963036311484757 0 0 0 0 -279.07030357107067 -22.879648453259506 0 -22.879648453259506 -131.92007052939152 0 0 0 0 -25.074159840856737 -25.235393744620524 0 -25.235393744620524 40.935739242311683 0 0 0 0 -230.99305383770056 -149.63239607529613 0 -149.63239607529613 27.997565545047109 0 0 0 0 -32.89539558044018 95.674339850980687 0 95.674339850980687 36.481534844719135 0 0 0 0 -28.440663362501311 34.100345041908895 0 34.100345041908895 -37.684694734758523 0 0 0 0 -0.20477158213547475 7.5064390444094897 0 7.5064390444094897 2704.2757846626482 0 0 0 0 -471.68274193147801 261.84222753176073 0 261.84222753176073 3496.9016432319549 0 0 0 0 237.81764967472103 444.65618694895238 0 444.65618694895238 3487.6915520888506 0 0 0 0 305.00426937882884 128.48290315260238 0 128.48290315260238 -372.74423749527341 0 0 0 0 -371.09730618999833 -279.54614031149504 0 -279.54614031149504 1780.1330463332561 0 0 0 0 -233.8800283238964 -876.33849451081551 0 -876.33849451081551 4333.2206952407178 0 0 0 0 1.1118177219149863 5.4020773365875385 0 5.4020773365875385 11.717463153858773 0 0 0 0 -578.80148607775641 409.00386916760181 0 409.00386916760181 1439.7468374136006 0 0 0 0 2.0886119003183263 12.795843209873112 0 12.795843209873112 20.622013940909738 0 0 0 0 -1042.2409885021366 -119.49556249494708 0 -119.49556249494708 2963.0916244949331 0 0 0 0 -391.84069640854386 548.01189842706481 0 548.01189842706481 1688.7242836713085 0 0 0 0 -795.43956950943675 639.44029761907223 0 639.44029761907223 3067.3949628723935 0 0 0 0 -930.13522571070109 570.49221370424493 0 570.49221370424493 3500.2638365729763 0 0 0 0 -436.36802379755943 1007.9639682470261 0 1007.9639682470261 2692.0635303465424 0 0 0 0 -420.32189699282208 502.98013285626439 0 502.98013285626439 2108.2974625293464 0 0 0 0 -84.878494294225561 555.91911833800896 0 555.91911833800896 1256.6242465528121 0 0 0 0 -92.253434086671859 684.35890682785976 0 684.35890682785976 1247.8513690987038 0 0 0 0 -175.83001179271682 667.92761714099856 0 667.92761714099856 2002.0039560761361 0 0 0 0 -177.76010754369486 613.81898031214951 0 613.81898031214951 1206.0398136261501 0 0 0 0 40.040175283960707 601.64695616112658 0 601.64695616112658 1067.8032590879302 0 0 0 0 -62.731786257867498 452.73028285481269 0 452.73028285481269 1086.7875286716899 0 0 0 0 -76.867446261659325 309.92663994387112 0 309.92663994387112 778.01078785157006 0 0 0 0 38.384138511530523 343.3034693418922 0 343.3034693418922 685.82746831321856 0 0 0 0 7.5633093072592601 75.406110633630306 0 75.406110633630306 556.49969403513387 0 0 0 0 95.013271377597903 138.89364409541304 0 138.89364409541304 361.21200754962047 0 0 0 0 110.04410658082247 94.671048830066866 0 94.671048830066866 355.20440745266387 0 0 0 0 14.808118882739109 170.89807847623888 0 170.89807847623888 326.25428482114512 0 0 0 0 -24.10918790798496 66.693823205234366 0 66.693823205234366 363.35467006469389 0 0 0 0 75.044543838457685 101.32267031515221 0 101.32267031515221 305.83346576233453 0 0 0 0 -19.282004664751184 144.41781361765243 0 144.41781361765243 699.06244889293157 0 0 0 0 -103.48431666874956 311.44988067861595 0 311.44988067861595 1419.371036440265 0 0 0 0 65.440752784632423 109.2684645624031 0 109.2684645624031 709.82201675121905 0 0 0 0 53.637089380865746 -22.085824807876634 0 -22.085824807876634 1322.4511615026713 0 0 0 0 299.33923776339407 419.33549520516681 0 419.33549520516681 1107.2263451720864 0 0 0 0 -300.3493653561186 -271.86321321258583 0 -271.86321321258583 814.43897979924805 0 0 0 0 256.08580416132691 -71.231209199231671 0 -71.231209199231671 -45.69867379162315 0 0 0 0 2.2276425706846537 7.1626553355864644 0 7.1626553355864644 9.8382790783812197 0 0 0 0 210.91048175931604 -271.03543482616806 0 -271.03543482616806 546.61944841455261 0 0 0 0 -64.039471158448151 459.30568605988447 0 459.30568605988447 724.35348663188051 0 0 0 0 6.1427310249933953 -47.636193883758096 0 -47.636193883758096 881.72725866876135 0 0 0 0 -282.47309876215741 311.46528168094301 0 311.46528168094301 2729.363478247993 0 0 0 0 -408.60098605699864 -170.02608838492961 0 -170.02608838492961 579.14529840243631 0 0 0 0 -333.10430141584993 -712.71267578013794 0 -712.71267578013794 3170.2249047892255 0 0 0 0 0.87710616886745196 6.5038265218311153 0 6.5038265218311153 11.241922998182815 0 0 0 0 -651.72667420002858 1504.0873034159195 0 1504.0873034159195 606.72317510779249 0 0 0 0 0.20536537558184026 -40.383472070359858 0 -40.383472070359858 500.67931894319918 0 0 0 0 -255.27784034021624 469.99979883592459 0 469.99979883592459 926.3320295326339 0 0 0 0 132.74293034328701 -158.29905657560448 0 -158.29905657560448 977.39458705630341 0 0 0 0 -53.40782913028977 354.2934961178762 0 354.2934961178762 2385.5771129030036 0 0 0 0 -294.18881316892475 -393.19215966741194 0 -393.19215966741194 2198.392349812988 0 0 0 0 -342.00129016792903 -616.56401333438225 0 -616.56401333438225 2981.704138141693 0 0 0 0 -184.27849192314318 -369.44846114116808 0 -369.44846114116808 2203.5167576995227 0 0 0 0 336.97738818357089 -756.27397989427755 0 -756.27397989427755 336.47501057809859 0 0 0 0 0.6971082305069296 2.9400567131061308 0 2.9400567131061308 6.423491838585818 0 0 0 0 -158.67121689618148 416.88532907010631 0 416.88532907010631 71.021624969056575 0 0 0 0 -138.7562349396606 442.54413820587797 0 442.54413820587797 -141.87952428024073 0 0 0 0 -182.42374232102088 131.81309900376073 0 131.81309900376073 310.65974323837872 0 0 0 0 -162.4224483133695 109.74098039562523 0 109.74098039562523 -218.11509431946979 0 0 0 0 0.73281426323546039 3.5438951473673228 0 3.5438951473673228 7.3924000119334607 0 0 0 0 62.10965679370247 884.83374239390832 0 884.83374239390832 1818.9541429564124 0 0 0 0 -223.94651279843501 205.35026536581245 0 205.35026536581245 1588.4944677687236 0 0 0 0 -335.05960690518981 383.88922016266042 0 383.88922016266042 1712.0421027836419 0 0 0 0 141.16484936151568 -285.35612930413527 0 -285.35612930413527 1479.9514805348444 0 0 0 0 165.59198131264927 193.39441979576895 0 193.39441979576895 1037.9040152905218 0 0 0 0 -15.509345674205548 -78.486893974582927 0 -78.486893974582927 169.27682659920538 0 0 0 0 0.034880559573929076 -82.394746571753785 0 -82.394746571753785 145.91030819765001 0 0 0 0 89.042133468064989 56.47485823243187 0 56.47485823243187 146.29095014852646 0 0 0 0 -96.469870482277372 43.591745146573885 0 43.591745146573885 13.805981999379583 0 0 0 0 -42.931173269798137 -103.40158730084659 0 -103.40158730084659 114.56152990131523 0 0 0 0 -267.46920792427977 -8.9259060892291018 0 -8.9259060892291018 58.503748487011762 0 0 0 0 -278.4958065723618 180.49244137438632 0 180.49244137438632 -29.668928054059506 0 0 0 0 -105.8041508192716 57.555825875640949 0 57.555825875640949 -35.977017590776086 0 0 0 0 -165.37324553813801 -2.3769041596824536 0 -2.3769041596824536 122.47697683687875 0 0 0 0 -43.943583539742519 -58.338145765068475 0 -58.338145765068475 88.567497852181987 0 0 0 0 -38.493730319847032 -43.211723071826782 0 -43.211723071826782 125.4659962821388 0 0 0 0 -39.671322276458852 -29.809490221443411 0 -29.809490221443411 95.55035632239742 0 0 0 0 -62.567375562012614 15.501896807665617 0 15.501896807665617 60.697803611998097 0 0 0 0 -56.419190426791261 18.713603082964255 0 18.713603082964255 48.01340531421738 0 0 0 0 -45.594859134542133 12.700258236738591 0 12.700258236738591 48.131087023095461 0 0 0 0 -42.059388600651232 21.129132951318752 0 21.129132951318752 47.700648650738003 0 0 0 0 -90.49258064063099 73.116587674936454 0 73.116587674936454 4.0064262270570907 0 0 0 0 -101.62344996978061 14.98491938227744 0 14.98491938227744 61.306678923407162 0 0 0 0 -85.810164260033105 21.817613262739542 0 21.817613262739542 61.739531523868209 0 0 0 0 2.2562102369166643 8.9409826576031435 0 8.9409826576031435 17.28689747998817 0 0 0 0 -107.11917064302088 -70.073644297634019 0 -70.073644297634019 595.31296987603673 0 0 0 0 190.17296534385684 -557.62883608681477 0 -557.62883608681477 558.43860650956776 0 0 0 0 1.7170079330544885 3.0323263550973536 0 3.0323263550973536 3.727430475138533 0 0 0 0 5.2009630139410659 13.088962968512874 0 13.088962968512874 20.192554290684257 0 0 0 0 -11.034802346676543 295.55116046690455 0 295.55116046690455 353.08816820690117 0 0 0 0 183.98043915796643 -227.25811051425262 0 -227.25811051425262 31.540786699115415 0 0 0 0 306.77035535986442 -20.698524280523998 0 -20.698524280523998 -128.02208155402332 0 0 0 0 121.36320901818038 162.31048490853937 0 162.31048490853937 272.93100273332675 0 0 0 0 48.524029321737999 436.76316318342288 0 436.76316318342288 -148.881859978801 0 0 0 0 27.917227030750837 193.76254448889085 0 193.76254448889085 285.4553614857723 0 0 0 0 -50.922349698278595 -95.954233382923121 0 -95.954233382923121 396.67677456736783 0 0 0 0 -165.97186763476657 108.11530478423811 0 108.11530478423811 328.83615118738089 0 0 0 0 -36.237031968529664 31.732867918573902 0 31.732867918573902 -192.52895703993272 0 0 0 0 2.9096916593714588 -7.0567973623051046 0 -7.0567973623051046 13.308421715257282 0 0 0 0 -178.48726417058106 -257.3656656287385 0 -257.3656656287385 68.766150937677594 0 0 0 0 -79.949976667387745 -4.2036896513018291 0 -4.2036896513018291 -30.873371331050294 0 0 0 0 -53.5625839634248 -34.421178593088371 0 -34.421178593088371 3.6771477328729816 0 0 0 0 -8.2098825128418866 -33.718546636278916 0 -33.718546636278916 -100.63600328590837 0 0 0 0 -4.9600866631353222 -3.4549670105426955 0 -3.4549670105426955 50.411184529382581 0 0 0 0 77.352140375433919 -64.344503444634029 0 -64.344503444634029 -90.013477722677635 0 0 0 0 -42.724015866483569 -49.376488738213084 0 -49.376488738213084 -51.928006608301075 0 0 0 0 22.517190770341131 31.67686545234028 0 31.67686545234028 -125.69270981199952 0 0 0 0 83.157256573634186 24.460043341809069 0 24.460043341809069 -134.82129967075889 0 0 0 0 -44.066653716556402 13.134924083467922 0 13.134924083467922 44.048558979586232 0 0 0 0 6.9623471444788567 9.1259050789584109 0 9.1259050789584109 26.334649127656178 0 0 0 0 -44.005508795926232 13.621544841765171 0 13.621544841765171 44.310031340763089 0 0 0 0 40.77831450079762 15.354356956122501 0 15.354356956122501 23.687003882601857 0 0 0 0 -13.09345862385544 3.4638008412730414 0 3.4638008412730414 48.320092983281938 0 0 0 0 -4.8104427668555125 -1.8439284070256221 0 -1.8439284070256221 48.997831622513928 0 0 0 0 -37.004724952789502 61.092743659028201 0 61.092743659028201 76.235982586862519 0 0 0 0 -52.200840027397476 -25.440596424065006 0 -25.440596424065006 57.332652914483333 0 0 0 0 -1.2893058289658592 3.4660308635888413 0 3.4660308635888413 74.748411575774099 0 0 0 0 5.4466053673484689 -7.7092280213619375 0 -7.7092280213619375 22.092061765307164 0 0 0 0 -6.8419070153253649 29.372118643503157 0 29.372118643503157 39.222278112532138 0 0 0 0 -229.61443691875616 38.851527951079333 0 38.851527951079333 58.625199040543521 0 0 0 0 -100.42987584494358 -7.1854234318961971 0 -7.1854234318961971 56.226286065750173 0 0 0 0 -309.67911557996422 -101.71919649730262 0 -101.71919649730262 77.03723799623549 0 0 0 0 -132.92170527876897 -64.679349877176719 0 -64.679349877176719 -13.273776754271239 0 0 0 0 -3.5241085326962081 13.462121662553187 0 13.462121662553187 41.448097306793528 0 0 0 0 1.7926995954348968 -31.347907961790042 0 -31.347907961790042 32.483336820203476 0 0 0 0 -392.29942339208355 -70.428333593503339 0 -70.428333593503339 34.081408524290964 0 0 0 0 -9.3847381146770097 -21.554417410517921 0 -21.554417410517921 9.6627778434580023 0 0 0 0 -6.4480484348683813 16.769710072551007 0 16.769710072551007 13.019242583343669 0 0 0 0 -755.45667465344013 -436.67961343265779 0 -436.67961343265779 83.429751703582951 0 0 0 0 -10.426112871532 -11.167510856387523 0 -11.167510856387523 19.950983039073179 0 0 0 0 -542.62013289907361 79.023473792445657 0 79.023473792445657 74.626825673214626 0 0 0 0 -92.261381573995095 -217.77136362050805 0 -217.77136362050805 57.671155610694768 0 0 0 0 -73.717691870225053 -22.666008768428583 0 -22.666008768428583 272.9273918622057 0 0 0 0 -4.5592595802817879 4.9427797583707473 0 4.9427797583707473 112.27052401939983 0 0 0 0 143.15854193515179 38.081777079351014 0 38.081777079351014 10.590656944856164 0 0 0 0 53.642445416905616 117.26214122811507 0 117.26214122811507 257.1839009593823 0 0 0 0 1.6576567995959977 2.1338147926848521 0 2.1338147926848521 4.1208698283617196 0 0 0 0 1.3307363885374872 -0.47073810654627835 0 -0.47073810654627835 7.7805838116752 0 0 0 0 143.03632034721949 273.79272553294618 0 273.79272553294618 173.83621659281198 0 0 0 0 -49.156914206573788 1.5550714696728392 0 1.5550714696728392 38.172110264575167 0 0 0 0 89.328477413450003 219.0006526279758 0 219.0006526279758 167.60270210623275 0 0 0 0 168.45511290937782 184.77060525765773 0 184.77060525765773 -26.958064367237967 0 0 0 0 -364.35594845288006 330.16393499960395 0 330.16393499960395 516.6806770284893 0 0 0 0 -431.40421957487536 -201.0351454520569 0 -201.0351454520569 164.74758058585576 0 0 0 0 129.1676955081316 13.325369494879851 0 13.325369494879851 -73.185660132556222 0 0 0 0 -196.0959007621741 -69.888494908445864 0 -69.888494908445864 17.725378720875597 0 0 0 0 87.60541427750718 118.63450230361195 0 118.63450230361195 -14.117261283216067 0 0 0 0 -112.19165357570409 98.308478617262153 0 98.308478617262153 63.552617240813561 0 0 0 0 89.034657733949075 78.512194402894238 0 78.512194402894238 78.711849564278964 0 0 0 0 -181.88526174210256 196.91126938720117 0 196.91126938720117 3.8176166686462238 0 0 0 0 -351.655937553135 132.33703477793824 0 132.33703477793824 80.340518656274071 0 0 0 0 1.9183672319713185 20.215035370320937 0 20.215035370320937 108.50765632683436 0 0 0 0 -463.55187382817439 23.974320926325163 0 23.974320926325163 303.15273426487693 0 0 0 0 -339.32945329033379 155.35209153494361 0 155.35209153494361 108.34197619956103 0 0 0 0 -397.44902711989016 -71.638180376176024 0 -71.638180376176024 444.95585245173424 0 0 0 0 -292.85671076478138 79.750216221131268 0 79.750216221131268 342.84649456800253 0 0 0 0 -426.78056402511629 -34.445936775387963 0 -34.445936775387963 246.61588652801584 0 0 0 0 -161.99387750800088 43.643070764795993 0 43.643070764795993 -0.67343329293362331 0 0 0 0 -447.43003246399758 120.24699190506362 0 120.24699190506362 150.53945749378181 0 0 0 0 3.9516292723142468 21.984025279614961 0 21.984025279614961 97.703924920061922 0 0 0 0 -486.62618071308498 272.6808151796431 0 272.6808151796431 740.52629629569128 0 0 0 0 -80.704507880749588 202.69038870665827 0 202.69038870665827 -5.8939793269528309 0 0 0 0 -233.99186386036672 246.73993696652906 0 246.73993696652906 96.00897440846893 0 0 0 0 -387.95063177597467 -341.12113942161523 0 -341.12113942161523 208.88465195877507 0 0 0 0 -103.46984759722091 191.14807998602191 0 191.14807998602191 111.88622620000388 0 0 0 0 235.24063797723369 44.280832845521218 0 44.280832845521218 183.47209365910385 0 0 0 0 -22.701728439391445 11.567136792538804 0 11.567136792538804 -74.572141026317695 0 0 0 0 -48.897899587846041 164.94256607630814 0 164.94256607630814 -90.134979055437725 0 0 0 0 1.3446332478108372 1.7935529670621833 0 1.7935529670621833 2.3497332746632651 0 0 0 0 745.60856897575798 -48.465287806844572 0 -48.465287806844572 -598.24249185720691 0 0 0 0 65.669584553902155 66.145580493299349 0 66.145580493299349 90.468988801439991 0 0 0 0 135.50031380603673 -348.15288129309192 0 -348.15288129309192 -145.49993593979161 0 0 0 0 77.050690844353085 -92.375709230575012 0 -92.375709230575012 5.2653004279127344 0 0 0 0 49.292453174805701 -54.191812579592806 0 -54.191812579592806 319.77274368217331 0 0 0 0 52.03534364395523 -13.300140919760452 0 -13.300140919760452 135.60732653554442 0 0 0 0 88.530132230707977 -54.633455026196316 0 -54.633455026196316 157.04751660827606 0 0 0 0 92.528708942770663 -63.560867803538713 0 -63.560867803538713 55.568006608285941 0 0 0 0 50.42339005891904 65.358517753586057 0 65.358517753586057 367.25663085340057 0 0 0 0 -53.121004519065664 -108.46471592296575 0 -108.46471592296575 291.28707602218492 0 0 0 0 -55.218048288323189 -60.374430017240229 0 -60.374430017240229 507.29060217477672 0 0 0 0 4.9539293048432 -276.53875785730997 0 -276.53875785730997 128.87678854502155 0 0 0 0 55.309664913513416 -5.6081549937080126 0 -5.6081549937080126 -137.12220312757563 0 0 0 0 39.533186689637546 -89.338648376455239 0 -89.338648376455239 237.36555735934235 0 0 0 0 26.565845938682074 -67.110890564867077 0 -67.110890564867077 263.51872845244361 0 0 0 0 70.416923590216584 -12.505540096492041 0 -12.505540096492041 427.04747501987731 0 0 0 0 77.591392194655867 -102.04321545461426 0 -102.04321545461426 325.61726906223339 0 0 0 0 50.647224163211945 -57.408092367662903 0 -57.408092367662903 256.95932483521756 0 0 0 0 85.921585350861619 -111.25122503642342 0 -111.25122503642342 288.81387366930721 0 0 0 0 87.613714354436297 -116.96328519983945 0 -116.96328519983945 174.73559302662034 0 0 0 0 115.28185627846904 -81.684082501866214 0 -81.684082501866214 274.64691172819767 0 0 0 0 113.08220859903685 -60.332306157047697 0 -60.332306157047697 303.28995686107373 0 0 0 0 17.74235231674254 -138.16908978558058 0 -138.16908978558058 95.000103577520349 0 0 0 0 9.6164979000041058 -105.97118679096457 0 -105.97118679096457 1.32257773791207 0 0 0 0 144.33572294147541 186.94540002421127 0 186.94540002421127 385.69433043700701 0 0 0 0 167.80711678428264 150.0574639929182 0 150.0574639929182 128.26391807012624 0 0 0 0 0.29430030177652799 -0.96413824905359036 0 -0.96413824905359036 1.1916814431619116 0 0 0 0 -38.356767888916494 9.4883506115475029 0 9.4883506115475029 -4.4099514790141257 0 0 0 0 -55.57330900470285 4.7272823626626632 0 4.7272823626626632 48.879025669200928 0 0 0 0 -15.471332342105825 -29.946884689481521 0 -29.946884689481521 63.45547824833875 0 0 0 0 -19.799376101076007 -30.234899041155586 0 -30.234899041155586 94.896130068300408 0 0 0 0 -0.07169439817698528 -55.743237712147675 0 -55.743237712147675 150.51459068906843 0 0 0 0 -23.190354653436437 -82.796447460301351 0 -82.796447460301351 171.52918406676326 0 0 0 0 10.610164996859567 -41.179898298432818 0 -41.179898298432818 69.540687364875339 0 0 0 0 -0.040540082966288082 -89.944018412734295 0 -89.944018412734295 129.21518811550459 0 0 0 0 44.033049350801065 -115.53603959719112 0 -115.53603959719112 185.71553216847315 0 0 0 0 7.4682970349240634 -52.621480361111026 0 -52.621480361111026 347.19141283676436 0 0 0 0 -8.3592199699406251 66.748017965794133 0 66.748017965794133 104.95071755055687 0 0 0 0 -32.608026437666638 -132.54879721260659 0 -132.54879721260659 267.61520935770386 0 0 0 0 -0.056742266144768683 0.10667559682783967 0 0.10667559682783967 1.4757905992098586 0 0 0 0 -35.343683992034414 52.234911757805094 0 52.234911757805094 286.48940243234392 0 0 0 0 -18.037004206135776 29.428006298156106 0 29.428006298156106 96.420453458122211 0 0 0 0 -39.320915204366742 -106.22645520046353 0 -106.22645520046353 342.72900547258905 0 0 0 0 -35.663701806124941 -79.269912003416266 0 -79.269912003416266 233.7607796160446 0 0 0 0 -8.8491861408191426 -26.50622620296781 0 -26.50622620296781 122.10345608158968 0 0 0 0 -29.976570634071152 0.70683032758824993 0 0.70683032758824993 250.35595629218005 0 0 0 0 -8.2651512355686396 -94.668613956609988 0 -94.668613956609988 178.28505252828472 0 0 0 0 -34.815226488276693 -66.550139510440204 0 -66.550139510440204 186.65565928135766 0 0 0 0 88.254360920322597 121.33575699586072 0 121.33575699586072 44.155303062771964 0 0 0 0 60.894237427118355 157.7358860732038 0 157.7358860732038 2.0798363912836066 0 0 0 0 -67.424563972654482 74.827460056076234 0 74.827460056076234 20.003430365701206 0 0 0 0 -89.10036827380145 138.64534634731535 0 138.64534634731535 -71.274995570742249 0 0 0 0 1.4935978725514154 4.7876138041192107 0 4.7876138041192107 15.869962434076825 0 0 0 0 -133.39356784376335 -51.62505058241004 0 -51.62505058241004 -44.125144197765621 0 0 0 0 -60.982721533158156 -226.22199861526315 0 -226.22199861526315 213.34855000025709 0 0 0 0 -281.10784145787193 134.65002973586161 0 134.65002973586161 54.777374755438359 0 0 0 0 220.39244787378493 -198.17101790106972 0 -198.17101790106972 59.918961327872239 0 0 0 0 377.15822211631854 42.949646047978604 0 42.949646047978604 -236.75891175954894 0 0 0 0 253.23390372694467 354.76186955449521 0 354.76186955449521 124.34189283648448 0 0 0 0 113.39329252800167 163.50484184856759 0 163.50484184856759 -26.180966680018173 0 0 0 0 88.552294471895834 193.58890849233285 0 193.58890849233285 17.989997908807709 0 0 0 0 163.21761452391593 261.57483278564905 0 261.57483278564905 66.888962992175948 0 0 0 0 275.64852669276854 336.84736622806668 0 336.84736622806668 12.371056003660669 0 0 0 0 114.53648053553161 290.34298590244725 0 290.34298590244725 216.33138823342233 0 0 0 0 109.65074093393332 340.85437052854832 0 340.85437052854832 189.38844180893648 0 0 0 0 118.74815125789519 282.78986427434575 0 282.78986427434575 136.34777009479876 0 0 0 0 75.040785907624468 301.91209940512636 0 301.91209940512636 214.20258071586068 0 0 0 0 65.047609857347197 196.60974956836071 0 196.60974956836071 470.41735077862904 0 0 0 0 156.37646295855529 79.903834770510002 0 79.903834770510002 217.8128653111271 0 0 0 0 258.00327227970365 -47.729026225879352 0 -47.729026225879352 350.33117414101434 0 0 0 0 109.59729026231287 178.61810705663447 0 178.61810705663447 190.39274838222627 0 0 0 0 106.82184653986849 221.53861972902087 0 221.53861972902087 155.02785689563461 0 0 0 0 166.48488620119997 94.93793001118047 0 94.93793001118047 75.737274268882175 0 0 0 0 181.09592710308533 20.372319718177096 0 20.372319718177096 105.13474833554938 0 0 0 0 209.37273579713928 -7.7137993266369449 0 -7.7137993266369449 159.64740867379078 0 0 0 0 177.49514473678096 21.905269257233158 0 21.905269257233158 132.18126054110326 0 0 0 0 139.17602527459817 -15.109413704742082 0 -15.109413704742082 119.29747931926249 0 0 0 0 321.88330247786701 45.432912285821658 0 45.432912285821658 40.585379057556565 0 0 0 0 193.84422706589589 -46.67924545927599 0 -46.67924545927599 135.99387451504299 0 0 0 0 48.286101680811271 50.853249702062385 0 50.853249702062385 24.958683293531067 0 0 0 0 -83.746105144306171 93.157731345432694 0 93.157731345432694 73.806550412184151 0 0 0 0 89.116996846669849 103.9816200277528 0 103.9816200277528 65.720022892890483 0 0 0 0 -301.49598546125719 119.47711134255042 0 119.47711134255042 38.129102559425519 0 0 0 0 -272.90703861791076 57.845753798297665 0 57.845753798297665 82.008142415703333 0 0 0 0 -90.293609862735593 27.579656153655378 0 27.579656153655378 -43.984808490173236 0 0 0 0 -248.90382196300794 -32.12550764402522 0 -32.12550764402522 -10.80521804257296 0 0 0 0 -268.52550335913156 46.589204957250331 0 46.589204957250331 176.68957089849937 0 0 0 0 -64.52953999727788 157.7980399295302 0 157.7980399295302 60.88786549132783 0 0 0 0 127.72785613422684 11.868972320233297 0 11.868972320233297 -85.81737207819242 0 0 0 0 -0.5281516734633136 -2.7747152688361716 0 -2.7747152688361716 3.0442183803141631 0 0 0 0 41.371506846468492 73.446713707009621 0 73.446713707009621 67.420381644289591 0 0 0 0 23.073512061486326 139.19768642385316 0 139.19768642385316 -120.69224389244482 0 0 0 0 -132.96777421479146 157.85731824066897 0 157.85731824066897 139.98589137925592 0 0 0 0 -77.263109922287413 -11.687819311220665 0 -11.687819311220665 291.20918950096893 0 0 0 0 141.43994071301393 -182.50124621490249 0 -182.50124621490249 159.85815149136033 0 0 0 0 0.5558051593020692 4.7583452251363703 0 4.7583452251363703 26.788610845353418 0 0 0 0 40.298129967247178 -36.086427236394229 0 -36.086427236394229 103.70987351328949 0 0 0 0 -0.048738122332566469 4.5795382865347101 0 4.5795382865347101 1.8572406745750527 0 0 0 0 6.259595228970511 -19.336507506690396 0 -19.336507506690396 95.144541284562365 0 0 0 0 0.7657147277115941 -2.2971494065899876 0 -2.2971494065899876 5.1478757978521799 0 0 0 0 -5.1397371413117927 -3.5492986183199449 0 -3.5492986183199449 58.013242715780336 0 0 0 0 -238.00806883350941 -167.24613845408021 0 -167.24613845408021 74.70720497565344 0 0 0 0 -56.216196435434824 -71.583025100558643 0 -71.583025100558643 77.940369804040529 0 0 0 0 368.76032803820715 -450.41399004853156 0 -450.41399004853156 -422.9971706488941 0 0 0 0 -295.31431597397022 -23.217922805051785 0 -23.217922805051785 287.20292267846526 0 0 0 0 -50.237908476610755 -86.426769472760498 0 -86.426769472760498 225.35865147698314 0 0 0 0 -58.131288249088925 -44.116205769287262 0 -44.116205769287262 48.384527601185255 0 0 0 0 -213.20722205256425 -92.310284011735348 0 -92.310284011735348 122.82852934151015 0 0 0 0 4.5750549489493118 -13.870695828433391 0 -13.870695828433391 36.853756370689155 0 0 0 0 -42.992249417175117 -78.135046633775346 0 -78.135046633775346 83.51150398185564 0 0 0 0 -40.592596053182206 -58.876862121949671 0 -58.876862121949671 54.211977531427692 0 0 0 0 -51.741396050457865 -37.475367248186558 0 -37.475367248186558 44.396704992803279 0 0 0 0 -53.87630599793556 -56.924963871526415 0 -56.924963871526415 74.280318426106533 0 0 0 0 -53.645033362992763 -45.570552556324401 0 -45.570552556324401 26.60345476353541 0 0 0 0 -77.664487554869993 -51.961795902017911 0 -51.961795902017911 36.814129717626201 0 0 0 0 -60.14217529329926 -36.709820019299514 0 -36.709820019299514 46.247556810849346 0 0 0 0 -80.827807058059989 -76.380695973988622 0 -76.380695973988622 -47.996481427768231 0 0 0 0 -73.408322515754207 -318.37878740445467 0 -318.37878740445467 556.03324159581098 0 0 0 0 26.450147772336095 147.92394116576907 0 147.92394116576907 -433.49075129168341 0 0 0 0 -198.76281506132875 152.20280214478862 0 152.20280214478862 343.56849767745007 0 0 0 0 -62.75581747762817 -105.57001503347419 0 -105.57001503347419 -206.9471382772972 0 0 0 0 -86.812864755243027 -77.24325788340866 0 -77.24325788340866 139.14710274530808 0 0 0 0 -75.956785744669105 -20.874529673164943 0 -20.874529673164943 266.68933225123328 0 0 0 0 -33.354872909597248 -83.355858701340367 0 -83.355858701340367 70.656980724656023 0 0 0 0 -39.066462272296121 -46.444396772407345 0 -46.444396772407345 133.14362340666412 0 0 0 0 -33.551145826477295 -41.984120619279565 0 -41.984120619279565 126.3444626640412 0 0 0 0 -11.898403875316944 18.572733787121251 0 18.572733787121251 211.83003294013906 0 0 0 0 4.0860808385623386 169.54288995953539 0 169.54288995953539 244.35933767620099 0 0 0 0 24.128877020320488 -7.4662456526348251 0 -7.4662456526348251 -8.649577407311881 0 0 0 0 1.835664125646435 -1.1943340208556492 0 -1.1943340208556492 -0.19913887641814654 0 0 0 0 61.876255905963262 156.20963728389324 0 156.20963728389324 98.37515953645925 0 0 0 0 80.126423905190677 122.14240468094795 0 122.14240468094795 18.845486092048304 0 0 0 0 -14.62250116240557 14.055488750105724 0 14.055488750105724 104.50657974369824 0 0 0 0 -120.6676420565509 -141.98112392201438 0 -141.98112392201438 14.1816664996295 0 0 0 0 5.5218278860925913 2.7645321160643306 0 2.7645321160643306 13.13984517070574 0 0 0 0 -144.58302771964736 -92.509900278470013 0 -92.509900278470013 49.221626005484723 0 0 0 0 3.150651958368075 -9.7762949727832549 0 -9.7762949727832549 26.213048819807057 0 0 0 0 -169.51886334834762 -158.11046028891724 0 -158.11046028891724 -104.45226772844035 0 0 0 0 -229.35725777948846 -95.617856329254209 0 -95.617856329254209 -55.970218005160859 0 0 0 0 -23.79081713761525 -225.21655491865386 0 -225.21655491865386 12.250649559493468 0 0 0 0 39.732376559913973 154.61904487051652 0 154.61904487051652 69.726181262966747 0 0 0 0 -100.64504412168753 -43.4265038227677 0 -43.4265038227677 76.705808762526431 0 0 0 0 62.573360235985092 -34.376921678107465 0 -34.376921678107465 26.592417323365225 0 0 0 0 -64.682714079861398 -137.74587929713016 0 -137.74587929713016 64.940274546464934 0 0 0 0 143.76400613496094 -41.86678931635106 0 -41.86678931635106 33.931632593041286 0 0 0 0 52.133511778732782 -51.675490250978328 0 -51.675490250978328 57.952555806536111 0 0 0 0 1.3243995558026396 2.0151477932093229 0 2.0151477932093229 3.6191720122260165 0 0 0 0 63.301444046172087 -15.575574795094326 0 -15.575574795094326 -244.09794828134181 0 0 0 0 56.931131529800268 13.335336619376903 0 13.335336619376903 -229.64685520263811 0 0 0 0 14.051604969935397 -255.87312069865948 0 -255.87312069865948 201.23422393520013 0 0 0 0 -163.40395972302804 164.34418027918218 0 164.34418027918218 885.36664573654707 0 0 0 0 -74.891392335712453 -19.291495031287923 0 -19.291495031287923 141.42252779497358 0 0 0 0 -14.916065816245563 536.56177658726597 0 536.56177658726597 561.95666694860847 0 0 0 0 1.4382556879113999 4.0450688245975144 0 4.0450688245975144 9.3508483381352789 0 0 0 0 2.1944862967096697 -361.12797165153461 0 -361.12797165153461 -36.87080247283302 0 0 0 0 -204.00455356947433 -286.74568539184111 0 -286.74568539184111 -41.615451180492528 0 0 0 0 -0.38206873766785288 -2.0844639892919119 0 -2.0844639892919119 7.8684171369623073 0 0 0 0 -256.08723489561379 -468.66067686639508 0 -468.66067686639508 56.72468635669793 0 0 0 0 367.63374018307559 544.16136838078091 0 544.16136838078091 581.50704186297662 0 0 0 0 -150.67231755672782 -491.32666621978569 0 -491.32666621978569 43.914550307956233 0 0 0 0 -223.11023782685868 74.880519000456843 0 74.880519000456843 132.61598572498951 0 0 0 0 34.566123775437546 -508.92432057658698 0 -508.92432057658698 588.00014933072816 0 0 0 0 -4.6214056198528084 267.58485940572973 0 267.58485940572973 1011.6700643393851 0 0 0 0 1.0650209512363942 -3.0506301394727942 0 -3.0506301394727942 9.6390875654946342 0 0 0 0 369.30258179865541 -126.88561327713251 0 -126.88561327713251 -168.58310577723023 0 0 0 0 -672.87408444483299 269.24647000192817 0 269.24647000192817 927.49538443199708 0 0 0 0 115.76411896087484 -707.76436199543241 0 -707.76436199543241 -27.521563855902059 0 0 0 0 -584.51956419976386 -237.34405502117352 0 -237.34405502117352 86.452657715388341 0 0 0 0 -37.510451067906615 -252.46136343711987 0 -252.46136343711987 70.059932675329037 0 0 0 0 142.07124466685582 95.377368166708038 0 95.377368166708038 452.3450518919999 0 0 0 0 -129.96652492019916 96.282040222340584 0 96.282040222340584 515.80840378986613 0 0 0 0 97.661355468004558 178.28810597606935 0 178.28810597606935 308.28308567449858 0 0 0 0 245.82293758580636 81.378055048029637 0 81.378055048029637 217.46346476662438 0 0 0 0 239.3424529053018 57.601530876476318 0 57.601530876476318 231.19968752522254 0 0 0 0 463.30638054782867 -62.087739365786547 0 -62.087739365786547 312.43812446173251 0 0 0 0 216.34017670664889 71.328994386538398 0 71.328994386538398 253.18106696996983 0 0 0 0 200.54978768554611 112.07856871726108 0 112.07856871726108 131.02593578519736 0 0 0 0 292.88317738360274 20.296091937576421 0 20.296091937576421 171.89345124627289 0 0 0 0 252.62873287358798 88.617892486756318 0 88.617892486756318 97.071894150256412 0 0 0 0 206.83464298092258 293.19338298081129 0 293.19338298081129 220.08354367553693 0 0 0 0 -107.46628738238905 176.85564988659462 0 176.85564988659462 180.90540733246598 0 0 0 0 -308.00700115409461 194.2139585509949 0 194.2139585509949 343.61988705341355 0 0 0 0 437.82284726931175 581.14722151217575 0 581.14722151217575 539.7356729121384 0 0 0 0 66.416738741856534 94.298353912832681 0 94.298353912832681 -1.2545035530929454 0 0 0 0 -83.859655445594399 48.684084986627568 0 48.684084986627568 60.371517528983532 0 0 0 0 156.04738652297601 163.62673542223638 0 163.62673542223638 10.820250503878924 0 0 0 0 129.58399620608907 131.35032423399389 0 131.35032423399389 52.224305573108722 0 0 0 0 -11.098817683148809 131.60831736863474 0 131.60831736863474 85.742475539678708 0 0 0 0 -82.113250898602928 215.7579312465823 0 215.7579312465823 120.12353394698584 0 0 0 0 145.35391495449039 218.53052815306 0 218.53052815306 76.379862270478043 0 0 0 0 68.856448713977443 103.88449698220211 0 103.88449698220211 76.248115024063736 0 0 0 0 183.3104723108338 83.822646622309549 0 83.822646622309549 95.928428058716236 0 0 0 0 181.43439469831901 137.79773045999173 0 137.79773045999173 61.668929597857641 0 0 0 0 198.78021829245381 98.283776203399611 0 98.283776203399611 103.03957360962522 0 0 0 0 237.69671132631447 124.99637236386479 0 124.99637236386479 63.606960460077971 0 0 0 0 220.92646233037522 119.80719157025396 0 119.80719157025396 111.14314952224959 0 0 0 0 219.80332754020856 100.87754660396604 0 100.87754660396604 53.35543818588485 0 0 0 0 232.87116444393178 125.55219081407995 0 125.55219081407995 116.30536734610723 0 0 0 0 142.34676086238142 95.793112446874147 0 95.793112446874147 83.850534948753193 0 0 0 0 154.53468639147832 171.39472912071506 0 171.39472912071506 108.13562018537777 0 0 0 0 -0.17627928416944005 -4.1087315251741217 0 -4.1087315251741217 21.287593487068449 0 0 0 0 223.33901924724705 156.84703060548054 0 156.84703060548054 132.35078973055352 0 0 0 0 270.77045034676667 117.62397083606629 0 117.62397083606629 149.69776317983633 0 0 0 0 -409.76758159581641 -93.009265176664485 0 -93.009265176664485 93.207504932724987 0 0 0 0 580.69134246217072 80.102200583787635 0 80.102200583787635 103.23337698509567 0 0 0 0 -0.28979530169226209 -0.77263391782084057 0 -0.77263391782084057 1.5670266501292076 0 0 0 0 268.30552787112811 97.525942138890969 0 97.525942138890969 58.900474085108726 0 0 0 0 -251.98465798039229 7.1427673384096124 0 7.1427673384096124 -31.973415988890338 0 0 0 0 13.871190709836839 43.150288968921814 0 43.150288968921814 0.94609378033783287 0 0 0 0 12.804353914071612 36.809697677279473 0 36.809697677279473 27.181599448405905 0 0 0 0 -213.84601495386505 108.26871534875681 0 108.26871534875681 20.903056438844942 0 0 0 0 6.581013310286056 14.808809803891947 0 14.808809803891947 29.050847746514023 0 0 0 0 272.35329718258799 221.01003004272934 0 221.01003004272934 20.152948091686994 0 0 0 0 2.763645796431657 3.5668252710981818 0 3.5668252710981818 -4.451507461293744 0 0 0 0 -25.945585540106549 112.8368898112094 0 112.8368898112094 173.40502050968644 0 0 0 0 246.56879717101958 54.211220235953988 0 54.211220235953988 23.104612819704926 0 0 0 0 -44.433255103287593 193.99955115404737 0 193.99955115404737 73.372983270368422 0 0 0 0 -45.275791247674988 136.31170769738674 0 136.31170769738674 135.74678967549698 0 0 0 0 -53.130975172312674 112.75648267983706 0 112.75648267983706 26.947302986634895 0 0 0 0 104.43515274889432 167.34852671041153 0 167.34852671041153 -26.954728139826329 0 0 0 0 -185.48601589411749 194.2388511425379 0 194.2388511425379 370.45785187070214 0 0 0 0 -124.97574455173293 -35.882897361878349 0 -35.882897361878349 250.62838028634724 0 0 0 0 -398.16263499628178 12.43547183553892 0 12.43547183553892 206.98060503673332 0 0 0 0 -248.96221625107819 125.34184666491637 0 125.34184666491637 157.87165065481167 0 0 0 0 -304.16553059907187 69.126378153887345 0 69.126378153887345 110.73691327060806 0 0 0 0 -199.69421109203972 113.51080876436026 0 113.51080876436026 105.25870829084306 0 0 0 0 -314.42847135044849 254.48135708648624 0 254.48135708648624 22.407110941574501 0 0 0 0 148.93138365517001 76.298600400979922 0 76.298600400979922 -122.61376190802548 0 0 0 0 -231.27902181723016 133.15848133841791 0 133.15848133841791 127.96347215784772 0 0 0 0 -42.739415597595553 254.72551830652083 0 254.72551830652083 -43.686748451160383 0 0 0 0 -220.50935311942249 126.99958894401789 0 126.99958894401789 51.222353320510592 0 0 0 0 -208.02059760257757 181.03037191513431 0 181.03037191513431 164.29328735606396 0 0 0 0 288.27021431362829 263.45783565248348 0 263.45783565248348 59.863141152636672 0 0 0 0 66.322350518485706 213.9487726260777 0 213.9487726260777 -52.569119428877457 0 0 0 0 -96.187598471676623 146.17487238385002 0 146.17487238385002 27.819847834020038 0 0 0 0 487.64820992318255 0.47972134556766832 0 0.47972134556766832 -75.015264532616129 0 0 0 0 203.67534151590661 -238.98838341442752 0 -238.98838341442752 -4.3624500468868064 0 0 0 0 142.32580777784369 -144.36105705993305 0 -144.36105705993305 20.313099159422563 0 0 0 0 673.91941761801218 -226.0696778365309 0 -226.0696778365309 -97.299291483042907 0 0 0 0 959.88918851234541 397.55042106594192 0 397.55042106594192 138.56166470744211 0 0 0 0 197.00796182336433 64.929160794385098 0 64.929160794385098 2.8707493731926661 0 0 0 0 94.480765602769992 421.59754578661523 0 421.59754578661523 1109.0828509137791 0 0 0 0 1.1317391746496619 2.094068643991946 0 2.094068643991946 5.3736112788352841 0 0 0 0 3.2862204760127325 2.6097008997485744 0 2.6097008997485744 1.5792968786101085 0 0 0 0 -10.272598373596338 -68.69452147611446 0 -68.69452147611446 493.36907895910554 0 0 0 0 792.6334842905668 248.65703337766899 0 248.65703337766899 353.93995489153895 0 0 0 0 10.185963065251144 15.368222391443851 0 15.368222391443851 749.26958072349953 0 0 0 0 547.21493069020494 436.30992423284624 0 436.30992423284624 1146.0258903665235 0 0 0 0 41.351445539901988 312.67730988398398 0 312.67730988398398 559.14493581648276 0 0 0 0 553.93547759673083 671.27007043662888 0 671.27007043662888 480.54169104382163 0 0 0 0 149.23978768538859 521.5454394229746 0 521.5454394229746 1002.9804342677307 0 0 0 0 203.79240889367611 531.14684984993073 0 531.14684984993073 586.99296181018872 0 0 0 0 59.450581038357996 306.08612969722162 0 306.08612969722162 488.11201704703853 0 0 0 0 130.90322953111513 384.01466431222434 0 384.01466431222434 259.31921655505721 0 0 0 0 154.42827073039416 407.16778513886675 0 407.16778513886675 275.61724785769184 0 0 0 0 383.57238803830376 421.35656277525777 0 421.35656277525777 114.06909577678016 0 0 0 0 1.8399732196476937 2.7706002160237659 0 2.7706002160237659 4.6617413196943289 0 0 0 0 491.30475577122024 -69.341861832908762 0 -69.341861832908762 -197.57877330069459 0 0 0 0 496.51564048327748 118.42586242704419 0 118.42586242704419 391.90196177293546 0 0 0 0 694.84914697849592 346.80484314856585 0 346.80484314856585 17.635431868053274 0 0 0 0 112.02696158042613 261.6738024028673 0 261.6738024028673 83.28707307982404 0 0 0 0 6.7797629322885768 139.58927720918291 0 139.58927720918291 204.25039493280929 0 0 0 0 89.736917055776757 334.93654258685638 0 334.93654258685638 286.81627647842106 0 0 0 0 4.9549192209306057 263.63756207481492 0 263.63756207481492 493.40315574491251 0 0 0 0 15.302904935411789 202.86594142741524 0 202.86594142741524 222.73661164893201 0 0 0 0 10.558543832446048 94.045194056910987 0 94.045194056910987 371.63695784062293 0 0 0 0 40.92428232540874 -56.680001816295771 0 -56.680001816295771 7.4102788348682225 0 0 0 0 15.424086043148691 63.999097929387062 0 63.999097929387062 47.344752546829113 0 0 0 0 66.452982662085333 5.909615565185959 0 5.909615565185959 -43.5154482391481 0 0 0 0 -7.5906903853192489 61.126406640465575 0 61.126406640465575 58.230736727673502 0 0 0 0 59.235613492469383 29.252485944427463 0 29.252485944427463 -41.718760524459867 0 0 0 0 4.845281526470063 4.7629091611480447 0 4.7629091611480447 4.1569538081573398 0 0 0 0 9.2840479728006358 1.5471353070861369 0 1.5471353070861369 -10.58383829592276 0 0 0 0 77.892503375289834 -51.212370852721506 0 -51.212370852721506 -36.615108931306168 0 0 0 0 5.1924200341273412 5.1201910788786122 0 5.1201910788786122 4.070791403292418 0 0 0 0 178.84658725056465 -45.145453161087062 0 -45.145453161087062 -96.197077919328876 0 0 0 0 211.62899544449783 -81.313723095270689 0 -81.313723095270689 -90.478155396100192 0 0 0 0 322.6783673508935 -157.21117793625308 0 -157.21117793625308 -48.12560625133483 0 0 0 0 127.26150682984485 289.00817942592766 0 289.00817942592766 -111.84723348383704 0 0 0 0 78.180374801574089 -150.74819162042149 0 -150.74819162042149 168.7194022899057 0 0 0 0 29.165854015014247 -11.754200143103844 0 -11.754200143103844 -8.6581226488924585 0 0 0 0 0.7232511519044138 -1.5419951122278235 0 -1.5419951122278235 1.4229683137423592 0 0 0 0 644.98133806561236 67.065637252777378 0 67.065637252777378 -93.561113985681004 0 0 0 0 597.29201105227651 336.88394793749649 0 336.88394793749649 576.83886654004164 0 0 0 0 -49.902061044615039 -185.864112443247 0 -185.864112443247 171.87661099196339 0 0 0 0 9.0359339865167385 5.3535290500949486 0 5.3535290500949486 23.305908751441166 0 0 0 0 12.564847508807816 -0.92036486329743639 0 -0.92036486329743639 24.259680129165645 0 0 0 0 7.7776108817841756 8.7160058891767846 0 8.7160058891767846 14.36691445650203 0 0 0 0 1.0621920359362775 8.4147785558889154 0 8.4147785558889154 25.372790080604318 0 0 0 0 3.4769174478877858 -0.0095050435138546163 0 -0.0095050435138546163 29.418975683773169 0 0 0 0 17.093809240132572 29.994385024878284 0 29.994385024878284 -21.800505649734987 0 0 0 0 28.075424431217471 -10.556630249215232 0 -10.556630249215232 -5.0095930431161833 0 0 0 0 3.3744062060987545 -0.31433320107572627 0 -0.31433320107572627 6.1194833632950463 0 0 0 0 132.36510118779916 -100.15398342111439 0 -100.15398342111439 33.452087663790735 0 0 0 0 6.9531452433217193 10.099950198939879 0 10.099950198939879 13.503420766666011 0 0 0 0 29.359386419891052 -6.9029782630386762 0 -6.9029782630386762 -9.5663040753097448 0 0 0 0 -21.553576180664564 83.602124971877856 0 83.602124971877856 -77.831714459854993 0 0 0 0 82.473397695974256 30.458373191372175 0 30.458373191372175 -88.176750413098489 0 0 0 0 76.695569480538097 -22.242619735108747 0 -22.242619735108747 -48.493989308302844 0 0 0 0 83.527053767592861 -3.8240734696264553 0 -3.8240734696264553 -65.224093262782844 0 0 0 0 183.27907166525915 -81.841729107491119 0 -81.841729107491119 22.685812439372285 0 0 0 0 223.15456007778147 -37.633414406827796 0 -37.633414406827796 -104.34474117770151 0 0 0 0 147.78752228026951 0.076156020571943372 0 0.076156020571943372 -55.121806987925083 0 0 0 0 186.13069360849215 21.735678128712607 0 21.735678128712607 -110.02850491463323 0 0 0 0 -120.58462145234796 76.806957943135785 0 76.806957943135785 -91.15885809030442 0 0 0 0 3.7955601885024501 5.8268154725154346 0 5.8268154725154346 -4.5400160836952637 0 0 0 0 -23.63002248378649 47.931738365019555 0 47.931738365019555 29.584077575244009 0 0 0 0 6.4850589835684742 16.47652309972375 0 16.47652309972375 33.320088826729432 0 0 0 0 5.3870542735607678 12.089775918108003 0 12.089775918108003 18.041413891759959 0 0 0 0 -28.640570344519119 41.635029585759185 0 41.635029585759185 21.872437337267911 0 0 0 0 -5.2174653059487923 18.517077307573345 0 18.517077307573345 32.450719622342149 0 0 0 0 9.3064070795280713 28.628184897526808 0 28.628184897526808 -6.0073098982684314 0 0 0 0 -53.483126329130926 175.49695601793792 0 175.49695601793792 -115.49783875317098 0 0 0 0 5.0393635513277601 8.8879909112627331 0 8.8879909112627331 16.170289866712892 0 0 0 0 -37.094570575192108 76.06229151765001 0 76.06229151765001 -77.362239608299205 0 0 0 0 45.577463392794471 45.86054539453653 0 45.86054539453653 60.181876606991864 0 0 0 0 6.3487198350205727 13.247918856715913 0 13.247918856715913 9.9060246122944022 0 0 0 0 2.5900402851839317 162.77436945037334 0 162.77436945037334 98.12471893732436 0 0 0 0 60.992830663577479 10.006454096990637 0 10.006454096990637 74.295199667278212 0 0 0 0 95.408189329691595 -46.339982818739372 0 -46.339982818739372 -75.178993499139324 0 0 0 0 4.194195004700549 18.590896519617644 0 18.590896519617644 68.068676632841857 0 0 0 0 42.906573523812703 33.861770803388936 0 33.861770803388936 18.241080649240757 0 0 0 0 23.7980371747135 12.081797777063912 0 12.081797777063912 46.431817307677193 0 0 0 0 7.2719447898351746 36.154973577991768 0 36.154973577991768 48.996687326405663 0 0 0 0 -5.4810962948806718 20.246466154691007 0 20.246466154691007 33.6492141656272 0 0 0 0 34.883816631002333 9.9911586859743693 0 9.9911586859743693 35.895915597429848 0 0 0 0 -4.0854986102604016 24.681121279871149 0 24.681121279871149 52.97116456036747 0 0 0 0 -188.66479018800806 27.309215988934739 0 27.309215988934739 -58.784980047727004 0 0 0 0 124.11372136714931 19.460853628552286 0 19.460853628552286 11.473996607004665 0 0 0 0 -80.759026074305041 403.70658569454827 0 403.70658569454827 -31.630825562780956 0 0 0 0 5.234977169880807 19.347535064239011 0 19.347535064239011 60.646322432531235 0 0 0 0 45.284006698103781 -12.521540095433011 0 -12.521540095433011 58.460719040194817 0 0 0 0 3.1679489739221478 8.7868978625682956 0 8.7868978625682956 -2.6257498584049586 0 0 0 0 25.104887840359652 21.321265356258664 0 21.321265356258664 75.360507310862886 0 0 0 0 521.74585408915391 190.19616420652164 0 190.19616420652164 -373.93961513810791 0 0 0 0 187.31438359489721 62.963968488213141 0 62.963968488213141 -56.386542640801053 0 0 0 0 3.9841508908350534 -5.4823826385618304 0 -5.4823826385618304 65.04475022792758 0 0 0 0 5.9915425400101867 -22.332445320658735 0 -22.332445320658735 58.101220895332517 0 0 0 0 6.9985458096868172 -22.842382326016377 0 -22.842382326016377 55.258677147980052 0 0 0 0 1.4062367930143007 4.7223227502278462 0 4.7223227502278462 27.564702323934739 0 0 0 0 -12.928249404935968 15.367844836699078 0 15.367844836699078 14.601051478006411 0 0 0 0 0.46298610492515951 7.7147940165160662 0 7.7147940165160662 25.756388959786875 0 0 0 0 -51.621210533511359 138.29570328277623 0 138.29570328277623 74.958842505875509 0 0 0 0 251.49984725346098 -419.45655102186356 0 -419.45655102186356 568.44167340910644 0 0 0 0 -73.48937102943205 75.708285384509509 0 75.708285384509509 15.864935759469518 0 0 0 0 2.6591883215104311 8.1027320918983889 0 8.1027320918983889 22.954809274898366 0 0 0 0 5.6510804134300088 18.272227291963645 0 18.272227291963645 12.657907923174207 0 0 0 0 3.6251032396792198 -7.4205743675374833 0 -7.4205743675374833 27.32094767880335 0 0 0 0 3.076308380463729 -0.039901800670122611 0 -0.039901800670122611 32.431530792702688 0 0 0 0 7.2145641583542783 -7.5688522172786179 0 -7.5688522172786179 1.4097035134873295 0 0 0 0 7.8051048468610134 -49.85429405150353 0 -49.85429405150353 97.719905603444204 0 0 0 0 7.2744484794870914 -28.557643004591228 0 -28.557643004591228 37.888568795911851 0 0 0 0 6.5497328708675013 5.7599448484543245 0 5.7599448484543245 26.115145543139079 0 0 0 0 6.5970134121052979 7.6043893163077882 0 7.6043893163077882 94.119437062531688 0 0 0 0 4.3594774731359696 6.7041938905937428 0 6.7041938905937428 24.080578275750327 0 0 0 0 28.511534425892023 -117.68269606752438 0 -117.68269606752438 106.17711066926859 0 0 0 0 -58.870507192604236 1.363843324528716 0 1.363843324528716 32.403476692648837 0 0 0 0 174.66393741671618 60.992432240440394 0 60.992432240440394 -67.714712537912419 0 0 0 0 25.092415610994522 -19.985141925448261 0 -19.985141925448261 27.669616938743275 0 0 0 0 4.1806244034805786 2.3437631519700517 0 2.3437631519700517 26.834323315179063 0 0 0 0 1.9654232709966504 -5.0621549871936509 0 -5.0621549871936509 12.255629610971212 0 0 0 0 0.30317166011939145 0.56187105441021856 0 0.56187105441021856 2.456138051202629 0 0 0 0 13.861987664555045 -0.97525687583402032 0 -0.97525687583402032 -6.2437331478286069 0 0 0 0 29.0607245544794 -13.096894898952087 0 -13.096894898952087 1.8337747019540984 0 0 0 0 22.532477714560628 23.32450827689172 0 23.32450827689172 45.937015444302233 0 0 0 0 -4.2630909847221119 -6.1504898407147266 0 -6.1504898407147266 12.149116997388774 0 0 0 0 0.89044759797380113 -4.7486382422088838 0 -4.7486382422088838 15.206677659151183 0 0 0 0 0.22544510542813168 0.28904259317215519 0 0.28904259317215519 13.836951520236767 0 0 0 0 2.2972026445881766 -6.8233384566333513 0 -6.8233384566333513 14.742681374135486 0 0 0 0 -3.0948869216967978 -3.7844299447460799 0 -3.7844299447460799 16.25932178075891 0 0 0 0 -3.439749068506444 -1.9400021142791957 0 -1.9400021142791957 19.390004745233455 0 0 0 0 3.4488457182848884 -0.0078401717017726469 0 -0.0078401717017726469 17.852724743902513 0 0 0 0 10.512695302764769 -3.8102956470174831 0 -3.8102956470174831 24.365219429397257 0 0 0 0 15.626982997441246 7.8972000573703554 0 7.8972000573703554 31.939618440141203 0 0 0 0 36.969761174057567 9.4466053158394061 0 9.4466053158394061 24.786625367596571 0 0 0 0 11.101930303589143 3.0749862821030547 0 3.0749862821030547 26.893848811858334 0 0 0 0 5.9599758861813825 1.2069651813362725 0 1.2069651813362725 37.864129509573104 0 0 0 0 2.1659288729345008 1.4342516458582395 0 1.4342516458582395 26.140914670802886 0 0 0 0 1.9534074451330525 2.3060463919100584 0 2.3060463919100584 35.78545194256003 0 0 0 0 433.67690704912434 -18.944140508952842 0 -18.944140508952842 -58.97746972234745 0 0 0 0 88.284886760975908 -220.30788244258292 0 -220.30788244258292 124.47397619042022 0 0 0 0 -0.61424782613243634 -0.16310906682950588 0 -0.16310906682950588 21.36272263501786 0 0 0 0 -93.128050442933556 6.6683227073372109 0 6.6683227073372109 83.752045752102276 0 0 0 0 2.4950672027880501 19.192702867985645 0 19.192702867985645 34.204464212813036 0 0 0 0 0.76646936710335467 1.6129010393633507 0 1.6129010393633507 17.165766423044261 0 0 0 0 -3.2243768575783633 1.0485023005167022 0 1.0485023005167022 25.454693931096699 0 0 0 0 2.1356047170353856 4.7438756344858177 0 4.7438756344858177 15.605547192445101 0 0 0 0 1.4792853968605666 -0.90309479377918933 0 -0.90309479377918933 24.623991037202799 0 0 0 0 9.4894167604602409 -2.2850353939711283 0 -2.2850353939711283 5.7711404516927303 0 0 0 0 34.578883565603974 -12.207348131472827 0 -12.207348131472827 14.620365304363077 0 0 0 0 64.2473935262434 -69.608664350045728 0 -69.608664350045728 -36.003302975361294 0 0 0 0 68.828185557271553 36.723983598773657 0 36.723983598773657 -5.4357245158753358 0 0 0 0 434.28807374609187 131.87125406057748 0 131.87125406057748 -27.888907097440097 0 0 0 0 358.16691718662037 -231.28957126989553 0 -231.28957126989553 64.90870365111914 0 0 0 0 37.315510154154481 -134.37660785046864 0 -134.37660785046864 276.67424022057094 0 0 0 0 4.5309572387236177 -0.33232739266091471 0 -0.33232739266091471 -0.32793857449351549 0 0 0 0 29.38856424056894 -24.253040583360416 0 -24.253040583360416 120.27574603745597 0 0 0 0 66.206033535905135 -0.99104244523550733 0 -0.99104244523550733 12.221027516556205 0 0 0 0 0.65344744163690383 2.656770763745044 0 2.656770763745044 3.5254842119055638 0 0 0 0 34.425245012521145 -28.432637448771857 0 -28.432637448771857 31.267840674321633 0 0 0 0 -2.8802667414452117 27.537495239230338 0 27.537495239230338 31.406146850116784 0 0 0 0 289.95676416334845 -76.869387987178925 0 -76.869387987178925 -29.039355111011901 0 0 0 0 180.74228359862127 -64.313421839397051 0 -64.313421839397051 -30.32500841718138 0 0 0 0 -0.82728207186346481 -3.8600873842133296 0 -3.8600873842133296 44.835404311714228 0 0 0 0 5.7312571796428529 2.5924686569269397 0 2.5924686569269397 35.177378829925146 0 0 0 0 12.302977035371441 13.466890813637292 0 13.466890813637292 60.073389793222304 0 0 0 0 13.086220917993614 -11.525271626935137 0 -11.525271626935137 42.911237077281839 0 0 0 0 19.44313387683178 6.8723069232255511 0 6.8723069232255511 36.501432729735825 0 0 0 0 -0.71250335435613898 -4.3880748905323799 0 -4.3880748905323799 4.4225815244222133 0 0 0 0 -17.361502376350472 -34.31140713248169 0 -34.31140713248169 75.295521260239184 0 0 0 0 -0.24977939044170228 0.69520256392682711 0 0.69520256392682711 25.894902457408477 0 0 0 0 -17.518405941797937 52.810598682115597 0 52.810598682115597 8.0259347462269943 0 0 0 0 -0.89613697746196719 2.68211547441026 0 2.68211547441026 31.315964896676121 0 0 0 0 30.627162669105928 -14.719236825687403 0 -14.719236825687403 -42.764565337172826 0 0 0 0 11.37179750039968 -6.8183972188307962 0 -6.8183972188307962 32.217113369399158 0 0 0 0 2.8981631033407211 -0.67128788620902924 0 -0.67128788620902924 28.24535032363201 0 0 0 0 457.81732868961808 107.47171851704479 0 107.47171851704479 -88.047157550725387 0 0 0 0 316.45863853208994 86.945753595326096 0 86.945753595326096 -0.55364353746699635 0 0 0 0 -3.4457989366776474 -7.7853939204815106 0 -7.7853939204815106 36.861876299386495 0 0 0 0 1.998038708529938 -7.6364100192291886 0 -7.6364100192291886 26.241832525197395 0 0 0 0 -0.76382685729049626 -3.3950398976467113 0 -3.3950398976467113 32.684631628595525 0 0 0 0 217.95190870081569 129.98894048601505 0 129.98894048601505 111.85818925313652 0 0 0 0 432.17921166690212 224.62456981609284 0 224.62456981609284 106.89061347721145 0 0 0 0 -1.5510618235056892 -3.7915328688440155 0 -3.7915328688440155 3.1161182980787032 0 0 0 0 -2.4638706216965591 4.4281148750303529 0 4.4281148750303529 4.6986584195675789 0 0 0 0 446.28131015116014 295.48166927832062 0 295.48166927832062 42.002997541232617 0 0 0 0 259.81754929186536 206.58355596907495 0 206.58355596907495 88.631969671481784 0 0 0 0 431.86009996645953 202.89606592839118 0 202.89606592839118 86.421180216915673 0 0 0 0 423.32494204373506 196.47488630523731 0 196.47488630523731 107.60789866759114 0 0 0 0 425.83437972825777 197.70137110461656 0 197.70137110461656 101.38250743746175 0 0 0 0 418.09438306925222 234.38182743604375 0 234.38182743604375 0.68351838813396171 0 0 0 0 481.51530377768756 239.72858678014836 0 239.72858678014836 4.415043692511972 0 0 0 0 435.9842813187006 227.97234336771362 0 227.97234336771362 2.4007422283175401 0 0 0 0 115.11580253726333 147.09291762046996 0 147.09291762046996 107.49822450685315 0 0 0 0 378.85067287357924 199.75026342258207 0 199.75026342258207 59.301262075161503 0 0 0 0 126.0276441882105 199.88694941560561 0 199.88694941560561 62.635435807416798 0 0 0 0 -212.23194804783634 124.04804172942386 0 124.04804172942386 89.753017444811121 0 0 0 0 -49.70733483983804 259.71927680953013 0 259.71927680953013 21.144765171324252 0 0 0 0 97.555118557524111 -57.362297217627201 0 -57.362297217627201 -9.9101435564516578 0 0 0 0 426.35907221121397 199.62528357817064 0 199.62528357817064 -47.658406465176085 0 0 0 0 476.10064862241416 240.86192027747165 0 240.86192027747165 -27.186327562172664 0 0 0 0 439.20078192844176 269.53854981213954 0 269.53854981213954 -49.395663201888965 0 0 0 0 952.74021246261509 568.53492504474707 0 568.53492504474707 121.26421383078559 0 0 0 0 41.562713433242607 204.09962032073963 0 204.09962032073963 639.63326169250649 0 0 0 0 620.6457639109567 0.23541272795591794 0 0.23541272795591794 -104.13732275292568 0 0 0 0 3.068336058738991 2.6378328295595423 0 2.6378328295595423 2.170740858742306 0 0 0 0 -62.5299059240715 50.166508517339025 0 50.166508517339025 175.61685662085074 0 0 0 0 99.029902099264291 394.95173597784014 0 394.95173597784014 441.16735718362906 0 0 0 0 442.81925491779111 322.63820752679749 0 322.63820752679749 -51.746557344122266 0 0 0 0 569.07724479286207 648.57530242511712 0 648.57530242511712 179.2766210368427 0 0 0 0 804.62465746976386 476.51375364023261 0 476.51375364023261 20.119610357302008 0 0 0 0 2.2184820696029419 -35.518570313128293 0 -35.518570313128293 351.99039647659083 0 0 0 0 4.8314699015327278 8.6375068300912972 0 8.6375068300912972 19.427045526019356 0 0 0 0 15.949758044822374 20.720130414927553 0 20.720130414927553 37.345410936584813 0 0 0 0 6.7979290515588406 5.4369162432762721 0 5.4369162432762721 7.8976440006263999 0 0 0 0 -13.557211612664105 -5.5984873944689753 0 -5.5984873944689753 48.078152582071198 0 0 0 0 7.7621211071616045 -3.8790735302698636 0 -3.8790735302698636 13.765243130994421 0 0 0 0 28.68404253059532 -19.224697498210844 0 -19.224697498210844 23.513480249486747 0 0 0 0 0.60049078569812675 1.1558106084104196 0 1.1558106084104196 26.073585060523982 0 0 0 0 42.230107364359355 0.20165586939401692 0 0.20165586939401692 13.197574952224386 0 0 0 0 -0.77341282263114408 6.7719449278192769 0 6.7719449278192769 28.289601328840945 0 0 0 0 -1.9287907924017418 -1.3302853190034511 0 -1.3302853190034511 34.725178459237213 0 0 0 0 -0.55830684970558853 2.78786675575153 0 2.78786675575153 26.9933076234081 0 0 0 0 -15.88565831568485 21.435005645806086 0 21.435005645806086 49.214801915746648 0 0 0 0 57.18070473563057 -21.319627821147151 0 -21.319627821147151 64.634039787964866 0 0 0 0 367.03511218593485 321.19276040105615 0 321.19276040105615 168.63605756319885 0 0 0 0 44.810801479781333 59.331424405193957 0 59.331424405193957 235.64024364942452 0 0 0 0 14.770709397332752 -43.017419372714357 0 -43.017419372714357 64.08162720040491 0 0 0 0 18.604955969339361 -49.721980503196392 0 -49.721980503196392 74.888176956694224 0 0 0 0 -0.046711192369818078 -0.27232296471524364 0 -0.27232296471524364 -0.30703661084015721 0 0 0 0 9.6226786773133028 2.2173639489119523 0 2.2173639489119523 -27.828663810083526 0 0 0 0 0.070378427953253567 -30.064987121011654 0 -30.064987121011654 57.548234934703942 0 0 0 0 -8.027568299518677 -13.728476024705742 0 -13.728476024705742 26.799480194138596 0 0 0 0 -0.042640211595814381 -0.096836909294154339 0 -0.096836909294154339 0.13061665604828931 0 0 0 0 -0.038229824854663974 -59.753219334066991 0 -59.753219334066991 -4.6059468885214301 0 0 0 0 -1.8991736991864059 2.1041659329057438 0 2.1041659329057438 18.744283013656968 0 0 0 0 0.38904580152917845 -5.1398564473656734 0 -5.1398564473656734 -8.2205698331090389 0 0 0 0 8.5933151721294081 -5.8921478005504468 0 -5.8921478005504468 -8.5631823394214734 0 0 0 0 16.558051544301065 -28.169659343915555 0 -28.169659343915555 54.832569007950951 0 0 0 0 -0.060461105579118657 -0.11197385147880823 0 -0.11197385147880823 0.15241177571883213 0 0 0 0 12.231714881582263 16.831058246425528 0 16.831058246425528 8.7753462030741503 0 0 0 0 45.592688330947283 -13.46994851233103 0 -13.46994851233103 -58.622882810333977 0 0 0 0 -60.60283178103451 9.8722443122810546 0 9.8722443122810546 9.1288389530382119 0 0 0 0 -34.344037009223655 -25.825403594251839 0 -25.825403594251839 -7.0576205820470932 0 0 0 0 -0.096877934269406704 0.17736112754947087 0 0.17736112754947087 2.8356317987706348 0 0 0 0 -36.447441932373408 6.7937942554890469 0 6.7937942554890469 -1.3687390131526627 0 0 0 0 -2.4349415398756094 -3.761590210680879 0 -3.761590210680879 -2.326436914911028 0 0 0 0 34.100325459360448 -34.332103520675446 0 -34.332103520675446 43.015957382682245 0 0 0 0 -0.38472570038518161 -0.79866785493797465 0 -0.79866785493797465 -0.44394167803915252 0 0 0 0 -3.3724940930351295 -5.1463775055672158 0 -5.1463775055672158 -1.1805425971797376 0 0 0 0 -34.106447939812128 8.4692921822838798 0 8.4692921822838798 -3.7525558566267136 0 0 0 0 -0.15295000546157686 0.16671658167557091 0 0.16671658167557091 2.6036927232758558 0 0 0 0 -38.731861564494466 3.1381098384445067 0 3.1381098384445067 5.5262963977293111 0 0 0 0 -68.589645487585074 4.0799674751251587 0 4.0799674751251587 11.297582854014763 0 0 0 0 -0.17168467966320167 0.059566317550093117 0 0.059566317550093117 3.1619746034336345 0 0 0 0 9.6022687195811613 -28.474293225575821 0 -28.474293225575821 1.2037499152575037 0 0 0 0 -87.872002731392513 40.876814032744733 0 40.876814032744733 59.435842945691547 0 0 0 0 21.218752884995979 -57.775409570735064 0 -57.775409570735064 32.290339208440855 0 0 0 0 -21.107514621214705 -84.538492675172165 0 -84.538492675172165 44.63731507238117 0 0 0 0 -41.595053284117739 8.2267352566377667 0 8.2267352566377667 1.8036248687276384 0 0 0 0 -0.12866295976065395 -0.22800932097254911 0 -0.22800932097254911 3.1206178525765722 0 0 0 0 -103.88242832178818 -30.049024586758605 0 -30.049024586758605 61.778561069688294 0 0 0 0 0.078732687943382354 -0.276694953429927 0 -0.276694953429927 1.3288729470116323 0 0 0 0 -9.8893094835819966 16.665839995548595 0 16.665839995548595 1.6427503853483358 0 0 0 0 155.605106376431 -166.60388421277639 0 -166.60388421277639 140.9138410424639 0 0 0 0 87.391400544068802 -113.05458041777456 0 -113.05458041777456 171.14570257124433 0 0 0 0 152.40911268788551 -126.0494450435508 0 -126.0494450435508 23.527175463066669 0 0 0 0 117.4137700917554 -134.03217374735323 0 -134.03217374735323 45.336676130857086 0 0 0 0 35.766564017533142 -35.478357446350856 0 -35.478357446350856 -16.56597519096249 0 0 0 0 206.20541412223315 -169.37948458602477 0 -169.37948458602477 54.373754708183696 0 0 0 0 117.73687073303722 -131.72300173553958 0 -131.72300173553958 39.556698358908761 0 0 0 0 113.98150154140262 -131.42554813178867 0 -131.42554813178867 60.37507477030158 0 0 0 0 97.250322802703238 -124.81736175932747 0 -124.81736175932747 74.273885166505352 0 0 0 0 112.89041969331583 -120.52055967831984 0 -120.52055967831984 62.222578511289612 0 0 0 0 118.154870108914 -115.75360176336835 0 -115.75360176336835 55.108342936786357 0 0 0 0 100.21347042874345 -113.38592892049928 0 -113.38592892049928 104.15930135778035 0 0 0 0 101.79122627421077 -101.20144442639867 0 -101.20144442639867 55.663706065271981 0 0 0 0 6.4180955366604566 20.438621678925905 0 20.438621678925905 75.401001985577011 0 0 0 0 141.1118080183669 -90.056151584081817 0 -90.056151584081817 17.77635060925968 0 0 0 0 41.581130223008131 -41.596392777079018 0 -41.596392777079018 66.396218226291239 0 0 0 0 -3.0436902508154904 -6.3184493651480622 0 -6.3184493651480622 9.5304838044524445 0 0 0 0 -1.3132786248493642 -3.9886604757791275 0 -3.9886604757791275 16.73068464004092 0 0 0 0 -104.10571819835968 164.56333272002666 0 164.56333272002666 162.13302406520233 0 0 0 0 22.547699010752979 -71.712746477878682 0 -71.712746477878682 70.715763591346331 0 0 0 0 40.274182916578752 -62.812544657077524 0 -62.812544657077524 64.268354919156991 0 0 0 0 27.413000281560301 -97.197604316566867 0 -97.197604316566867 63.076510670769494 0 0 0 0 77.941159254173726 -114.32379811520514 0 -114.32379811520514 63.485848088221246 0 0 0 0 68.661752829759735 -86.964260117718368 0 -86.964260117718368 57.7389601021423 0 0 0 0 58.959744812954341 -92.547264402208384 0 -92.547264402208384 60.982185146014672 0 0 0 0 59.280200262982362 -87.291576770330721 0 -87.291576770330721 61.344088796526194 0 0 0 0 100.38588722771055 -87.555704015976517 0 -87.555704015976517 59.782926462270552 0 0 0 0 96.86579764530029 -96.693351442139829 0 -96.693351442139829 44.725684705161257 0 0 0 0 93.685141635308355 -53.415172168053687 0 -53.415172168053687 50.206877460677788 0 0 0 0 94.798408680018724 -55.352905979190837 0 -55.352905979190837 52.29379601450637 0 0 0 0 81.695132039569216 -54.965066197357373 0 -54.965066197357373 59.295526357251219 0 0 0 0 78.972462523445301 -56.08072029244795 0 -56.08072029244795 59.888977919530589 0 0 0 0 86.682778106194746 -26.927439139108174 0 -26.927439139108174 55.715119115076959 0 0 0 0 13.351173251870257 19.380176214022157 0 19.380176214022157 65.225871213054688 0 0 0 0 79.099912347833197 -24.449748515093233 0 -24.449748515093233 56.345393388066441 0 0 0 0 117.89282434446704 -27.269423491146881 0 -27.269423491146881 53.296184811624698 0 0 0 0 69.65161262808715 -37.118424984451849 0 -37.118424984451849 57.725871147704311 0 0 0 0 104.16993577042695 -33.492498887047986 0 -33.492498887047986 55.452547282446176 0 0 0 0 123.92615068339273 -28.563077893486479 0 -28.563077893486479 39.03659117501229 0 0 0 0 123.58101209129472 -31.99706035721465 0 -31.99706035721465 26.923738857090939 0 0 0 0 125.69474583184092 -31.071149897063151 0 -31.071149897063151 28.322104122024029 0 0 0 0 122.25135649148524 -56.860275317856576 0 -56.860275317856576 50.088730078391563 0 0 0 0 109.88239117941066 -37.91548328002682 0 -37.91548328002682 39.906548204016872 0 0 0 0 147.80920975163099 -40.413506439159391 0 -40.413506439159391 17.941330083558569 0 0 0 0 158.58265271502751 -108.36542169173481 0 -108.36542169173481 46.878645735945611 0 0 0 0 118.33336660207829 -66.188305129755463 0 -66.188305129755463 28.706155258259969 0 0 0 0 149.26962615941102 -69.556577751063742 0 -69.556577751063742 23.487159693468129 0 0 0 0 193.57004983159436 -85.674906055573956 0 -85.674906055573956 2.5949154510890367 0 0 0 0 196.5385925064586 -73.662261325633153 0 -73.662261325633153 -19.976763181999559 0 0 0 0 133.04548235548998 -21.642652071910561 0 -21.642652071910561 -5.8807200422161259 0 0 0 0 235.26275222133609 -35.677307153513539 0 -35.677307153513539 -9.5550840834002884 0 0 0 0 468.8444058323339 -160.0328086557638 0 -160.0328086557638 -33.401029276341433 0 0 0 0 240.98443519025568 8.3068014472228242 0 8.3068014472228242 -119.63841597212013 0 0 0 0 101.10577139516954 -88.671006508280698 0 -88.671006508280698 123.29480717471597 0 0 0 0 710.32047630509123 -74.937206099479226 0 -74.937206099479226 -105.38471720321468 0 0 0 0 152.89348587848167 -204.00282502346818 0 -204.00282502346818 190.30808613756381 0 0 0 0 -4.8481312211540626 -31.274446100047498 0 -31.274446100047498 92.361060746106887 0 0 0 0 95.187015804335033 -124.70517751856823 0 -124.70517751856823 89.693843690249196 0 0 0 0 94.004409864971421 -127.84210556965263 0 -127.84210556965263 81.433399953079061 0 0 0 0 66.327337387026432 -117.84444699376763 0 -117.84444699376763 147.27572156119277 0 0 0 0 8.2362037898760718 66.027659264720569 0 66.027659264720569 102.3858839987497 0 0 0 0 238.83676145009565 -356.8115903244834 0 -356.8115903244834 481.22715278263786 0 0 0 0 -39.463352953246385 -19.025827090510575 0 -19.025827090510575 176.45546375521371 0 0 0 0 1.7672288147068083 -3.1095031614106006 0 -3.1095031614106006 5.73632241901106 0 0 0 0 766.97635510240104 70.853309990787238 0 70.853309990787238 -223.98550776766206 0 0 0 0 420.57560903468561 18.790342207808862 0 18.790342207808862 69.919065646303352 0 0 0 0 6.6933496752021711 6.2036878489307128 0 6.2036878489307128 -2.9252642844512593 0 0 0 0 -36.084037909968742 27.923479202952876 0 27.923479202952876 42.75241646367067 0 0 0 0 -54.444690698157956 1.2921027160264202 0 1.2921027160264202 4.30613209436342 0 0 0 0 202.59101366409004 -128.07602283084634 0 -128.07602283084634 8.5984899519462488 0 0 0 0 598.32913473175063 -338.48847138151905 0 -338.48847138151905 73.974475949289626 0 0 0 0 3.0675859018988239 -7.9273409547520899 0 -7.9273409547520899 18.118181904074675 0 0 0 0 183.49012406955262 299.78182883244881 0 299.78182883244881 62.000633787207335 0 0 0 0 506.04551905685457 -53.924724219716154 0 -53.924724219716154 -98.542357719212305 0 0 0 0 -148.12899885319484 -39.13587378739976 0 -39.13587378739976 104.51540806722187 0 0 0 0 182.11743471242517 -48.334894242143491 0 -48.334894242143491 -34.301241225039121 0 0 0 0 182.14235454937898 -47.779300665715709 0 -47.779300665715709 -26.870944002323085 0 0 0 0 3.267620942218866 -10.3220716858062 0 -10.3220716858062 27.932697269298956 0 0 0 0 -87.600121932979789 -54.839545349650507 0 -54.839545349650507 50.010726570282714 0 0 0 0 -10.067171688408223 -80.815762564452598 0 -80.815762564452598 114.50839948199791 0 0 0 0 -42.363987871435086 -16.30116471726069 0 -16.30116471726069 18.44906191273185 0 0 0 0 43.684410646876756 -7.1783506539213704 0 -7.1783506539213704 34.278520191874122 0 0 0 0 6.1456410594781801 -75.804738609142078 0 -75.804738609142078 103.76931786790374 0 0 0 0 -0.023191039450274904 0.13577329638055957 0 0.13577329638055957 1.3651992616220241 0 0 0 0 21.210839159575983 -77.185904367417379 0 -77.185904367417379 64.041827521286905 0 0 0 0 -32.218568255624973 57.966445339596248 0 57.966445339596248 59.781944902975738 0 0 0 0 -35.621979563429363 31.490629175817048 0 31.490629175817048 -1.9389593261439586 0 0 0 0 -3.5481913122979876 53.360896794304608 0 53.360896794304608 14.057756984693697 0 0 0 0 -49.179495399420659 15.895984514689189 0 15.895984514689189 -6.5428125026810449 0 0 0 0 -50.08649441375411 21.215793411538471 0 21.215793411538471 18.405040990328416 0 0 0 0 -121.50449898132416 15.336885041619098 0 15.336885041619098 51.649763541514403 0 0 0 0 -1.4731138654607889 -1.9312534823839087 0 -1.9312534823839087 -19.266120878717629 0 0 0 0 -29.664146110488957 -41.535925074596889 0 -41.535925074596889 135.65151693651569 0 0 0 0 71.963801114435881 -81.929042660835876 0 -81.929042660835876 73.254662894876674 0 0 0 0 -0.13341017998806026 -0.15812908326395814 0 -0.15812908326395814 0.49200624843814467 0 0 0 0 0.20375373171622613 0.49602543591663562 0 0.49602543591663562 3.1728933053673245 0 0 0 0 -0.11823328310464662 -0.25212813637430287 0 -0.25212813637430287 0.45982566322788898 0 0 0 0 24.502179092646827 -43.299424770841142 0 -43.299424770841142 88.471493563454715 0 0 0 0 62.881041308342333 -74.314509224786889 0 -74.314509224786889 68.549588631605729 0 0 0 0 31.246444490258142 -63.488391382808913 0 -63.488391382808913 126.29314012402028 0 0 0 0 20.685186696024587 -45.748059231951629 0 -45.748059231951629 103.29994777645334 0 0 0 0 7.9639254875588676 -54.196155660676595 0 -54.196155660676595 101.45647577605268 0 0 0 0 29.661432515295814 -86.413521709568158 0 -86.413521709568158 60.635944053792628 0 0 0 0 44.702429963903114 -49.370334074061248 0 -49.370334074061248 79.915560685665696 0 0 0 0 8.8826955866532558 -24.704999586472695 0 -24.704999586472695 133.86714215534084 0 0 0 0 12.117154335688333 -26.299284116828858 0 -26.299284116828858 43.144981666031526 0 0 0 0 2.3143342393059356 -22.755579802102147 0 -22.755579802102147 50.885031077123131 0 0 0 0 21.174196879629996 -34.863409459532249 0 -34.863409459532249 34.463916127715493 0 0 0 0 20.819092823589841 -53.130265475134365 0 -53.130265475134365 87.768479899525119 0 0 0 0 20.579491412286529 -29.836192132417636 0 -29.836192132417636 43.791199367435183 0 0 0 0 0.0018206659136138503 -0.14608155687803048 0 -0.14608155687803048 0.3411337250660722 0 0 0 0 9.0149046536280082 -58.019987239153124 0 -58.019987239153124 14.994076836272143 0 0 0 0 12.425075788469009 -7.5343556517764227 0 -7.5343556517764227 -17.194691437936854 0 0 0 0 -14.963884976691674 1.9400541210998199 0 1.9400541210998199 34.635151290902286 0 0 0 0 -16.786610507657372 -8.9747188190303859 0 -8.9747188190303859 76.720421073754551 0 0 0 0 -32.348174602041944 20.957517364535306 0 20.957517364535306 49.414124043658376 0 0 0 0 -0.015901299180732596 -21.231100394565146 0 -21.231100394565146 -20.128780847255257 0 0 0 0 -0.01793159832934544 -0.12595141100925389 0 -0.12595141100925389 0.3754064527272476 0 0 0 0 -12.730092631471987 9.0446879163791891 0 9.0446879163791891 -2.4094882276585849 0 0 0 0 -0.017722643831464463 -30.21283248574764 0 -30.21283248574764 70.785695537793799 0 0 0 0 -10.236660635589445 -32.096318666401203 0 -32.096318666401203 79.236886068247259 0 0 0 0 -1.1843683303151735 -56.424549118302821 0 -56.424549118302821 105.17768601463467 0 0 0 0 -21.835049049145162 -16.195097178100696 0 -16.195097178100696 82.35240959499788 0 0 0 0 25.495830153240632 -44.75495305098957 0 -44.75495305098957 75.266089529031888 0 0 0 0 -0.025170037308343989 -39.249076712851625 0 -39.249076712851625 84.214579792271252 0 0 0 0 9.21501901670565 -26.48453791061911 0 -26.48453791061911 -65.375650408881484 0 0 0 0 -0.044168906997899784 -37.522214028642338 0 -37.522214028642338 -21.881888678393807 0 0 0 0 7.5012470766137085 -29.684886129391089 0 -29.684886129391089 -25.768379469816864 0 0 0 0 -3.6845248381535782 -36.066703467760817 0 -36.066703467760817 -28.848264677995758 0 0 0 0 -11.174512778382299 -33.875350989237631 0 -33.875350989237631 16.055265030357987 0 0 0 0 0.029856645946286942 -37.591332016490924 0 -37.591332016490924 -21.90087999750358 0 0 0 0 -0.0070227665635513858 -22.483207073033554 0 -22.483207073033554 23.422834177537879 0 0 0 0 -0.033322757572858845 -43.789764591100756 0 -43.789764591100756 37.408776745040086 0 0 0 0 -12.464651652847806 -29.57220346347458 0 -29.57220346347458 74.958613886100466 0 0 0 0 -10.55257380992704 -24.586147135512874 0 -24.586147135512874 35.270924100390403 0 0 0 0 -9.0636177517495753 -27.539611336283997 0 -27.539611336283997 36.110392308575683 0 0 0 0 6.5214007980077042 -28.729238707550394 0 -28.729238707550394 3.5377606107649626 0 0 0 0 3.1801016465012424 -12.726099184175837 0 -12.726099184175837 45.414407384239894 0 0 0 0 21.945413566764444 -19.159084941511537 0 -19.159084941511537 23.822613870128407 0 0 0 0 1.7436011705194119 -33.136563475987714 0 -33.136563475987714 15.965347565885168 0 0 0 0 7.095772570623808 -27.779640075634234 0 -27.779640075634234 2.8246544286594144 0 0 0 0 -1.8439531244484897 -25.293927282909863 0 -25.293927282909863 4.3260951637321341 0 0 0 0 4.7530659957897354 -9.5660332321562862 0 -9.5660332321562862 6.0736351082960596 0 0 0 0 8.922202466231699 -12.894991191506506 0 -12.894991191506506 6.0369022900723905 0 0 0 0 37.423117492111487 -208.39696675485175 0 -208.39696675485175 690.07663253926148 0 0 0 0 2.2095556951614697 -34.988050649981233 0 -34.988050649981233 -6.1342206767149037 0 0 0 0 1.9175701084850725 -2.2677518515085708 0 -2.2677518515085708 4.9470194522772886 0 0 0 0 305.30128444780621 -243.80208091295935 0 -243.80208091295935 192.13287519117875 0 0 0 0 242.69123331715946 398.24805707583437 0 398.24805707583437 841.78149490034411 0 0 0 0 9.6595643113356839 -13.693451633616746 0 -13.693451633616746 11.674359705322146 0 0 0 0 -3.4630035985649101 -29.403017570301017 0 -29.403017570301017 25.326337079095538 0 0 0 0 -9.9229142420725793 -37.379068348993314 0 -37.379068348993314 19.109492914605653 0 0 0 0 5.971051759249093 -33.253723078811163 0 -33.253723078811163 15.197991814260604 0 0 0 0 -1.4887111963190591 -34.204597539515817 0 -34.204597539515817 15.901450552501046 0 0 0 0 11.922883072241873 -41.989828433785078 0 -41.989828433785078 15.688489845473669 0 0 0 0 -1.488063197392993 -34.181997326022952 0 -34.181997326022952 12.559259792775265 0 0 0 0 3.493691748729888 -11.200699317688823 0 -11.200699317688823 33.287547034358397 0 0 0 0 -61.241310596204698 -60.452873457943497 0 -60.452873457943497 42.80628407408949 0 0 0 0 -87.725947204299018 -4.0956901271420065 0 -4.0956901271420065 41.848606854327954 0 0 0 0 80.391194372483824 -100.13644366481458 0 -100.13644366481458 76.538661984166538 0 0 0 0 145.03182211100784 -15.015294144563086 0 -15.015294144563086 45.543105369230034 0 0 0 0 144.67756073329156 -17.767679078649962 0 -17.767679078649962 167.44167276880762 0 0 0 0 -74.448207180150121 15.698247423719295 0 15.698247423719295 38.823367768854951 0 0 0 0 -50.489142332212396 73.579491376709484 0 73.579491376709484 168.16118158774771 0 0 0 0 3.775469378397128 -13.235327770481682 0 -13.235327770481682 35.633938230530703 0 0 0 0 -3.0760403404562435 -0.78338061961014205 0 -0.78338061961014205 7.7466389208996276 0 0 0 0 236.37655773260485 110.65526242215128 0 110.65526242215128 65.544091926665715 0 0 0 0 18.99129662494488 368.178570464308 0 368.178570464308 729.19392275594873 0 0 0 0 191.71910394240149 422.27539060049457 0 422.27539060049457 362.30996142239019 0 0 0 0 282.22942494262247 253.51416990024154 0 253.51416990024154 763.83569921656454 0 0 0 0 194.78717270344805 441.35370150141898 0 441.35370150141898 788.43252406569081 0 0 0 0 401.32355545932478 351.80328415698023 0 351.80328415698023 826.58231218592118 0 0 0 0 207.41523449364558 275.20562126508594 0 275.20562126508594 882.08801551083161 0 0 0 0 287.63658696386017 -50.926900177657444 0 -50.926900177657444 1253.5262814978196 0 0 0 0 625.09666613341778 20.111040308598604 0 20.111040308598604 929.69726343377988 0 0 0 0 499.4796207759789 321.00676719782314 0 321.00676719782314 742.75500090056448 0 0 0 0 429.78493815758338 64.004784173084772 0 64.004784173084772 1034.2763126575228 0 0 0 0 603.42261522058925 -123.07813693030766 0 -123.07813693030766 1113.3264720997395 0 0 0 0 812.72661333580481 43.566212524652656 0 43.566212524652656 702.14013755094493 0 0 0 0 1094.9471666988397 -190.59690122976463 0 -190.59690122976463 985.44997007856 0 0 0 0 675.90350505736296 -196.41893438422267 0 -196.41893438422267 1490.0653316590906 0 0 0 0 693.26071454984776 -529.39015395032402 0 -529.39015395032402 1643.8042961991305 0 0 0 0 514.61869763522213 -278.60246210064452 0 -278.60246210064452 1234.6240532014926 0 0 0 0 349.56622746335688 -509.65679145898321 0 -509.65679145898321 1588.5174393671623 0 0 0 0 597.71865094569876 -303.42810489991825 0 -303.42810489991825 1205.6590847947627 0 0 0 0 47.911616447529013 -290.67468977098179 0 -290.67468977098179 1667.8782551467739 0 0 0 0 78.263924870795563 -259.57820762268238 0 -259.57820762268238 1490.5404238947885 0 0 0 0 -45.199717446287195 -300.02844437366002 0 -300.02844437366002 1639.4792032479309 0 0 0 0 29.518089871848133 -171.96311675882316 0 -171.96311675882316 1375.4207051627964 0 0 0 0 217.13654538266155 -263.22648336382917 0 -263.22648336382917 1419.8131567234377 0 0 0 0 357.73692252114301 -134.53483310873594 0 -134.53483310873594 1361.6428139498457 0 0 0 0 357.95023819039989 -128.9055599206622 0 -128.9055599206622 1108.7453994756943 0 0 0 0 -102.31617209156093 46.505506899222382 0 46.505506899222382 1299.3895127228789 0 0 0 0 -228.34100446469847 -135.48812188632292 0 -135.48812188632292 1232.5612488004845 0 0 0 0 -70.09106821989576 135.44659339606733 0 135.44659339606733 1159.1044857518646 0 0 0 0 -73.126572493328695 -232.86564395881578 0 -232.86564395881578 1464.9688147097768 0 0 0 0 -32.645971741434266 12.929403588699643 0 12.929403588699643 1557.6178569687181 0 0 0 0 -117.93052903364401 -164.08544607905787 0 -164.08544607905787 1550.9479996767259 0 0 0 0 -81.532532139441173 -257.27508297364693 0 -257.27508297364693 1536.4929314940673 0 0 0 0 -52.970335030634715 -234.43985921920103 0 -234.43985921920103 1526.2180746319136 0 0 0 0 -50.534887050277405 -240.82076185342476 0 -240.82076185342476 1513.4277344351285 0 0 0 0 -57.18445486809393 -188.17193961889916 0 -188.17193961889916 1388.9812140780268 0 0 0 0 -88.722179537653972 -261.30430563482878 0 -261.30430563482878 1613.8968203050317 0 0 0 0 -38.378115519001426 -320.07647980341426 0 -320.07647980341426 1480.005806763802 0 0 0 0 -98.018451852812518 -207.89526627832493 0 -207.89526627832493 1627.2446408972537 0 0 0 0 -0.023883432772334734 -345.73022552095063 0 -345.73022552095063 1382.8410697434047 0 0 0 0 0.21772700622267474 -311.7208761044094 0 -311.7208761044094 2036.3470713058632 0 0 0 0 148.72631810673715 -222.16952857289289 0 -222.16952857289289 1625.7365424121963 0 0 0 0 -123.71047938114893 -217.35429168385599 0 -217.35429168385599 1842.6408117344108 0 0 0 0 58.908856438489238 127.73807709076209 0 127.73807709076209 1670.7748442440679 0 0 0 0 1.1228949508026205 -3.6498792083694411 0 -3.6498792083694411 4.3117536429091672 0 0 0 0 -93.270996749443114 120.73244893789888 0 120.73244893789888 2695.9511714053078 0 0 0 0 228.38408835359405 -611.09089508399484 0 -611.09089508399484 1728.922492790236 0 0 0 0 -3.0723441544669186 -257.68964356558718 0 -257.68964356558718 1472.6481061594095 0 0 0 0 277.79494870347844 -423.41983602804612 0 -423.41983602804612 687.77293909754371 0 0 0 0 167.14694535509989 259.2953773497502 0 259.2953773497502 980.68098143531097 0 0 0 0 149.3223565624412 483.95795381970674 0 483.95795381970674 2260.1463146221795 0 0 0 0 -169.21006491254411 1131.5242154354128 0 1131.5242154354128 1799.5817494833318 0 0 0 0 -216.34215697088803 736.87525531095162 0 736.87525531095162 2373.0479509592624 0 0 0 0 -192.05582355925071 1054.6171183221595 0 1054.6171183221595 2063.9451335532503 0 0 0 0 -83.331526882021535 1108.3534186911129 0 1108.3534186911129 987.3443734391185 0 0 0 0 575.35853378536831 -500.0210157295769 0 -500.0210157295769 546.53574886474235 0 0 0 0 0.34863977122889267 -0.44454393970555728 0 -0.44454393970555728 26.75540448994434 0 0 0 0 -123.81596307153904 997.47473578107019 0 997.47473578107019 865.45596677661524 0 0 0 0 257.30215772745578 1046.278968628656 0 1046.278968628656 -730.73532764648553 0 0 0 0 -103.16930196870817 647.21162706906034 0 647.21162706906034 942.9110834429448 0 0 0 0 807.13492893397506 181.03561644224828 0 181.03561644224828 -1003.1134916451992 0 0 0 0 262.61125652429109 199.2276008962217 0 199.2276008962217 -135.48505000211298 0 0 0 0 103.04457452795759 836.0789037831928 0 836.0789037831928 -18.789656552427914 0 0 0 0 312.42205876232765 166.79726703814231 0 166.79726703814231 -413.76310850284062 0 0 0 0 400.67277689751427 -162.18798486798551 0 -162.18798486798551 -50.46159522808739 0 0 0 0 508.65856354015341 -419.75019156964845 0 -419.75019156964845 94.938940661926608 0 0 0 0 409.02596083197841 -583.4681889252206 0 -583.4681889252206 457.37868840654846 0 0 0 0 124.95546759150966 -458.96370656249928 0 -458.96370656249928 713.64753351503168 0 0 0 0 305.15810184640395 -353.3139350681231 0 -353.3139350681231 70.605580610470497 0 0 0 0 131.77936539142684 -369.94035580196942 0 -369.94035580196942 521.61345327382151 0 0 0 0 72.465979793358201 -313.76972601273155 0 -313.76972601273155 230.87505704671639 0 0 0 0 187.23903078265289 -495.61529548156977 0 -495.61529548156977 395.04133543047647 0 0 0 0 -63.784987036511666 -220.9292668402486 0 -220.9292668402486 417.11104248841002 0 0 0 0 88.969876687281612 -398.02546043386974 0 -398.02546043386974 196.4592714374885 0 0 0 0 -36.148717647625745 -239.89161778577545 0 -239.89161778577545 429.95528695808753 0 0 0 0 -120.67569011985415 -11.259337660892925 0 -11.259337660892925 603.68133719007892 0 0 0 0 -48.858785671322948 -204.75543722463044 0 -204.75543722463044 689.15049761695991 0 0 0 0 6.4477682741307945 -209.26688231491426 0 -209.26688231491426 672.90250211505918 0 0 0 0 -0.95269602350163041 136.84361414054001 0 136.84361414054001 920.21221105958102 0 0 0 0 303.6466737721812 451.71843203610115 0 451.71843203610115 726.02851948465104 0 0 0 0 73.887188930827506 121.41388615805408 0 121.41388615805408 802.28622547797568 0 0 0 0 -19.917168904643404 219.88773788234539 0 219.88773788234539 562.1183657678348 0 0 0 0 -51.909797292220446 -9.1877469506634952 0 -9.1877469506634952 514.373931697628 0 0 0 0 153.32928479292605 183.0052037605783 0 183.0052037605783 253.46257519013307 0 0 0 0 339.25869808514199 310.24287434779399 0 310.24287434779399 224.32938004496827 0 0 0 0 655.79215394294442 333.63021970446425 0 333.63021970446425 209.52256189943364 0 0 0 0 440.07405553793433 325.96208406568621 0 325.96208406568621 219.05292476775503 0 0 0 0 1846.5659134327716 779.75800653090846 0 779.75800653090846 648.92117916379357 0 0 0 0 470.25565796805267 210.60926474172084 0 210.60926474172084 523.35291754829814 0 0 0 0 835.06682738502423 -520.8294732065624 0 -520.8294732065624 1798.8570355173651 0 0 0 0 614.26897875194118 225.65651654277463 0 225.65651654277463 -100.08300593168133 0 0 0 0 485.91854049844278 379.29319710424534 0 379.29319710424534 181.67039349134575 0 0 0 0 -1.6341627408554169 -2.6084167457572391 0 -2.6084167457572391 27.531563667371302 0 0 0 0 -1.7741285742968103 -11.602650689583243 0 -11.602650689583243 27.327752514720032 0 0 0 0 0.26197928138525839 -5.9392819350972417 0 -5.9392819350972417 26.57931503056102 0 0 0 0 234.75080876471395 -412.8972621867897 0 -412.8972621867897 239.20501096441876 0 0 0 0 -116.45909865173849 91.134033424260451 0 91.134033424260451 104.77137257256254 0 0 0 0 -94.854256671775602 7.6229629961308092 0 7.6229629961308092 76.98723145420081 0 0 0 0 68.438609683213144 40.8810358540577 0 40.8810358540577 53.715186045621522 0 0 0 0 -22.534085764176211 107.67653980248724 0 107.67653980248724 69.556454552439391 0 0 0 0 -198.16634699473275 -79.760685136003303 0 -79.760685136003303 83.814846003618641 0 0 0 0 93.916818943671956 153.15382902511556 0 153.15382902511556 139.39796652687073 0 0 0 0 -0.19609461709615594 -11.24325707549616 0 -11.24325707549616 39.122958572870175 0 0 0 0 281.67102827988265 342.69381381958374 0 342.69381381958374 530.53107247388107 0 0 0 0 -2.4394307684177212 -10.193181226672799 0 -10.193181226672799 5.9662021120050781 0 0 0 0 598.80055358250002 91.783090276534494 0 91.783090276534494 210.72038366287597 0 0 0 0 -472.87911438257288 356.15620942105306 0 356.15620942105306 238.6547026342887 0 0 0 0 245.77839561612109 -57.818187951590517 0 -57.818187951590517 54.578904400390456 0 0 0 0 242.41849024075691 -38.068774878884142 0 -38.068774878884142 -61.483461952469952 0 0 0 0 1.1612549299128134 -1.5590866600677558 0 -1.5590866600677558 -0.43294145754742885 0 0 0 0 62.046712037053794 40.499904902513663 0 40.499904902513663 45.51286797488865 0 0 0 0 59.875954889833821 -47.245991877654888 0 -47.245991877654888 88.025118042787653 0 0 0 0 283.26644800427357 23.972021614805271 0 23.972021614805271 55.146883390509174 0 0 0 0 349.50513787437012 -133.72009778546635 0 -133.72009778546635 111.90670390681044 0 0 0 0 313.33041683352644 -87.080560167291878 0 -87.080560167291878 67.141780799895059 0 0 0 0 173.37965530212887 -91.507859854402341 0 -91.507859854402341 227.94166769289586 0 0 0 0 281.65540694652736 0.84706636298506055 0 0.84706636298506055 137.96067493404553 0 0 0 0 152.67562418768739 13.444078531316336 0 13.444078531316336 754.47558253808529 0 0 0 0 265.48117021607504 124.13025446287793 0 124.13025446287793 267.6517656957858 0 0 0 0 19.903747992936815 -128.45301614818527 0 -128.45301614818527 1915.8740859638929 0 0 0 0 225.86448298368487 -7.4450105308060301 0 -7.4450105308060301 463.39591788252255 0 0 0 0 234.9732205983928 -97.4167698284582 0 -97.4167698284582 447.33422303713451 0 0 0 0 319.61073367555946 625.94638094729453 0 625.94638094729453 850.82733970609843 0 0 0 0 791.62050701864155 1225.3816051222893 0 1225.3816051222893 1609.6589886343536 0 0 0 0 320.6657030256265 621.87171717393358 0 621.87171717393358 797.41841015324462 0 0 0 0 189.31895957630877 542.11663960956503 0 542.11663960956503 1011.9599294414584 0 0 0 0 96.447391295381749 379.03242137695634 0 379.03242137695634 762.55332914690371 0 0 0 0 426.28409387017473 923.83657130152278 0 923.83657130152278 1376.9792625308692 0 0 0 0 -211.81025822545166 1165.2370827641971 0 1165.2370827641971 1737.413007531024 0 0 0 0 -92.183036880498548 1284.7701083763168 0 1284.7701083763168 1826.7816358068521 0 0 0 0 -278.08424518140055 899.04577009179047 0 899.04577009179047 1670.4898095780663 0 0 0 0 -197.69165310057883 793.27433638835646 0 793.27433638835646 1804.4263172882493 0 0 0 0 -427.60499931520098 295.54689351781235 0 295.54689351781235 1073.8850256822043 0 0 0 0 211.33875209039479 -513.01132621290162 0 -513.01132621290162 211.54080505002094 0 0 0 0 0.74698195613325424 -2.8211890688985406 0 -2.8211890688985406 15.073476275268376 0 0 0 0 1032.7489786071912 2006.937352443947 0 2006.937352443947 2638.9362030149932 0 0 0 0 443.97011500576309 51.072452450993296 0 51.072452450993296 2512.936387083857 0 0 0 0 1370.1955053642134 246.31676004607289 0 246.31676004607289 851.91485741293582 0 0 0 0 266.78579934804475 673.57287981026457 0 673.57287981026457 1099.8189509888834 0 0 0 0 118.34450949337815 314.90640751022147 0 314.90640751022147 1062.9158579128562 0 0 0 0 -257.13230933924206 927.58174625624088 0 927.58174625624088 2007.6960221517147 0 0 0 0 82.633541707074983 547.39816484627954 0 547.39816484627954 703.64197120571043 0 0 0 0 -15.809439433465741 241.96456543669046 0 241.96456543669046 291.92416510661133 0 0 0 0 -435.40743794743685 -669.96712283352099 0 -669.96712283352099 -323.68661445565522 0 0 0 0 -1466.4363785795313 -169.30277909152937 0 -169.30277909152937 306.87213356755092 0 0 0 0 -282.32396532647726 -195.28705626096053 0 -195.28705626096053 413.11363099372102 0 0 0 0 -182.16371424563295 -175.51459621425602 0 -175.51459621425602 119.71043972918415 0 0 0 0 -643.63316327578468 -614.55726766843873 0 -614.55726766843873 -31.27373088371678 0 0 0 0 -468.70584418711132 91.518740255338344 0 91.518740255338344 123.73237599770073 0 0 0 0 -468.60104979693733 18.175255842194019 0 18.175255842194019 354.63744468690129 0 0 0 0 -340.98259014195537 -172.37081119499635 0 -172.37081119499635 175.32057887995325 0 0 0 0 -340.0551230995261 -157.04238575110503 0 -157.04238575110503 -72.114859844572493 0 0 0 0 265.25947747589453 225.2835495839463 0 225.2835495839463 199.45389212961891 0 0 0 0 394.0780750657068 -89.805363391264109 0 -89.805363391264109 840.87399380831994 0 0 0 0 673.1677366535605 680.83930356393103 0 680.83930356393103 581.93835460167611 0 0 0 0 685.89839753620436 680.92754746633364 0 680.92754746633364 315.72401379942312 0 0 0 0 351.44417883631195 241.34952815283032 0 241.34952815283032 272.61384266382811 0 0 0 0 314.52397817652354 337.09954128400568 0 337.09954128400568 84.718442142140702 0 0 0 0 -275.3351241301516 -59.604342705206363 0 -59.604342705206363 30.686181662837043 0 0 0 0 196.46587739714141 271.7352640754325 0 271.7352640754325 241.76158880320509 0 0 0 0 263.07421702331385 249.78491542241682 0 249.78491542241682 -13.659657840325963 0 0 0 0 -351.51514921193302 61.626758690123097 0 61.626758690123097 -159.54752140151686 0 0 0 0 -718.41726653574187 -193.22693855896068 0 -193.22693855896068 19.00225225178292 0 0 0 0 -794.6922160053 -449.45952570764712 0 -449.45952570764712 -274.74869516541366 0 0 0 0 -941.99288571978832 149.50188219921984 0 149.50188219921984 -105.00481091641996 0 0 0 0 -514.82157187207076 -206.81873015623205 0 -206.81873015623205 -430.39746411988745 0 0 0 0 318.60881662408246 536.975922933947 0 536.975922933947 722.90713614613924 0 0 0 0 347.54258444613697 609.59725872996933 0 609.59725872996933 781.35161119120312 0 0 0 0 296.62095628478392 524.2893878281393 0 524.2893878281393 794.39910148526542 0 0 0 0 398.01107361749382 664.34319709201009 0 664.34319709201009 552.08386665103899 0 0 0 0 423.93902517009974 755.11821249348577 0 755.11821249348577 820.28228795206087 0 0 0 0 429.06751457608743 524.89946258326017 0 524.89946258326017 355.2899886824016 0 0 0 0 433.06188760204623 477.06051069196474 0 477.06051069196474 529.3667580565816 0 0 0 0 459.07015979848347 341.8483009179763 0 341.8483009179763 747.80004500855284 0 0 0 0 521.90927571560587 371.16306629311293 0 371.16306629311293 707.02399843803141 0 0 0 0 487.43890089894376 479.72208561430307 0 479.72208561430307 431.36537318243063 0 0 0 0 394.863919121246 481.29306035186164 0 481.29306035186164 635.30315716228506 0 0 0 0 580.57309710959589 273.77837750339677 0 273.77837750339677 598.97047773980012 0 0 0 0 89.508815904982839 261.14100051263085 0 261.14100051263085 336.107307852144 0 0 0 0 449.87183999441459 201.09345769832726 0 201.09345769832726 630.03694918301699 0 0 0 0 456.19946241228058 185.21655105686114 0 185.21655105686114 154.88907298835693 0 0 0 0 198.27272102666757 -187.84547612205643 0 -187.84547612205643 334.91675345585099 0 0 0 0 465.64981660078303 -168.11142331626985 0 -168.11142331626985 104.80304267161409 0 0 0 0 202.08081407574537 -364.71329318224161 0 -364.71329318224161 830.24235571610916 0 0 0 0 210.91662508278682 -401.8272431222922 0 -401.8272431222922 -73.621083981561242 0 0 0 0 465.71578248385146 -191.21244320636197 0 -191.21244320636197 995.71929892843764 0 0 0 0 778.87142936142754 -247.868113389668 0 -247.868113389668 728.55111599730481 0 0 0 0 -1123.0172469733157 -384.70275427014712 0 -384.70275427014712 56.968825562449638 0 0 0 0 -0.95348066191031133 -12.814844755352897 0 -12.814844755352897 17.177897276778765 0 0 0 0 -693.75126957100019 -372.06645140430192 0 -372.06645140430192 -258.86253236881748 0 0 0 0 -928.51354082092575 -85.128758357186598 0 -85.128758357186598 3.7660990797448903 0 0 0 0 -409.66178654729174 -209.19698731165408 0 -209.19698731165408 -94.061909288953757 0 0 0 0 -427.6327638152934 -9.6372297221387271 0 -9.6372297221387271 153.64572542680253 0 0 0 0 23.176598136142161 -16.225072858049316 0 -16.225072858049316 -26.642064133455278 0 0 0 0 -662.6627603776642 -91.582884655843372 0 -91.582884655843372 192.90846050492837 0 0 0 0 -302.04324047585806 -220.34536470112289 0 -220.34536470112289 -31.573557962430641 0 0 0 0 -215.88050273523822 39.672053582522494 0 39.672053582522494 326.94921994344622 0 0 0 0 -166.93325820938435 -390.55298365601993 0 -390.55298365601993 -311.96382205584086 0 0 0 0 -966.41603283799668 -144.85901327626198 0 -144.85901327626198 130.66648755350616 0 0 0 0 -1153.4267761094998 87.016307298246829 0 87.016307298246829 -2.8347626848553773 0 0 0 0 -9.2139791331023861 5.354045308663359 0 5.354045308663359 7.9801554657389033 0 0 0 0 3.099630395537385 -24.994240050635824 0 -24.994240050635824 62.572097336140018 0 0 0 0 -1240.5618972895822 -532.18735153566377 0 -532.18735153566377 63.357778200152097 0 0 0 0 -139.85980737765533 210.63582487212261 0 210.63582487212261 133.87480176454164 0 0 0 0 -555.09222131147681 -520.03545244439738 0 -520.03545244439738 34.285124661022564 0 0 0 0 -638.36942997704318 -319.28394835646031 0 -319.28394835646031 -45.953961626946693 0 0 0 0 -454.44847953626959 -367.90227077358577 0 -367.90227077358577 -213.33644148889289 0 0 0 0 -456.70373063887473 -387.62461037384492 0 -387.62461037384492 -48.143594055640278 0 0 0 0 -550.35660436880607 -352.59741247758939 0 -352.59741247758939 -55.125054914205975 0 0 0 0 -570.28914804696615 -528.5076362648033 0 -528.5076362648033 -175.0112137700653 0 0 0 0 -269.13689581690778 -338.15028653046465 0 -338.15028653046465 -153.01332523942983 0 0 0 0 -277.38265393333495 -326.50556717444852 0 -326.50556717444852 -12.72979559349551 0 0 0 0 -61.479053491706509 -307.10560985952907 0 -307.10560985952907 -156.42755884338112 0 0 0 0 -89.174187184555194 -307.36400919417792 0 -307.36400919417792 -176.57618382562941 0 0 0 0 -315.65021993593473 -295.15459238984477 0 -295.15459238984477 -90.681802467646776 0 0 0 0 -316.79569186954291 -323.03676022883451 0 -323.03676022883451 -147.38244370053872 0 0 0 0 -301.89105331912288 -252.29293847900408 0 -252.29293847900408 -168.18789560014557 0 0 0 0 -301.95000788823927 -310.18274399115035 0 -310.18274399115035 -110.42171890877216 0 0 0 0 -121.26272107894329 -242.22181459212152 0 -242.22181459212152 -155.48789964178286 0 0 0 0 -982.09638298398386 -384.08891510928879 0 -384.08891510928879 53.581750177021604 0 0 0 0 -156.02666410053007 7.7610882972621766 0 7.7610882972621766 -41.674365290964488 0 0 0 0 45.317379314227765 -35.7230164927023 0 -35.7230164927023 -102.5497998919891 0 0 0 0 -0.88867149982715832 -5.8609238805237549 0 -5.8609238805237549 -1.875394377086252 0 0 0 0 -609.9540542198738 -319.27224233993911 0 -319.27224233993911 -66.487567350952304 0 0 0 0 -665.95851860783114 -129.62987342114502 0 -129.62987342114502 -70.89453967915324 0 0 0 0 -494.47412585964412 -161.38239262774732 0 -161.38239262774732 -142.45755200972781 0 0 0 0 -8.0956613494300598 -5.5777101652364607 0 -5.5777101652364607 55.037599705480687 0 0 0 0 -454.10385666639195 -299.9722979299695 0 -299.9722979299695 -99.724196736135127 0 0 0 0 0.2713982317703536 -9.9019696860776669 0 -9.9019696860776669 51.514433603156277 0 0 0 0 -2.1478030423617582 3.061978083983881 0 3.061978083983881 3.173085556062631 0 0 0 0 -373.58251318952898 -153.68772870521207 0 -153.68772870521207 124.97086703761306 0 0 0 0 -254.88308364194745 89.836228349221528 0 89.836228349221528 53.109558680444025 0 0 0 0 -14.806140113743822 -337.22665611963748 0 -337.22665611963748 -153.30980173684657 0 0 0 0 -298.76706771457066 -119.2689232388002 0 -119.2689232388002 -70.952478490304202 0 0 0 0 -37.650570850650183 -236.03885455764976 0 -236.03885455764976 -78.602255664285622 0 0 0 0 99.267227006425856 -177.59265961997494 0 -177.59265961997494 -71.295127051678719 0 0 0 0 95.754266128958989 -157.55829811848525 0 -157.55829811848525 15.124851332100661 0 0 0 0 264.83013074758492 -359.8858312254888 0 -359.8858312254888 69.796557776298869 0 0 0 0 382.05603527789208 -1430.5309005763702 0 -1430.5309005763702 -375.25306318618823 0 0 0 0 144.74821697463722 90.965390338124053 0 90.965390338124053 -220.46175074065104 0 0 0 0 -0.45604809627994314 -2.63164134970269 0 -2.63164134970269 7.806229530636756 0 0 0 0 -1571.393847377203 -905.13087892408657 0 -905.13087892408657 255.55330716422759 0 0 0 0 -180.81983202183801 136.72444903208816 0 136.72444903208816 -73.431000186465099 0 0 0 0 2140.4080883051647 768.55730639689136 0 768.55730639689136 -2132.0790240732604 0 0 0 0 1064.448862251862 1175.0031634928891 0 1175.0031634928891 -1648.1200111397775 0 0 0 0 1831.8397472584029 -357.00249913638982 0 -357.00249913638982 -1128.9517545986455 0 0 0 0 -55.039661833099672 -268.00660825759405 0 -268.00660825759405 -2.0281702066858998 0 0 0 0 575.1305132362686 -714.45255405694479 0 -714.45255405694479 -937.88508570194244 0 0 0 0 -116.37956118067814 -1113.6066798058746 0 -1113.6066798058746 -820.83020543906605 0 0 0 0 113.58494118994895 -384.53155186776712 0 -384.53155186776712 37.065278423699056 0 0 0 0 44.204828296815492 -319.76055227281921 0 -319.76055227281921 153.16299603866355 0 0 0 0 43.934011422249029 -307.7581961377731 0 -307.7581961377731 98.930910111928824 0 0 0 0 120.289245836323 -462.28888112325012 0 -462.28888112325012 92.964064003084786 0 0 0 0 117.69219319741569 -315.79021397111501 0 -315.79021397111501 -79.88806533114257 0 0 0 0 -25.270067868370461 -337.6727959682612 0 -337.6727959682612 -67.913530466808879 0 0 0 0 95.238279306749973 -282.32826016945182 0 -282.32826016945182 -142.83283895617205 0 0 0 0 165.96987236206223 -284.96441506446718 0 -284.96441506446718 -63.833409202437906 0 0 0 0 128.97239692764197 -326.07517147123872 0 -326.07517147123872 -81.010336256993469 0 0 0 0 170.63277536914029 -277.19779936138002 0 -277.19779936138002 -92.145054751439602 0 0 0 0 204.3140293145243 -276.42735635670397 0 -276.42735635670397 -142.66540487443126 0 0 0 0 207.85860048091229 -226.15934246827305 0 -226.15934246827305 -59.901642867145711 0 0 0 0 7.1915205698751379 -351.15840025744546 0 -351.15840025744546 -153.46440907148644 0 0 0 0 125.5349477325226 -334.76994581354302 0 -334.76994581354302 -112.54621822228364 0 0 0 0 107.592415539223 -254.65333179405752 0 -254.65333179405752 -62.38209685512993 0 0 0 0 104.22797676699884 -303.81433030097105 0 -303.81433030097105 -163.1316910937021 0 0 0 0 -79.413554673041745 -271.41693696024049 0 -271.41693696024049 -118.16512845137913 0 0 0 0 -67.247784693097856 -267.4013910251997 0 -267.4013910251997 -35.203206280173617 0 0 0 0 129.77398664945122 -195.88101485948664 0 -195.88101485948664 72.186415769640007 0 0 0 0 148.61962622571809 -271.1355704207308 0 -271.1355704207308 -77.381099588092184 0 0 0 0 251.25732400258931 -172.37173624892887 0 -172.37173624892887 16.73361546783417 0 0 0 0 266.82416878134063 -234.46839946840191 0 -234.46839946840191 -66.638619278892293 0 0 0 0 248.96409743487311 -267.64686657749553 0 -267.64686657749553 -78.502814191357174 0 0 0 0 328.63253324893412 -224.61911590479576 0 -224.61911590479576 48.378365981443494 0 0 0 0 332.50298402850331 -89.581937267711851 0 -89.581937267711851 86.923848892911337 0 0 0 0 258.50520317263727 -138.71948460661224 0 -138.71948460661224 0.45973661207972327 0 0 0 0 252.9808941478168 -173.66108341587824 0 -173.66108341587824 38.904754496339592 0 0 0 0 157.54359876937633 -61.969695399842749 0 -61.969695399842749 107.88106197478191 0 0 0 0 303.81326863789718 -97.346066102902114 0 -97.346066102902114 5.5627580322616268 0 0 0 0 147.15378802795203 -89.393115797087376 0 -89.393115797087376 5.2769010821102711 0 0 0 0 155.90415821029683 -85.997743068593991 0 -85.997743068593991 -6.0415245759650134 0 0 0 0 124.37596178204603 -170.56487005615054 0 -170.56487005615054 -28.407381059962063 0 0 0 0 248.10648881761063 -170.13420264547312 0 -170.13420264547312 -39.103980725500151 0 0 0 0 161.29595147573718 -81.033867653350171 0 -81.033867653350171 22.225846731424099 0 0 0 0 93.400231120082935 9.8892623858409934 0 9.8892623858409934 -35.503929484326363 0 0 0 0 0.40131989045949368 1.1307916707224308 0 1.1307916707224308 -0.76572443083739472 0 0 0 0 53.750121424184726 -13.030129966460663 0 -13.030129966460663 8.5468821713002399 0 0 0 0 46.220212779247504 -22.924438785350503 0 -22.924438785350503 8.4651619279175065 0 0 0 0 -18.762511081611592 -5.6092159423169505 0 -5.6092159423169505 32.576553083781619 0 0 0 0 -6.5382406549633743 -18.514720175408002 0 -18.514720175408002 54.221583356884366 0 0 0 0 -36.825878296805513 11.893573351186205 0 11.893573351186205 3.5392311333962425 0 0 0 0 -3.0871647242006368 -0.66701864313174042 0 -0.66701864313174042 5.0174792512063391 0 0 0 0 22.813592714104743 -66.215798516208451 0 -66.215798516208451 13.499459308586665 0 0 0 0 16.814260341084264 -61.897301999131741 0 -61.897301999131741 10.519158971408615 0 0 0 0 -2.8521241345791548 -0.67298395719403459 0 -0.67298395719403459 4.2473808040300582 0 0 0 0 -197.82456846720561 12.830462890458875 0 12.830462890458875 42.517583489798199 0 0 0 0 22.804098560451848 -59.569259285753105 0 -59.569259285753105 106.28692977748869 0 0 0 0 -14.989830899504796 -12.385255917881295 0 -12.385255917881295 56.614144913852215 0 0 0 0 133.19420494853904 -278.50597111561638 0 -278.50597111561638 -17.05828738019045 0 0 0 0 201.41602859760224 -233.04658011906031 0 -233.04658011906031 -49.795543607113359 0 0 0 0 138.67961670599516 -147.06252707983731 0 -147.06252707983731 9.8824501677154331 0 0 0 0 48.855923310689832 -62.672487900337728 0 -62.672487900337728 -10.944312214312959 0 0 0 0 -24.280806653285254 -126.72785155111342 0 -126.72785155111342 9.4162528135109369 0 0 0 0 19.740591976488304 -167.70560672551073 0 -167.70560672551073 41.941345775725495 0 0 0 0 -3.3818698371296705 -250.09357122809161 0 -250.09357122809161 62.871839664465369 0 0 0 0 -85.076258032026089 -145.34366339015651 0 -145.34366339015651 152.09491384311696 0 0 0 0 -128.75924880082925 -67.556158905922985 0 -67.556158905922985 310.64415059778548 0 0 0 0 -197.47438604605577 -162.62983985586106 0 -162.62983985586106 403.75145726664778 0 0 0 0 -1.5113379755658958 -0.51835174527035122 0 -0.51835174527035122 2.1280771731664458 0 0 0 0 172.69258879305835 -331.1308208333794 0 -331.1308208333794 358.76666235728044 0 0 0 0 -73.175385101306347 -123.5229487360084 0 -123.5229487360084 145.23103164267377 0 0 0 0 -363.88782158490653 113.56871501083697 0 113.56871501083697 47.617437868917477 0 0 0 0 -16.850566505579081 -51.501187021924125 0 -51.501187021924125 177.34393447357479 0 0 0 0 34.400143699715954 -104.69367661566139 0 -104.69367661566139 170.76655277547252 0 0 0 0 -63.335713771717565 -13.31093529219288 0 -13.31093529219288 160.91435966824065 0 0 0 0 -21.55538047246182 -53.17272568374392 0 -53.17272568374392 191.41566630609304 0 0 0 0 -116.81928930692175 28.180851653269201 0 28.180851653269201 255.67665033798039 0 0 0 0 -167.67078447477888 176.70694641223599 0 176.70694641223599 66.638416646987025 0 0 0 0 -248.77904517328625 -53.41171816381393 0 -53.41171816381393 397.9020709678116 0 0 0 0 -27.682672932083733 104.19588690655655 0 104.19588690655655 -114.23729777164408 0 0 0 0 60.306572108197543 -29.283735123215592 0 -29.283735123215592 248.62366786062438 0 0 0 0 -4.2445275720309397 0.77723069973733061 0 0.77723069973733061 0.20889418549598471 0 0 0 0 -65.988192297520072 189.06151246468653 0 189.06151246468653 161.56852680024349 0 0 0 0 -212.03422723008862 137.45805207889498 0 137.45805207889498 293.82079377102491 0 0 0 0 -53.174664542401842 120.04752193413697 0 120.04752193413697 265.83065087151772 0 0 0 0 -115.48123081027279 224.89552043115691 0 224.89552043115691 193.63182875125494 0 0 0 0 -151.40613236919671 37.817179552450398 0 37.817179552450398 421.3668850232134 0 0 0 0 -150.36394390765463 2.4003868054642226 0 2.4003868054642226 127.76970920676831 0 0 0 0 -28.410447608705908 -9.5440287758756313 0 -9.5440287758756313 70.744331497393432 0 0 0 0 -36.52918407133734 -30.741310463192349 0 -30.741310463192349 112.99102562420421 0 0 0 0 6.8815714471478202 64.871873842546847 0 64.871873842546847 42.823801922102575 0 0 0 0 -10.419489564423145 3.4326427512010049 0 3.4326427512010049 2.1469511042255931 0 0 0 0 -11.470544414191863 33.425165892898804 0 33.425165892898804 81.041153656537062 0 0 0 0 -9.3849876150054818 -0.47395930703383549 0 -0.47395930703383549 34.973155920000039 0 0 0 0 2.3404508015300962 50.449995130940806 0 50.449995130940806 88.446066452292143 0 0 0 0 -144.96434038444386 43.895543717626424 0 43.895543717626424 55.086979852378136 0 0 0 0 -99.18614190425069 43.769877436119714 0 43.769877436119714 133.55244149784266 0 0 0 0 -29.469963111849513 1.2511839649359757 0 1.2511839649359757 4.779972257217949 0 0 0 0 -23.747164932323358 35.404495530259737 0 35.404495530259737 80.048522623837925 0 0 0 0 -100.33695277693005 42.686220169438457 0 42.686220169438457 351.00653071419947 0 0 0 0 -15.222215480189909 0.91521713054839893 0 0.91521713054839893 -0.35646873568512066 0 0 0 0 -150.2582319027324 -240.22834034073094 0 -240.22834034073094 957.89396297695203 0 0 0 0 138.09562669186835 48.662102076981682 0 48.662102076981682 177.47312844274711 0 0 0 0 -26.315460175619137 19.084519697222277 0 19.084519697222277 71.932308177580126 0 0 0 0 -35.984918996474335 15.132826848712284 0 15.132826848712284 78.060533910813689 0 0 0 0 -27.138251583560304 -0.10744008225265134 0 -0.10744008225265134 101.89393202281644 0 0 0 0 -50.089492464777322 9.3884469795812038 0 9.3884469795812038 101.13094363512391 0 0 0 0 -55.31667236875137 12.409401677283313 0 12.409401677283313 118.49784938618541 0 0 0 0 -72.52390091158145 64.072834810100176 0 64.072834810100176 92.946753543445084 0 0 0 0 -57.7774629430196 15.226569344675227 0 15.226569344675227 143.4578004838404 0 0 0 0 -55.64647074450022 -1.5330565870826831 0 -1.5330565870826831 128.01432053281678 0 0 0 0 -53.517681837519831 2.8545660657873668 0 2.8545660657873668 114.34555179371091 0 0 0 0 -57.682944463019339 -0.048963670116791036 0 -0.048963670116791036 121.88879515405824 0 0 0 0 -57.227706729384636 2.9618362748296931 0 2.9618362748296931 110.13320319914783 0 0 0 0 -47.154319332004661 -28.208425285451085 0 -28.208425285451085 142.72221039155556 0 0 0 0 -65.781972926004528 -3.3143060117181449 0 -3.3143060117181449 113.03273811416875 0 0 0 0 -37.51071077728875 -3.479254645328183 0 -3.479254645328183 112.4184678557358 0 0 0 0 -32.162974898119955 6.6692452114730258 0 6.6692452114730258 109.31673785877138 0 0 0 0 -34.967396669797552 -23.543165347808099 0 -23.543165347808099 135.25972240898409 0 0 0 0 -2.1230827038074267 -6.3001534883696877 0 -6.3001534883696877 66.844976044958457 0 0 0 0 -9.4134306246796768 -87.312108334786899 0 -87.312108334786899 135.6319143131841 0 0 0 0 -34.564936230041894 -50.920303874474484 0 -50.920303874474484 83.367975775508967 0 0 0 0 -176.31824380870762 17.152785923615738 0 17.152785923615738 190.18155101469893 0 0 0 0 -81.369386568833363 -54.462672132309308 0 -54.462672132309308 223.00710924550367 0 0 0 0 -110.40448482408965 3.6552485369975329 0 3.6552485369975329 132.76145607732542 0 0 0 0 -63.680579008200766 12.815551093441172 0 12.815551093441172 115.95321372742183 0 0 0 0 -102.85360262867442 82.771786834441627 0 82.771786834441627 50.054680421744706 0 0 0 0 -25.885423465582335 24.672436963897781 0 24.672436963897781 12.603648433854687 0 0 0 0 -163.16946745903846 271.95784352278133 0 271.95784352278133 -10.072545578019344 0 0 0 0 -117.66061565823338 52.671614914572274 0 52.671614914572274 211.46345435969124 0 0 0 0 -28.095922868320486 -18.973039172655263 0 -18.973039172655263 110.92289339602303 0 0 0 0 -62.912895597916304 11.889108631858107 0 11.889108631858107 109.5209229807092 0 0 0 0 -40.345566983149865 7.9224251859959622 0 7.9224251859959622 56.989009371565771 0 0 0 0 -28.925036190510582 21.704190185901098 0 21.704190185901098 18.619031534748501 0 0 0 0 -23.351208980816409 -0.37213369434903143 0 -0.37213369434903143 54.538501659360918 0 0 0 0 -10.737160802580775 -2.2710632292328228 0 -2.2710632292328228 13.092915171349887 0 0 0 0 -13.25138091988174 8.4045145987729484 0 8.4045145987729484 13.575683479353529 0 0 0 0 -4.3198645666141315 -0.04906848026098487 0 -0.04906848026098487 4.5630612280118612 0 0 0 0 -18.197108465561882 -3.8657481390664543 0 -3.8657481390664543 1.1939128331287066 0 0 0 0 -9.6434722146400986 6.1911228704647101 0 6.1911228704647101 -2.5776747146843348 0 0 0 0 -10.753193532179523 6.1142416584543753 0 6.1142416584543753 2.056883345823735 0 0 0 0 -23.459047699153075 47.363640118059266 0 47.363640118059266 72.926395340124145 0 0 0 0 45.288154518942747 13.575303968696971 0 13.575303968696971 38.621092804096406 0 0 0 0 38.45458543075938 39.768117150226317 0 39.768117150226317 73.041565799314412 0 0 0 0 -1.5882509571623498 1.4434648519748521 0 1.4434648519748521 -0.44864996453237893 0 0 0 0 38.772622689359196 -13.217243655250059 0 -13.217243655250059 43.041758624698559 0 0 0 0 -3.2114860258677238 0.21409031143791424 0 0.21409031143791424 0.99289565388966139 0 0 0 0 -38.139806888217208 25.687048704847257 0 25.687048704847257 104.23048415205267 0 0 0 0 -111.31198319067244 159.20893490747403 0 159.20893490747403 -35.858093292198646 0 0 0 0 -13.809144493678872 80.617655181735245 0 80.617655181735245 -202.89144947938621 0 0 0 0 -46.97067240796423 61.976413019263418 0 61.976413019263418 100.17797419252383 0 0 0 0 -16.200064662809215 7.6023005246782134 0 7.6023005246782134 -4.2071411117693316 0 0 0 0 22.343630647591453 -35.878281961995526 0 -35.878281961995526 81.623821745535679 0 0 0 0 24.012150750127603 44.481070210149483 0 44.481070210149483 12.16143861306773 0 0 0 0 8.1685999773480944 -23.664191514122649 0 -23.664191514122649 89.827710247656796 0 0 0 0 -2.0245100336110227 -60.177585063727747 0 -60.177585063727747 -26.368136894074269 0 0 0 0 2.585525693760319 0.29225438122493586 0 0.29225438122493586 -2.2897880042598331 0 0 0 0 -151.94158329238326 40.205329076830822 0 40.205329076830822 27.869429525584565 0 0 0 0 -89.549109451718323 65.961101085986229 0 65.961101085986229 -37.23878468228213 0 0 0 0 5.8680669438808764 -96.885324430731998 0 -96.885324430731998 -40.762467899920011 0 0 0 0 1.260127071509082 2.9244213828823433 0 2.9244213828823433 -1.5458759617144153 0 0 0 0 40.708145849586799 48.38809615993523 0 48.38809615993523 -29.449672684946563 0 0 0 0 26.415422332924209 20.804433385917946 0 20.804433385917946 0.48978280516166706 0 0 0 0 421.0538872278139 142.60325537628887 0 142.60325537628887 -115.16995556007896 0 0 0 0 -163.58678353698815 42.855179092148319 0 42.855179092148319 42.465883384880726 0 0 0 0 0.51327064922021126 -0.85460326769324269 0 -0.85460326769324269 11.812393828089341 0 0 0 0 -6.2723674385870254 110.14675749044545 0 110.14675749044545 -71.504785004421137 0 0 0 0 39.999244532056764 -5.4395275900533306 0 -5.4395275900533306 83.848607960098889 0 0 0 0 -294.87802959565488 103.1489949143288 0 103.1489949143288 94.708508906747738 0 0 0 0 -61.367216713922062 93.821906702509295 0 93.821906702509295 76.288318827268085 0 0 0 0 -50.028428802987946 42.642617485378651 0 42.642617485378651 43.108233902530628 0 0 0 0 -5.7474076243997843 156.54419542920368 0 156.54419542920368 75.437912098279412 0 0 0 0 -2.0197112268700859 2.8490803202754194 0 2.8490803202754194 21.105453512520199 0 0 0 0 143.92920062370104 99.727780678036652 0 99.727780678036652 16.154901602734753 0 0 0 0 -31.573115049301123 41.905658437455713 0 41.905658437455713 40.043555237356486 0 0 0 0 -1.1245664062978911 11.76380575257599 0 11.76380575257599 -3.2086551012756246 0 0 0 0 4.1369049089407781 24.460780328154215 0 24.460780328154215 26.090838252945105 0 0 0 0 -11.287821208865385 21.173354528358427 0 21.173354528358427 29.263762797938881 0 0 0 0 -7.2680884649859827 14.787557146419019 0 14.787557146419019 26.024236341744341 0 0 0 0 -7.7198523626630049 29.176746732308857 0 29.176746732308857 38.02401466354786 0 0 0 0 -22.727628723545422 40.495817456223449 0 40.495817456223449 66.354232809586392 0 0 0 0 -10.331241667611053 21.315835466039204 0 21.315835466039204 12.07125054574756 0 0 0 0 -5.8074668908163858 30.79234618916189 0 30.79234618916189 42.472171622415772 0 0 0 0 -4.9975670612184331 23.555474591397797 0 23.555474591397797 39.913835809478769 0 0 0 0 -10.562367314396603 27.806283572379886 0 27.806283572379886 37.444305306772634 0 0 0 0 -6.9515450876242539 28.350053966889391 0 28.350053966889391 67.21274933728273 0 0 0 0 -23.668856072696144 10.740728778248013 0 10.740728778248013 155.39421002376184 0 0 0 0 -1.1106504538013446 0.39673082885122568 0 0.39673082885122568 -0.054709782753178615 0 0 0 0 -24.36942718642058 24.420803485478245 0 24.420803485478245 101.53371655252704 0 0 0 0 -4.8286223335196823 16.815671842348635 0 16.815671842348635 15.293625378012102 0 0 0 0 21.24567218690936 45.142114227579441 0 45.142114227579441 54.367851028320729 0 0 0 0 7.2623304937096691 11.126688011150691 0 11.126688011150691 69.045893496979261 0 0 0 0 -1.1649448399475659 32.033689163785311 0 32.033689163785311 96.500035181757994 0 0 0 0 -360.89337521761831 -109.18194385622701 0 -109.18194385622701 94.618616299128917 0 0 0 0 -15.018839812437363 8.8936256939268787 0 8.8936256939268787 27.444030015158205 0 0 0 0 -19.353383483168848 8.8395417847295832 0 8.8395417847295832 29.415526748021449 0 0 0 0 -18.505061890240707 8.4420163121732621 0 8.4420163121732621 43.537994012872076 0 0 0 0 -3.5116225772521705 -14.030015203295077 0 -14.030015203295077 -2.3777600304570683 0 0 0 0 -189.63225286886433 343.63777156982997 0 343.63777156982997 344.95554561253812 0 0 0 0 495.16432350798766 179.90008209678126 0 179.90008209678126 12.144125841470668 0 0 0 0 198.00672884318345 -244.33818459813847 0 -244.33818459813847 214.84225890634843 0 0 0 0 0.42521670933127981 1.1130574903053647 0 1.1130574903053647 7.5401301407652852 0 0 0 0 -136.54823280682797 -155.80363641567146 0 -155.80363641567146 533.58573075376626 0 0 0 0 -295.54712594233678 193.49082364794594 0 193.49082364794594 428.91357961599169 0 0 0 0 -65.100714929623791 13.662864612622798 0 13.662864612622798 95.355276386311743 0 0 0 0 612.77209599542994 -382.03888667581123 0 -382.03888667581123 -289.640356997872 0 0 0 0 -8.9892372061203645 -1.0176738565818937 0 -1.0176738565818937 16.025846094451055 0 0 0 0 -25.606155446259958 11.219100370891553 0 11.219100370891553 0.60091532262870828 0 0 0 0 -223.53284719572002 -10.270463096856474 0 -10.270463096856474 378.08237033129922 0 0 0 0 -77.375708044765815 252.58947468252336 0 252.58947468252336 400.30970113241347 0 0 0 0 -150.4212870647807 -188.21626291346911 0 -188.21626291346911 -202.26013497500389 0 0 0 0 220.79787967731227 114.46756751720022 0 114.46756751720022 -63.555436736780393 0 0 0 0 -148.98137200993924 96.045536641393966 0 96.045536641393966 99.907905567502894 0 0 0 0 -50.577684604760179 44.820576751717454 0 44.820576751717454 100.33832841786352 0 0 0 0 -128.12934224281162 109.81733477879243 0 109.81733477879243 94.647098250829004 0 0 0 0 -144.10880122302842 -14.658493844093755 0 -14.658493844093755 200.43968501155473 0 0 0 0 -117.1876603102628 76.297336930080746 0 76.297336930080746 195.69971505145077 0 0 0 0 -59.652806878406295 24.340179760398769 0 24.340179760398769 130.53655461635572 0 0 0 0 -51.243829776554776 23.631080182120058 0 23.631080182120058 130.5888993045312 0 0 0 0 -76.407192465223488 -9.2617678674087074 0 -9.2617678674087074 119.08491906677227 0 0 0 0 -76.331305310959578 -8.7816010709902912 0 -8.7816010709902912 111.77375858771848 0 0 0 0 -63.703578151997135 60.702837519935201 0 60.702837519935201 96.296753182585235 0 0 0 0 -208.41524841680257 185.51085804423201 0 185.51085804423201 124.3525856105698 0 0 0 0 0.73188481079426992 17.561400386628492 0 17.561400386628492 102.68570803104251 0 0 0 0 -3.6663592129898461 20.895020332183776 0 20.895020332183776 96.028159432733446 0 0 0 0 0.46686270372630378 18.195580428331908 0 18.195580428331908 4.8553818698970588 0 0 0 0 0.027826912363707379 24.658021404963165 0 24.658021404963165 88.365982156028622 0 0 0 0 -3.3223399759883581 15.243887399701705 0 15.243887399701705 63.535123028341928 0 0 0 0 -21.397410988305637 17.127729733814704 0 17.127729733814704 48.192339230503421 0 0 0 0 -3.346844640847948 11.732316794535514 0 11.732316794535514 60.156225614162111 0 0 0 0 -8.2294411500397757 18.926369931853728 0 18.926369931853728 54.183380522066756 0 0 0 0 -4.8253870334592648 26.349827732366975 0 26.349827732366975 68.845490864914609 0 0 0 0 -12.72499095256898 2.3097705918841882 0 2.3097705918841882 38.536421961384306 0 0 0 0 20.280443840003727 62.058629058898077 0 62.058629058898077 168.96370585123077 0 0 0 0 -0.58678451733430848 23.294230291649001 0 23.294230291649001 63.689290849531972 0 0 0 0 -16.632820428078048 18.830095148416149 0 18.830095148416149 96.694050343459821 0 0 0 0 5.0035247011546744 17.558675371772551 0 17.558675371772551 69.46410029382514 0 0 0 0 -9.9261261988802278 2.8155008745838863 0 2.8155008745838863 50.889096935983062 0 0 0 0 -22.751177975098472 25.041918162751244 0 25.041918162751244 102.50312844706787 0 0 0 0 27.782869139962713 64.06117416228517 0 64.06117416228517 167.8556949454578 0 0 0 0 0.86347713931900216 22.28795155748594 0 22.28795155748594 107.33048787108237 0 0 0 0 -1.4131067758862628 13.249083722697833 0 13.249083722697833 67.545823058477254 0 0 0 0 -2.4120710680876485 3.8281269014786545 0 3.8281269014786545 15.877980563313752 0 0 0 0 0.5524878875159871 3.5485229381493752 0 3.5485229381493752 12.248496440315932 0 0 0 0 96.10287590646476 65.823924569453084 0 65.823924569453084 109.71996752521227 0 0 0 0 0.31564401371167605 -32.497874326976898 0 -32.497874326976898 49.043408685887698 0 0 0 0 -18.291069845592574 -7.7551306339973962 0 -7.7551306339973962 84.44034159972216 0 0 0 0 -24.064089538605913 2.3078007692420215 0 2.3078007692420215 67.632827387739752 0 0 0 0 -74.548709433693148 -18.204514515971823 0 -18.204514515971823 104.08013997988019 0 0 0 0 -188.18403304793355 -68.509280329803005 0 -68.509280329803005 141.57377953823743 0 0 0 0 -74.351936159957404 -21.346461481926781 0 -21.346461481926781 123.60776105659897 0 0 0 0 -118.98371474282317 -48.943631582219837 0 -48.943631582219837 117.04147624216421 0 0 0 0 -177.3295751541209 -100.43294097628677 0 -100.43294097628677 73.692372216670265 0 0 0 0 -57.433456677603317 -56.532702879479984 0 -56.532702879479984 42.389073929829465 0 0 0 0 -118.89259876247343 -50.328057239121335 0 -50.328057239121335 104.85005344863384 0 0 0 0 2.0531415001969435 -28.547277013076382 0 -28.547277013076382 35.90433503528584 0 0 0 0 -88.341303790919483 -61.394293471967103 0 -61.394293471967103 54.796102412190521 0 0 0 0 -28.265670260530896 -83.273677075008891 0 -83.273677075008891 -2.5814168117649388 0 0 0 0 68.024008825186684 -27.395315004963777 0 -27.395315004963777 19.619350237087929 0 0 0 0 -114.17742956196707 -107.68229457167945 0 -107.68229457167945 46.153041424397088 0 0 0 0 -211.64515374488474 8.3212387101248169 0 8.3212387101248169 -10.317091858451022 0 0 0 0 -325.55685666547652 -53.796385453375478 0 -53.796385453375478 62.69112995769683 0 0 0 0 -403.07565414317651 74.521968228114929 0 74.521968228114929 40.810945873321543 0 0 0 0 -180.41169581339818 -10.37952106128796 0 -10.37952106128796 -58.372471966999001 0 0 0 0 -756.53893670019079 260.24877509280486 0 260.24877509280486 574.23378594300084 0 0 0 0 -237.5978413566877 -95.593687626030714 0 -95.593687626030714 177.73195059989666 0 0 0 0 0.24764212151792142 4.2184695517675213 0 4.2184695517675213 5.9961205846531698 0 0 0 0 -0.22029511159680859 2.3130750831237972 0 2.3130750831237972 7.070731832773177 0 0 0 0 -268.33079974449265 -441.73536320486983 0 -441.73536320486983 220.12252843434544 0 0 0 0 -237.29680965657462 131.76832455099884 0 131.76832455099884 215.38373560540276 0 0 0 0 -187.04187397934402 106.84816031309492 0 106.84816031309492 161.61502203909913 0 0 0 0 -203.45484192950244 136.82659747614525 0 136.82659747614525 166.57557059977353 0 0 0 0 -183.16568187919893 131.12684244435422 0 131.12684244435422 18.130598740615824 0 0 0 0 -0.57217334023674526 4.4278495012084367 0 4.4278495012084367 13.323089285216483 0 0 0 0 -437.66616151848348 -5.0946418845619519 0 -5.0946418845619519 -76.2728162445419 0 0 0 0 -251.03736810975352 130.83125308724266 0 130.83125308724266 -4.9340044641357963 0 0 0 0 -474.76400310140343 7.8481801999969321 0 7.8481801999969321 6.6006027081457432 0 0 0 0 -268.53260801251599 29.624244744809403 0 29.624244744809403 -29.704601971083321 0 0 0 0 -129.59859611607681 165.72994096995899 0 165.72994096995899 -45.469735716556897 0 0 0 0 -3.2912549796652755 -2.5013190192843666 0 -2.5013190192843666 0.13605601621262764 0 0 0 0 -62.427009187860676 97.282045909394583 0 97.282045909394583 18.310654523629637 0 0 0 0 -223.157490989488 -64.848296877120447 0 -64.848296877120447 1.0111285530369969 0 0 0 0 -67.080481080207392 101.98230147785944 0 101.98230147785944 -12.463080084173271 0 0 0 0 45.897405113779314 47.218914686673088 0 47.218914686673088 -9.6595925421497668 0 0 0 0 -58.425434591094927 106.56819401373104 0 106.56819401373104 29.571970454831899 0 0 0 0 -161.94443236670122 159.94022496964681 0 159.94022496964681 76.360942890496517 0 0 0 0 -98.265835748799873 84.692863360429328 0 84.692863360429328 159.5452157193431 0 0 0 0 -97.397727387673513 86.128506446148094 0 86.128506446148094 127.81720176752424 0 0 0 0 -34.685042647948649 19.334962187414931 0 19.334962187414931 109.3326951990457 0 0 0 0 -22.38244732785688 40.690143835199706 0 40.690143835199706 66.481828038296953 0 0 0 0 -14.037403144142445 69.05850390793421 0 69.05850390793421 60.94667032873258 0 0 0 0 16.536711947872391 25.929910883269258 0 25.929910883269258 52.307443357107331 0 0 0 0 19.521876405864532 0.54191876225195301 0 0.54191876225195301 90.625451465668448 0 0 0 0 8.0592033598513808 25.739948803584412 0 25.739948803584412 87.772035134126781 0 0 0 0 -7.7319524813609899 17.452227910363888 0 17.452227910363888 77.537724536171325 0 0 0 0 -29.630501466625901 13.574113874818067 0 13.574113874818067 86.255663761083269 0 0 0 0 -17.6634733244573 11.204483995974442 0 11.204483995974442 69.525283075199695 0 0 0 0 -29.948905319733285 3.521212812781414 0 3.521212812781414 66.629040128762426 0 0 0 0 -13.886766387705471 8.4274339625143249 0 8.4274339625143249 76.532026672427719 0 0 0 0 11.092815848563987 50.219901879852841 0 50.219901879852841 143.06699947090965 0 0 0 0 -20.948593835441706 8.0633083787205067 0 8.0633083787205067 73.990145448691962 0 0 0 0 -27.657087925066762 1.8881847393749922 0 1.8881847393749922 74.920040734198182 0 0 0 0 11.790386393675144 18.907976423267996 0 18.907976423267996 23.750817160295473 0 0 0 0 -13.133257569388661 12.601681951615319 0 12.601681951615319 115.74316714136512 0 0 0 0 33.394796078925481 47.40029992506652 0 47.40029992506652 140.47333696619899 0 0 0 0 2.4885935944327571 8.5822144334233599 0 8.5822144334233599 96.884117056448304 0 0 0 0 -37.947594554030729 -32.190130153241626 0 -32.190130153241626 233.49609187180977 0 0 0 0 -2.2430105480383897 9.024832151785013 0 9.024832151785013 84.690846030212242 0 0 0 0 -30.24943554918211 -24.437519790389381 0 -24.437519790389381 22.750376160757362 0 0 0 0 45.191230489948794 65.112693633403978 0 65.112693633403978 28.340157541980748 0 0 0 0 -7.7310555230669706 15.532680352269381 0 15.532680352269381 122.39273785526893 0 0 0 0 -8.7357936861035341 0.67261335183502524 0 0.67261335183502524 18.887424760148861 0 0 0 0 -5.1285485356065692 -13.819006645951958 0 -13.819006645951958 131.00008536575479 0 0 0 0 1.5134091701526735 0.65621266087439523 0 0.65621266087439523 20.564263880164681 0 0 0 0 4.7546756268888153 37.548395425108183 0 37.548395425108183 93.215727897289213 0 0 0 0 -4.4219898470448058 5.0593674069252899 0 5.0593674069252899 8.7268629937504301 0 0 0 0 -58.645239679863153 -22.177585715329769 0 -22.177585715329769 203.2112224348275 0 0 0 0 -94.768391268640698 -11.563691151615785 0 -11.563691151615785 222.22050714219586 0 0 0 0 -94.66722317005042 13.184769851872261 0 13.184769851872261 179.95008463534032 0 0 0 0 -10.334450571141133 -19.521429109609016 0 -19.521429109609016 129.26842274663795 0 0 0 0 -14.364101757939554 2.3403311458999738 0 2.3403311458999738 71.545955856886252 0 0 0 0 -59.276217281567369 22.915897401693655 0 22.915897401693655 158.87477657197451 0 0 0 0 -77.979600713450054 39.172242324855688 0 39.172242324855688 147.21597233931971 0 0 0 0 -61.654519380570491 17.06132742441514 0 17.06132742441514 173.78820322231331 0 0 0 0 -127.83853518212709 35.792310593189541 0 35.792310593189541 260.73365377115988 0 0 0 0 -125.88725519037689 44.478263740365946 0 44.478263740365946 197.09270196376019 0 0 0 0 -181.5076514454704 74.592487344790243 0 74.592487344790243 300.48880286234635 0 0 0 0 -165.2887472251241 95.752606041191029 0 95.752606041191029 183.93132601284742 0 0 0 0 -170.67064517695144 -32.098125492637337 0 -32.098125492637337 348.19113028610809 0 0 0 0 -117.37987143594364 -0.1314277588207915 0 -0.1314277588207915 233.94328201936878 0 0 0 0 -116.08695641042505 -0.076812900266304496 0 -0.076812900266304496 216.1671055920724 0 0 0 0 -96.654121928116183 11.81842537758439 0 11.81842537758439 222.95812502093031 0 0 0 0 199.07361523555301 -83.98244745286047 0 -83.98244745286047 -102.60157052645809 0 0 0 0 -140.28910573067424 109.52063897063999 0 109.52063897063999 184.06921071535726 0 0 0 0 -28.585104635963795 -28.570740251679027 0 -28.570740251679027 4.6366223252373819 0 0 0 0 -197.90761120581737 128.91643685965141 0 128.91643685965141 -19.77796221108656 0 0 0 0 -164.91803304842961 158.73253374812157 0 158.73253374812157 226.74854676581708 0 0 0 0 5.7831170996598775 19.406034076673343 0 19.406034076673343 43.974221748343943 0 0 0 0 -239.00369183988187 229.04893212836032 0 229.04893212836032 -132.77839162991586 0 0 0 0 -1.3577780295395421 2.0700448421624529 0 2.0700448421624529 9.3537954952738716 0 0 0 0 68.930137937873951 -290.44075897949006 0 -290.44075897949006 -39.610305595694214 0 0 0 0 272.05231213835123 -800.39381744194361 0 -800.39381744194361 721.08163367083762 0 0 0 0 -4.2611380159666883 -4.1323357900443529 0 -4.1323357900443529 4.8129178376129005 0 0 0 0 -151.60842635561494 0.082527904931339435 0 0.082527904931339435 957.7210880078128 0 0 0 0 -244.26338355658663 15.127113699538313 0 15.127113699538313 595.55891725345418 0 0 0 0 -232.47799251032848 98.13080333380276 0 98.13080333380276 374.24260767947999 0 0 0 0 -246.36357325121935 44.621176158692833 0 44.621176158692833 287.01664882130717 0 0 0 0 -8.8089845792799224 48.099358449122519 0 48.099358449122519 37.093895203681313 0 0 0 0 92.365420857105732 94.495267495116423 0 94.495267495116423 56.337161276984261 0 0 0 0 0.83810524362237648 1.0312308958229899 0 1.0312308958229899 22.307085496099631 0 0 0 0 -44.375203148291689 12.783329333768052 0 12.783329333768052 5.5578662882617209 0 0 0 0 -81.806320179559478 -30.348424019324739 0 -30.348424019324739 88.184545262571191 0 0 0 0 -1.0208963081629427 -46.985174101791927 0 -46.985174101791927 23.519552265846869 0 0 0 0 -0.77567409701173062 122.04448908830636 0 122.04448908830636 59.774949935206678 0 0 0 0 -80.728382367337872 95.185871808054799 0 95.185871808054799 167.60619188963028 0 0 0 0 -108.7417389811053 122.8315639578941 0 122.8315639578941 166.3797553446966 0 0 0 0 -1.6548243521217501 125.39772419065594 0 125.39772419065594 121.90694559818076 0 0 0 0 -329.40939153080058 -43.403696524338557 0 -43.403696524338557 118.13171407970367 0 0 0 0 -51.36877244598918 83.046757217569393 0 83.046757217569393 98.301877979945857 0 0 0 0 -16.614702653918357 14.515900713457086 0 14.515900713457086 77.095865858187608 0 0 0 0 -26.241525732462492 2.9255156119943422 0 2.9255156119943422 72.095059835657594 0 0 0 0 -13.833378792300209 6.6429690375516657 0 6.6429690375516657 75.273630029600099 0 0 0 0 -27.42206972903708 0.11510858304649219 0 0.11510858304649219 62.579402203945705 0 0 0 0 -96.129882688597149 32.634737368764036 0 32.634737368764036 117.91150835807639 0 0 0 0 -12.806056416726278 14.80329650589556 0 14.80329650589556 75.873815310100326 0 0 0 0 -32.263771543330677 41.256147398009489 0 41.256147398009489 108.19810889495056 0 0 0 0 -0.36983239999653961 72.484396390755137 0 72.484396390755137 83.436763989579049 0 0 0 0 -26.94468140888921 81.336626127726049 0 81.336626127726049 97.378426062570725 0 0 0 0 -14.531293397593117 47.659877500758739 0 47.659877500758739 114.41149265352578 0 0 0 0 -18.913755332904202 31.483170082930883 0 31.483170082930883 66.274798353755614 0 0 0 0 9.0533909513237631 40.050113648834667 0 40.050113648834667 92.552616803946876 0 0 0 0 13.08759303730767 17.68407131038839 0 17.68407131038839 86.998588194750482 0 0 0 0 -10.527520407113698 11.830202138451313 0 11.830202138451313 -1.8904353936605596 0 0 0 0 -27.022613501893829 -0.072445419817086076 0 -0.072445419817086076 114.86194969939243 0 0 0 0 -15.072700707240074 17.58977523559588 0 17.58977523559588 67.425199185250676 0 0 0 0 -46.933583866690242 0.85658814563066699 0 0.85658814563066699 69.73385886833421 0 0 0 0 -32.534160312164353 13.975648632691588 0 13.975648632691588 8.2883641961723615 0 0 0 0 -31.105728772790371 -8.0278586775366421 0 -8.0278586775366421 73.91446085638745 0 0 0 0 -16.203492946416844 35.256715819432429 0 35.256715819432429 43.044205186743056 0 0 0 0 -33.014537986968378 34.465661803355033 0 34.465661803355033 58.219480216117518 0 0 0 0 -11.387657877691909 7.9213235244467128 0 7.9213235244467128 35.656348675262393 0 0 0 0 -44.456033644383865 28.250763977081078 0 28.250763977081078 22.574269989068853 0 0 0 0 -99.105707669697097 21.571123286914371 0 21.571123286914371 97.028354017907986 0 0 0 0 -68.384399354526977 -7.7407896197037189 0 -7.7407896197037189 57.847438473644445 0 0 0 0 -38.547170043678861 19.899104988884019 0 19.899104988884019 14.841110734115164 0 0 0 0 -7.4506215740506008 1.9612994735251768 0 1.9612994735251768 18.876194394949835 0 0 0 0 38.999381300332061 50.428561383523629 0 50.428561383523629 -32.805516198830446 0 0 0 0 -28.416475587473542 126.48185322117934 0 126.48185322117934 -44.413785667755292 0 0 0 0 1.3431796011198383 -2.5781406826744089 0 -2.5781406826744089 5.2586382252932822 0 0 0 0 -232.55237327058512 -132.57382140953086 0 -132.57382140953086 217.36049025235116 0 0 0 0 0.63534813300366366 -1.6058116029267975 0 -1.6058116029267975 24.101165799649095 0 0 0 0 -40.331846003557075 -53.639782089652726 0 -53.639782089652726 41.896464362613187 0 0 0 0 20.863657374558898 90.919482831530331 0 90.919482831530331 -134.79113709571538 0 0 0 0 -3.3393157510726965 1.7867612738074854 0 1.7867612738074854 1.5711605494172431 0 0 0 0 86.289140994278569 -249.02477323987114 0 -249.02477323987114 214.12519414677809 0 0 0 0 -16.861287849127052 -29.62866707322155 0 -29.62866707322155 57.977973516695783 0 0 0 0 -19.169398624021596 -3.4933172893252049 0 -3.4933172893252049 32.633173588648788 0 0 0 0 -72.35818164276543 60.631310634635156 0 60.631310634635156 -13.652551565712201 0 0 0 0 -128.68907099320677 -20.644619209804659 0 -20.644619209804659 139.32015862929256 0 0 0 0 -26.121989681541891 -6.7008132792689139 0 -6.7008132792689139 64.062899165219278 0 0 0 0 -3.4188854015615107 9.9477336573727371 0 9.9477336573727371 36.490901401033625 0 0 0 0 -148.50242698882357 266.67810023813217 0 266.67810023813217 5.7478460663660371 0 0 0 0 -6.0369865816861505 -0.87049936689646756 0 -0.87049936689646756 -1.6683629213926991 0 0 0 0 -23.49115362991779 -9.2698978562475531 0 -9.2698978562475531 79.34416341683027 0 0 0 0 33.106589792666455 -91.506985401127167 0 -91.506985401127167 288.49050728270959 0 0 0 0 -97.012722211518849 -101.85877553475439 0 -101.85877553475439 336.34021627267066 0 0 0 0 -123.15094291247169 -66.928540630327916 0 -66.928540630327916 309.98178330963128 0 0 0 0 -168.39467949448772 -131.60991407795518 0 -131.60991407795518 321.64889853808745 0 0 0 0 -78.535228908906902 -68.818226071976824 0 -68.818226071976824 327.99475403080578 0 0 0 0 14.030057456443858 18.976239032469749 0 18.976239032469749 25.027334506695212 0 0 0 0 -10.470874364915744 135.51862004341456 0 135.51862004341456 -36.123248649950256 0 0 0 0 -247.18584795159859 -30.263105175752571 0 -30.263105175752571 332.03588456972147 0 0 0 0 -183.67981217095121 -170.42699094054024 0 -170.42699094054024 335.75352614883013 0 0 0 0 422.12084296855028 520.45598990554572 0 520.45598990554572 629.66485292077232 0 0 0 0 188.12698884821293 -206.47029069411656 0 -206.47029069411656 467.2989310561552 0 0 0 0 0.19952642393836761 -0.16395846394582669 0 -0.16395846394582669 9.3446441397015292 0 0 0 0 72.974314408001192 -373.71567005335237 0 -373.71567005335237 927.95276746631134 0 0 0 0 721.08998082238713 452.16478691722841 0 452.16478691722841 345.71075858884433 0 0 0 0 100.05477642755307 69.734497596158917 0 69.734497596158917 -429.25712284227484 0 0 0 0 235.30045394937588 -215.3090356823991 0 -215.3090356823991 125.17447098698176 0 0 0 0 -153.05800606334287 -164.26932710901019 0 -164.26932710901019 384.51802432583645 0 0 0 0 -81.834880467766197 -160.61883951675554 0 -160.61883951675554 665.71879592903861 0 0 0 0 -86.057714398486496 -119.24454627561499 0 -119.24454627561499 340.03491587487224 0 0 0 0 -171.81138138919141 60.317455918531323 0 60.317455918531323 75.158579831914722 0 0 0 0 -45.764115306315944 31.504656725577661 0 31.504656725577661 14.214261876581077 0 0 0 0 -139.14665977133643 81.46206738708986 0 81.46206738708986 3.1416569972825528 0 0 0 0 -219.98533417246131 139.63224197174418 0 139.63224197174418 5.9429535896742891 0 0 0 0 8.4389344247210829 57.746994810160686 0 57.746994810160686 -85.385459960261869 0 0 0 0 -55.730938113294542 -64.154357162336964 0 -64.154357162336964 184.48694614296255 0 0 0 0 -2.7479644838645072 -92.238402962024338 0 -92.238402962024338 9.5289465661335271 0 0 0 0 -103.38401483885082 132.86155512235928 0 132.86155512235928 -7.8955206986502162 0 0 0 0 7.3683729521709598 14.120049210314107 0 14.120049210314107 26.35188823143389 0 0 0 0 66.910353371712517 83.655355399464497 0 83.655355399464497 1.8492625885337475 0 0 0 0 -20.556456174114828 6.596661984619459 0 6.596661984619459 -21.496065881394316 0 0 0 0 -8.1221510185257486 19.968649622786558 0 19.968649622786558 112.96176683692629 0 0 0 0 -246.65732981361862 -353.99951760939985 0 -353.99951760939985 1460.8420609493332 0 0 0 0 -18.45090790066115 59.687463655385727 0 59.687463655385727 137.78358699957607 0 0 0 0 1.3291716964794205 15.341248001892382 0 15.341248001892382 90.335058875374671 0 0 0 0 -17.186034529902688 -2.015947531212376 0 -2.015947531212376 24.155616807926769 0 0 0 0 188.85033170257793 639.64217971595281 0 639.64217971595281 -401.17551477925372 0 0 0 0 -376.73126418028369 -95.563971957035392 0 -95.563971957035392 842.7187441117494 0 0 0 0 220.6930770465915 -173.11313852922103 0 -173.11313852922103 -430.2917849594669 0 0 0 0 4.8255210804558875 5.6421750690951029 0 5.6421750690951029 8.421529875435624 0 0 0 0 185.22191254998586 -584.01560715022742 0 -584.01560715022742 695.44752732154302 0 0 0 0 -94.984040768642444 224.619943821177 0 224.619943821177 -91.226429034963076 0 0 0 0 -11.901076050848587 141.67175808492175 0 141.67175808492175 -18.046548924885428 0 0 0 0 -126.86985744202548 107.9072252446349 0 107.9072252446349 116.08633576210195 0 0 0 0 -192.35859853970578 180.96111860995734 0 180.96111860995734 41.599936906575749 0 0 0 0 -98.30680219322926 46.995095369737555 0 46.995095369737555 1456.215738815823 0 0 0 0 107.90073418741815 1679.37213387361 0 1679.37213387361 149.37971227948947 0 0 0 0 2.9400888362731896 5.0426315467819087 0 5.0426315467819087 9.0488836465600713 0 0 0 0 -57.792298435658722 52.924273281374099 0 52.924273281374099 -25.796898602369765 0 0 0 0 -7.3393262627882248 21.472372896408434 0 21.472372896408434 123.45523912660795 0 0 0 0 70.912742862811683 -297.36466060032399 0 -297.36466060032399 598.09762599521491 0 0 0 0 -162.37876710895944 1.7972916817543592 0 1.7972916817543592 493.24390204346491 0 0 0 0 56.017639353428081 -188.40454743629482 0 -188.40454743629482 196.2245186689106 0 0 0 0 -213.13966225343756 50.478382363384299 0 50.478382363384299 1204.8644559889708 0 0 0 0 -100.46073268596592 114.36824747657374 0 114.36824747657374 230.6486681288261 0 0 0 0 -191.47572723158669 148.70919238580746 0 148.70919238580746 364.73875270998178 0 0 0 0 -87.296894122930553 81.386545643661066 0 81.386545643661066 307.013767266184 0 0 0 0 -88.955661080599384 32.314181455851212 0 32.314181455851212 210.33921643305621 0 0 0 0 -138.12819353890882 -28.17892645965776 0 -28.17892645965776 195.71138944430822 0 0 0 0 -95.582482448761766 -16.086791537092722 0 -16.086791537092722 199.0093953698015 0 0 0 0 -138.99265940630903 -14.169260025902986 0 -14.169260025902986 305.48161611235389 0 0 0 0 -56.319060217449987 -4.2745902617552929 0 -4.2745902617552929 80.956894389240915 0 0 0 0 -45.321292481898126 -0.27854726587793266 0 -0.27854726587793266 97.731390340000871 0 0 0 0 -44.433127666110522 2.9077952241405001 0 2.9077952241405001 85.138514344771465 0 0 0 0 -41.361223180543675 104.63457826344529 0 104.63457826344529 177.48257283245403 0 0 0 0 -43.850580014813659 0.20124886760322624 0 0.20124886760322624 70.921325025243277 0 0 0 0 -193.84524816985686 -123.37793368720941 0 -123.37793368720941 -23.869087357482385 0 0 0 0 177.59950903529716 79.316325338051684 0 79.316325338051684 -439.77798982862532 0 0 0 0 -20.54077823442276 138.60875797799054 0 138.60875797799054 225.47029750285856 0 0 0 0 -59.439086444474242 4.0855342891311466 0 4.0855342891311466 86.430612272433791 0 0 0 0 -6.6005096799663363 19.409164604200352 0 19.409164604200352 115.96619423399531 0 0 0 0 37.431210298281599 32.916838409642423 0 32.916838409642423 82.046733358416532 0 0 0 0 8.4313112589516095 12.085146376413832 0 12.085146376413832 77.419810757892265 0 0 0 0 -42.91616855843813 38.803707092687546 0 38.803707092687546 98.505636059024255 0 0 0 0 12.592892393924842 32.533104858898696 0 32.533104858898696 82.211044291412691 0 0 0 0 8.0876024181889079 14.63616774034017 0 14.63616774034017 111.32786201351701 0 0 0 0 23.26686949621876 35.21790960126782 0 35.21790960126782 130.32410990183416 0 0 0 0 8.8017226499391654 13.58821910973893 0 13.58821910973893 139.51428812320228 0 0 0 0 -154.26032893426554 -174.56800225164261 0 -174.56800225164261 23.471869916702417 0 0 0 0 139.58335940975394 368.75199396527387 0 368.75199396527387 406.65192013728665 0 0 0 0 -630.48310465678583 -19.555524078306917 0 -19.555524078306917 678.2988912621222 0 0 0 0 6.141492979809934 8.4199046565308535 0 8.4199046565308535 16.560090296897851 0 0 0 0 15.27864215790305 26.282289476524966 0 26.282289476524966 152.08250399897224 0 0 0 0 -8.8238953873230983 22.774074533631843 0 22.774074533631843 98.813323224976898 0 0 0 0 32.414804436632949 28.488388870875497 0 28.488388870875497 129.85984396023559 0 0 0 0 29.627672112408618 20.523049002578773 0 20.523049002578773 112.86011316515214 0 0 0 0 -56.704726174507414 -1.3568086957457126 0 -1.3568086957457126 86.567055672503528 0 0 0 0 -75.132552645339274 4.450776925748869 0 4.450776925748869 91.368339792403276 0 0 0 0 -44.274430745461359 11.566410001731128 0 11.566410001731128 78.560205934691112 0 0 0 0 -27.331445527282938 25.257608429681 0 25.257608429681 27.413813945868476 0 0 0 0 -35.696364540648574 0.218915683675732 0 0.218915683675732 73.301703269939935 0 0 0 0 -21.015333731177055 11.674149677645001 0 11.674149677645001 26.446895800835073 0 0 0 0 -33.4303947190092 -4.7007519866183429 0 -4.7007519866183429 74.852477027653549 0 0 0 0 -56.701979650493485 -1.5383351349952363 0 -1.5383351349952363 98.151250813971274 0 0 0 0 -23.078227538116607 45.347559319150605 0 45.347559319150605 -6.6927550100131157 0 0 0 0 -53.032727842271697 80.871764045715281 0 80.871764045715281 105.42632641628734 0 0 0 0 416.61321974389466 191.95769753273635 0 191.95769753273635 -345.08896659193124 0 0 0 0 -54.650168557438519 324.03572236793116 0 324.03572236793116 -266.09310880154044 0 0 0 0 31.587453754171854 42.100562728569159 0 42.100562728569159 45.267774242777534 0 0 0 0 87.154048276295725 -24.276139581103052 0 -24.276139581103052 11.793087832571473 0 0 0 0 381.78371690455242 1.5901592896188959 0 1.5901592896188959 -9.7539801481543691 0 0 0 0 677.00836667237127 -354.69237679277467 0 -354.69237679277467 277.32292579600471 0 0 0 0 -151.28551758749336 -16.795183298254415 0 -16.795183298254415 204.85413820458052 0 0 0 0 -234.0522875372526 478.99798050306345 0 478.99798050306345 41.840053914942473 0 0 0 0 -70.042237573146252 137.83224421669365 0 137.83224421669365 1.8211941909321467 0 0 0 0 24.943011575671807 31.468836433181892 0 31.468836433181892 38.970298812407862 0 0 0 0 -23.69237198096036 82.753882597392476 0 82.753882597392476 30.43696420249762 0 0 0 0 -66.235888593497435 48.779948301991681 0 48.779948301991681 3.3065028361816076 0 0 0 0 -25.891774199153133 16.332540198534844 0 16.332540198534844 79.335460227604926 0 0 0 0 -39.265823619658306 80.757932372718187 0 80.757932372718187 81.224930069445691 0 0 0 0 -24.520090154928312 1.7836327835193515 0 1.7836327835193515 156.63154972976918 0 0 0 0 40.762026237847294 33.631010364862959 0 33.631010364862959 84.80668401314324 0 0 0 0 -22.192878001907502 46.533089981872763 0 46.533089981872763 190.57416135605854 0 0 0 0 -15.494913214105964 17.314630133132596 0 17.314630133132596 123.84131098889338 0 0 0 0 -7.6324829200029853 50.291612683366111 0 50.291612683366111 115.8020660698603 0 0 0 0 6.0605301394448432 1.7311221280474172 0 1.7311221280474172 0.33526851856910866 0 0 0 0 -1.305641357914527 3.9601934581538387 0 3.9601934581538387 -6.6241835312385824 0 0 0 0 765.33662815766365 584.8964269332937 0 584.8964269332937 206.13597923640918 0 0 0 0 -103.82684283450294 -228.44214104861385 0 -228.44214104861385 520.97846707014105 0 0 0 0 252.34029901697158 -104.85817264558136 0 -104.85817264558136 -111.72231306627509 0 0 0 0 -446.19787137836806 -60.877278863867105 0 -60.877278863867105 342.37045587771718 0 0 0 0 71.074136392691685 -91.738826551052625 0 -91.738826551052625 334.93927785407141 0 0 0 0 -114.58095671643468 488.78083179996975 0 488.78083179996975 105.57466145924991 0 0 0 0 -60.01363381755607 189.76119078947522 0 189.76119078947522 93.396712157657021 0 0 0 0 1.163097634335617 -1.9363844434312085 0 -1.9363844434312085 3.3538938386927271 0 0 0 0 445.54009423443586 286.09278100155643 0 286.09278100155643 91.657577040965407 0 0 0 0 -37.30188628375663 90.185476848109829 0 90.185476848109829 109.98787888743027 0 0 0 0 -15.642420452216378 16.166281392375083 0 16.166281392375083 11.301772759560755 0 0 0 0 718.47812082184464 -155.48460358890588 0 -155.48460358890588 78.655782192218339 0 0 0 0 105.24478049103027 16.968913259112014 0 16.968913259112014 -278.09850303547864 0 0 0 0 -366.75932363281481 -264.12119915668518 0 -264.12119915668518 491.07028757504304 0 0 0 0 -399.35111361916637 234.84438395609993 0 234.84438395609993 118.12659970302775 0 0 0 0 360.10555510189783 -241.9625770995508 0 -241.9625770995508 67.995649688069534 0 0 0 0 -4.9596849208001004 -133.35806257782679 0 -133.35806257782679 44.589621229912154 0 0 0 0 -30.902522594679795 -119.13186530864186 0 -119.13186530864186 153.1599116348516 0 0 0 0 10.608439546283421 37.135873420477253 0 37.135873420477253 60.058207565698211 0 0 0 0 -4.7809508289592486 24.303260683060216 0 24.303260683060216 78.786409444175661 0 0 0 0 124.87250672206847 -19.56863987806355 0 -19.56863987806355 -26.821419968393457 0 0 0 0 -23.832549225840921 50.34261681065982 0 50.34261681065982 33.316806713410188 0 0 0 0 -6.6914247591557796 48.741956701625895 0 48.741956701625895 29.714939571364084 0 0 0 0 -35.402026239540646 48.930201934439538 0 48.930201934439538 77.266987510643958 0 0 0 0 -15.513022558378907 36.685490835585369 0 36.685490835585369 53.120073240774218 0 0 0 0 -39.117569562550671 82.187812586747896 0 82.187812586747896 51.231166928177117 0 0 0 0 -40.960878016378047 64.166794225666308 0 64.166794225666308 186.64306691734237 0 0 0 0 -1.0418679075277666 -0.81130223522728784 0 -0.81130223522728784 1.2516544366363931 0 0 0 0 -2.9884532646337902 67.398625351095689 0 67.398625351095689 88.927930636775272 0 0 0 0 1.1185408137577326 10.976478705498479 0 10.976478705498479 22.635838759645495 0 0 0 0 -7.4365450303430407 5.542461847573577 0 5.542461847573577 -149.29896608202398 0 0 0 0 248.53168455211926 -110.41883245264762 0 -110.41883245264762 -126.46799428362283 0 0 0 0 -98.707757686502191 -43.429590281288256 0 -43.429590281288256 7.5156843711520196 0 0 0 0 -87.053297882942388 -69.171588920547947 0 -69.171588920547947 59.52442618686473 0 0 0 0 77.676380706319833 -50.848615184826485 0 -50.848615184826485 -345.22546465376399 0 0 0 0 -11.313325588995212 -160.76266456610756 0 -160.76266456610756 73.412758965641842 0 0 0 0 -18.173356015673562 -182.3830753426264 0 -182.3830753426264 179.33640772737272 0 0 0 0 -68.374047163591968 -82.219212961033918 0 -82.219212961033918 165.54641847182938 0 0 0 0 -73.381666997906905 -94.242486029052088 0 -94.242486029052088 277.66181030483858 0 0 0 0 37.556550761450126 -152.75261007987865 0 -152.75261007987865 308.4993658944004 0 0 0 0 90.492637425939392 -22.400756903371075 0 -22.400756903371075 450.24466782592208 0 0 0 0 218.12264948828943 -265.77324511029838 0 -265.77324511029838 250.3679859724798 0 0 0 0 53.335817804188991 -48.135413817224617 0 -48.135413817224617 25.809742145960627 0 0 0 0 -245.77435241381863 37.972929675459454 0 37.972929675459454 221.5985833794839 0 0 0 0 -191.63237903062873 -12.836503253951378 0 -12.836503253951378 266.7933465647111 0 0 0 0 -449.896506322184 -115.28954242027976 0 -115.28954242027976 244.73403579023216 0 0 0 0 -226.80079669344377 -74.768673511574889 0 -74.768673511574889 169.89905257945793 0 0 0 0 -121.84984246324984 -143.69546194575923 0 -143.69546194575923 188.68583702138858 0 0 0 0 -104.6080127861278 -35.506567139411345 0 -35.506567139411345 175.93047853721146 0 0 0 0 -152.36821922462059 18.958139784212108 0 18.958139784212108 114.52756860460795 0 0 0 0 -97.62471461653422 101.82990591662019 0 101.82990591662019 233.65827372095373 0 0 0 0 -56.501396110812493 120.83778936643648 0 120.83778936643648 128.6106122348574 0 0 0 0 -27.113953140044032 88.121046246174956 0 88.121046246174956 65.172011718157592 0 0 0 0 -50.751715095453619 99.938635952945333 0 99.938635952945333 75.370258757888223 0 0 0 0 -30.361523117505385 133.40394661234313 0 133.40394661234313 129.49391840257158 0 0 0 0 -62.301033223872764 43.537509752699407 0 43.537509752699407 75.990151569989393 0 0 0 0 -40.696972235362409 30.06504914915422 0 30.06504914915422 -41.273021878943837 0 0 0 0 -60.423163597431994 60.471063809323823 0 60.471063809323823 128.96114180613586 0 0 0 0 -30.399782613647403 76.303499023779295 0 76.303499023779295 39.736776620295132 0 0 0 0 -15.954185352626155 60.980391692726698 0 60.980391692726698 46.991983337546117 0 0 0 0 -45.731340800053204 73.51210615248965 0 73.51210615248965 43.294004695417243 0 0 0 0 -8.8591999273976398 66.335745109703566 0 66.335745109703566 17.921217973847433 0 0 0 0 -0.87707125709766842 109.84729015932862 0 109.84729015932862 3.8545367879851256 0 0 0 0 -1.0627723490542849 107.79392458563234 0 107.79392458563234 30.836167433997616 0 0 0 0 -1.1558648547984376 81.275925252190063 0 81.275925252190063 19.375824599483167 0 0 0 0 9.5317926598036138 85.481536503608368 0 85.481536503608368 -15.183339506475022 0 0 0 0 22.27249402110283 103.27128869760054 0 103.27128869760054 -40.837362095393473 0 0 0 0 16.900025783382262 98.572609793660376 0 98.572609793660376 7.5309139249875443 0 0 0 0 14.669793458320783 140.42917665273853 0 140.42917665273853 -10.576946705103182 0 0 0 0 18.801263133286739 95.009664542794781 0 95.009664542794781 -38.182889246352715 0 0 0 0 17.550151093488239 96.840187740628608 0 96.840187740628608 -40.177089886863541 0 0 0 0 17.446149833609525 111.70653702017444 0 111.70653702017444 -154.77907713165041 0 0 0 0 -43.325410814348288 142.17486663129239 0 142.17486663129239 -31.000601607753197 0 0 0 0 -56.722075998891569 58.328501114322989 0 58.328501114322989 -8.0496868684422225 0 0 0 0 -4.1109690114499244 98.076820215592306 0 98.076820215592306 16.290243376985018 0 0 0 0 55.525283660905188 95.154812009539455 0 95.154812009539455 76.674908009626961 0 0 0 0 -2.6303739234585919 128.99149326423139 0 128.99149326423139 58.591574741309159 0 0 0 0 34.604091429433538 84.304443969598651 0 84.304443969598651 -0.66343910856812727 0 0 0 0 -3.6133465989678371 131.63218205736848 0 131.63218205736848 53.852391099157103 0 0 0 0 -2.8152973272908639 129.1163077389283 0 129.1163077389283 54.440251685053227 0 0 0 0 35.713960070486792 180.75377634958568 0 180.75377634958568 117.11546583667223 0 0 0 0 -177.43385735938955 -50.626584203098901 0 -50.626584203098901 -13.497621516304207 0 0 0 0 -11.144136891062772 -5.9924720316812454 0 -5.9924720316812454 -3.4741450613873894 0 0 0 0 -57.956709355220482 -1.9058302833327616 0 -1.9058302833327616 45.620244161029404 0 0 0 0 100.77837068667941 45.900633115117671 0 45.900633115117671 59.545826715231669 0 0 0 0 -27.64253801275936 -47.400025293489307 0 -47.400025293489307 50.040420218345389 0 0 0 0 4.8141031247606065 5.4627018424138782 0 5.4627018424138782 5.067667835495655 0 0 0 0 -34.535655525758557 -35.081648921423039 0 -35.081648921423039 54.574199095128279 0 0 0 0 -13.392100687021866 -64.465525598667227 0 -64.465525598667227 33.363106038319529 0 0 0 0 170.04122129715688 8.4169403235064237 0 8.4169403235064237 -8.8418806938607304 0 0 0 0 71.677982621730735 52.702651701758441 0 52.702651701758441 69.830539285991108 0 0 0 0 213.35561125347976 202.61405792775076 0 202.61405792775076 203.20384897979966 0 0 0 0 320.91913058618229 167.82665505939076 0 167.82665505939076 108.33406293458393 0 0 0 0 94.296195414379326 199.61565478127159 0 199.61565478127159 220.94685053408466 0 0 0 0 259.21405259367384 386.98409861869004 0 386.98409861869004 422.47890911774448 0 0 0 0 2.4228366463915094 2.7357026320496374 0 2.7357026320496374 2.7384008072789072 0 0 0 0 -256.37876123219507 100.74270124225677 0 100.74270124225677 772.53912360391405 0 0 0 0 98.249725495154053 152.31996137094393 0 152.31996137094393 191.67932182299228 0 0 0 0 -44.158178692770889 152.2770791842031 0 152.2770791842031 197.35737254779087 0 0 0 0 70.618528778074506 166.1435916366172 0 166.1435916366172 181.15764821473567 0 0 0 0 46.531190509471344 128.45899674901011 0 128.45899674901011 223.09321226399334 0 0 0 0 -75.822223511568154 185.04290967808629 0 185.04290967808629 480.9160737940374 0 0 0 0 -77.141273141880447 228.27743696776452 0 228.27743696776452 510.61673377097031 0 0 0 0 81.563305883077192 259.35054005660641 0 259.35054005660641 443.64814160362585 0 0 0 0 1.0209966886171014 0.81526717475320964 0 0.81526717475320964 4.0758480410209188 0 0 0 0 32.266887311841856 94.779830459599907 0 94.779830459599907 462.87873506639153 0 0 0 0 -123.9070426657654 217.45617614636467 0 217.45617614636467 355.99891184853914 0 0 0 0 -72.133881753192327 -66.415387008324615 0 -66.415387008324615 298.7582427131847 0 0 0 0 -47.135555683657913 4.4738416244435939 0 4.4738416244435939 56.993038654436759 0 0 0 0 -8.1572139834738664 3.5656526236070931 0 3.5656526236070931 13.361970092752017 0 0 0 0 -7.6008038630375516 1.2401865183845473 0 1.2401865183845473 4.0165096000220402 0 0 0 0 -15.090029586419405 306.76126395761821 0 306.76126395761821 608.62695702895871 0 0 0 0 -16.567881240489449 7.4790568704037881 0 7.4790568704037881 13.650110058310815 0 0 0 0 -11.722386652733576 39.852232190471113 0 39.852232190471113 23.188449273766309 0 0 0 0 -225.05946042676806 -19.717572829693381 0 -19.717572829693381 58.197100236575352 0 0 0 0 -25.605893292900419 -14.602157087567321 0 -14.602157087567321 11.279487370295101 0 0 0 0 205.5215789147569 93.539344284472463 0 93.539344284472463 -247.11246508994373 0 0 0 0 -176.33592649521233 186.76357345763245 0 186.76357345763245 987.93345803968259 0 0 0 0 6.282257622167549 0.42480603748174417 0 0.42480603748174417 0.41359893443312146 0 0 0 0 -294.07148513419907 -10.12902979322098 0 -10.12902979322098 706.76133962351014 0 0 0 0 -64.778961061183509 -43.859924067350221 0 -43.859924067350221 -7.5788676907395711 0 0 0 0 -101.42415154236915 -0.73371915870302473 0 -0.73371915870302473 28.813298155495431 0 0 0 0 -32.921198712381738 56.662414236365294 0 56.662414236365294 -19.366492584950265 0 0 0 0 15.738133831160717 4.4407431755277571 0 4.4407431755277571 1.7196864435677384 0 0 0 0 566.20100725727389 21.106759017842705 0 21.106759017842705 397.3397522710884 0 0 0 0 40.982966645407942 25.148867447169323 0 25.148867447169323 -5.979289224385866 0 0 0 0 0.43112035314152308 19.745603465366003 0 19.745603465366003 46.049104993243645 0 0 0 0 -75.958590429818287 30.377325255743926 0 30.377325255743926 45.731410034233704 0 0 0 0 1.7158369665075952 17.982027417470817 0 17.982027417470817 52.423168825422181 0 0 0 0 -41.830814761569854 -12.4395901552125 0 -12.4395901552125 78.459611186946859 0 0 0 0 -44.713951014531631 26.169501244017738 0 26.169501244017738 37.457687482001347 0 0 0 0 -27.41714994738868 -24.024853668743162 0 -24.024853668743162 -3.5583798863190168 0 0 0 0 -4.6013197796855607 -1.0296959684131224 0 -1.0296959684131224 1.2013964617775912 0 0 0 0 -133.65610188866594 163.88709147681584 0 163.88709147681584 -79.858889456430916 0 0 0 0 -263.99877348772316 33.025047698632989 0 33.025047698632989 -30.909136284662964 0 0 0 0 2.0462874952454513 31.913710815493687 0 31.913710815493687 10.473747497264412 0 0 0 0 8.3545328429487586 9.4273137899608912 0 9.4273137899608912 6.0341334780578535 0 0 0 0 -16.206597596164386 7.1103578188020009 0 7.1103578188020009 15.032439915617431 0 0 0 0 -39.464164539139347 48.215817287662503 0 48.215817287662503 357.67922940402059 0 0 0 0 37.992259972848615 180.97737567765762 0 180.97737567765762 174.20437489883625 0 0 0 0 -0.95794026664712284 2.0910809869996072 0 2.0910809869996072 1.5429722715002185 0 0 0 0 -100.38641775033329 22.06363682670235 0 22.06363682670235 71.957690869137878 0 0 0 0 -65.630774312175845 49.471566869509843 0 49.471566869509843 -5.2360428899119142 0 0 0 0 -17.536939697372873 1.8548210026383458 0 1.8548210026383458 12.538104145335637 0 0 0 0 -157.48189711242367 168.3835587376816 0 168.3835587376816 246.01681627732614 0 0 0 0 -140.80621249732795 -92.047336894382397 0 -92.047336894382397 561.69622433712357 0 0 0 0 -77.43009206971692 71.232001745302114 0 71.232001745302114 -18.863641209300113 0 0 0 0 4.888435969535788 3.9624678165245939 0 3.9624678165245939 2.9534274372906424 0 0 0 0 -78.077467833365063 69.384863631594271 0 69.384863631594271 4.0416763400717173 0 0 0 0 1.4947875601635658 0.90903994941085386 0 0.90903994941085386 0.99519718685390046 0 0 0 0 -78.678772355115143 194.44518731976132 0 194.44518731976132 -230.73946430455544 0 0 0 0 -112.13053115487492 240.00664103901363 0 240.00664103901363 36.993833655229537 0 0 0 0 -169.57588094423227 78.571375790481397 0 78.571375790481397 27.395720972606796 0 0 0 0 -150.58630862479004 91.796762191912421 0 91.796762191912421 101.25078444337851 0 0 0 0 -168.70551442207227 69.862946703739453 0 69.862946703739453 77.152905024020583 0 0 0 0 -41.663914508701055 150.28374088370765 0 150.28374088370765 105.37695077177295 0 0 0 0 -150.66528850932536 170.83667814034561 0 170.83667814034561 166.39840449729672 0 0 0 0 -108.50695077150021 208.94777035698098 0 208.94777035698098 235.26882750664663 0 0 0 0 -36.334513564380359 201.08630684557647 0 201.08630684557647 102.15395769950555 0 0 0 0 -34.051207507767685 98.36210978305462 0 98.36210978305462 177.81394090593676 0 0 0 0 -26.981101780885638 59.820463477029989 0 59.820463477029989 86.425407655449817 0 0 0 0 -1.4626394818169501 144.23609297545045 0 144.23609297545045 90.75482085798285 0 0 0 0 -1.9822093510701961 153.13524094493914 0 153.13524094493914 155.47616342027322 0 0 0 0 48.491747552441666 108.16847770399909 0 108.16847770399909 116.35178836090199 0 0 0 0 41.613007814219941 43.964258484537368 0 43.964258484537368 36.732285941630835 0 0 0 0 145.28167301434223 76.912097684551554 0 76.912097684551554 45.460736487060785 0 0 0 0 172.1117784678795 101.79455017332475 0 101.79455017332475 57.228758164288593 0 0 0 0 201.46057330362783 236.08592592760397 0 236.08592592760397 134.38067488194793 0 0 0 0 92.54101771933756 167.63077655794405 0 167.63077655794405 89.977316404125304 0 0 0 0 75.654534196512031 160.86689513147576 0 160.86689513147576 98.033034866937669 0 0 0 0 26.499476223300007 219.23882833095922 0 219.23882833095922 138.5905343186314 0 0 0 0 -41.280002169141881 158.39283103241178 0 158.39283103241178 177.61479027014502 0 0 0 0 -35.293025834271248 96.101181209385686 0 96.101181209385686 312.35596032806643 0 0 0 0 59.98105777546516 238.20964768547128 0 238.20964768547128 228.82445802850998 0 0 0 0 481.52797840885978 177.7224148290843 0 177.7224148290843 75.254086645079951 0 0 0 0 229.46496306218614 85.45427300328447 0 85.45427300328447 49.68106100197474 0 0 0 0 103.23031780829842 186.43874751064868 0 186.43874751064868 188.15826496577938 0 0 0 0 243.91319787149405 349.08155648063257 0 349.08155648063257 372.01300877948233 0 0 0 0 132.7822811408987 -287.4427409310083 0 -287.4427409310083 960.92850513459416 0 0 0 0 241.82138481371294 393.55158544192091 0 393.55158544192091 942.26597527446575 0 0 0 0 73.249121357233889 168.66169288714082 0 168.66169288714082 338.64803535024112 0 0 0 0 99.23162019206211 116.73627659173508 0 116.73627659173508 440.83618475649928 0 0 0 0 -65.413818771207843 153.54338936966451 0 153.54338936966451 209.02808584271406 0 0 0 0 -75.598560195283426 8.2552114996215096 0 8.2552114996215096 480.87656687001436 0 0 0 0 -87.387253808203468 -59.615387350700985 0 -59.615387350700985 215.7338690883189 0 0 0 0 -148.69113392319377 -29.714855820711819 0 -29.714855820711819 224.28894955241412 0 0 0 0 -189.86747720344238 -129.89187000059428 0 -129.89187000059428 -19.361091327475151 0 0 0 0 -218.16722360358835 166.90967947796889 0 166.90967947796889 55.651392834508442 0 0 0 0 -249.4940596221677 163.37347368738847 0 163.37347368738847 1.0561807740305085 0 0 0 0 -2.5934027316041153 -1.4671522168236493 0 -1.4671522168236493 0.06081313375515851 0 0 0 0 -181.77865821571868 -156.96028132514039 0 -156.96028132514039 -31.555225112443168 0 0 0 0 -191.43061817655143 54.291368656233317 0 54.291368656233317 161.41292424734274 0 0 0 0 -446.65746931057765 -21.645730417996674 0 -21.645730417996674 138.97157995360612 0 0 0 0 -51.801465147002091 182.73546963046829 0 182.73546963046829 134.61057288141456 0 0 0 0 -159.47772957309371 74.754128877539188 0 74.754128877539188 194.42363136998028 0 0 0 0 
</DataArray>
<DataArray type="Float64" Name="cross_section_updated" format="ascii">
1 1 1 1 1 1 1 0.011069376611369778 1 0.01054049039139587 1 1 1 1 1 1 1 1 1 0.011044302545159868 1 1 1 1 1 1 1 1 1 1 1 0.012260495780637946 1 1 0.012217100047003677 1 1 0.014581098682183801 1 1 1 1 1 1 1 1 1 1 1 0.012026216692618101 1 1 1 1 1 1 1 1 1 1 1 1 1 0.010266036389035754 1 1 1 1 1 1 1 1 1 1 1 1 1 1 1 0.010420395270504075 1 1 1 0.0100128997859022 1 1 1 1 1 0.009085445419418893 1 1 1 1 1 1 1 1 1 1 1 1 1 1 1 1 1 1 1 1 1 0.010712099496824678 1 0.010363932667350917 1 1 1 1 1 1 1 1 1 1 1 1 1 0.013497038329530722 1 0.0097766623446283174 1 0.013900539656515814 1 1 1 0.013806959624345952 1 1 1 1 1 1 1 0.012611303267525966 1 1 1 1 1 1 1 1 1 1 1 1 1 1 1 1 1 1 1 1 1 1 1 1 1 1 1 1 1 1 1 1 1 0.0099614631113703108 1 0.0085896152643533865 1 0.0096618790899551631 1 1 0.0107060242731375 1 1 1 1 1 1 1 0.011146744555034442 1 1 1 1 1 1 1 0.018062078513500432 1 1 1 1 1 1 1 1 1 1 1 0.021968241690452736 1 1 0.025295443454580919 1 1 1 1 1 1 1 1 1 1 1 1 1 1 1 1 1 1 1 1 1 1 1 1 1 1 1 1 1 1 1 1 1 1 1 0.027319344630843539 1 1 1 1 1 0.028266360422670611 1 1 1 1 1 1 1 1 1 1 1 1 1 1 1 1 0.010088516563822217 1 1 1 1 1 1 1 1 0.01203936583503306 1 1 1 1 1 0.010665800162133449 1 1 1 1 1 1 1 1 1 1 1 1 0.010351200355636353 1 1 1 1 0.01013162794297019 1 1 1 0.010043111379147979 1 1 1 1 1 1 1 1 1 1 1 1 1 1 1 1 1 1 1 1 1 1 1 1 1 1 1 1 1 1 1 1 1 1 1 0.028614205090961464 1 0.028429907317000708 1 1 1 1 1 1 1 1 1 1 1 1 1 1 1 1 1 1 0.010249076062798183 1 1 1 1 1 1 1 1 1 1 1 1 1 1 1 1 1 1 1 0.0099436397008378537 0.0097524911811762253 1 1 0.010611355371057705 1 1 1 1 1 1 0.010070353676539079 1 1 1 1 1 1 0.010178457185834822 1 1 0.01006729676733966 1 0.010086334001291206 1 1 1 1 1 1 0.010548012566375414 1 1 0.010196812210739056 1 1 1 1 1 1 1 1 1 1 1 1 1 1 1 1 1 1 1 1 1 1 0.010499320299469365 1 1 1 1 1 0.010422929281487497 1 1 1 1 1 1 1 1 1 1 1 1 1 1 1 1 1 1 1 1 1 1 0.010097342122979157 1 1 1 0.010182227878959553 1 1 1 1 1 1 1 1 1 0.010048743187635135 1 0.010286109606093543 1 1 0.01012973910269737 1 1 1 0.01001832355647414 1 0.0099713379313329086 1 1 1 1 1 0.01089808363375263 1 1 1 1 0.010595199587879849 1 0.011231436139307195 0.0098820371294303169 1 1 1 1 1 1 1 1 1 0.0099977445980095406 1 1 0.0090926804705725329 1 1 1 1 1 0.01032935068732458 1 1 1 1 0.010050404542848744 1 1 1 0.0106563066876166 1 0.0093019342067907768 1 0.0098425156621662555 1 1 1 1 1 1 1 1 1 1 1 1 0.015849179689194637 1 1 1 0.010061624202448133 1 1 1 1 1 1 1 1 1 1 1 1 0.015494959413106357 1 1 1 1 1 0.0085015719030585076 1 1 0.013508559934158677 1 1 0.0099630968922151276 1 1 1 1 1 1 1 1 1 1 1 1 1 1 1 1 1 0.012389066910879858 1 0.011854068359841589 1 0.010504467129139295 1 0.011129852980695666 1 1 1 1 0.010956112728085471 1 1 1 1 0.0111079225280468 1 1 1 1 0.011246743779220025 1 1 1 1 1 0.010248450301888742 1 1 0.010177450833582919 1 0.010075113100351068 0.0095538491776638555 0.010400416073753763 1 1 1 1 1 1 1 1 1 1 1 1 1 1 1 1 1 1 0.0098050525960682259 1 1 1 1 1 1 1 1 1 0.025623128569966944 1 1 1 1 1 0.01024890285838336 1 1 1 1 1 1 1 0.010481757837773636 1 1 0.0098372989481587923 0.0094856038706945985 1 1 1 1 1 0.011600731163884338 1 0.0063969567803989231 1 1 1 1 1 1 1 0.010044879852181303 1 1 0.0054723142588162209 1 1 1 1 1 1 0.027851139812493399 1 0.0043257769681356237 1 1 0.027926287004547124 1 1 1 1 1 1 1 1 1 1 1 1 1 1 1 1 1 1 1 1 1 1 0.0098394789539888936 1 1 1 1 1 1 1 0.0087850990705554757 1 1 1 0.0095123771181865237 1 0.0095057458036046961 1 1 1 0.008602592041109634 1 1 1 0.009204696437894181 1 1 1 1 1 1 1 1 1 0.0099824151929570649 1 1 1 1 1 1 1 1 0.014810416703138188 1 0.014015749022431545 0.011945284516475481 0.0095172974052372301 1 1 0.0097559584454410125 1 0.010259102701704482 1 1 1 1 1 1 1 1 1 1 1 1 1 1 1 1 1 1 1 1 1 1 1 1 1 0.0097838458577956481 0.010065959990257081 0.0090712293223230815 1 1 1 1 1 1 1 1 1 1 1 1 1 1 1 1 1 1 1 1 1 1 1 1 1 1 1 1 1 0.010179491098632747 1 1 1 1 1 0.010771173108174128 1 1 1 0.012257287522378677 1 1 0.018088013606746681 0.015496126307358579 1 0.010138599818528396 1 1 1 1 1 1 0.017006202115616251 1 1 1 1 1 0.016797957870118591 1 0.0097083916539609221 1 1 1 0.01001685782762751 1 0.0096501000314904509 1 0.012443371082806172 1 1 1 1 1 0.012409374195316129 1 1 1 0.0096991220296360654 1 1 1 1 1 1 1 1 0.010052716105253037 1 1 1 1 1 1 0.0099552458552775204 1 1 1 1 1 1 1 1 0.011534768991936893 1 1 0.0090200128926743763 1 1 1 1 1 1 0.009848996131787675 1 0.012276281561143573 1 0.0096780236983891529 1 1 1 1 1 1 1 1 1 1 1 0.010961916037874143 0.013191002050986986 0.0190579309462564 1 1 0.0099719513209078313 1 1 1 1 1 0.010015775823462691 0.012532863524404624 1 1 0.010981842082416957 0.010694206654207984 0.0091631993570442001 1 1 1 1 1 1 1 1 1 1 1 1 1 1 1 1 1 1 1 1 1 1 1 1 1 1 1 1 1 1 1 1 1 0.015870430042655263 1 1 1 1 1 1 1 0.013780388694662844 1 1 1 1 1 1 0.011314950770837931 1 1 1 1 1 1 1 1 1 1 1 1 1 1 1 1 1 1 1 1 1 1 1 1 1 1 1 1 1 1 1 1 1 1 1 1 1 1 1 1 1 1 1 1 1 1 1 1 1 1 1 1 1 1 0.012867402340636812 1 1 1 0.010257833999990286 1 1 0.013751344738104354 1 1 1 1 1 1 0.012467745255976359 1 1 1 1 1 1 1 1 1 1 0.015749433148138856 1 1 1 1 0.010150054308519474 1 1 1 1 1 1 1 1 1 1 1 1 1 1 1 1 1 1 1 1 1 1 1 1 0.011077830995897917 1 1 1 1 0.010652117804958922 1 1 1 1 1 1 1 1 1 1 1 1 1 1 1 1 1 1 1 1 1 1 1 1 1 1 1 1 1 1 1 1 1 1 1 1 1 1 0.0097562056858996951 1 1 1 1 1 0.010388796457557005 1 1 1 0.0096516775972971067 0.010972918185060396 1 1 1 1 1 1 1 1 1 0.010587826598070768 1 1 1 0.010251994419015753 1 1 1 1 1 1 0.010121086755443161 1 1 1 1 1 1 1 1 1 1 0.012690946072097914 0.012796654219855562 1 1 1 1 1 1 1 1 1 0.013191848883991679 1 1 0.009308927437695888 1 1 1 0.012867393030212448 0.0098659861336779803 1 1 0.01046130804903049 1 1 0.013568620820472353 0.0083194862404973504 1 1 1 0.011618877250494694 1 1 1 1 1 0.010161964119355826 1 1 1 1 1 1 1 1 1 0.009886764093896102 1 1 1 1 1 1 1 1 1 1 1 1 1 1 1 0.011576803748889454 1 1 1 1 1 1 0.010875766301486652 1 1 1 1 1 1 1 1 1 1 1 1 1 1 1 1 0.011228142216796159 0.01449193774099237 1 1 1 1 1 1 1 1 1 1 1 1 1 1 1 1 1 1 1 1 1 1 1 1 1 1 1 1 1 1 1 1 1 1 1 1 1 1 1 1 1 1 1 1 0.010379206516145711 1 0.011017935131238749 1 1 1 0.009897563874273126 1 1 1 1 1 1 1 1 1 0.0078345792242990493 1 1 0.0052810283550628178 1 1 1 1 1 0.0099044369284683222 1 1 1 1 1 1 1 0.017739557293402507 1 1 0.010024254458727988 1 1 1 1 1 1 0.01040401815208894 1 1 1 1 1 1 1 1 1 1 1 1 0.010701037447402799 1 1 1 1 1 1 1 1 1 1 1 1 1 1 1 1 1 1 1 1 1 1 1 1 1 1 1 1 1 1 1 1 1 1 1 1 1 1 1 1 1 1 1 1 1 1 1 1 1 1 1 1 1 1 1 1 1 1 1 1 1 1 1 1 1 1 1 1 1 1 1 1 1 1 1 1 1 1 1 1 1 1 1 1 1 1 1 1 1 0.010140119021576553 1 1 1 1 1 1 1 1 1 1 1 0.010004942114716879 1 1 1 0.010145061136293423 1 1 1 1 1 1 1 1 1 1 1 1 1 1 1 1 1 1 1 1 1 1 1 1 1 1 1 1 1 1 1 1 1 1 1 1 1 1 1 1 1 1 1 1 1 1 1 1 1 1 1 1 1 1 1 1 1 1 1 1 1 1 1 1 1 1 1 1 1 1 1 1 1 1 1 1 1 1 1 1 1 1 1 1 1 1 1 1 1 1 1 1 1 1 1 1 1 1 1 1 1 1 1 1 1 1 1 1 1 1 1 1 0.010708192234684714 1 1 1 1 1 1 1 1 1 1 0.011630998150127391 1 1 1 1 0.0097773489133414163 1 1 1 0.0085868596569344292 0.0092909562544712995 1 1 1 1 1 1 1 1 1 1 1 1 1 1 1 1 1 1 1 0.010275097183559557 0.0079607079009706375 1 1 0.012032535788402798 1 1 1 1 1 1 0.008848607243926096 1 1 1 1 1 0.011122938676533292 1 1 1 1 1 1 0.0092340105792944865 1 1 1 1 1 1 0.011390812234178448 1 0.0077623399732175856 1 1 1 1 1 1 1 1 1 1 1 1 1 1 1 1 1 0.0097030205867212477 1 1 1 1 1 1 1 0.010720692181715352 1 1 1 1 1 0.011686140040605588 1 1 1 1 1 1 1 0.011930974203526849 1 1 1 0.010189276368088274 1 1 0.010649304188631293 1 1 1 1 1 1 1 1 1 1 1 1 1 1 0.011630305421979362 1 1 1 1 1 1 1 1 0.010913001461925762 1 1 1 1 1 1 0.010793139378841932 1 1 1 1 1 0.011774140612190006 1 1 1 1 1 1 1 1 1 1 1 1 1 1 1 1 1 1 1 0.0099940924935616304 1 1 1 0.013558805838737815 1 0.012442484414936256 1 1 1 1 1 1 1 1 1 1 1 1 1 1 1 1 1 1 1 1 1 1 1 1 1 0.010315100949502561 1 1 0.010125824581414285 1 1 1 1 1 1 1 1 0.010745528622313731 1 1 1 1 1 1 1 1 1 1 1 0.011711054966950346 1 1 1 1 1 1 1 1 1 1 1 1 1 1 1 1 1 0.010673722908081502 1 1 1 1 1 1 1 1 1 1 0.010623807404295332 1 1 1 1 1 1 1 1 0.010051496701114536 1 1 1 1 1 1 0.011398993965478901 1 1 1 1 1 1 1 1 1 1 1 1 1 1 1 1 1 1 1 1 1 1 1 1 1 1 1 1 1 0.011336531285752301 1 0.0106628083776708 1 1 1 1 1 1 1 0.011034429216516081 1 0.010405394997891363 1 1 1 1 1 1 1 1 1 1 1 1 1 1 0.01228482664262673 1 0.011525902221288464 1 1 1 1 1 1 0.012648840897821756 1 1 1 1 1 1 1 1 1 0.010538609530465032 1 0.011118591536815855 1 1 1 1 1 1 1 1 0.010579982006350819 1 1 0.010485283252355822 1 1 1 1 1 0.010031257380752169 1 1 1 1 0.010122022915893824 0.010608591256670534 1 0.010237080698408701 0.010781396293671123 1 1 1 1 0.011185254944825909 1 1 1 1 1 1 1 1 1 1 1 1 1 1 1 1 1 1 1 1 1 0.015179614335473992 0.015923390565096084 1 1 1 1 1 0.0099619173851154541 1 1 1 0.0099911369310337617 1 1 1 1 1 1 1 0.0099707804540816996 1 1 1 1 1 0.015956340338096748 1 1 1 0.015564190453386232 1 1 1 1 1 1 1 1 1 0.010086517645285285 1 1 1 1 1 1 0.011967782615146092 0.010318816322247761 1 1 1 1 1 1 0.012682428233086303 1 1 1 1 1 1 1 1 1 1 1 1 1 0.011588300196782765 1 1 1 1 1 0.013308126975202523 1 1 0.01323930756838647 1 1 1 1 1 1 1 0.014676599317016068 1 1 1 1 0.012044266122816389 1 1 1 1 1 1 1 1 1 1 1 1 1 1 1 1 1 1 1 1 1 1 1 1 1 1 1 1 1 1 1 0.010870792836849774 1 1 1 0.011244340344118971 1 1 0.0098032697325066784 1 1 1 1 1 1 0.0099821043431813292 0.010776352785839351 1 1 1 1 0.01029211850625208 1 1 1 1 1 1 1 0.012122775948892071 1 1 1 1 1 1 1 0.011251983112042296 1 1 1 1 1 1 1 1 1 1 1 1 1 1 1 0.012937433835054645 1 1 0.011599140788245364 1 1 1 1 1 1 1 1 1 0.011340964289709269 1 0.012715490878746204 1 1 0.011216813270265535 1 1 1 1 1 1 1 1 1 1 1 1 1 1 1 1 0.011290019698345097 1 1 1 1 1 0.012230891228001216 1 1 1 1 1 1 1 1 1 1 1 0.01507933936682682 1 1 1 1 1 1 1 0.012762898443029188 1 1 1 1 0.016107634975514526 1 1 1 1 1 0.013122096528106348 1 1 0.0099714603581682396 1 1 1 1 1 1 0.0093901851354947635 1 0.012589715800362016 0.010369622055320367 1 0.013156827713422258 1 1 0.013831494892572661 0.0088788941330166914 1 0.015773268048083277 1 0.0079057656484253468 1 1 1 1 1 1 1 0.02078919015868172 1 1 1 1 1 1 1 1 1 1 1 1 1 1 1 1 1 1 1 1 1 1 1 0.021974703520440772 1 1 1 1 1 1 1 1 1 1 1 1 1 1 0.010308455942451514 1 0.010145700748809256 1 1 1 1 1 1 1 1 1 1 1 1 1 1 1 1 1 1 1 1 1 1 1 1 1 1 1 1 1 1 1 1 1 1 1 1 1 1 1 0.010181153373986543 1 1 1 1 1 1 1 1 1 1 1 0.0098554752614852994 1 1 1 1 1 1 1 1 1 1 1 1 1 1 1 1 1 1 1 1 1 1 1 1 1 1 1 0.0093692970324359172 1 1 1 1 1 1 1 1 1 0.010800973536049476 1 1 1 1 0.010802616696852285 1 1 1 1 1 1 1 1 1 1 1 1 1 1 0.014341519360476784 1 1 1 1 0.011761844142648616 1 1 1 1 1 1 1 1 1 1 1 1 0.015234982348702252 1 1 1 1 1 1 0.010962522510270481 1 1 1 1 1 1 1 1 1 1 0.010957742908911236 1 1 1 1 1 1 1 1 1 1 1 1 1 1 1 1 1 1 1 1 1 1 1 1 1 1 1 1 1 1 1 1 1 1 0.018010134948458274 1 1 1 1 0.015917791535528671 0.01052498218938501 1 1 0.008086710350121748 1 1 1 1 0.0093672637114194258 1 1 1 1 1 1 1 1 1 1 1 1 1 1 1 1 0.010272375385724623 1 1 1 0.010878158616964074 1 1 1 1 1 0.010595826811597467 1 1 0.010086402192626166 1 1 1 1 1 1 1 1 1 1 1 1 1 1 1 1 1 0.0096095467329329314 1 1 1 1 1 1 1 1 1 1 1 0.0085070745260332203 1 1 1 0.016930910404312983 1 1 1 1 0.020751084016322533 0.019107073766367721 1 1 1 1 1 1 1 1 1 1 1 1 1 1 1 0.010742124162929648 1 1 1 1 1 1 1 1 1 1 1 0.012216785128300425 1 1 1 1 1 0.012003629472956887 1 1 1 1 1 1 1 1 1 0.011474660965370776 1 1 1 1 1 1 1 1 1 1 1 1 1 1 1 1 1 1 1 1 1 1 1 1 1 0.020685062682531164 1 1 1 1 1 1 0.014048228403940032 1 1 1 1 1 1 1 1 1 1 1 1 1 1 1 1 1 1 1 1 1 1 1 1 1 1 1 1 1 1 1 1 1 1 1 1 1 1 1 1 1 1 1 1 1 1 1 1 1 1 1 1 1 1 1 1 1 1 1 0.0099418832137375887 1 1 1 1 1 1 1 0.0099184105953495638 1 1 1 0.01013022965322672 1 0.010268020836084846 1 1 1 1 1 0.009662367523471431 0.013503043076597337 1 1 1 1 1 1 1 1 0.009389115008861481 1 1 1 1 1 1 1 0.012861444889931562 1 0.014646423788185 1 1 0.010310753724324256 0.010300277948930618 1 1 1 0.021932610111897986 1 1 1 1 1 1 1 1 0.010270504921433395 1 1 1 1 0.010538525757518241 1 1 1 1 1 1 1 1 1 1 1 1 1 1 1 0.01008188030381986 1 1 1 1 0.010396975078709837 0.010127844114278708 1 1 1 1 0.010060431761451046 1 1 1 1 1 0.0096556466962833733 1 1 1 1 1 1 1 1 1 1 1 1 0.0099760173057535043 1 1 1 1 1 1 1 1 0.011323179523534871 1 0.011327144517563177 1 1 1 1 1 1 1 1 1 1 1 1 1 1 1 1 0.0090511236130985211 1 1 1 1 1 1 1 0.01023657866173607 1 0.010202666760075998 1 1 1 0.0099613086165112469 1 1 1 1 1 1 1 1 1 1 1 1 1 1 1 1 1 1 1 1 1 1 1 1 1 1 1 1 1 1 1 0.010144648856446236 1 1 1 1 1 1 1 0.010316793350054513 1 1 1 0.010346910409680421 1 1 1 1 1 0.012345170837351262 1 1 1 1 1 0.015784530562156417 1 1 1 1 0.015071685508874604 1 1 1 0.013138415443608623 1 1 0.010007746211760642 1 1 1 1 0.017094071116031832 1 1 0.019301017418358317 1 1 1 0.010640786782130091 1 1 1 1 1 0.0098356950725226374 1 1 1 1 1 1 1 0.010875513506251582 1 1 1 1 1 1 1 1 1 1 1 1 0.015143055236655184 1 1 1 0.016033354147050496 1 1 0.010079621815343073 1 1 0.021281311663968992 1 1 1 0.015856140056607043 1 1 0.012709947821472153 0.0092256594542149666 1 1 1 1 0.022899128408408263 1 1 1 1 1 1 1 1 0.01478576640696311 1 1 1 1 1 0.010875442658409337 0.011949208042832053 1 1 1 1 0.011908728299523967 1 1 1 1 1 1 1 0.01103561679996584 1 1 1 1 1 1 1 1 1 0.018231712931843176 1 1 0.014538257636091718 1 1 1 1 0.010690811183971798 0.014302476951222871 1 0.014312506349462628 1 1 1 1 1 0.010896803341549636 1 1 0.010538711752701879 1 1 0.011761371718634882 1 0.01164745881103587 1 1 1 1 1 1 0.013758954334088528 1 1 1 1 1 1 1 1 1 1 1 1 1 1 0.01029372919285507 1 1 1 1 1 1 1 1 0.019240747286823866 1 1 1 1 1 1 1 1 1 1 1 1 1 0.017951910248623894 1 1 1 1 1 1 1 1 1 1 0.021033459634013978 1 1 1 0.0093466596681526983 1 0.016723391493413411 1 1 1 1 0.0076502447388305441 1 1 1 1 1 0.014202845707029454 1 1 1 1 1 1 1 1 1 1 1 1 1 1 1 1 1 1 1 1 1 0.015490711081403621 1 1 1 1 1 1 1 1 1 1 1 1 1 1 0.011436021915298715 1 0.01073219567316362 1 1 0.0099431598460095506 1 1 0.013394284488408683 1 0.011056910230854616 1 1 1 1 1 0.0088902874759834334 1 0.017068133742703096 1 1 0.01210704389009366 1 0.015230866402455023 1 1 1 1 0.010404946136190151 0.0098861837795236485 1 1 1 1 1 1 1 1 0.012138015175427577 1 1 1 1 0.036178014135025444 1 0.0029837757924349954 1 1 1 1 1 1 1 1 1 1 0.009500861859262414 1 1 0.018340496629180508 0.011371588773980736 1 1 1 1 0.01183065568784873 1 1 1 1 1 1 1 1 1 1 1 1 1 0.010519246636442364 1 0.010002844944820333 1 1 1 0.0088296489100049558 1 1 1 0.022638909682445807 1 1 1 1 1 1 0.010056592764347453 1 1 1 1 1 1 1 0.028093084623415976 1 1 1 0.016958193319437476 1 1 1 1 1 1 1 1 1 1 1 1 1 1 1 1 1 1 1 0.010057028451170562 1 1 0.012548181095481323 1 1 1 1 1 1 1 1 1 1 1 1 1 1 1 1 1 1 1 1 1 1 1 1 0.014315737064477715 1 0.009988579901786164 0.012280447939438652 1 1 1 0.0084020969252691351 1 0.010162315786727404 1 1 0.01637302571984153 1 1 1 1 1 0.010229605005409512 1 1 1 1 1 0.012233387079961052 1 0.010220023362009544 1 1 1 1 1 0.010276616126356979 1 1 1 1 1 1 1 1 1 0.021673519099588763 1 1 0.019926441377221757 1 1 0.010607201393466525 1 1 0.012186309327417195 1 0.011569237717119816 1 1 1 1 1 1 0.014479001475408367 0.011412473439315516 1 1 1 0.010036459089389514 0.014306139683384483 0.0077218710082539097 0.0087296201832316109 1 1 1 0.010167438657657931 1 1 1 1 1 1 1 0.0096129267074948413 1 1 1 1 1 1 1 1 1 0.010898453038721041 1 1 1 0.011314738161933402 1 1 1 1 1 1 1 1 1 0.010433994571229385 1 1 0.010806252558420631 1 1 0.010563725436907326 1 1 1 1 1 1 1 1 1 1 1 1 1 1 1 1 1 1 1 1 1 1 1 1 1 1 1 1 1 1 1 1 1 1 1 1 1 1 1 1 1 0.0091183005868392189 1 0.01071207289861862 1 1 1 1 1 1 1 0.010009572912147319 0.0098049052536512329 1 1 1 1 1 1 0.014084581024363475 1 1 1 1 1 1 1 1 1 1 1 1 1 1 1 1 1 1 1.9081958235744878e-17 1 0.020185220293873707 0.031304430610081965 1 1 1 1 1 0.016012966825378113 1 1 1 1 0.011976475272337837 1 1 1 1 1 1 1 1 1 1 0.0095506534864222333 1 1 0.014412684527024152 1 0.012919042579829803 1 1 0.02259739036558165 0.011748852042645488 1 1 0.028862082414532288 1 1 1 1 1 1 1 1 0.0079866491699415107 1 1 0.011928451006016118 1 0.023289082483168255 1 0.011942276380644707 1 1 1 0.023092763829682519 1 1 0.013068557269629992 1 0.015179495647602216 1 1 1 1 1 1 1 1 1 1 1 1 0.014741686523212619 0.0099979192397282729 1 0.019593552191808673 1 1 1 1 1 1 1 1 1 1 1 1 1 1 1 1 1 1 1 1 1 0.010064106896887921 1 1 1 1 1 1 1 1 1 0.010529534549127112 1 1 1 1 0.0092785804633695717 1 1 1 1 1 1 1 1 1 1 1 1 1 1 1 1 1 1 1 1 1 1 1 1 1 1 1 1 1 1 1 0.019317756893558594 1 1 1 0.0099939431556296393 1 0.010178764666447956 1 1 1 1 0.017427596518961589 1 0.0080142852630326559 1 1 0.004818666190296448 0.0089974512951272317 0.0071326269311299331 0.010014078220823234 1 1 1 0.013501797470802344 0.0040736450819337782 1 1 1 1 1 1 1 0.0096883849589069135 1 1 1 1 1 1 1 1 1 1 0.010296361228441638 1 1 1 1 1 1 1 1 1 1 1 1 1 1 1 1 1 1 1 1 1 1 1 0.010664771104562666 1 0.015807840372066298 1 1 1 1 1 1 0.011775917169184033 1 1 1 1 1 1 1 0.011855206895170334 1 0.011044562373632202 0.011917344198621251 1 1 1 0.010261490165382171 1 0.010390399261704021 0.011367189862839779 1 0.010071345027010884 1 1 1 1 1 1 1 1 1 1 1 1 1 1 1 1 1 1 1 1 1 1 1 1 1 1 1 1 1 1 1 1 1 1 1 1 1 0.014872865145134384 1 0.0099997666161961273 1 0.0083674293007227063 1 1 1 1 0.013567738605435659 1 1 1 0.009924206481600131 1 0.014801737753683991 0.012958194597696711 0.011340101461340291 1 1 0.0097407784705321691 1 1 1 1 0.0080499670891443845 1 1 0.0099629048985243364 1 0.010370036825707805 0.0098203770958897197 1 1 1 1 1 1 1 1 1 1 1 1 1 1 1 0.012254875581846568 1 1 1 1 0.017741732165517974 1 1 1 0.0099927327750217523 1 1 0.011117786277861905 1 0.0074570744763275054 1 0.0098999483103531932 0.013192153479109294 1 0.011826104456484054 1 0.012867030392881796 1 1 1 1 0.010004688218028747 0.010435741833071105 1 0.011585874750552307 0.010000850840166546 1 1 1 1 1 0.012013838572402031 1 1 1 1 0.016731852267073986 1 1 0.0061364392492280397 1 0.0095112980678035454 1 1 0.0099074614609574781 1 1 1 0.009614603473311889 1 0.0099990344830422628 0.012993846411176457 0.0099657437711445536 1 0.01484021150649166 1 1 0.0099798436442453467 1 1 1 1 1 1 1 1 1 0.015396146435450798 1 1 1 1 1 1 1 1 1 1 1 0.010712544484049137 1 1 1 0.018713784610851592 1 1 1 0.0053295720854045726 0.0090195580840955573 1 0.014010971686333713 1 0.013150459057712735 1 0.006715452108185728 1 1 0.0066752934968524573 1 0.013343254646852076 1 1 0.01482196319588092 1 1 1 0.011915710347640992 1 0.0072610349960334662 1 1 1 1 1 1 1 1 1 1 0.010985761299465647 0.010231635557331174 0.0090198120809601521 0.0076735485000539397 1 1 0.0070976234643567197 1 1 1 1 1 1 1 1 1 1 1 1 1 0.010030049110280026 1 1 1 1 1 0.010636134339151653 1 1 1 1 1 1 1 1 1 0.012334846803300388 0.012940684314157718 1 1 1 1 1 0.011662948340159239 1 1 1 1 0.0097862203823096908 1 0.013209836539519428 1 1 1 0.010010167896589695 0.016204444722682024 1 1 1 1 1 1 1 1 1 1 1 1 1 1 1 1 1 1 1 1 1 1 1 1 1 1 1 1 1 0.0092830580856121357 0.010654432414551938 1 1 1 1 1 1 1 1 1 1 0.023703370991408651 1 1 0.0091595170590441921 1 1 0.010477419341457775 1 1 0.01324598277971922 1 1 1 1 0.013278942324967759 0.0097546131455952187 1 1 1 1 1 0.012192724761585486 1 1 1 1 1 1 1 1 1 1 0.02780786269397905 1 1 1 0.022983243521439489 1 1 1 1 1 1 0.020306924939599742 0.0099810805918396552 1 1 1 1 1 1 1 1 1 1 1 1 1 1 1 1 1 1 1 1 1 1 1 1 1 1 1 1 1 1 1 1 1 1 1 0.0099861202195867266 1 1 1 1 1 1 1 1 1 1 1 1 1 1 1 1 1 1 1 1 1 1 1 0.023325130096216246 1 1 1 1 1 1 1 1 0.010318623761426273 1 1 1 1 1 1 1 0.0048122803061592424 0.01483265008812935 1 0.0087785049701895428 1 1 1 0.019002462954268037 1 1 1 0.016658956735280381 1 1 1 1 1 1 1 0.0095700646782927272 1 1 1 1 1 1 1 1 1 1 1 1 1 1 1 1 1 1 1 1 1 1 1 1 1 1 1 1 1 1 0.0016967740554195924 1 1 1 1 0.0033379420815963078 1 1 1 0.010736326184333364 1 1 1 1 1 1 1 0.012254302097270322 1 0.010858594214183018 1 1 1 1 1 1 1 1 1 0.012843046459469321 1 1 1 1 1 1 1 1 1 1 1 1 1 1 1 1 1 0.010107875043521217 1 1 1 1 1 0.0099960174759413777 1 1 0.0083787213912874369 1 0.01264113424389577 1 1 1 -6.2450045135165055e-17 1 1 1 0.0014410689355906399 1 1 1 1 -4.8572257327350599e-17 1 1 1 0.016998917108034799 1 1 1 1 0.0053322900590134781 1 1 1 1 1 1 1 1 0.011025948339946252 1 0.015538005170644943 1 1 1 1 1 1 1 1 1 1 1 1 1 1 1 1 1 1 1 1 1 1 1 1 1 1 1 1 1 1 1 1 1 1 1 1 1 1 0.0064535534587319247 1 1 0.011001534251631901 1 1 1 0.00054331862476178494 0.022637866710228782 1 1 1 1 1 1 1 0.020590398172512667 1 1 1 1 0.018941913068276819 1 1 1 1 1 1 1 1 1 1 1 1 1 1 1 1 1 1 1 1 1 1 1 1 1 1 1 1 1 1 1 1 1 1 1 1 0.013265634205030666 1 1 0.016908363659099951 1 1 1 1 1 1 1 1 1 1 1 1 1 0.011972810705668109 1 1 1 1 1 1 1 0.013408871804362107 1 0.013489592339564534 1 1 1 1 1 1 1 1 1 1 1 1 1 1 1 1 1 1 1 1 1 1 1 1 1 1 1 1 1 1 1 1 1 1 1 1 1 1 1 1 1 1 1 1 1 1 1 1 1 1 1 1 1 1 1 1 1 1 1 1 1 1 1 1 1 1 1 1 1 1 1 1 1 1 1 1 1 1 1 0.013424271648730206 0.013486311126618902 1 1 1 1 1 1 1 1 1 1 1 1 1 1 1 0.016680384564977349 1 0.015599756738152819 1 1 0.010658026964586939 1 1 1 1 1 0.012279702408633089 1 1 1 1 1 1 1 1 1 1 1 1 1 1 1 1 1 1 1 1 1 1 1 1 1 1 1 1 1 1 1 1 1 1 1 1 1 1 1 1 1 1 1 1 1 1 1 1 0.010134299038081013 1 1 1 1 0.010071456642605593 0.003478164508738237 1 1 1 1 1 1 1 1 0.0064611901416818072 1 1 1 1 1 1 0.0089379340453060382 1 1 1 1 1 1 1 1 1 1 1 1 1 1 1 1 1 1 1 1 1 1 1 0.011763780329745926 1 1 1 1 1 1 1 1 1 1 1 1 1 0.010341069170507042 0.014901976778317652 1 1 1 1 1 1 0.0092832754858923616 1 0.0099513046649994767 1 1 1 1 1 1 1 1 1 1 1 1 1 1 1 1 1 1 1 1 1 1 1 1 1 1 1 1 0.0090461443862880093 1 0.0099983174054260465 1 1 1 1 1 1 1 1 1 1 1 1 0.0094801881008584523 1 1 1 1 1 1 1 1 1 1 1 1 1 1 1 1 1 1 1 1 1 1 1 1 1 1 1 1 1 1 1 1 1 1 1 1 1 1 1 1 1 1 1 1 1 1 1 1 1 1 1 1 1 1 1 1 1 0.010067693156127511 1 0.0082246878973276424 1 1 1 1 1 1 1 1 1 1 0.010043298050231646 1 1 1 1 1 1 1 1 1 1 1 1 1 1 1 1 1 1 1 1 1 1 1 1 1 1 1 1 1 1 1 1 1 1 1 1 1 1 1 1 1 0.011662856023476961 1 1 1 0.010588863853053042 1 1 1 1 1 1 1 1 1 1 1 1 1 1 1 1 1 1 1 1 1 1 1 1 1 1 1 1 1 1 1 1 1 1 1 1 1 1 1 0.0099654725049161917 1 1 1 1 1 0.010038350141223819 0.010127529667495689 1 1 1 1 1 1 1 1 1 1 1 1 0.012390404666538063 1 1 1 0.012283695735457054 1 1 1 1 1 1 1 1 1 1 1 1 1 1 1 1 1 1 1 1 1 1 1 1 1 1 1 1 1 1 1 1 1 1 1 1 1 1 1 1 1 1 1 1 1 1 1 1 1 1 1 1 1 1 1 1 1 1 1 1 1 1 1 1 1 1 1 1 1 1 1 1 1 1 1 0.010246498405343979 1 1 1 1 1 0.010182027740796091 1 1 1 1 1 1 1 1 1 1 1 1 1 1 0.015449594831642086 1 1 0.010022850664604252 1 1 0.015085439148763315 0.0097666000863918453 1 1 0.010099640992567077 0.015215958873021105 1 1 1 1 1 1 1 1 0.01038760368101546 1 1 1 1 1 1 1 1 1 1 1 1 1 1 1 1 1 1 1 1 1 1 1 1 1 1 1 1 1 1 1 1 1 1 1 1 1 1 1 1 1 1 1 1 1 1 1 1 1 0.010523660802939117 1 1 1 0.010277162397595137 1 1 1 1 1 1 1 0.010170607881739365 1 1 0.015320070425724391 1 1 1 0.016967918975804727 1 1 1 1 1 1 1 0.016436134161065121 1 0.0092907018660094709 1 0.010005915866044206 1 1 1 1 1 1 1 1 1 1 1 0.0089952708930182007 1 1 1 0.015853566140372907 1 0.008004056761204607 1 1 1 0.014858611060284334 1 1 1 1 1 1 1 1 1 0.01183294050419615 1 1 1 1 1 1 0.01359273400661404 1 1 1 1 0.010253022320627093 1 1 1 1 1 1 1 1 0.012066324826111757 1 1 1 1 1 1 1 1 1 1 1 1 0.009492148812616015 1 1 1 1 1 1 1 1 1 1 1 1 1 1 1 1 1 1 1 1 1 1 1 0.010079064310680669 1 1 1 1 1 1 1 1 1 1 1 1 1 1 1 1 1 1 1 1 1 1 1 1 1 1 1 1 1 1 1 1 1 1 1 1 1 1 1 1 1 1 1 1 1 1 1 1 1 1 1 1 1 1 1 0.014447063270539779 1 1 1 1 1 1 1 0.016619293747229161 1 1 1 1 1 1 1 1 0.010878809611072727 0.013422038259059237 1 1 0.01113319562483823 1 1 0.008857585841642068 1 1 1 0.016792132468744957 1 0.010322303157312421 1 0.015846833783541327 1 1 0.010412431713983358 1 1 1 1 1 1 1 1 1 1 1 1 1 1 1 1 0.01184425775088673 1 1 1 1 1 1 1 0.015852456886525486 1 1 1 1 1 1 1 1 0.010170764837881187 1 0.010467573511002434 1 1 0.018740262996230925 0.0080862133113079257 1 0.01444359933124734 1 1 1 1 1 1 1 1 1 0.0098198321725943213 0.0099378415118452877 1 1 1 1 1 1 1 1 1 1 1 1 1 0.0098654638364807541 1 0.017571890375072861 1 1 1 0.010154315387602881 1 1 1 1 0.0095786648464060188 1 0.018330870431118612 1 0.0099840908679529258 1 1 1 1 0.010047544010706981 1 1 1 1 1 1 0.011215065258404187 1 1 1 1 1 0.012615263948285849 1 1 1 0.010946871821912969 1 1 1 1 1 1 1 1 1 1 1 0.010527483574568345 1 1 1 1 1 1 0.011574558603822293 1 1 1 1 1 1 1 1 1 0.023725613051719264 0.012631984710917969 1 1 1 0.010280198359914925 0.024224961245789399 1 1 1 1 1 1 1 1 1 1 1 1 1 1 1 1 1 1 1 1 1 1 1 1 1 1 1 1 1 1 1 1 1 1 1 1 1 1 1 1 1 1 0.010885027605788302 1 1 1 1 0.0098978328301707538 1 1 1 1 1 1 1 1 1 0.025194050654730456 1 1 0.011997085136145221 1 0.018609750377357459 1 1 1 1 1 1 1 1 1 1 1 1 1 1 1 1 1 0.02012875978409534 1 1 1 1 1 1 1 1 1 1 1 0.021483435767815369 1 0.010034057993249893 0.0091507722323413004 1 1 0.014638092833129255 1 1 0.0099399538628683701 1 1 0.0095268537667896353 1 1 1 1 1 1 1 1 1 1 1 1 1 1 0.010766567293346369 1 1 1 1 1 1 1 1 1 0.0098864385106084435 1 1 0.010059580717493275 1 1 1 1 1 1 1 1 1 0.010156637756752386 0.012769447343518564 1 1 1 1 1 0.010036372610137241 1 1 1 1 1 0.0099874595441795354 0.012034338124591187 1 1 1 1 1 1 1 1 1 1 1 1 1 1 1 1 1 1 1 1 1 1 1 1 1 1 1 1 1 0.010172889262611806 1 1 0.0098009948805240533 1 1 0.010392952287389215 1 0.011388659287451803 1 1 0.010324457495093618 1 0.0101677650512874 1 1 1 1 1 1 1 1 1 1 1 1 1 1 1 1 1 1 1 1 1 1 1 1 1 1 1 1 1 1 0.010089192294225715 1 1 1 1 1 1 1 1 1 1 1 1 1 1 0.0132038100078034 1 1 0.010192200845599211 1 1 1 1 1 1 1 1 1 1 1 1 1 1 1 1 1 1 1 1 1 1 1 1 1 0.010646279350263774 1 0.012415665157461982 1 1 1 1 1 1 1 0.010164510498633018 1 1 0.010582826066596206 1 1 1 0.010835398383656594 1 1 1 1 1 1 1 1 1 1 1 1 1 1 1 0.013158832624192497 1 1 1 1 1 1 1 1 0.0047129166646422624 1 1 0.0070320458208781196 1 1 1 1 0.014881813017529505 1 1 0.0099886763040179898 1 1 1 1 0.0099789599466823913 1 1 1 0.016374365226609514 1 1 0.018130668136061685 1 0.019563421871845597 1 1 1 1 1 1 1 1 1 1 1 1 1 1 1 1 1 1 0.011200495767330218 1 1 1 1 1 1 1 1 1 0.01074472767153084 1 1 0.0082729476414247806 1 1 1 1 1 0.010036356471883726 1 1 0.010669313938108478 1 1 1 1 1 1 1 1 0.011682558632636661 1 1 0.011959833887835761 1 0.012165537089363581 1 1 0.012595031743709129 1 1 1 1 1 1 1 0.0106278036695025 1 1 0.010155595316884775 1 1 0.010930537421128456 0.010623821973982544 0.010376363228483619 1 1 1 0.0099590531193089089 1 1 0.011708645782411882 1 1 1 0.014173558188717111 1 0.0086451801870702661 1 1 0.0091490227064998982 0.010648911753228718 0.0083959530991472089 1 0.010067233071856712 1 0.009582131190095447 1 1 1 1 1 1 1 1 0.0072934759897641949 0.0099255765531592356 1 1 1 1 1 1 1 0.015533895974396264 1 1 0.014810548945735276 1 1 0.010283228598125346 1 1 1 1 0.012614953608261072 1 1 1 1 1 1 1 1 1 1 1 1 1 1 1 0.010856812142538939 1 1 0.012478870139100727 1 1 0.020995704877089079 1 1 1 0.0095683380645452485 1 1 0.0085755277438734623 1 0.010016034181495014 1 1 1 1 1 1 1 1 1 1 1 0.010057982633880354 1 1 1 1 1 0.019954365596709066 1 1 1 0.0092880529144735088 1 1 1 0.010969008954688858 1 1 0.015218300004401244 1 0.010008937777967762 1 1 1 1 1 1 1 1 1 1 0.013359382135375781 1 1 1 0.0092281500914132529 1 0.010181810498950896 1 1 0.013178578649302095 0.010494742353817841 1 0.0098889177859724908 1 1 1 0.010591695126321479 1 1 1 0.010002566026399415 1 1 0.015366803280124901 1 1 1 0.015075598207637958 1 0.011523555055631633 1 1 1 1 1 1 1 1 1 0.008877332838803452 1 1 0.010048977881291374 1 1 0.010017184872905691 1 1 1 1 1 0.019206020122346599 1 1 1 1 1 1 0.010029506932946091 1 1 1 1 1 1 1 1 0.010353200368313152 1 1 0.0096396442683608467 1 1 1 1 1 1 1 1 0.010100537256186783 1 0.0099866602237663055 0.010017567784425013 1 1 1 0.01140582496213938 1 1 1 1 1 1 1 1 1 1 1 1 1 0.012886322216450113 1 1 0.010074125444175908 1 1 0.010019512897076952 1 1 1 0.010469109323001309 0.011493266222852256 1 1 1 1 0.010030195401820579 0.015268008325274264 1 1 1 1 1 1 0.010005958074208506 1 0.021023400984084457 1 1 1 1 1 1 1 1 0.023089837731271622 1 1 1 1 1 1 1 1 1 1 1 1 1 1 1 1 1 1 1 1 1 1 1 1 1 1 1 1 1 1 1 1 1 1 1 1 1 1 1 1 0.010027893724126161 0.024907571018385834 1 1 1 1 0.010698269835699548 1 1 1 1 1 1 1 1 1 1 0.012189302514253016 1 1 1 1 1 1 1 1 0.012298697007056745 1 1 1 1 1 1 1 1 1 1 1 1 1 1 1 0.013787344096108283 1 1 1 1 1 1 1 1 1 1 0.0099970373635209879 1 1 1 1 0.010045759324030668 1 1 1 0.012961344507645314 1 1 0.011023319299248654 1 1 0.0096657200701832854 1 0.010113449589355374 0.010866859227857725 1 0.011826747571717401 1 1 1 1 0.011888049505522108 0.012007573169366093 1 1 1 1 1 1 1 1 1 1 1 1 1 1 1 1 1 1 1 1 1 1 1 1 1 1 1 1 1 1 1 1 0.010890732160159448 1 1 1 1 1 1 1 1 1 1 1 1 1 1 1 1 1 1 1 1 1 1 0.01262766765580494 0.013165785467325171 1 1 1 1 1 1 1 1 0.010972033199981503 1 1 1 1 1 1 1 0.012982789392461419 1 1 1 1 1 0.011381070076602745 1 1 1 1 1 1 1 1 1 1 1 1 1 1 1 1 1 1 1 1 1 1 1 1 1 1 1 1 1 1 1 0.011325070546532361 1 1 1 1 1 1 0.0096587879876626932 1 1 0.010802271247451325 1 1 1 1 1 1 1 1 1 1 0.011153030794928812 1 1 1 1 1 1 0.013409165706166175 1 1 1 0.012250972571467844 1 1 1 1 1 1 1 0.022037459900490053 1 1 1 0.014559482832302038 0.020369042309586957 1 1 1 1 1 1 0.007691682067993779 1 1 1 1 1 0.0099948963843699886 1 1 1 0.0098320342379541771 1 1 1 1 0.0058836523767631516 1 1 1 0.011099264453903704 1 1 1 1 1 1 1 1 1 1 1 1 1 1 1 0.01172322458935527 1 0.0099897033275824203 1 1 1 1 1 1 1 1 0.010148436955831425 1 1 1 0.0083265892473861833 0.02240968049406078 1 1 1 1 1 1 0.0098613686568510255 2.4286128663675299e-17 1 1 1 1 1 1 1 1 0.023270234216542434 1 1 1 1 1 1 1 1 1 1 0.012948776426074839 1 1 0.010269982864432451 1 1 0.010134877147580761 0.014636433170612823 1 1 1 1 1 1 1 0.013632475577088238 1 1 1 0.020284005130710756 0.0090529123437506041 0.0087093295109206218 1 1 1 1 1 1 1 1 1 0.013619790169549888 1 1 1 1 1 0.013444302160673929 1 1 1 1 1 1 1 0.011826000464026746 1 1 1 0.010638049106930987 1 1 1 1 1 1 1 1 1 1 1 1 1 1 0.023106842714563938 1 1 1 1 1 1 1 1 0.023203098386829393 1 1 0.0026047943930268061 1 1 0.0097240573359665197 1 1 1 1 1 1 0.010039260285208932 1 1 0.02341845259683269 1 1 1 1 1 1 1 1 1 1 1 1 0.012863785915945891 1 1 0.0099966647340763663 1 1 1 1 1 0.017395133791325686 0.0032713114853990949 1 1 1 0.0089058622570836674 1 1 1 1 0.010065065761837175 1 1 0.013562203799291652 1 1 1 1 1 1 1 1 1 1 1 1 0.011143642416407157 1 1 1 1 1 1 0.011005929457013876 1 1 0.010521754507830359 1 0.011564575338208732 0.0076944501525200958 1 1 1 1 1 1 1 1 1 1 1 1 1 1 1 0.010766513935463328 1 0.010307973313345495 1 1 1 1 1 0.0099832728183908356 1 1 1 1 0.010915882294974161 1 0.010044734133212963 1 1 1 1 1 1 1 1 1 1 1 1 1 1 1 1 0.0098527266898268406 1 1 0.0091506379147409909 1 1 1 1 1 1 1 1 1 1 1 1 0.010829246176497789 1 1 1 1 1 1 0.010555366648118167 1 1 1 1 0.0089899405729263783 1 1 1 1 1 0.0094492995074041651 1 1 0.0098329640465695325 1 1 1 1 1 1 1 1 0.010020255930239337 1 1 0.010064990063452297 1 1 1 1 1 1 1 1 1 1 1 1 1 1 1 1 0.011254716642528383 1 1 1 1 1 1 1 1 1 0.010389551376367531 1 0.01273084535049062 1 1 1 1 1 1 1 0.011801905558555155 1 0.0099955186645657376 1 1 1 0.010901979768560305 0.011957102427399183 1 1 1 1 1 1 0.010262027114203244 1 1 1 0.011093929791753825 0.010839487558356044 1 1 1 1 1 1 1 1 1 1 1 1 1 1 1 0.0082361269014250005 1 1 1 1 0.012491290849673833 1 1 0.0091175157683260552 1 1 1 1 1 1 1 1 0.010163013836312032 1 1 1 1 1 0.010084427577810268 1 1 0.010088532064526258 1 1 1 1 1 0.010039688658590016 1 1 1 1 1 1 1 1 1 1 1 1 1 0.010018098951142744 1 1 1 1 0.0099907593218131092 1 1 0.013340206105688431 0.0099505100262782809 1 1 1 1 1 0.010546967456261559 1 1 0.010328934128290931 1 1 0.010598836829001659 1 1 0.0099767329550664724 1 1 1 1 1 1 1 1 1 1 1 1 1 1 1 0.010417263401336243 1 1 1 1 1 1 0.010836077683216833 1 1 1 1 1 0.010960847980693347 1 1 1 1 1 1 1 0.010148662658474032 1 0.010035966652450792 1 1 1 0.01011383428169277 1 1 1 1 0.010079706954736662 1 1 1 1 1 1 1 1 0.010482888374388939 1 1 1 1 0.010741094519983728 1 1 1 1 1 1 1 0.010819923125031647 1 1 1 1 1 1 1 1 1 1 1 1 1 1 0.010398703143124834 1 1 1 1 1 1 0.011326397213833737 1 1 1 1 1 1 1 0.01030053839222108 1 1 1 1 1 1 0.010184081380094464 1 1 1 0.010833648184415637 1 1 0.010070247098401694 1 1 1 1 0.01094885273942601 1 1 1 1 0.010766596944349045 1 1 1 1 1 1 1 0.0095425189163397886 0.011002668428957809 1 1 1 1 1 0.010412764927753013 1 1 1 1 1 1 1 1 0.01085873552525158 1 1 1 1 1 1 1 1 0.010576406505411466 1 1 1 1 1 1 1 1 1 1 1 1 1 1 1 1 1 1 1 1 1 1 1 0.010164629281068854 1 0.009968198708764921 1 1 1 1 0.011619698687681243 0.0089041603719571868 1 1 1 1 1 1 1 1 1 1 0.0096758596626989896 1 1 0.011125914344957626 1 0.010206304518325804 1 0.011318056427001556 1 1 0.012351498101919163 1 1 0.012781817971458179 1 0.010853604771765104 1 0.01223063337899543 0.010068747510890451 1 0.01104905546638868 0.01328370716771303 1 0.010225586343472102 1 1 1 1 0.010024332464333263 1 1 0.0097676162832241262 1 1 0.0098814958857868888 1 0.012673355849325291 1 1 1 0.010993757973563105 1 1 1 0.011871287442908517 1 1 1 1 1 1 1 1 1 1 1 1 1 1 1 1 1 1 1 1 1 1 1 1 1 1 1 1 1 1 1 1 1 1 1 1 1 1 1 1 1 1 0.011274937661987025 1 1 1 1 0.010524946953564762 1 1 1 1 1 1 1 1 1 0.010431893666177796 1 1 1 1 1 1 1 1 1 1 1 1 1 1 1 1 1 1 1 1 1 1 1 1 1 1 1 1 1 1 1 1 1 1 1 1 1 1 1 1 1 1 1 1 1 1 1 1 1 1 1 1 0.0095779692843882581 1 1 1 1 1 1 1 1 1 1 1 0.0085237653140171257 1 1 1 1 1 0.023582233021478723 0.0097294255492707191 1 1 1 0.0099233407636004703 1 0.017966773336415869 1 1 0.014766170488262755 1 1 1 1 1 1 1 1 1 1 1 0.012145451702307762 1 0.01571296306767328 1 1 1 1 1 1 0.0098034027605584211 1 1 1 1 1 1 1 1 1 1 1 1 0.009405618970141031 1 1 1 1 0.01127264829599247 1 1 1 1 1 1 1 1 1 0.011269732060914276 1 1 0.0090830075163016704 1 1 1 0.0094807913067190743 1 1 1 1 1 0.011656386176826645 1 1 1 1 1 1 1 1 1 1 1 1 0.010594537636775272 1 1 1 1 1 1 1 1 1 1 1 1 0.011433953947952744 1 1 1 1 1 1 1 1 1 1 1 1 1 1 1 1 1 1 0.011110729712446281 1 1 1 0.010871674015410686 1 1 1 1 1 1 1 1 1 1 1 0.01116064516863125 1 1 0.01153862057873074 1 1 1 1 1 1 1 1 1 1 1 1 1 1 1 1 1 1 1 1 1 1 1 1 1 1 1 1 1 1 1 1 1 1 1 0.01222510805278719 1 1 1 1 1 0.015120618689764435 1 0.0099702148626752644 1 1 1 1 1 1 1 0.0161687553553026 0.0098864809237356778 1 1 1 1 1 1 0.010359858154321361 1 0.010146314264887782 1 1 1 1 1 1 1 1 1 1 1 1 1 1 1 0.010303683095402352 1 1 0.010910271649072177 1 1 1 0.015510108170396161 1 1 1 1 0.014702877013335927 0.013792488696516803 1 1 1 1 1 1 0.011090691592180202 1 1 1 1 0.011999350759774813 1 1 1 1 1 1 1 1 1 1 1 1 1 1 1 1 1 1 1 1 1 1 1 1 1 1 1 0.012659880182635639 1 1 1 1 0.015391633975681688 1 0.0099519414059375429 1 1 1 1 1 1 1 1 1 1 1 1 1 0.015165332284379952 1 1 0.014873823372671947 1 1 1 1 1 1 1 1 1 1 1 1 1 0.0099795694479614862 1 1 1 0.010129457701060319 1 0.010172843476533949 1 1 1 1 1 1 0.010064450840831879 1 0.010081006210817863 1 1 1 1 1 1 1 0.010040659587913094 1 1 1 1 1 0.01837669559101689 1 1 1 1 1 1 1 1 1 0.0084006310667866877 1 1 1 0.016086840621001824 1 0.0094447471949790016 1 1 1 1 0.013076398240760043 1 1 1 1 0.013340433578556611 0.0085264199383036504 1 1 1 1 0.010714217004766956 1 1 0.010009181998877438 1 1 1 1 1 1 1 0.010240161614441136 1 1 1 0.010035029918999417 1 1 1 1 1 1 1 1 1 0.01001183024948071 1 1 0.01420251239550485 1 1 0.0099971418676467437 1 1 1 0.010078060281225246 1 0.016286324848528294 0.008554759978130386 1 1 0.0099571235177433083 0.0098857346403571338 1 1 1 0.0099868153764159223 1 1 1 0.010230065677896381 1 0.014067893776566075 0.010800523994220391 0.0099280211161567895 1 1 1 1 1 1 1 0.012865381462644283 1 1 1 0.012979509526862502 1 1 1 1 0.010157598349094269 1 1 1 1 0.016090171635689557 1 1 1 0.012797229698507391 0.014797557391606389 1 1 1 1 0.015511309032795498 1 1 1 1 1 1 1 1 1 1 1 1 1 0.010779665061855544 1 1 1 1 0.01056348714944793 1 1 0.01229759035667004 1 1 1 1 1 1 1 0.010078249806433841 1 0.01114200384007887 1 1 1 1 1 1 1 0.011072197714580241 1 1 0.011484939128586811 1 1 1 1 0.013126261155322162 0.011236421494163529 0.011135011484667657 1 1 1 1 1 1 1 1 1 1 1 0.01207714378884453 1 1 1 1 0.021370063953612635 1 1 1 1 1 1 1 1 1 1 1 1 1 1 1 1 1 1 1 1 1 1 1 1 1 1 1 1 1 1 1 1 1 1 1 1 1 0.016536192077775493 0.013266169182651437 1 0.010969748636630862 1 1 1 1 1 1 1 1 0.014035356411930381 0.01001856611662176 1 1 1 1 1 1 1 1 1 1 1 0.014573529909641158 0.010013072808778552 0.013497269908708667 1 0.012726057519363339 1 1 1 0.012170102444802166 0.013337620947841727 1 1 0.0060197235159691366 0.0084282207113409117 1 1 1 1 0.013063345411214091 1 1 1 1 0.013296116556150418 1 1 1 1 1 0.010932072530838277 1 1 1 0.0099902513054256487 1 0.010020532994436887 1 1 1 1 0.010076481440753744 1 1 1 1 1 0.011394520448494014 1 0.010155215456954112 1 1 1 1 1 0.011188827330376364 1 0.010144337619117916 1 1 1 1 1 1 1 0.010508166730763964 1 0.011728575536560652 1 1 1 1 1 1 1 1 1 1 1 1 1 1 1 1 1 1 1 1 1 1 1 1 0.011879540386946016 1 1 1 1 1 0.011099420133278876 0.023706204124603718 1 1 1 1 1 0.010607214457537406 1 1 1 1 1 1 0.023069283299540222 1 1 1 1 1 1 1 1 1 1 1 1 1 1 1 1 1 1 1 1 1 1 1 0.018713345543731434 1 1 1 0.0098360026487364621 1 0.008373877052228652 1 1 1 1 0.017360580492394181 0.017663964307406473 1 0.0071626540267345062 1 0.018025983585616835 1 1 1 1 1 1 1 1 1 1 1 1 1 1 1 1 1 1 1 1 1 1 0.011547919593429276 1 1 1 1 0.013787903088501988 1 1 1 1 1 1 1 1 1 0.010549257741547639 1 1 1 1 1 1 1 1 1 1 1 1 1 1 1 1 1 1 1 1 1 1 0.010276145832315911 1 1 1 1 1 0.012093504623503386 1 1 1 1 0.013730869178006439 1 1 1 0.0099816810865229737 1 1 0.010366748193604841 1 1 1 1 1 0.01505670096995269 1 0.015942041998110293 0.0096805269830010088 1 1 1 1 1 1 0.010218942984436218 1 1 0.010683057715500585 1 0.015052160182314055 1 1 0.014991628682222636 1 1 1 0.012190301715388475 1 1 1 1 1 0.01516347160434597 1 1 0.010038940917978054 1 1 0.019308278311234373 1 1 1 1 1 0.010005016676961262 1 1 1 1 1 1 1 1 1 1 1 0.010069737838300485 0.013343311027580011 1 0.010085842740992916 1 1 0.010950848264868071 1 1 1 0.015064916879815333 1 0.016468595932730735 1 1 0.010294088031888665 1 1 1 0.010063055112029078 1 1 1 1 0.010065605492331427 0.010028732078563665 1 1 1 1 1 1 1 0.010003880745509026 1 1 1 1 1 1 0.010016845238894482 1 1 1 1 1 1 1 1 1 1 1 1 1 1 1 1 1 1 1 1 1 1 1 1 1 1 1 1 1 1 1 0.0099095495207840046 0.010277139009906051 1 1 1 1 1 1 1 1 1 1 1 1 1 1 1 1 1 1 1 1 1 1 1 1 1 1 1 1 1 1 1 1 1 1 1 1 1 1 1 1 1 1 1 1 1 0.0099960562004969989 1 1 1 1 1 1 1 1 1 1 1 1 1 1 1 0.013737183231554633 1 1 1 1 1 1 0.010411110843969897 0.013609698520880027 1 1 1 1 1 1 0.010457618232715335 0.010065826881421627 0.0099814409355457531 1 1 1 0.011497336915946786 1 0.01055164150783207 1 1 1 1 1 1 1 1 1 1 1 1 1 1 0.01105825779488292 1 1 1 1 1 0.012481855144494229 1 0.010072688876196495 1 0.0099993657122456406 1 1 1 1 1 1 1 1 1 1 1 1 1 1 0.010686962970723657 1 1 0.016813355239871753 1 1 1 1 1 1 1 1 1 1 1 0.017244837285010455 1 1 0.0099554483276622051 1 1 0.017307415221111885 1 1 1 1 1 1 1 1 1 1 1 1 1 1 1 1 1 1 1 1 1 1 0.010034765068852045 1 1 0.008120273991510836 0.013238552959486879 1 0.013985651452696212 1 0.015760673925862594 1 1 1 0.0088172052640287223 0.012268944192165926 1 1 0.017986094847639689 1 0.0093772642577027443 1 1 0.016971289181805072 0.010702448830972856 1 1 1 1 1 1 0.0098467227867015984 1 1 1 1 1 1 0.010245368843889395 1 1 0.010006594538808877 1 0.010619716291376237 1 1 1 1 1 1 1 1 0.010110630507711564 1 1 1 0.010249856303193739 1 1 1 1 0.0099644810334758045 1 1 1 1 1 1 1 1 1 1 0.013954149522378822 1 1 1 1 0.010931042034428372 1 1 0.015415004683614439 1 1 0.0099412915042341177 1 1 0.010705755791862958 1 1 1 1 1 1 1 1 0.01227657642954135 1 1 0.009998581760161513 1 1 1 1 1 1 1 1 1 1 0.0099657369833160477 1 0.010224853264735847 1 1 1 1 0.010086363438843744 1 1 1 1 1 1 1 1 1 1 1 1 1 1 1 1 1 1 1 1 0.019504470391366657 1 0.018869808987722142 1 1 1 1 1 1 1 1 1 1 1 0.010002781342720101 1 0.01492390698640593 0.01387997525719346 1 1 1 1 1 1 1 1 1 1 1 0.013662326374760472 1 1 1 1 1 1 0.0099903626842080227 1 0.010439459156476677 1 0.012580437821986114 1 1 1 0.009943104894837438 0.013403531199952733 1 0.014147514387041069 1 0.010983596269678354 1 1 0.013275232287076499 1 1 1 0.013539143754990345 1 1 1 1 0.013342786561980829 1 1 1 1 0.0098732718700348561 0.0071877007755504659 1 1 1 1 1 0.0099338162127232902 1 1 1 1 1 1 1 1 1 1 1 1 0.010827873787792638 1 1 1 1 1 1 1 1 1 1 1 0.012595290717069298 1 1 1 1 1 0.010350453715079151 1 1 1 1 1 0.012528837287001089 1 1 1 1 1 0.010811689117078853 1 1 0.0093074241103802413 1 1 1 0.013908167463427748 1 0.010857090831362605 1 0.012148879688027711 1 1 1 0.011162114027454808 1 1 0.010271730258276995 0.010193328640568563 1 1 1 1 1 1 0.0087074883309545877 1 1 1 1 0.0118568456141532 1 1 1 1 1 1 1 1 1 1 1 1 1 1 1 1 0.020114049153071523 1 1 0.010242829438540938 1 1 1 1 1 0.01021864727678469 1 1 1 1 0.018359102380804099 1 0.01061803770326891 1 1 1 1 1 1 1 1 1 1 0.010845464615148128 0.010070145707339773 0.017679713261236622 1 0.01204040373082025 1 1 1 1 1 1 1 1 1 1 1 1 1 0.011708359288503589 1 1 1 1 1 1 1 1 1 1 1 1 0.0096870450321757326 0.012700713749589301 1 1 1 0.0096643785073744527 1 0.010000730448423685 1 1 1 1 1 1 1 1 1 1 1 1 1 0.013668746956451185 1 0.010002363267391789 1 1 1 1 1 1 1 0.015714336367079883 1 1 1 1 1 1 1 0.010573774640501712 1 1 1 1 1 1 1 1 1 1 1 1 1 1 1 1 1 1 1 1 1 1 1 1 1 0.012106165012273299 0.010079794971641231 1 1 1 1 1 1 1 1 1 1 1 1 1 1 0.0087062231661576804 1 1 0.0080017549401418097 1 1 1 1 1 1 1 1 1 1 1 1 1 1 1 1 1 1 1 1 1 1 1 0.0093270825947110985 1 0.0098132355950612225 1 1 1 1 1 0.010607949101484441 1 1 1 1 1 1 1 1 1 1 1 1 1 1 1 1 1 1 1 1 1 1 1 0.010265028451940524 1 1 1 1 1 1 0.012227782812023521 1 1 1 1 1 1 1 0.011881786451107424 1 1 1 0.012537839483496909 1 1 1 1 1 1 0.011653633727566358 1 1 1 1 1 0.010610064222905296 1 1 1 1 1 1 1 1 1 0.010132894115330771 1 1 1 0.010273360347889463 1 1 1 1 1 1 0.010148580724364044 1 1 1 0.010385054204476782 1 1 1 1 1 1 1 1 1 1 1 0.011583805309775068 1 0.010782389823053278 1 1 1 0.010961803649463153 1 1 0.012313892781725365 0.010909167924058109 1 1 1 1 1 1 1 0.009507118827898179 1 1 1 0.009144005101404222 1 1 0.010710316400810794 0.015667400810216982 1 0.010753119963505232 1 1 1 0.010173842849051975 1 1 1 1 1 1 1 1 0.012223583451567677 0.010359735803954214 1 1 1 1 0.010298221088254338 1 1 1 1 1 1 1 1 1 1 1 1 1 1 1 1 1 1 1 1 1 1 1 1 1 1 1 1 1 1 1 1 0.0099374717337395394 1 1 1 1 1 1 0.018228608334848552 1 1 1 1 1 1 1 1 1 0.013284572649253543 1 1 1 1 1 1 1 1 1 1 1 1 1 1 1 1 1 1 1 1 1 1 1 1 1 0.0099845780177605578 1 1 1 1 1 1 1 1 1 1 1 1 0.010312528934381294 1 1 1 0.014465186072775929 1 1 1 1 1 1 1 1 1 1 1 1 1 1 1 1 1 1 1 1 1 1 0.0099490226853335799 1 1 0.010140986084981631 1 0.011152282032102542 1 1 1 1 1 1 0.014936048760622189 1 1 1 1 1 1 1 1 1 1 1 1 1 1 1 1 1 1 1 1 0.014559566914789488 1 1 1 0.013307956950612855 1 1 1 1 1 0.014122261172401264 1 1 1 1 0.010388969756292369 1 1 0.011180281137400751 1 1 1 1 1 1 1 1 1 1 1 1 1 1 1 1 1 0.014557932018522268 0.012597973054924907 1 1 1 1 1 1 1 1 1 1 1 1 1 0.011062732691346541 1 0.012200277405473298 1 1 1 1 1 1 1 1 1 1 1 1 1 1 1 1 1 1 1 1 1 1 1 1 1 1 1 0.011101057260534633 1 1 1 1 1 1 0.01113754471412674 1 1 1 1 1 1 1 1 1 0.010678441111633989 1 1 1 1 0.010593311824468701 1 1 1 1 1 1 1 1 1 1 1 1 1 1 1 1 1 1 1 1 1 1 1 1 0.011945137744861403 1 1 0.010507745436065932 0.012649963978630722 1 1 1 1 1 1 1 1 1 0.011672693921626395 1 1 1 1 0.014599288688533676 1 1 1 1 1 0.012673987965163043 1 1 1 0.01437191490523216 1 1 0.014416355520175056 0.012511379696223367 0.011294331521139775 1 1 1 1 0.010082237159008601 1 1 0.0099866965252575629 0.0099760334813928167 1 0.0095249345431600279 1 1 1 0.019498639338683878 1 1 0.010233088942112785 0.010489035934864553 1 1 1 1 1 1 1 1 1 1 1 1 1 0.021209213889457221 1 1 1 1 1 1 1 0.020259987889587147 1 1 1 1 1 1 1 1 0.010354799913611559 1 1 1 1 1 1 1 1 1 1 1 1 1 1 1 1 1 1 1 1 1 1 1 1 1 1 0.010168740673090822 1 1 1 1 1 1 1 1 1 1 1 1 0.010146339921667594 1 1 1 1 1 1 1 1 1 1 1 1 0.011731185240427005 1 1 1 1 1 1 1 1 1 1 1 1 1 1 1 1 1 1 1 1 1 1 1 1 1 1 1 1 1 1 1 1 1 1 1 1 0.010133502606462464 1 1 1 1 1 0.012734522374747993 1 0.0099727377143931008 1 0.010612619650972443 0.015271937783125064 1 1 1 1 1 1 1 0.014197710689424027 1 1 1 1 1 1 1 1 1 1 1 1 1 1 1 1 1 1 1 1 0.010205432630669543 1 1 1 1 0.010640856436000407 1 0.012979049655586428 1 1 1 1 1 1 1 1 1 0.010478449011760224 1 1 1 1 1 1 0.011095766008143002 1 1 0.010751586616034923 1 1 1 1 1 1 0.011060708731283387 1 1 1 1 1 1 1 1 1 1 1 1 1 1 1 1 1 1 1 1 1 1 1 1 1 1 1 1 1 1 1 1 1 1 1 1 0.01192091443286639 1 1 1 1 0.010007350220140409 1 1 1 1 1 0.013461925362669033 1 0.0094315630738506361 1 1 1 1 1 1 1 1 1 1 1 1 1 1 1 1 1 1 1 1 1 1 1 1 1 1 1 1 0.010617316996382783 0.010447045957396218 1 1 1 1 1 1 1 1 1 1 1 1 0.010589959250255996 1 1 1 1 1 1 1 1 1 1 1 1 1 1 0.010871319045286189 1 1 0.010908209280360641 1 1 1 1 1 1 0.010198778581458245 1 1 1 1 1 0.012027961914897242 1 1 1 1 0.010406485189211228 1 0.012078596752803048 1 1 1 1 1 1 1 1 1 1 0.010024764963401578 1 0.013878694640868749 0.012438061000430906 1 1 1 1 0.01204476445874679 1 1 0.0097252154812614133 1 1 1 0.016926679441514929 1 1 1 1 1 1 1 1 1 0.016552596390832473 1 0.010124962460528984 1 1 1 1 1 1 0.012647486101927789 1 0.01278723021566211 1 1 1 0.012578546186664794 1 1 1 1 1 1 1 1 0.012607118012564434 1 1 1 1 1 0.010744562335049633 0.010191317584215695 1 1 1 1 0.01166282074143837 0.01022732173128341 0.010724683059239185 1 1 0.011589486297089148 1 1 1 1 1 1 1 1 1 0.011827200155456307 1 1 1 1 0.011682303590770056 0.010599970332378635 0.011057271547054366 1 1 1 1 1 1 0.010397059294879307 1 1 0.010167007683745882 1 1 1 1 1 1 1 1 1 0.010011990009162058 1 0.012293560533183104 1 0.012878575586157417 1 1 1 1 1 1 0.012746515948546394 1 1 1 0.010009159640444767 0.0099684084623570101 1 1 1 1 1 1 1 1 1 1 1 1 1 1 1 1 1 1 1 1 0.010510862211313143 1 1 1 1 1 1 1 1 0.011278152769717704 1 0.011164861864918489 1 0.012376757172038668 1 1 1 0.012549861563072688 1 1 1 1 1 1 0.0099624477720986464 1 1 1 0.010005668814567362 1 1 1 1 1 0.010005642056367451 1 1 1 1 0.01028142807673648 1 1 1 0.009886381441221781 1 1 0.010258362284476692 1 1 0.010316301983052466 1 1 1 1 1 0.01031100638457827 1 0.010131716765266328 1 1 1 1 1 1 1 1 1 1 1 1 1 1 0.018077116346274326 1 1 0.010350022915790815 0.011066835863969032 1 1 1 1 1 1 1 1 1 1 1 1 1 1 1 0.017106347989136378 1 1 1 1 1 1 1 1 1 1 1 1 1 1 1 1 1 1 1 1 1 1 1 1 1 1 1 1 1 0.01070184065921221 1 1 1 1 1 1 1 0.012106123297678274 1 1 1 1 1 0.013143033442382476 1 1 1 1 1 0.010137012363740532 1 1 1 1 1 1 1 1 1 1 0.0099910394009260061 1 0.010048093213984387 1 1 1 1 1 1 1 1 1 1 1 1 1 0.0100376168268149 1 1 1 1 1 1 0.01003768158223976 1 1 1 1 1 1 1 1 1 1 1 1 1 1 1 1 1 1 1 1 1 1 1 1 0.010933544357339387 0.011482441959029173 1 1 0.010587314342964178 1 1 0.011622641264406831 1 1 1 1 1 1 0.0136882986829403 1 1 1 1 1 1 1 0.014010341991943821 0.0097930360522319078 1 1 1 1 1 1 1 1 1 1 1 1 1 1 1 1 1 1 1 1 1 1 1 1 1 1 1 1 1 1 1 1 1 1 1 1 1 1 1 1 1 1 1 1 0.010302944197015083 1 1 1 1 1 1 1 1 1 1 1 0.012665507207571813 1 1 1 1 1 1 1 1 1 1 1 1 1 1 1 1 1 1 1 1 1 1 1 1 1 1 1 1 1 1 1 1 1 1 1 0.012179225810592945 1 0.012601699538797313 1 1 1 1 1 1 1 0.014018878745134446 1 0.0097848259890105649 1 1 1 1 0.010064699072496967 1 1 1 1 1 1 1 1 1 1 1 1 1 1 1 1 1 1 1 1 1 1 1 1 0.011443599369971739 1 1 1 1 1 1 1 1 1 1 1 1 1 1 1 1 1 1 1 1 1 1 1 1 1 1 1 1 1 1 1 1 1 1 1 1 1 1 1 1 1 1 1 1 1 1 1 1 1 1 1 1 1 0.012121469573987215 1 1 1 1 1 1 1 1 1 1 1 0.0099376831562136315 0.016962156550668891 1 1 1 1 1 1 1 1 1 1 1 1 1 1 1 1 1 1 1 1 0.009907346093593913 1 1 1 0.014487825137662759 1 0.015277325649715776 0.009931751814985167 1 1 1 1 1 1 1 1 1 1 0.010848009966607643 1 1 1 1 1 1 1 1 1 1 1 1 1 1 1 1 1 1 1 1 1 1 1 1 1 1 1 1 1 1 1 1 1 1 1 1 1 1 1 1 1 1 1 0.009958882184828868 1 1 1 1 1 0.010180092964910221 1 1 0.01013469993689322 1 1 1 1 1 1 1 1 1 1 1 1 1 0.010047950744690044 1 1 1 1 1 1 1 1 1 1 1 1 0.0095755553798402941 1 1 1 1 1 1 1 1 1 0.010047568873168128 1 0.013363702804593751 1 1 1 0.00705301679522468 1 1 0.0084777880362782096 1 1 1 1 1 1 1 1 1 1 1 1 1 1 1 1 1 1 1 1 1 1 1 1 1 1 1 1 1 1 1 1 1 1 1 1 0.010167395264207768 1 0.008730990811920622 1 1 1 1 0.0097648523441790161 1 0.0099846870153053411 1 1 1 1 0.0080404416095812455 1 1 1 1 0.0098943681582424753 1 1 1 0.0098309783856782226 1 1 1 1 0.011187555842107339 1 1 1 1 1 1 0.012045762837547587 1 1 0.0088912202224420093 1 0.01253937435626095 0.0087165269765842775 1 1 0.0077033845268291695 1 1 0.014915695402261776 1 1 0.010007757998132952 1 0.0086993454498650313 1 1 1 1 1 0.010621201331665872 0.014166503855012632 0.0099985200990136795 1 1 1 0.010759982409453929 1 1 1 1 0.010925187268550908 0.0070269352770183247 1 1 1 1 1 1 1 1 1 1 1 1 1 1 1 0.020335923294211536 1 0.010032468095550261 1 0.015877409734619756 1 0.016103885838511946 0.0089352818213286871 1 0.0091204351889108033 1 1 1 1 0.014926925811656723 1 1 1 1 0.0097154479145013101 0.010009797672057997 1 1 1 1 1 1 1 1 1 1 1 1 1 1 1 1 1 1 1 1 1 1 0.010648282713766151 0.010732256719730963 1 1 1 1 1 0.011380539433497113 1 1 1 1 1 0.0098594115044956139 1 1 1 1 1 1 1 1 1 1 1 1 1 1 0.017195365195007077 1 1 1 0.017308320309132028 1 0.013726613282678048 0.017288963532929254 0.01117923656580597 1 1 1 1 0.018114871555157057 0.0069748006547971208 1 1 1 1 0.010365103119703158 0.010475860632537689 0.0099999088076786896 1 1 1 1 0.014289211242060168 1 1 1 1 1 1 1 1 1 1 1 1 1 0.007141190475359405 1 1 0.015194113683550885 1 0.0098642438686038208 1 1 0.009984085702449538 1 1 1 1 1 1 0.01223493251812688 1 1 1 1 1 1 1 1 1 1 1 1 0.013471919158133172 1 1 1 1 1 1 1 1 1 0.0089473717967474657 1 1 1 0.0067467302729643268 1 1 1 0.013608432778937819 1 1 1 0.0061454913082636918 0.011896926921260851 1 1 0.010510245856797495 1 0.012388546148672517 1 1 0.0098147963406490547 1 1 1 1 1 1 1 1 0.0093862247302593915 1 1 1 1 1 1 0.013916151155848227 1 1 1 1 1 0.010909318943880147 1 1 1 1 1 1 1 1 1 1 1 1 1 1 1 0.013382485727434251 1 1 0.020621319681532115 1 1 1 0.0085461659406720104 1 1 1 0.011248850269610372 1 1 1 1 1 1 1 0.01118453537688415 1 0.021618942071352627 1 1 1 1 1 1 1 1 1 1 1 1 1 1 1 1 1 1 1 1 0.020933221990697488 1 1 1 1 1 1 1 1 1 1 0.010335461066062781 1 0.019158198276144449 1 1 1 1 1 0.0065172997816541102 1 0.011174207169904284 1 1 1 1 1 1 0.018107854730510443 1 1 1 1 1 1 0.01641583384293295 1 1 1 1 1 1 1 1 1 0.010622214015906115 0.009700758284222722 1 1 1 1 1 1 1 0.010403956258132065 1 1 0.0079262117183642976 1 1 1 1 1 1 1 0.017611566793287931 1 1 1 1 1 1 1 1 0.0099347991438168744 1 0.0097777443261935822 1 1 1 1 1 1 1 1 1 1 1 1 1 1 1 1 1 1 1 1 1 1 1 1 1 1 1 1 1 1 1 1 1 1 1 1 1 1 1 1 1 1 1 1 1 1 1 1 1 1 1 1 1 1 1 1 0.010998374200881789 1 1 1 1 1 1 1 1 0.010514438008411122 1 1 1 1 1 1 1 1 0.010224469191269674 1 1 1 1 1 0.0092479383925008398 1 0.0096093465596912373 1 1 1 1 1 0.010630170959480798 1 1 1 1 0.011597999748926172 1 1 1 1 1 1 1 1 0.0095487916992213137 1 1 1 0.011453125280717819 0.0097473606545096687 1 1 0.0098689798210852483 1 1 1 1 1 1 0.010735251292846698 1 0.010205241382435401 1 1 1 1 1 1 1 1 1 1 1 1 1 1 1 1 1 1 1 1 1 1 1 1 1 1 1 1 1 1 1 1 1 1 1 1 1 1 1 0.0097325080040369574 1 1 1 1 1 
</DataArray>
</CellData>
</Piece>
</UnstructuredGrid>
</VTKFile>
