<?xml version="1.0"?>
<VTKFile type="UnstructuredGrid" version="0.1" byte_order="LittleEndian">
<UnstructuredGrid>
<Piece NumberOfPoints="31364" NumberOfCells="10963">
<Points>
<DataArray type="Float64" NumberOfComponents="3" format="ascii">
-0.5 -0.5 0 -0.47923561459112152 -0.44443574669253838 0 -0.5 -0.40184768675683319 0 -0.5 -0.5 0 -0.46012471450501102 -0.46780108282305249 0 -0.47923561459112152 -0.44443574669253838 0 -0.5 -0.5 0 -0.44174741682060992 -0.48083562005243102 0 -0.40748061551896958 -0.5 0 -0.5 -0.5 0 -0.44174741682060992 -0.48083562005243102 0 -0.46012471450501102 -0.46780108282305249 0 -0.44174741682060992 -0.48083562005243102 0 -0.46012471450501102 -0.46780108282305249 0 -0.43236737799726033 -0.45966166965137317 0 -0.44826723710970118 -0.45199458572407242 0 -0.46119552876922271 -0.44018491488949402 0 -0.4364097597143915 -0.43618808862509217 0 -0.44826723710970118 -0.45199458572407242 0 -0.4364097597143915 -0.43618808862509217 0 -0.43236737799726033 -0.45966166965137317 0 -0.44826723710970118 -0.45199458572407242 0 -0.4364097597143915 -0.43618808862509217 0 -0.44826723710970118 -0.45199458572407242 0 -0.46012471450501102 -0.46780108282305249 0 -0.43236737799726033 -0.45966166965137317 0 -0.44826723710970118 -0.45199458572407242 0 -0.46012471450501102 -0.46780108282305249 0 -0.44826723710970118 -0.45199458572407242 0 -0.46012471450501102 -0.46780108282305249 0 -0.46119552876922271 -0.44018491488949402 0 -0.46012471450501102 -0.46780108282305249 0 -0.46119552876922271 -0.44018491488949402 0 -0.47923561459112152 -0.44443574669253838 0 -0.47923561459112152 -0.44443574669253838 0 -0.4734472738674676 -0.41189007714261022 0 -0.5 -0.40184768675683319 0 -0.46119552876922271 -0.44018491488949402 0 -0.47923561459112152 -0.44443574669253838 0 -0.4734472738674676 -0.41189007714261022 0 -0.48518733011659848 -0.38506416976922292 0 -0.5 -0.40184768675683319 0 -0.48407733713093642 -0.36224817451159441 0 -0.4734472738674676 -0.41189007714261022 0 -0.5 -0.40184768675683319 0 -0.49196603094400598 -0.39974107140136972 0 -0.48518733011659848 -0.38506416976922292 0 -0.5 -0.40184768675683319 0 -0.49196603094400598 -0.39974107140136972 0 -0.48518733011659848 -0.38506416976922292 0 -0.49196603094400598 -0.39974107140136972 0 -0.47685174507506672 -0.39765484536907908 0 -0.4734472738674676 -0.41189007714261022 0 -0.49196603094400598 -0.39974107140136972 0 -0.47685174507506672 -0.39765484536907908 0 -0.4734472738674676 -0.41189007714261022 0 -0.49196603094400598 -0.39974107140136972 0 -0.4734472738674676 -0.41189007714261022 0 -0.47685174507506672 -0.39765484536907908 0 -0.45844589060966062 -0.40086057772148542 0 -0.48518733011659848 -0.38506416976922292 0 -0.46920744949757692 -0.38740384469278488 0 -0.46750842263902792 -0.37228425141029542 0 -0.48518733011659848 -0.38506416976922292 0 -0.47685174507506672 -0.39765484536907908 0 -0.46920744949757692 -0.38740384469278488 0 -0.46920744949757692 -0.38740384469278488 0 -0.45470384220908622 -0.3815417340125149 0 -0.45844589060966062 -0.40086057772148542 0 -0.46920744949757692 -0.38740384469278488 0 -0.45470384220908622 -0.3815417340125149 0 -0.46750842263902792 -0.37228425141029542 0 -0.47685174507506672 -0.39765484536907908 0 -0.46920744949757692 -0.38740384469278488 0 -0.45844589060966062 -0.40086057772148542 0 -0.45470384220908622 -0.3815417340125149 0 -0.45844589060966062 -0.40086057772148542 0 -0.44007732661823112 -0.39111384719816639 0 -0.45844589060966062 -0.40086057772148542 0 -0.44007732661823112 -0.39111384719816639 0 -0.43951315129474572 -0.41118031471198407 0 -0.45470384220908622 -0.3815417340125149 0 -0.44007732661823112 -0.39111384719816639 0 -0.4379103329822206 -0.37308902279941408 0 -0.46119552876922271 -0.44018491488949402 0 -0.4734472738674676 -0.41189007714261022 0 -0.45492851679092922 -0.42403908288385062 0 -0.4734472738674676 -0.41189007714261022 0 -0.45844589060966062 -0.40086057772148542 0 -0.45492851679092922 -0.42403908288385062 0 -0.4734472738674676 -0.41189007714261022 0 -0.45492851679092922 -0.42403908288385062 0 -0.45844589060966062 -0.40086057772148542 0 -0.45492851679092922 -0.42403908288385062 0 -0.43951315129474572 -0.41118031471198407 0 -0.46119552876922271 -0.44018491488949402 0 -0.45492851679092922 -0.42403908288385062 0 -0.4364097597143915 -0.43618808862509217 0 -0.45492851679092922 -0.42403908288385062 0 -0.4364097597143915 -0.43618808862509217 0 -0.45492851679092922 -0.42403908288385062 0 -0.43951315129474572 -0.41118031471198407 0 -0.4364097597143915 -0.43618808862509217 0 -0.4364097597143915 -0.43618808862509217 0 -0.41902722362035227 -0.41301646474731651 0 -0.41973426710848538 -0.43059808026916357 0 -0.4364097597143915 -0.43618808862509217 0 -0.41902722362035227 -0.41301646474731651 0 -0.43951315129474572 -0.41118031471198407 0 -0.41902722362035227 -0.41301646474731651 0 -0.42688961785318807 -0.39799734463124692 0 -0.43951315129474572 -0.41118031471198407 0 -0.4364097597143915 -0.43618808862509217 0 -0.41902722362035227 -0.41301646474731651 0 -0.41902722362035227 -0.41301646474731651 0 -0.39931438752054038 -0.40356587878924738 0 -0.40322753768877378 -0.4134355993345547 0 -0.41902722362035227 -0.41301646474731651 0 -0.41110160916373939 -0.42271259208851952 0 -0.40322753768877378 -0.4134355993345547 0 -0.41110160916373939 -0.42271259208851952 0 -0.41053167651649131 -0.43436760493744669 0 -0.40054609476145547 -0.42214176313073309 0 -0.41110160916373939 -0.42271259208851952 0 -0.41053167651649131 -0.43436760493744669 0 -0.41973426710848538 -0.43059808026916357 0 -0.41053167651649131 -0.43436760493744669 0 -0.41973426710848538 -0.43059808026916357 0 -0.42038044346588288 -0.44670392693575173 0 -0.41902722362035227 -0.41301646474731651 0 -0.41110160916373939 -0.42271259208851952 0 -0.41973426710848538 -0.43059808026916357 0 -0.44007732661823112 -0.39111384719816639 0 -0.42190409334729168 -0.38180158975939521 0 -0.4379103329822206 -0.37308902279941408 0 -0.44007732661823112 -0.39111384719816639 0 -0.42190409334729168 -0.38180158975939521 0 -0.42688961785318807 -0.39799734463124692 0 -0.44007732661823112 -0.39111384719816639 0 -0.43951315129474572 -0.41118031471198407 0 -0.42688961785318807 -0.39799734463124692 0 -0.41902722362035227 -0.41301646474731651 0 -0.40164468752631333 -0.3898448408695408 0 -0.41902722362035227 -0.41301646474731651 0 -0.42688961785318807 -0.39799734463124692 0 -0.41588964973809889 -0.393022640911173 0 -0.42190409334729168 -0.38180158975939521 0 -0.42688961785318807 -0.39799734463124692 0 -0.41588964973809889 -0.393022640911173 0 -0.41902722362035227 -0.41301646474731651 0 -0.40164468752631333 -0.3898448408695408 0 -0.39931438752054038 -0.40356587878924738 0 -0.41902722362035227 -0.41301646474731651 0 -0.41588964973809889 -0.393022640911173 0 -0.40164468752631333 -0.3898448408695408 0 -0.42190409334729168 -0.38180158975939521 0 -0.41588964973809889 -0.393022640911173 0 -0.40905564308123771 -0.38256147179756722 0 -0.41588964973809889 -0.393022640911173 0 -0.40905564308123771 -0.38256147179756722 0 -0.40164468752631333 -0.3898448408695408 0 -0.42190409334729168 -0.38180158975939521 0 -0.40905564308123771 -0.38256147179756722 0 -0.40708191026735863 -0.37005123040099891 0 -0.39875787452712569 -0.37808705704672813 0 -0.38920413716619873 -0.38567415539685779 0 -0.38587601133240879 -0.36241209401787738 0 -0.40905564308123771 -0.38256147179756722 0 -0.39875787452712569 -0.37808705704672813 0 -0.40708191026735863 -0.37005123040099891 0 -0.40905564308123771 -0.38256147179756722 0 -0.39875787452712569 -0.37808705704672813 0 -0.40164468752631333 -0.3898448408695408 0 -0.39875787452712569 -0.37808705704672813 0 -0.40164468752631333 -0.3898448408695408 0 -0.38920413716619873 -0.38567415539685779 0 -0.39931438752054038 -0.40356587878924738 0 -0.38920413716619873 -0.38567415539685779 0 -0.39253226299999161 -0.40893621677583791 0 -0.40164468752631333 -0.3898448408695408 0 -0.39931438752054038 -0.40356587878924738 0 -0.38920413716619873 -0.38567415539685779 0 -0.38920413716619873 -0.38567415539685779 0 -0.39253226299999161 -0.40893621677583791 0 -0.38314814314964168 -0.40378743179418708 0 -0.37734110255115211 -0.39748869041215379 0 -0.38920413716619873 -0.38567415539685779 0 -0.38314814314964168 -0.40378743179418708 0 -0.38920413716619873 -0.38567415539685779 0 -0.39253226299999161 -0.40893621677583791 0 -0.38314814314964168 -0.40378743179418708 0 -0.37734110255115211 -0.39748869041215379 0 -0.37270150913827438 -0.40629795572893979 0 -0.37658995856295657 -0.38657385581986459 0 -0.38587601133240879 -0.36241209401787738 0 -0.36581332631384972 -0.37995636686610401 0 -0.38920413716619873 -0.38567415539685779 0 -0.37658995856295657 -0.38657385581986459 0 -0.38587601133240879 -0.36241209401787738 0 -0.37734110255115211 -0.39748869041215379 0 -0.38920413716619873 -0.38567415539685779 0 -0.37658995856295657 -0.38657385581986459 0 -0.39348358264628303 -0.42601102118616252 0 -0.39739403950095109 -0.43501083691664061 0 -0.40054609476145547 -0.42214176313073309 0 -0.39348358264628303 -0.42601102118616252 0 -0.40054609476145547 -0.42214176313073309 0 -0.3944916053609237 -0.41880146558125181 0 -0.39348358264628303 -0.42601102118616252 0 -0.39739403950095109 -0.43501083691664061 0 -0.38671421965396019 -0.43255210866021482 0 -0.41053167651649131 -0.43436760493744669 0 -0.39739403950095109 -0.43501083691664061 0 -0.40054609476145547 -0.42214176313073309 0 -0.40054609476145547 -0.42214176313073309 0 -0.40322753768877378 -0.4134355993345547 0 -0.39759071182071271 -0.41502243956528728 0 -0.41110160916373939 -0.42271259208851952 0 -0.40054609476145547 -0.42214176313073309 0 -0.40322753768877378 -0.4134355993345547 0 -0.39931438752054038 -0.40356587878924738 0 -0.40322753768877378 -0.4134355993345547 0 -0.39692366940308182 -0.41017286207349157 0 -0.40322753768877378 -0.4134355993345547 0 -0.39692366940308182 -0.41017286207349157 0 -0.39759071182071271 -0.41502243956528728 0 -0.39276465188932819 -0.41056050770640551 0 -0.39253226299999161 -0.40893621677583791 0 -0.38845621677183251 -0.42033944141239538 0 -0.39931438752054038 -0.40356587878924738 0 -0.39253226299999161 -0.40893621677583791 0 -0.39931438752054038 -0.40356587878924738 0 -0.39692366940308182 -0.41017286207349157 0 -0.39253226299999161 -0.40893621677583791 0 -0.39692366940308182 -0.41017286207349157 0 -0.39276465188932819 -0.41056050770640551 0 -0.39759071182071271 -0.41502243956528728 0 -0.39692366940308182 -0.41017286207349157 0 -0.39276465188932819 -0.41056050770640551 0 -0.39253226299999161 -0.40893621677583791 0 -0.39276465188932819 -0.41056050770640551 0 -0.39253226299999161 -0.40893621677583791 0 -0.39276465188932819 -0.41056050770640551 0 -0.39759071182071271 -0.41502243956528728 0 -0.3944916053609237 -0.41880146558125181 0 -0.39276465188932819 -0.41056050770640551 0 -0.3944916053609237 -0.41880146558125181 0 -0.38845621677183251 -0.42033944141239538 0 -0.40054609476145547 -0.42214176313073309 0 -0.39759071182071271 -0.41502243956528728 0 -0.3944916053609237 -0.41880146558125181 0 -0.39348358264628303 -0.42601102118616252 0 -0.3944916053609237 -0.41880146558125181 0 -0.38845621677183251 -0.42033944141239538 0 -0.39253226299999161 -0.40893621677583791 0 -0.38845621677183251 -0.42033944141239538 0 -0.37259581749562137 -0.42472263448099368 0 -0.39253226299999161 -0.40893621677583791 0 -0.37259581749562137 -0.42472263448099368 0 -0.39253226299999161 -0.40893621677583791 0 -0.37790358185114742 -0.41187606795758031 0 -0.37259581749562137 -0.42472263448099368 0 -0.38314814314964168 -0.40378743179418708 0 -0.39253226299999161 -0.40893621677583791 0 -0.37790358185114742 -0.41187606795758031 0 -0.38314814314964168 -0.40378743179418708 0 -0.37790358185114742 -0.41187606795758031 0 -0.37270150913827438 -0.40629795572893979 0 -0.38845621677183251 -0.42033944141239538 0 -0.38671421965396019 -0.43255210866021482 0 -0.37259581749562137 -0.42472263448099368 0 -0.39348358264628303 -0.42601102118616252 0 -0.38845621677183251 -0.42033944141239538 0 -0.38671421965396019 -0.43255210866021482 0 -0.38671421965396019 -0.43255210866021482 0 -0.37802410117383278 -0.44029102242635232 0 -0.37259581749562137 -0.42472263448099368 0 -0.38671421965396019 -0.43255210866021482 0 -0.37802410117383278 -0.44029102242635232 0 -0.39033156033524102 -0.44893769553874469 0 -0.38759267533556718 -0.47559526880853242 0 -0.40748061551896958 -0.5 0 -0.34098199040941901 -0.5 0 -0.37802410117383278 -0.44029102242635232 0 -0.39033156033524102 -0.44893769553874469 0 -0.37513886376503969 -0.454883812589926 0 -0.39739403950095109 -0.43501083691664061 0 -0.39033156033524102 -0.44893769553874469 0 -0.40459776940718828 -0.4444479659149993 0 -0.39739403950095109 -0.43501083691664061 0 -0.38671421965396019 -0.43255210866021482 0 -0.39033156033524102 -0.44893769553874469 0 -0.39033156033524102 -0.44893769553874469 0 -0.40459776940718828 -0.4444479659149993 0 -0.40435112721737509 -0.45721976524641239 0 -0.41053167651649131 -0.43436760493744669 0 -0.39739403950095109 -0.43501083691664061 0 -0.40459776940718828 -0.4444479659149993 0 -0.39033156033524102 -0.44893769553874469 0 -0.40435112721737509 -0.45721976524641239 0 -0.38759267533556718 -0.47559526880853242 0 -0.39033156033524102 -0.44893769553874469 0 -0.37513886376503969 -0.454883812589926 0 -0.38759267533556718 -0.47559526880853242 0 -0.38759267533556718 -0.47559526880853242 0 -0.41470784257795651 -0.47466246475174978 0 -0.40748061551896958 -0.5 0 -0.40435112721737509 -0.45721976524641239 0 -0.38759267533556718 -0.47559526880853242 0 -0.41470784257795651 -0.47466246475174978 0 -0.44174741682060992 -0.48083562005243102 0 -0.41470784257795651 -0.47466246475174978 0 -0.40748061551896958 -0.5 0 -0.44174741682060992 -0.48083562005243102 0 -0.41470784257795651 -0.47466246475174978 0 -0.43236737799726033 -0.45966166965137317 0 -0.4364097597143915 -0.43618808862509217 0 -0.43236737799726033 -0.45966166965137317 0 -0.42038044346588288 -0.44670392693575173 0 -0.4364097597143915 -0.43618808862509217 0 -0.41973426710848538 -0.43059808026916357 0 -0.42038044346588288 -0.44670392693575173 0 -0.4364097597143915 -0.43618808862509217 0 -0.42038044346588288 -0.44670392693575173 0 -0.40459776940718828 -0.4444479659149993 0 -0.40435112721737509 -0.45721976524641239 0 -0.42038044346588288 -0.44670392693575173 0 -0.40435112721737509 -0.45721976524641239 0 -0.42038044346588288 -0.44670392693575173 0 -0.41053167651649131 -0.43436760493744669 0 -0.40459776940718828 -0.4444479659149993 0 -0.42038044346588288 -0.44670392693575173 0 -0.40435112721737509 -0.45721976524641239 0 -0.43236737799726033 -0.45966166965137317 0 -0.42038044346588288 -0.44670392693575173 0 -0.40435112721737509 -0.45721976524641239 0 -0.41470784257795651 -0.47466246475174978 0 -0.43236737799726033 -0.45966166965137317 0 -0.44919654988559637 -0.26231446499954891 0 -0.42882862824786411 -0.25215583988111961 0 -0.45645277741734702 -0.2411318597008231 0 -0.44919654988559637 -0.26231446499954891 0 -0.45646980406034082 -0.28006410516255742 0 -0.4327043970020254 -0.27535023003423592 0 -0.45646980406034082 -0.28006410516255742 0 -0.47024296673703608 -0.26214578800260963 0 -0.47574550089000178 -0.28730500482323551 0 -0.44919654988559637 -0.26231446499954891 0 -0.45646980406034082 -0.28006410516255742 0 -0.47024296673703608 -0.26214578800260963 0 -0.44919654988559637 -0.26231446499954891 0 -0.47024296673703608 -0.26214578800260963 0 -0.45645277741734702 -0.2411318597008231 0 -0.47024296673703608 -0.26214578800260963 0 -0.5 -0.27385615966996801 0 -0.47514940566521352 -0.23326952014714999 0 -0.47024296673703608 -0.26214578800260963 0 -0.5 -0.27385615966996801 0 -0.47574550089000178 -0.28730500482323551 0 -0.5 -0.27385615966996801 0 -0.49155390927168918 -0.30153753991075571 0 -0.5 -0.30810319010446852 0 -0.5 -0.27385615966996801 0 -0.47574550089000178 -0.28730500482323551 0 -0.49155390927168918 -0.30153753991075571 0 -0.5 -0.30810319010446852 0 -0.47134800769380769 -0.30850957961881409 0 -0.48326515779251089 -0.32077123544154651 0 -0.5 -0.30810319010446852 0 -0.47134800769380769 -0.30850957961881409 0 -0.49155390927168918 -0.30153753991075571 0 -0.5 -0.30810319010446852 0 -0.47134800769380769 -0.30850957961881409 0 -0.49155390927168918 -0.30153753991075571 0 -0.47134800769380769 -0.30850957961881409 0 -0.47574550089000178 -0.28730500482323551 0 -0.49155390927168918 -0.30153753991075571 0 -0.47134800769380769 -0.30850957961881409 0 -0.47134800769380769 -0.30850957961881409 0 -0.44410245992548142 -0.30890533805811188 0 -0.47134800769380769 -0.30850957961881409 0 -0.44410245992548142 -0.30890533805811188 0 -0.44914797714501098 -0.31616969287383578 0 -0.47134800769380769 -0.30850957961881409 0 -0.45842731532698672 -0.29555583937867053 0 -0.44410245992548142 -0.30890533805811188 0 -0.47574550089000178 -0.28730500482323551 0 -0.47134800769380769 -0.30850957961881409 0 -0.45842731532698672 -0.29555583937867053 0 -0.47134800769380769 -0.30850957961881409 0 -0.44914797714501098 -0.31616969287383578 0 -0.45646980406034082 -0.28006410516255742 0 -0.47574550089000178 -0.28730500482323551 0 -0.45842731532698672 -0.29555583937867053 0 -0.45646980406034082 -0.28006410516255742 0 -0.45842731532698672 -0.29555583937867053 0 -0.44447080406530182 -0.29299516923063368 0 -0.45646980406034082 -0.28006410516255742 0 -0.44447080406530182 -0.29299516923063368 0 -0.4327043970020254 -0.27535023003423592 0 -0.44447080406530182 -0.29299516923063368 0 -0.44410245992548142 -0.30890533805811188 0 -0.4332501760214057 -0.30087153143357381 0 -0.45842731532698672 -0.29555583937867053 0 -0.44447080406530182 -0.29299516923063368 0 -0.44410245992548142 -0.30890533805811188 0 -0.5 -0.40184768675683319 0 -0.5 -0.32845345739505039 0 -0.48407733713093642 -0.36224817451159441 0 -0.44410245992548142 -0.30890533805811188 0 -0.44914797714501098 -0.31616969287383578 0 -0.4269479465962136 -0.32382980612885598 0 -0.44914797714501098 -0.31616969287383578 0 -0.4269479465962136 -0.32382980612885598 0 -0.44914797714501098 -0.31616969287383578 0 -0.440434673554296 -0.3295571925662576 0 -0.45665078417540439 -0.33022523871135728 0 -0.44914797714501098 -0.31616969287383578 0 -0.440434673554296 -0.3295571925662576 0 -0.4269479465962136 -0.32382980612885598 0 -0.44366949960342977 -0.34088416873678229 0 -0.440434673554296 -0.3295571925662576 0 -0.45665078417540439 -0.33022523871135728 0 -0.44366949960342977 -0.34088416873678229 0 -0.45665078417540439 -0.33022523871135728 0 -0.46019187667193001 -0.35155790459510372 0 -0.45665078417540439 -0.33022523871135728 0 -0.47564287011294298 -0.33535989505504898 0 -0.46019187667193001 -0.35155790459510372 0 -0.45665078417540439 -0.33022523871135728 0 -0.47000947120506409 -0.32343005503435041 0 -0.47564287011294298 -0.33535989505504898 0 -0.47134800769380769 -0.30850957961881409 0 -0.44914797714501098 -0.31616969287383578 0 -0.46178906005482168 -0.31958364155958929 0 -0.45665078417540439 -0.33022523871135728 0 -0.46178906005482168 -0.31958364155958929 0 -0.47000947120506409 -0.32343005503435041 0 -0.44914797714501098 -0.31616969287383578 0 -0.45665078417540439 -0.33022523871135728 0 -0.46178906005482168 -0.31958364155958929 0 -0.47134800769380769 -0.30850957961881409 0 -0.46178906005482168 -0.31958364155958929 0 -0.47000947120506409 -0.32343005503435041 0 -0.5 -0.32845345739505039 0 -0.47564287011294298 -0.33535989505504898 0 -0.48407733713093642 -0.36224817451159441 0 -0.47134800769380769 -0.30850957961881409 0 -0.47000947120506409 -0.32343005503435041 0 -0.48326515779251089 -0.32077123544154651 0 -0.47000947120506409 -0.32343005503435041 0 -0.48326515779251089 -0.32077123544154651 0 -0.47564287011294298 -0.33535989505504898 0 -0.5 -0.30810319010446852 0 -0.48326515779251089 -0.32077123544154651 0 -0.5 -0.32845345739505039 0 -0.48326515779251089 -0.32077123544154651 0 -0.5 -0.32845345739505039 0 -0.47564287011294298 -0.33535989505504898 0 -0.47564287011294298 -0.33535989505504898 0 -0.48407733713093642 -0.36224817451159441 0 -0.46019187667193001 -0.35155790459510372 0 -0.48407733713093642 -0.36224817451159441 0 -0.46750842263902792 -0.37228425141029542 0 -0.46019187667193001 -0.35155790459510372 0 -0.48518733011659848 -0.38506416976922292 0 -0.48407733713093642 -0.36224817451159441 0 -0.46750842263902792 -0.37228425141029542 0 -0.45470384220908622 -0.3815417340125149 0 -0.46750842263902792 -0.37228425141029542 0 -0.45168270020803991 -0.36588968088055202 0 -0.46750842263902792 -0.37228425141029542 0 -0.46019187667193001 -0.35155790459510372 0 -0.45168270020803991 -0.36588968088055202 0 -0.44366949960342977 -0.34088416873678229 0 -0.46019187667193001 -0.35155790459510372 0 -0.43872059213396919 -0.3554047434877039 0 -0.46019187667193001 -0.35155790459510372 0 -0.43872059213396919 -0.3554047434877039 0 -0.45168270020803991 -0.36588968088055202 0 -0.45470384220908622 -0.3815417340125149 0 -0.4379103329822206 -0.37308902279941408 0 -0.45168270020803991 -0.36588968088055202 0 -0.43872059213396919 -0.3554047434877039 0 -0.4379103329822206 -0.37308902279941408 0 -0.45168270020803991 -0.36588968088055202 0 -0.43872059213396919 -0.3554047434877039 0 -0.4379103329822206 -0.37308902279941408 0 -0.42216570575384849 -0.36262434959359291 0 -0.42190409334729168 -0.38180158975939521 0 -0.4379103329822206 -0.37308902279941408 0 -0.42216570575384849 -0.36262434959359291 0 -0.44366949960342977 -0.34088416873678229 0 -0.43872059213396919 -0.3554047434877039 0 -0.42570126035492051 -0.34179591915936808 0 -0.43872059213396919 -0.3554047434877039 0 -0.42216570575384849 -0.36262434959359291 0 -0.42570126035492051 -0.34179591915936808 0 -0.42216570575384849 -0.36262434959359291 0 -0.40434917853282909 -0.35157736358343078 0 -0.42570126035492051 -0.34179591915936808 0 -0.42190409334729168 -0.38180158975939521 0 -0.42216570575384849 -0.36262434959359291 0 -0.40708191026735863 -0.37005123040099891 0 -0.42216570575384849 -0.36262434959359291 0 -0.40708191026735863 -0.37005123040099891 0 -0.40434917853282909 -0.35157736358343078 0 -0.39875787452712569 -0.37808705704672813 0 -0.40708191026735863 -0.37005123040099891 0 -0.38587601133240879 -0.36241209401787738 0 -0.40708191026735863 -0.37005123040099891 0 -0.38587601133240879 -0.36241209401787738 0 -0.40434917853282909 -0.35157736358343078 0 -0.38920413716619873 -0.38567415539685779 0 -0.38587601133240879 -0.36241209401787738 0 -0.38587601133240879 -0.36241209401787738 0 -0.38254788549861879 -0.33915003263889681 0 -0.37126441836838858 -0.35831088099670722 0 -0.38587601133240879 -0.36241209401787738 0 -0.38254788549861879 -0.33915003263889681 0 -0.38587601133240879 -0.36241209401787738 0 -0.40434917853282909 -0.35157736358343078 0 -0.38254788549861879 -0.33915003263889681 0 -0.40474791604741611 -0.33148991938387629 0 -0.38254788549861879 -0.33915003263889681 0 -0.40474791604741611 -0.33148991938387629 0 -0.38254788549861879 -0.33915003263889681 0 -0.39237192854864161 -0.32319861932332061 0 -0.40434917853282909 -0.35157736358343078 0 -0.40474791604741611 -0.33148991938387629 0 -0.38254788549861879 -0.33915003263889681 0 -0.38254788549861879 -0.33915003263889681 0 -0.37955177908716492 -0.31820863356870771 0 -0.38254788549861879 -0.33915003263889681 0 -0.37955177908716492 -0.31820863356870771 0 -0.39237192854864161 -0.32319861932332061 0 -0.37955177908716492 -0.31820863356870771 0 -0.38961136438882871 -0.30969685493671062 0 -0.36236581662050238 -0.31009261337601002 0 -0.38254788549861879 -0.33915003263889681 0 -0.37955177908716492 -0.31820863356870771 0 -0.36641377361202621 -0.32593256985010838 0 -0.37955177908716492 -0.31820863356870771 0 -0.39237192854864161 -0.32319861932332061 0 -0.38961136438882871 -0.30969685493671062 0 -0.39237192854864161 -0.32319861932332061 0 -0.40610721354765111 -0.319503259254035 0 -0.38961136438882871 -0.30969685493671062 0 -0.40610721354765111 -0.319503259254035 0 -0.41685691215715509 -0.30930109649741128 0 -0.38961136438882871 -0.30969685493671062 0 -0.40474791604741611 -0.33148991938387629 0 -0.39237192854864161 -0.32319861932332061 0 -0.40610721354765111 -0.319503259254035 0 -0.40474791604741611 -0.33148991938387629 0 -0.4269479465962136 -0.32382980612885598 0 -0.40474791604741611 -0.33148991938387629 0 -0.40610721354765111 -0.319503259254035 0 -0.4269479465962136 -0.32382980612885598 0 -0.40610721354765111 -0.319503259254035 0 -0.4269479465962136 -0.32382980612885598 0 -0.41685691215715509 -0.30930109649741128 0 -0.40434917853282909 -0.35157736358343078 0 -0.40474791604741611 -0.33148991938387629 0 -0.42570126035492051 -0.34179591915936808 0 -0.40474791604741611 -0.33148991938387629 0 -0.42570126035492051 -0.34179591915936808 0 -0.4269479465962136 -0.32382980612885598 0 -0.44366949960342977 -0.34088416873678229 0 -0.440434673554296 -0.3295571925662576 0 -0.42570126035492051 -0.34179591915936808 0 -0.440434673554296 -0.3295571925662576 0 -0.42570126035492051 -0.34179591915936808 0 -0.4269479465962136 -0.32382980612885598 0 -0.44410245992548142 -0.30890533805811188 0 -0.4269479465962136 -0.32382980612885598 0 -0.41685691215715509 -0.30930109649741128 0 -0.44410245992548142 -0.30890533805811188 0 -0.41685691215715509 -0.30930109649741128 0 -0.44410245992548142 -0.30890533805811188 0 -0.4332501760214057 -0.30087153143357381 0 -0.41685691215715509 -0.30930109649741128 0 -0.4332501760214057 -0.30087153143357381 0 -0.42757052793768469 -0.29228452194813848 0 -0.41685691215715509 -0.30930109649741128 0 -0.42757052793768469 -0.29228452194813848 0 -0.4178961798388654 -0.28298229200717562 0 -0.4327043970020254 -0.27535023003423592 0 -0.44447080406530182 -0.29299516923063368 0 -0.4332501760214057 -0.30087153143357381 0 -0.42757052793768469 -0.29228452194813848 0 -0.44447080406530182 -0.29299516923063368 0 -0.42757052793768469 -0.29228452194813848 0 -0.4327043970020254 -0.27535023003423592 0 -0.42757052793768469 -0.29228452194813848 0 -0.41419815221053669 -0.29381049012426219 0 -0.4178961798388654 -0.28298229200717562 0 -0.41419815221053669 -0.29381049012426219 0 -0.4178961798388654 -0.28298229200717562 0 -0.40422095645208378 -0.28639001424183402 0 -0.41419815221053669 -0.29381049012426219 0 -0.40326216481768179 -0.29887417181451648 0 -0.40422095645208378 -0.28639001424183402 0 -0.41419815221053669 -0.29381049012426219 0 -0.41685691215715509 -0.30930109649741128 0 -0.40326216481768179 -0.29887417181451648 0 -0.42757052793768469 -0.29228452194813848 0 -0.41419815221053669 -0.29381049012426219 0 -0.41685691215715509 -0.30930109649741128 0 -0.41685691215715509 -0.30930109649741128 0 -0.40326216481768179 -0.29887417181451648 0 -0.38961136438882871 -0.30969685493671062 0 -0.41685691215715509 -0.30930109649741128 0 -0.38961136438882871 -0.30969685493671062 0 -0.40326216481768179 -0.29887417181451648 0 -0.38961136438882871 -0.30969685493671062 0 -0.3899742320834817 -0.29426019742795068 0 -0.38961136438882871 -0.30969685493671062 0 -0.37601421243779298 -0.29880438855279179 0 -0.36236581662050238 -0.31009261337601002 0 -0.38961136438882871 -0.30969685493671062 0 -0.36236581662050238 -0.31009261337601002 0 -0.38961136438882871 -0.30969685493671062 0 -0.37601421243779298 -0.29880438855279179 0 -0.3899742320834817 -0.29426019742795068 0 -0.37601421243779298 -0.29880438855279179 0 -0.37561185424272958 -0.28395874694458728 0 -0.3899742320834817 -0.29426019742795068 0 -0.37561185424272958 -0.28395874694458728 0 -0.3899742320834817 -0.29426019742795068 0 -0.39067471267408982 -0.27943615650090597 0 -0.3899742320834817 -0.29426019742795068 0 -0.40422095645208378 -0.28639001424183402 0 -0.39067471267408982 -0.27943615650090597 0 -0.40326216481768179 -0.29887417181451648 0 -0.3899742320834817 -0.29426019742795068 0 -0.40422095645208378 -0.28639001424183402 0 -0.39067471267408982 -0.27943615650090597 0 -0.38796331349011443 -0.26301535694688227 0 -0.4107868655919964 -0.26707620368740748 0 -0.40422095645208378 -0.28639001424183402 0 -0.39067471267408982 -0.27943615650090597 0 -0.4107868655919964 -0.26707620368740748 0 -0.37561185424272958 -0.28395874694458728 0 -0.39067471267408982 -0.27943615650090597 0 -0.38796331349011443 -0.26301535694688227 0 -0.37561185424272958 -0.28395874694458728 0 -0.38796331349011443 -0.26301535694688227 0 -0.36732279919872213 -0.2654413245954525 0 -0.38796331349011443 -0.26301535694688227 0 -0.36732279919872213 -0.2654413245954525 0 -0.37841784177742749 -0.23980971929564329 0 -0.38796331349011443 -0.26301535694688227 0 -0.4107868655919964 -0.26707620368740748 0 -0.40532124195949121 -0.24504659159658509 0 -0.4107868655919964 -0.26707620368740748 0 -0.42882862824786411 -0.25215583988111961 0 -0.40532124195949121 -0.24504659159658509 0 -0.4178961798388654 -0.28298229200717562 0 -0.4107868655919964 -0.26707620368740748 0 -0.4327043970020254 -0.27535023003423592 0 -0.4178961798388654 -0.28298229200717562 0 -0.40422095645208378 -0.28639001424183402 0 -0.4107868655919964 -0.26707620368740748 0 -0.4107868655919964 -0.26707620368740748 0 -0.4327043970020254 -0.27535023003423592 0 -0.42882862824786411 -0.25215583988111961 0 -0.44919654988559637 -0.26231446499954891 0 -0.4327043970020254 -0.27535023003423592 0 -0.42882862824786411 -0.25215583988111961 0 -0.33388220215066899 -0.26938809641676248 0 -0.32984033196924661 -0.25079586296346412 0 -0.31218064994829509 -0.26915533526918489 0 -0.32984033196924661 -0.25079586296346412 0 -0.31218064994829509 -0.26915533526918489 0 -0.30719362811525203 -0.24701180601075259 0 -0.33388220215066899 -0.26938809641676248 0 -0.32112075870607748 -0.28475026382318519 0 -0.31218064994829509 -0.26915533526918489 0 -0.33388220215066899 -0.26938809641676248 0 -0.35057898406518961 -0.27052893686032198 0 -0.34054397082749721 -0.28382160779524851 0 -0.33388220215066899 -0.26938809641676248 0 -0.34054397082749721 -0.28382160779524851 0 -0.32112075870607748 -0.28475026382318519 0 -0.33388220215066899 -0.26938809641676248 0 -0.32984033196924661 -0.25079586296346412 0 -0.35074909256490078 -0.2544265487002364 0 -0.35074909256490078 -0.2544265487002364 0 -0.36732279919872213 -0.2654413245954525 0 -0.35057898406518961 -0.27052893686032198 0 -0.33388220215066899 -0.26938809641676248 0 -0.35074909256490078 -0.2544265487002364 0 -0.35057898406518961 -0.27052893686032198 0 -0.35074909256490078 -0.2544265487002364 0 -0.36732279919872213 -0.2654413245954525 0 -0.37841784177742749 -0.23980971929564329 0 -0.37561185424272958 -0.28395874694458728 0 -0.36732279919872213 -0.2654413245954525 0 -0.35929186609741992 -0.28193151482998391 0 -0.36732279919872213 -0.2654413245954525 0 -0.35057898406518961 -0.27052893686032198 0 -0.35929186609741992 -0.28193151482998391 0 -0.35057898406518961 -0.27052893686032198 0 -0.35929186609741992 -0.28193151482998391 0 -0.34054397082749721 -0.28382160779524851 0 -0.34903458605534948 -0.29616185398948891 0 -0.35929186609741992 -0.28193151482998391 0 -0.34054397082749721 -0.28382160779524851 0 -0.34903458605534948 -0.29616185398948891 0 -0.35929186609741992 -0.28193151482998391 0 -0.36310522101906723 -0.2955013232492244 0 -0.37561185424272958 -0.28395874694458728 0 -0.35929186609741992 -0.28193151482998391 0 -0.36310522101906723 -0.2955013232492244 0 -0.37601421243779298 -0.29880438855279179 0 -0.37561185424272958 -0.28395874694458728 0 -0.36310522101906723 -0.2955013232492244 0 -0.37601421243779298 -0.29880438855279179 0 -0.36310522101906723 -0.2955013232492244 0 -0.36236581662050238 -0.31009261337601002 0 -0.34903458605534948 -0.29616185398948891 0 -0.36236581662050238 -0.31009261337601002 0 -0.33512026885217611 -0.31048837181530942 0 -0.36236581662050238 -0.31009261337601002 0 -0.34769919406273581 -0.31143936243172371 0 -0.33512026885217611 -0.31048837181530942 0 -0.36236581662050238 -0.31009261337601002 0 -0.33512026885217611 -0.31048837181530942 0 -0.34903458605534948 -0.29616185398948891 0 -0.36310522101906723 -0.2955013232492244 0 -0.36236581662050238 -0.31009261337601002 0 -0.34903458605534948 -0.29616185398948891 0 -0.33512026885217611 -0.31048837181530942 0 -0.33232400177456378 -0.29561073047331288 0 -0.33232400177456378 -0.29561073047331288 0 -0.34054397082749721 -0.28382160779524851 0 -0.32112075870607748 -0.28475026382318519 0 -0.34903458605534948 -0.29616185398948891 0 -0.33232400177456378 -0.29561073047331288 0 -0.34054397082749721 -0.28382160779524851 0 -0.33232400177456378 -0.29561073047331288 0 -0.32112075870607748 -0.28475026382318519 0 -0.30787472108384972 -0.31088413025460881 0 -0.33512026885217611 -0.31048837181530942 0 -0.30787472108384972 -0.31088413025460881 0 -0.33512026885217611 -0.31048837181530942 0 -0.33232400177456378 -0.29561073047331288 0 -0.30787472108384972 -0.31088413025460881 0 -0.33512026885217611 -0.31048837181530942 0 -0.32163636198306178 -0.32024639559854812 0 -0.30787472108384972 -0.31088413025460881 0 -0.32163636198306178 -0.32024639559854812 0 -0.31355728913290831 -0.33603886095343888 0 -0.30787472108384972 -0.31088413025460881 0 -0.32163636198306178 -0.32024639559854812 0 -0.3217915825688924 -0.33028857235237691 0 -0.33148268432408778 -0.32127107221978018 0 -0.31355728913290831 -0.33603886095343888 0 -0.33116601415357277 -0.33389265890094261 0 -0.3146328342444098 -0.3563459553701615 0 -0.31355728913290831 -0.33603886095343888 0 -0.3217915825688924 -0.33028857235237691 0 -0.33116601415357277 -0.33389265890094261 0 -0.32163636198306178 -0.32024639559854812 0 -0.31355728913290831 -0.33603886095343888 0 -0.3217915825688924 -0.33028857235237691 0 -0.3217915825688924 -0.33028857235237691 0 -0.33116601415357277 -0.33389265890094261 0 -0.33148268432408778 -0.32127107221978018 0 -0.33116601415357277 -0.33389265890094261 0 -0.33788176694242672 -0.33783194617508178 0 -0.3297568272425534 -0.35103994892808282 0 -0.33788176694242672 -0.33783194617508178 0 -0.34375779874313928 -0.33308924293559911 0 -0.34935892082742248 -0.34060338741810448 0 -0.33788176694242672 -0.33783194617508178 0 -0.34935892082742248 -0.34060338741810448 0 -0.34317087225446768 -0.35273705813562339 0 -0.33116601415357277 -0.33389265890094261 0 -0.33788176694242672 -0.33783194617508178 0 -0.34375779874313928 -0.33308924293559911 0 -0.33116601415357277 -0.33389265890094261 0 -0.34657827200387681 -0.32553674475895789 0 -0.34375779874313928 -0.33308924293559911 0 -0.34769919406273581 -0.31143936243172371 0 -0.33512026885217611 -0.31048837181530942 0 -0.33148268432408778 -0.32127107221978018 0 -0.34769919406273581 -0.31143936243172371 0 -0.33116601415357277 -0.33389265890094261 0 -0.34657827200387681 -0.32553674475895789 0 -0.34769919406273581 -0.31143936243172371 0 -0.33116601415357277 -0.33389265890094261 0 -0.33148268432408778 -0.32127107221978018 0 -0.34769919406273581 -0.31143936243172371 0 -0.33116601415357277 -0.33389265890094261 0 -0.33512026885217611 -0.31048837181530942 0 -0.32163636198306178 -0.32024639559854812 0 -0.33148268432408778 -0.32127107221978018 0 -0.34769919406273581 -0.31143936243172371 0 -0.34657827200387681 -0.32553674475895789 0 -0.35556912750832392 -0.3201030008425767 0 -0.34657827200387681 -0.32553674475895789 0 -0.35556912750832392 -0.3201030008425767 0 -0.35460986986074522 -0.33080520357181142 0 -0.35556912750832392 -0.3201030008425767 0 -0.36641377361202621 -0.32593256985010838 0 -0.35460986986074522 -0.33080520357181142 0 -0.36236581662050238 -0.31009261337601002 0 -0.34769919406273581 -0.31143936243172371 0 -0.35556912750832392 -0.3201030008425767 0 -0.37955177908716492 -0.31820863356870771 0 -0.36236581662050238 -0.31009261337601002 0 -0.36641377361202621 -0.32593256985010838 0 -0.36236581662050238 -0.31009261337601002 0 -0.35556912750832392 -0.3201030008425767 0 -0.36641377361202621 -0.32593256985010838 0 -0.36641377361202621 -0.32593256985010838 0 -0.35460986986074522 -0.33080520357181142 0 -0.36285937887654318 -0.34594354538726002 0 -0.38254788549861879 -0.33915003263889681 0 -0.36285937887654318 -0.34594354538726002 0 -0.38254788549861879 -0.33915003263889681 0 -0.36641377361202621 -0.32593256985010838 0 -0.36285937887654318 -0.34594354538726002 0 -0.35460986986074522 -0.33080520357181142 0 -0.34935892082742248 -0.34060338741810448 0 -0.36285937887654318 -0.34594354538726002 0 -0.35460986986074522 -0.33080520357181142 0 -0.34375779874313928 -0.33308924293559911 0 -0.34935892082742248 -0.34060338741810448 0 -0.34657827200387681 -0.32553674475895789 0 -0.35460986986074522 -0.33080520357181142 0 -0.34375779874313928 -0.33308924293559911 0 -0.36285937887654318 -0.34594354538726002 0 -0.35922548982052238 -0.36409236607339762 0 -0.35103083868427831 -0.35945179300877728 0 -0.36285937887654318 -0.34594354538726002 0 -0.34317087225446768 -0.35273705813562339 0 -0.34935892082742248 -0.34060338741810448 0 -0.36285937887654318 -0.34594354538726002 0 -0.34317087225446768 -0.35273705813562339 0 -0.36285937887654318 -0.34594354538726002 0 -0.35103083868427831 -0.35945179300877728 0 -0.34317087225446768 -0.35273705813562339 0 -0.35103083868427831 -0.35945179300877728 0 -0.3392415273444972 -0.36319295202807 0 -0.34317087225446768 -0.35273705813562339 0 -0.38254788549861879 -0.33915003263889681 0 -0.36285937887654318 -0.34594354538726002 0 -0.37126441836838858 -0.35831088099670722 0 -0.36285937887654318 -0.34594354538726002 0 -0.37126441836838858 -0.35831088099670722 0 -0.35922548982052238 -0.36409236607339762 0 -0.37126441836838858 -0.35831088099670722 0 -0.35922548982052238 -0.36409236607339762 0 -0.36581332631384972 -0.37995636686610401 0 -0.38587601133240879 -0.36241209401787738 0 -0.37126441836838858 -0.35831088099670722 0 -0.36581332631384972 -0.37995636686610401 0 -0.35922548982052238 -0.36409236607339762 0 -0.35065692512536112 -0.3712930434195354 0 -0.36581332631384972 -0.37995636686610401 0 -0.35922548982052238 -0.36409236607339762 0 -0.35103083868427831 -0.35945179300877728 0 -0.35065692512536112 -0.3712930434195354 0 -0.35103083868427831 -0.35945179300877728 0 -0.35065692512536112 -0.3712930434195354 0 -0.3392415273444972 -0.36319295202807 0 -0.35065692512536112 -0.3712930434195354 0 -0.3392415273444972 -0.36319295202807 0 -0.34060128774656773 -0.38855395788105829 0 -0.3392415273444972 -0.36319295202807 0 -0.3263621833259317 -0.36216242319537972 0 -0.32181754447226668 -0.3780708364552049 0 -0.33788176694242672 -0.33783194617508178 0 -0.3392415273444972 -0.36319295202807 0 -0.33788176694242672 -0.33783194617508178 0 -0.3392415273444972 -0.36319295202807 0 -0.3297568272425534 -0.35103994892808282 0 -0.33788176694242672 -0.33783194617508178 0 -0.3392415273444972 -0.36319295202807 0 -0.34317087225446768 -0.35273705813562339 0 -0.3392415273444972 -0.36319295202807 0 -0.3297568272425534 -0.35103994892808282 0 -0.3263621833259317 -0.36216242319537972 0 -0.3297568272425534 -0.35103994892808282 0 -0.3146328342444098 -0.3563459553701615 0 -0.3263621833259317 -0.36216242319537972 0 -0.33116601415357277 -0.33389265890094261 0 -0.3146328342444098 -0.3563459553701615 0 -0.33116601415357277 -0.33389265890094261 0 -0.3297568272425534 -0.35103994892808282 0 -0.3146328342444098 -0.3563459553701615 0 -0.3146328342444098 -0.3563459553701615 0 -0.3263621833259317 -0.36216242319537972 0 -0.32181754447226668 -0.3780708364552049 0 -0.3146328342444098 -0.3563459553701615 0 -0.29607839423882271 -0.3545489812385032 0 -0.29809965433524688 -0.3787992518393804 0 -0.3146328342444098 -0.3563459553701615 0 -0.29809965433524688 -0.3787992518393804 0 -0.3146328342444098 -0.3563459553701615 0 -0.32181754447226668 -0.3780708364552049 0 -0.29809965433524688 -0.3787992518393804 0 -0.31355728913290831 -0.33603886095343888 0 -0.3146328342444098 -0.3563459553701615 0 -0.29607839423882271 -0.3545489812385032 0 -0.29607839423882271 -0.3545489812385032 0 -0.28155525099076062 -0.36358541887296453 0 -0.28079857886493342 -0.34637354705590762 0 -0.29607839423882271 -0.3545489812385032 0 -0.28079857886493342 -0.34637354705590762 0 -0.29357876790270931 -0.33126777857739992 0 -0.28155525099076062 -0.36358541887296453 0 -0.29809965433524688 -0.3787992518393804 0 -0.27383786267576338 -0.37723989406079328 0 -0.29607839423882271 -0.3545489812385032 0 -0.28155525099076062 -0.36358541887296453 0 -0.29809965433524688 -0.3787992518393804 0 -0.28155525099076062 -0.36358541887296453 0 -0.26749330375595309 -0.36574792493667641 0 -0.27383786267576338 -0.37723989406079328 0 -0.28155525099076062 -0.36358541887296453 0 -0.26749330375595309 -0.36574792493667641 0 -0.27136251501539588 -0.35516938163789369 0 -0.26749330375595309 -0.36574792493667641 0 -0.25956752822520718 -0.35768893958524112 0 -0.27136251501539588 -0.35516938163789369 0 -0.26749330375595309 -0.36574792493667641 0 -0.27383786267576338 -0.37723989406079328 0 -0.26087154130867102 -0.37528427971471501 0 -0.26749330375595309 -0.36574792493667641 0 -0.25678206908687751 -0.36504934985239412 0 -0.26087154130867102 -0.37528427971471501 0 -0.26749330375595309 -0.36574792493667641 0 -0.25678206908687751 -0.36504934985239412 0 -0.25956752822520718 -0.35768893958524112 0 -0.25678206908687751 -0.36504934985239412 0 -0.25026491295981063 -0.3591533028701196 0 -0.24729727552769459 -0.36636066369430792 0 -0.25678206908687751 -0.36504934985239412 0 -0.25026491295981063 -0.3591533028701196 0 -0.25956752822520718 -0.35768893958524112 0 -0.25678206908687751 -0.36504934985239412 0 -0.26087154130867102 -0.37528427971471501 0 -0.24729727552769459 -0.36636066369430792 0 -0.25956752822520718 -0.35768893958524112 0 -0.26457490749728863 -0.34281434295660618 0 -0.24892009194236051 -0.34920057363171508 0 -0.25026491295981063 -0.3591533028701196 0 -0.25956752822520718 -0.35768893958524112 0 -0.24892009194236051 -0.34920057363171508 0 -0.25956752822520718 -0.35768893958524112 0 -0.27136251501539588 -0.35516938163789369 0 -0.26457490749728863 -0.34281434295660618 0 -0.28155525099076062 -0.36358541887296453 0 -0.28079857886493342 -0.34637354705590762 0 -0.27136251501539588 -0.35516938163789369 0 -0.28079857886493342 -0.34637354705590762 0 -0.27136251501539588 -0.35516938163789369 0 -0.26457490749728863 -0.34281434295660618 0 -0.27764163754462362 -0.33085537905207829 0 -0.26457490749728863 -0.34281434295660618 0 -0.26166413941430922 -0.32692630432673292 0 -0.28079857886493342 -0.34637354705590762 0 -0.27764163754462362 -0.33085537905207829 0 -0.26457490749728863 -0.34281434295660618 0 -0.26457490749728863 -0.34281434295660618 0 -0.26166413941430922 -0.32692630432673292 0 -0.2478142613430229 -0.33633621555486087 0 -0.26166413941430922 -0.32692630432673292 0 -0.2478142613430229 -0.33633621555486087 0 -0.24142044924060299 -0.32458422323193992 0 -0.26457490749728863 -0.34281434295660618 0 -0.24892009194236051 -0.34920057363171508 0 -0.2478142613430229 -0.33633621555486087 0 -0.26166413941430922 -0.32692630432673292 0 -0.25338362554719701 -0.31167564713320761 0 -0.24142044924060299 -0.32458422323193992 0 -0.26166413941430922 -0.32692630432673292 0 -0.28062917331552328 -0.31127988869390821 0 -0.25338362554719701 -0.31167564713320761 0 -0.27764163754462362 -0.33085537905207829 0 -0.26166413941430922 -0.32692630432673292 0 -0.28062917331552328 -0.31127988869390821 0 -0.29357876790270931 -0.33126777857739992 0 -0.30787472108384972 -0.31088413025460881 0 -0.28062917331552328 -0.31127988869390821 0 -0.27764163754462362 -0.33085537905207829 0 -0.29357876790270931 -0.33126777857739992 0 -0.28062917331552328 -0.31127988869390821 0 -0.28079857886493342 -0.34637354705590762 0 -0.27764163754462362 -0.33085537905207829 0 -0.29357876790270931 -0.33126777857739992 0 -0.31355728913290831 -0.33603886095343888 0 -0.29607839423882271 -0.3545489812385032 0 -0.29357876790270931 -0.33126777857739992 0 -0.31355728913290831 -0.33603886095343888 0 -0.29357876790270931 -0.33126777857739992 0 -0.30787472108384972 -0.31088413025460881 0 -0.32112075870607748 -0.28475026382318519 0 -0.30787472108384972 -0.31088413025460881 0 -0.29898647704673642 -0.28936424762456497 0 -0.29898647704673642 -0.28936424762456497 0 -0.28062917331552328 -0.31127988869390821 0 -0.27796384121231688 -0.28253747763899267 0 -0.30787472108384972 -0.31088413025460881 0 -0.28062917331552328 -0.31127988869390821 0 -0.30787472108384972 -0.31088413025460881 0 -0.29898647704673642 -0.28936424762456497 0 -0.28062917331552328 -0.31127988869390821 0 -0.28062917331552328 -0.31127988869390821 0 -0.25338362554719701 -0.31167564713320761 0 -0.28062917331552328 -0.31127988869390821 0 -0.25338362554719701 -0.31167564713320761 0 -0.26439216560968543 -0.29665932923510169 0 -0.25338362554719701 -0.31167564713320761 0 -0.26439216560968543 -0.29665932923510169 0 -0.2434535477117922 -0.29604589628799077 0 -0.26439216560968543 -0.29665932923510169 0 -0.25360365773395499 -0.27985881362419779 0 -0.2434535477117922 -0.29604589628799077 0 -0.26439216560968543 -0.29665932923510169 0 -0.27796384121231688 -0.28253747763899267 0 -0.25360365773395499 -0.27985881362419779 0 -0.28062917331552328 -0.31127988869390821 0 -0.26439216560968543 -0.29665932923510169 0 -0.27796384121231688 -0.28253747763899267 0 -0.27796384121231688 -0.28253747763899267 0 -0.2684958022756625 -0.26238831904624688 0 -0.29029076740386378 -0.26554591655984211 0 -0.27796384121231688 -0.28253747763899267 0 -0.25360365773395499 -0.27985881362419779 0 -0.2684958022756625 -0.26238831904624688 0 -0.25360365773395499 -0.27985881362419779 0 -0.2524625491404241 -0.26148940870638571 0 -0.2684958022756625 -0.26238831904624688 0 -0.2524625491404241 -0.26148940870638571 0 -0.2684958022756625 -0.26238831904624688 0 -0.25723666982714699 -0.23820841720532429 0 -0.2524625491404241 -0.26148940870638571 0 -0.24130044097179529 -0.25564058872725781 0 -0.25723666982714699 -0.23820841720532429 0 -0.2684958022756625 -0.26238831904624688 0 -0.29029076740386378 -0.26554591655984211 0 -0.28246916049422771 -0.24363196748454599 0 -0.29029076740386378 -0.26554591655984211 0 -0.30719362811525203 -0.24701180601075259 0 -0.28246916049422771 -0.24363196748454599 0 -0.29898647704673642 -0.28936424762456497 0 -0.27796384121231688 -0.28253747763899267 0 -0.29029076740386378 -0.26554591655984211 0 -0.32112075870607748 -0.28475026382318519 0 -0.29898647704673642 -0.28936424762456497 0 -0.31218064994829509 -0.26915533526918489 0 -0.29898647704673642 -0.28936424762456497 0 -0.29029076740386378 -0.26554591655984211 0 -0.31218064994829509 -0.26915533526918489 0 -0.29029076740386378 -0.26554591655984211 0 -0.31218064994829509 -0.26915533526918489 0 -0.30719362811525203 -0.24701180601075259 0 -0.3360496584152256 -0.46609633961326868 0 -0.34466838681126372 -0.47729461484920249 0 -0.34866387940125732 -0.45890183351767561 0 -0.33847577795391359 -0.45174014852098099 0 -0.32639545128290848 -0.44518076140751339 0 -0.32429218391657699 -0.46297124485581381 0 -0.33847577795391359 -0.45174014852098099 0 -0.32429218391657699 -0.46297124485581381 0 -0.3360496584152256 -0.46609633961326868 0 -0.33847577795391359 -0.45174014852098099 0 -0.32429218391657699 -0.46297124485581381 0 -0.3360496584152256 -0.46609633961326868 0 -0.33847577795391359 -0.45174014852098099 0 -0.34866387940125732 -0.45890183351767561 0 -0.33847577795391359 -0.45174014852098099 0 -0.33883933262238752 -0.43916582003835247 0 -0.35265937199125041 -0.44050905218614861 0 -0.33883933262238752 -0.43916582003835247 0 -0.32639545128290848 -0.44518076140751339 0 -0.3316925784917612 -0.4299361554316431 0 -0.33847577795391359 -0.45174014852098099 0 -0.33883933262238752 -0.43916582003835247 0 -0.32639545128290848 -0.44518076140751339 0 -0.32639545128290848 -0.44518076140751339 0 -0.31219063069865949 -0.43024503353025367 0 -0.30919822363189808 -0.45152240856312681 0 -0.32639545128290848 -0.44518076140751339 0 -0.32429218391657699 -0.46297124485581381 0 -0.30919822363189808 -0.45152240856312681 0 -0.32429218391657699 -0.46297124485581381 0 -0.30919822363189808 -0.45152240856312681 0 -0.30468036048384167 -0.47262618343166463 0 -0.32414806399311608 -0.47957385632267069 0 -0.34098199040941901 -0.5 0 -0.29318389804380351 -0.5 0 -0.32429218391657699 -0.46297124485581381 0 -0.32414806399311608 -0.47957385632267069 0 -0.30468036048384167 -0.47262618343166463 0 -0.32414806399311608 -0.47957385632267069 0 -0.34098199040941901 -0.5 0 -0.34466838681126372 -0.47729461484920249 0 -0.3360496584152256 -0.46609633961326868 0 -0.32414806399311608 -0.47957385632267069 0 -0.34466838681126372 -0.47729461484920249 0 -0.3360496584152256 -0.46609633961326868 0 -0.32429218391657699 -0.46297124485581381 0 -0.32414806399311608 -0.47957385632267069 0 -0.34466838681126372 -0.47729461484920249 0 -0.36213163233952028 -0.47093163540063759 0 -0.34866387940125732 -0.45890183351767561 0 -0.34098199040941901 -0.5 0 -0.34466838681126372 -0.47729461484920249 0 -0.36213163233952028 -0.47093163540063759 0 -0.38759267533556718 -0.47559526880853242 0 -0.34098199040941901 -0.5 0 -0.36213163233952028 -0.47093163540063759 0 -0.37513886376503969 -0.454883812589926 0 -0.36213163233952028 -0.47093163540063759 0 -0.36090849313365653 -0.45293890079502708 0 -0.37513886376503969 -0.454883812589926 0 -0.38759267533556718 -0.47559526880853242 0 -0.36213163233952028 -0.47093163540063759 0 -0.36213163233952028 -0.47093163540063759 0 -0.34866387940125732 -0.45890183351767561 0 -0.36090849313365653 -0.45293890079502708 0 -0.34466838681126372 -0.47729461484920249 0 -0.34866387940125732 -0.45890183351767561 0 -0.34866387940125732 -0.45890183351767561 0 -0.35265937199125041 -0.44050905218614861 0 -0.34866387940125732 -0.45890183351767561 0 -0.35265937199125041 -0.44050905218614861 0 -0.36090849313365653 -0.45293890079502708 0 -0.33847577795391359 -0.45174014852098099 0 -0.34866387940125732 -0.45890183351767561 0 -0.35265937199125041 -0.44050905218614861 0 -0.33847577795391359 -0.45174014852098099 0 -0.35265937199125041 -0.44050905218614861 0 -0.35265937199125041 -0.44050905218614861 0 -0.36090849313365653 -0.45293890079502708 0 -0.36731772627169001 -0.44175453757713468 0 -0.37802410117383278 -0.44029102242635232 0 -0.37513886376503969 -0.454883812589926 0 -0.36731772627169001 -0.44175453757713468 0 -0.37513886376503969 -0.454883812589926 0 -0.36090849313365653 -0.45293890079502708 0 -0.36731772627169001 -0.44175453757713468 0 -0.37802410117383278 -0.44029102242635232 0 -0.36731772627169001 -0.44175453757713468 0 -0.37259581749562137 -0.42472263448099368 0 -0.35265937199125041 -0.44050905218614861 0 -0.37259581749562137 -0.42472263448099368 0 -0.35704402343211711 -0.42032482374613378 0 -0.35265937199125041 -0.44050905218614861 0 -0.36731772627169001 -0.44175453757713468 0 -0.37259581749562137 -0.42472263448099368 0 -0.35265937199125041 -0.44050905218614861 0 -0.37259581749562137 -0.42472263448099368 0 -0.37790358185114742 -0.41187606795758031 0 -0.37259581749562137 -0.42472263448099368 0 -0.36755312332697798 -0.41352947444553873 0 -0.36755312332697798 -0.41352947444553873 0 -0.35704402343211711 -0.42032482374613378 0 -0.36142867487298341 -0.40014059530611878 0 -0.37790358185114742 -0.41187606795758031 0 -0.37270150913827438 -0.40629795572893979 0 -0.36755312332697798 -0.41352947444553873 0 -0.37270150913827438 -0.40629795572893979 0 -0.36755312332697798 -0.41352947444553873 0 -0.36142867487298341 -0.40014059530611878 0 -0.37259581749562137 -0.42472263448099368 0 -0.36755312332697798 -0.41352947444553873 0 -0.35704402343211711 -0.42032482374613378 0 -0.35704402343211711 -0.42032482374613378 0 -0.36142867487298341 -0.40014059530611878 0 -0.3419610481486382 -0.41391496373404651 0 -0.35704402343211711 -0.42032482374613378 0 -0.36142867487298341 -0.40014059530611878 0 -0.35704402343211711 -0.42032482374613378 0 -0.34497348339210349 -0.42846298264547611 0 -0.3419610481486382 -0.41391496373404651 0 -0.35265937199125041 -0.44050905218614861 0 -0.35704402343211711 -0.42032482374613378 0 -0.34497348339210349 -0.42846298264547611 0 -0.35265937199125041 -0.44050905218614861 0 -0.35704402343211711 -0.42032482374613378 0 -0.33883933262238752 -0.43916582003835247 0 -0.35265937199125041 -0.44050905218614861 0 -0.34497348339210349 -0.42846298264547611 0 -0.36581332631384972 -0.37995636686610401 0 -0.36142867487298341 -0.40014059530611878 0 -0.37658995856295657 -0.38657385581986459 0 -0.36581332631384972 -0.37995636686610401 0 -0.36142867487298341 -0.40014059530611878 0 -0.37734110255115211 -0.39748869041215379 0 -0.37658995856295657 -0.38657385581986459 0 -0.36142867487298341 -0.40014059530611878 0 -0.37734110255115211 -0.39748869041215379 0 -0.37270150913827438 -0.40629795572893979 0 -0.36142867487298341 -0.40014059530611878 0 -0.36142867487298341 -0.40014059530611878 0 -0.34060128774656773 -0.38855395788105829 0 -0.3419610481486382 -0.41391496373404651 0 -0.35065692512536112 -0.3712930434195354 0 -0.36581332631384972 -0.37995636686610401 0 -0.34060128774656773 -0.38855395788105829 0 -0.36581332631384972 -0.37995636686610401 0 -0.36142867487298341 -0.40014059530611878 0 -0.34060128774656773 -0.38855395788105829 0 -0.3392415273444972 -0.36319295202807 0 -0.34060128774656773 -0.38855395788105829 0 -0.34060128774656773 -0.38855395788105829 0 -0.33145686060527141 -0.40307904428564723 0 -0.32181754447226668 -0.3780708364552049 0 -0.3392415273444972 -0.36319295202807 0 -0.34060128774656773 -0.38855395788105829 0 -0.32181754447226668 -0.3780708364552049 0 -0.34060128774656773 -0.38855395788105829 0 -0.3419610481486382 -0.41391496373404651 0 -0.34060128774656773 -0.38855395788105829 0 -0.33145686060527141 -0.40307904428564723 0 -0.3419610481486382 -0.41391496373404651 0 -0.33145686060527141 -0.40307904428564723 0 -0.31637389431742879 -0.40256989381845759 0 -0.32181754447226668 -0.3780708364552049 0 -0.31637389431742879 -0.40256989381845759 0 -0.32181754447226668 -0.3780708364552049 0 -0.29975986692871948 -0.39643262120846567 0 -0.34497348339210349 -0.42846298264547611 0 -0.3316925784917612 -0.4299361554316431 0 -0.3419610481486382 -0.41391496373404651 0 -0.33883933262238752 -0.43916582003835247 0 -0.34497348339210349 -0.42846298264547611 0 -0.3316925784917612 -0.4299361554316431 0 -0.33145686060527141 -0.40307904428564723 0 -0.3419610481486382 -0.41391496373404651 0 -0.3247124036686253 -0.41639931136354003 0 -0.3316925784917612 -0.4299361554316431 0 -0.3419610481486382 -0.41391496373404651 0 -0.3247124036686253 -0.41639931136354003 0 -0.33145686060527141 -0.40307904428564723 0 -0.31637389431742879 -0.40256989381845759 0 -0.3247124036686253 -0.41639931136354003 0 -0.31637389431742879 -0.40256989381845759 0 -0.3247124036686253 -0.41639931136354003 0 -0.31052480311807762 -0.41496050068559659 0 -0.3247124036686253 -0.41639931136354003 0 -0.31219063069865949 -0.43024503353025367 0 -0.31052480311807762 -0.41496050068559659 0 -0.32639545128290848 -0.44518076140751339 0 -0.3316925784917612 -0.4299361554316431 0 -0.31219063069865949 -0.43024503353025367 0 -0.3316925784917612 -0.4299361554316431 0 -0.3247124036686253 -0.41639931136354003 0 -0.31219063069865949 -0.43024503353025367 0 -0.31219063069865949 -0.43024503353025367 0 -0.29303660088812938 -0.41567663997153809 0 -0.29399508199164609 -0.43906628826587718 0 -0.31052480311807762 -0.41496050068559659 0 -0.29303660088812938 -0.41567663997153809 0 -0.29975986692871948 -0.39643262120846567 0 -0.31219063069865949 -0.43024503353025367 0 -0.31052480311807762 -0.41496050068559659 0 -0.29303660088812938 -0.41567663997153809 0 -0.29303660088812938 -0.41567663997153809 0 -0.27823815338127478 -0.4306671931060877 0 -0.29399508199164609 -0.43906628826587718 0 -0.32181754447226668 -0.3780708364552049 0 -0.29809965433524688 -0.3787992518393804 0 -0.29975986692871948 -0.39643262120846567 0 -0.31637389431742879 -0.40256989381845759 0 -0.31052480311807762 -0.41496050068559659 0 -0.29975986692871948 -0.39643262120846567 0 -0.29303660088812938 -0.41567663997153809 0 -0.29975986692871948 -0.39643262120846567 0 -0.27757273357882162 -0.39352423687199051 0 -0.29809965433524688 -0.3787992518393804 0 -0.29975986692871948 -0.39643262120846567 0 -0.27757273357882162 -0.39352423687199051 0 -0.29809965433524688 -0.3787992518393804 0 -0.27383786267576338 -0.37723989406079328 0 -0.27757273357882162 -0.39352423687199051 0 -0.27383786267576338 -0.37723989406079328 0 -0.27757273357882162 -0.39352423687199051 0 -0.25449735385820349 -0.38372889264791998 0 -0.27757273357882162 -0.39352423687199051 0 -0.25449735385820349 -0.38372889264791998 0 -0.27757273357882162 -0.39352423687199051 0 -0.27185334156219793 -0.41507660983590938 0 -0.25430814362330401 -0.40911952683226133 0 -0.27757273357882162 -0.39352423687199051 0 -0.25120937307449159 -0.39573472274994997 0 -0.25430814362330401 -0.40911952683226133 0 -0.27757273357882162 -0.39352423687199051 0 -0.25120937307449159 -0.39573472274994997 0 -0.25449735385820349 -0.38372889264791998 0 -0.27383786267576338 -0.37723989406079328 0 -0.25449735385820349 -0.38372889264791998 0 -0.26087154130867102 -0.37528427971471501 0 -0.27823815338127478 -0.4306671931060877 0 -0.25611107633945979 -0.42639545239766968 0 -0.27298784726515368 -0.44815848930390251 0 -0.27823815338127478 -0.4306671931060877 0 -0.25611107633945979 -0.42639545239766968 0 -0.27823815338127478 -0.4306671931060877 0 -0.27185334156219793 -0.41507660983590938 0 -0.25611107633945979 -0.42639545239766968 0 -0.29303660088812938 -0.41567663997153809 0 -0.27757273357882162 -0.39352423687199051 0 -0.27185334156219793 -0.41507660983590938 0 -0.29303660088812938 -0.41567663997153809 0 -0.27823815338127478 -0.4306671931060877 0 -0.27185334156219793 -0.41507660983590938 0 -0.27185334156219793 -0.41507660983590938 0 -0.25430814362330401 -0.40911952683226133 0 -0.25611107633945979 -0.42639545239766968 0 -0.26050370710005849 -0.46308578193529998 0 -0.27298784726515368 -0.44815848930390251 0 -0.24655895640252171 -0.44608312833632618 0 -0.25611107633945979 -0.42639545239766968 0 -0.27298784726515368 -0.44815848930390251 0 -0.24655895640252171 -0.44608312833632618 0 -0.26050370710005849 -0.46308578193529998 0 -0.27298784726515368 -0.44815848930390251 0 -0.27772552916503429 -0.47524520285804561 0 -0.27823815338127478 -0.4306671931060877 0 -0.27298784726515368 -0.44815848930390251 0 -0.29399508199164609 -0.43906628826587718 0 -0.27298784726515368 -0.44815848930390251 0 -0.29399508199164609 -0.43906628826587718 0 -0.29363563341775578 -0.45904493988763773 0 -0.27298784726515368 -0.44815848930390251 0 -0.29363563341775578 -0.45904493988763773 0 -0.27772552916503429 -0.47524520285804561 0 -0.29363563341775578 -0.45904493988763773 0 -0.30919822363189808 -0.45152240856312681 0 -0.30468036048384167 -0.47262618343166463 0 -0.31219063069865949 -0.43024503353025367 0 -0.29399508199164609 -0.43906628826587718 0 -0.30919822363189808 -0.45152240856312681 0 -0.29399508199164609 -0.43906628826587718 0 -0.29363563341775578 -0.45904493988763773 0 -0.30919822363189808 -0.45152240856312681 0 -0.32414806399311608 -0.47957385632267069 0 -0.30468036048384167 -0.47262618343166463 0 -0.29318389804380351 -0.5 0 -0.29363563341775578 -0.45904493988763773 0 -0.30468036048384167 -0.47262618343166463 0 -0.27772552916503429 -0.47524520285804561 0 -0.30468036048384167 -0.47262618343166463 0 -0.29318389804380351 -0.5 0 -0.27772552916503429 -0.47524520285804561 0 -0.29318389804380351 -0.5 0 -0.27772552916503429 -0.47524520285804561 0 -0.25882561554991551 -0.5 0 -0.26050370710005849 -0.46308578193529998 0 -0.27772552916503429 -0.47524520285804561 0 -0.25378798349788151 -0.48023301639570842 0 -0.26050370710005849 -0.46308578193529998 0 -0.25378798349788151 -0.48023301639570842 0 -0.2375601964997095 -0.47036315076924351 0 -0.27772552916503429 -0.47524520285804561 0 -0.25378798349788151 -0.48023301639570842 0 -0.25882561554991551 -0.5 0 -0.25882561554991551 -0.5 0 -0.23286891464354079 -0.5 0 -0.23432486917469 -0.49247094641595268 0 -0.25378798349788151 -0.48023301639570842 0 -0.25882561554991551 -0.5 0 -0.23432486917469 -0.49247094641595268 0 -0.25882561554991551 -0.5 0 -0.23432486917469 -0.49247094641595268 0 -0.25378798349788151 -0.48023301639570842 0 -0.2375601964997095 -0.47036315076924351 0 -0.23432486917469 -0.49247094641595268 0 -0.2375601964997095 -0.47036315076924351 0 -0.2129328262352585 -0.46352025284240211 0 -0.20982412279946461 -0.48494189283190531 0 -0.2375601964997095 -0.47036315076924351 0 -0.23432486917469 -0.49247094641595268 0 -0.20982412279946461 -0.48494189283190531 0 -0.23432486917469 -0.49247094641595268 0 -0.20982412279946461 -0.48494189283190531 0 -0.23286891464354079 -0.5 0 -0.23432486917469 -0.49247094641595268 0 -0.20982412279946461 -0.48494189283190531 0 -0.2375601964997095 -0.47036315076924351 0 -0.24655895640252171 -0.44608312833632618 0 -0.23141223475870479 -0.45483723961351891 0 -0.26050370710005849 -0.46308578193529998 0 -0.2375601964997095 -0.47036315076924351 0 -0.24655895640252171 -0.44608312833632618 0 -0.2375601964997095 -0.47036315076924351 0 -0.23141223475870479 -0.45483723961351891 0 -0.2129328262352585 -0.46352025284240211 0 -0.24655895640252171 -0.44608312833632618 0 -0.23141223475870479 -0.45483723961351891 0 -0.22288989310954821 -0.43929297992095367 0 -0.23141223475870479 -0.45483723961351891 0 -0.22288989310954821 -0.43929297992095367 0 -0.2129328262352585 -0.46352025284240211 0 -0.22288989310954821 -0.43929297992095367 0 -0.2129328262352585 -0.46352025284240211 0 -0.2030124069786316 -0.43770559373650741 0 -0.2129328262352585 -0.46352025284240211 0 -0.19416789170143481 -0.45755921649218229 0 -0.2030124069786316 -0.43770559373650741 0 -0.2129328262352585 -0.46352025284240211 0 -0.19416789170143481 -0.45755921649218229 0 -0.18532337642423921 -0.47741283924785771 0 -0.19416789170143481 -0.45755921649218229 0 -0.18532337642423921 -0.47741283924785771 0 -0.19416789170143481 -0.45755921649218229 0 -0.2030124069786316 -0.43770559373650741 0 -0.17768692149640239 -0.43846214753236129 0 -0.19416789170143481 -0.45755921649218229 0 -0.2030124069786316 -0.43770559373650741 0 -0.23286891464354079 -0.5 0 -0.20982412279946461 -0.48494189283190531 0 -0.2069122137371662 -0.50000000000000211 0 -0.20982412279946461 -0.48494189283190531 0 -0.1808515328719367 -0.48745095802850752 0 -0.18532337642423921 -0.47741283924785771 0 -0.20982412279946461 -0.48494189283190531 0 -0.18532337642423921 -0.47741283924785771 0 -0.2129328262352585 -0.46352025284240211 0 -0.20982412279946461 -0.48494189283190531 0 -0.18532337642423921 -0.47741283924785771 0 -0.20982412279946461 -0.48494189283190531 0 -0.2069122137371662 -0.50000000000000211 0 -0.1808515328719367 -0.48745095802850752 0 -0.2069122137371662 -0.50000000000000211 0 -0.19108666069280339 -0.5 0 -0.1808515328719367 -0.48745095802850752 0 -0.2069122137371662 -0.50000000000000211 0 -0.1808515328719367 -0.48745095802850752 0 -0.19108666069280339 -0.5 0 -0.1808515328719367 -0.48745095802850752 0 -0.17526110764844061 -0.50000000000000366 0 -0.1808515328719367 -0.48745095802850752 0 -0.17526110764844061 -0.50000000000000366 0 -0.1808515328719367 -0.48745095802850752 0 -0.17526110764844061 -0.50000000000000366 0 -0.16567779141247579 -0.49134063859783861 0 -0.17526110764844061 -0.50000000000000366 0 -0.16567779141247579 -0.49134063859783861 0 -0.1551343834230656 -0.49999999999999689 0 -0.1808515328719367 -0.48745095802850752 0 -0.16567779141247579 -0.49134063859783861 0 -0.16424314294032191 -0.47945349305786289 0 -0.16567779141247579 -0.49134063859783861 0 -0.16424314294032191 -0.47945349305786289 0 -0.1552030103868699 -0.48582255634916099 0 -0.16567779141247579 -0.49134063859783861 0 -0.1551343834230656 -0.49999999999999689 0 -0.1552030103868699 -0.48582255634916099 0 -0.16716270666720501 -0.47183208453823139 0 -0.1490020369101708 -0.46625132982860501 0 -0.16424314294032191 -0.47945349305786289 0 -0.16716270666720501 -0.47183208453823139 0 -0.14763475300870679 -0.47145602808721898 0 -0.16424314294032191 -0.47945349305786289 0 -0.16716270666720501 -0.47183208453823139 0 -0.1746562736699073 -0.47907258429009908 0 -0.16716270666720501 -0.47183208453823139 0 -0.1746562736699073 -0.47907258429009908 0 -0.18532337642423921 -0.47741283924785771 0 -0.16716270666720501 -0.47183208453823139 0 -0.18532337642423921 -0.47741283924785771 0 -0.17716636074153619 -0.46064321481433712 0 -0.1808515328719367 -0.48745095802850752 0 -0.16424314294032191 -0.47945349305786289 0 -0.1808515328719367 -0.48745095802850752 0 -0.16424314294032191 -0.47945349305786289 0 -0.1746562736699073 -0.47907258429009908 0 -0.16716270666720501 -0.47183208453823139 0 -0.18532337642423921 -0.47741283924785771 0 -0.1808515328719367 -0.48745095802850752 0 -0.18532337642423921 -0.47741283924785771 0 -0.1808515328719367 -0.48745095802850752 0 -0.1746562736699073 -0.47907258429009908 0 -0.18532337642423921 -0.47741283924785771 0 -0.19416789170143481 -0.45755921649218229 0 -0.18532337642423921 -0.47741283924785771 0 -0.17716636074153619 -0.46064321481433712 0 -0.17716636074153619 -0.46064321481433712 0 -0.17768692149640239 -0.43846214753236129 0 -0.1643670374547235 -0.45579052835019862 0 -0.19416789170143481 -0.45755921649218229 0 -0.17716636074153619 -0.46064321481433712 0 -0.17768692149640239 -0.43846214753236129 0 -0.17768692149640239 -0.43846214753236129 0 -0.1643670374547235 -0.45579052835019862 0 -0.15656942153094891 -0.43744534921574912 0 -0.1643670374547235 -0.45579052835019862 0 -0.1490020369101708 -0.46625132982860501 0 -0.15656942153094891 -0.43744534921574912 0 -0.16716270666720501 -0.47183208453823139 0 -0.1643670374547235 -0.45579052835019862 0 -0.1490020369101708 -0.46625132982860501 0 -0.16716270666720501 -0.47183208453823139 0 -0.17716636074153619 -0.46064321481433712 0 -0.1643670374547235 -0.45579052835019862 0 -0.1490020369101708 -0.46625132982860501 0 -0.1444321259694156 -0.46484700100448151 0 -0.13863583712557359 -0.45100965005262039 0 -0.1490020369101708 -0.46625132982860501 0 -0.1444321259694156 -0.46484700100448151 0 -0.1490020369101708 -0.46625132982860501 0 -0.1444321259694156 -0.46484700100448151 0 -0.14763475300870679 -0.47145602808721898 0 -0.13863583712557359 -0.45100965005262039 0 -0.13597205919020769 -0.43317169848901388 0 -0.15656942153094891 -0.43744534921574912 0 -0.1490020369101708 -0.46625132982860501 0 -0.15656942153094891 -0.43744534921574912 0 -0.1490020369101708 -0.46625132982860501 0 -0.13863583712557359 -0.45100965005262039 0 -0.15656942153094891 -0.43744534921574912 0 -0.13863583712557359 -0.45100965005262039 0 -0.13597205919020769 -0.43317169848901388 0 -0.1209273657791242 -0.44176315549154482 0 -0.13863583712557359 -0.45100965005262039 0 -0.12267335500042589 -0.45943632557472242 0 -0.1209273657791242 -0.44176315549154482 0 -0.1444321259694156 -0.46484700100448151 0 -0.14763475300870679 -0.47145602808721898 0 -0.12267335500042589 -0.45943632557472242 0 -0.1444321259694156 -0.46484700100448151 0 -0.13863583712557359 -0.45100965005262039 0 -0.12267335500042589 -0.45943632557472242 0 -0.14763475300870679 -0.47145602808721898 0 -0.12267335500042589 -0.45943632557472242 0 -0.13220195266968959 -0.47624020067167439 0 -0.14763475300870679 -0.47145602808721898 0 -0.12267335500042589 -0.45943632557472242 0 -0.13220195266968959 -0.47624020067167439 0 -0.132049685895923 -0.49061749654175812 0 -0.14380502702649939 -0.48603425001254003 0 -0.132049685895923 -0.49061749654175812 0 -0.12521349417258831 -0.5 0 -0.1551343834230656 -0.49999999999999689 0 -0.132049685895923 -0.49061749654175812 0 -0.14380502702649939 -0.48603425001254003 0 -0.1551343834230656 -0.49999999999999689 0 -0.132049685895923 -0.49061749654175812 0 -0.1551343834230656 -0.49999999999999689 0 -0.14380502702649939 -0.48603425001254003 0 -0.1551343834230656 -0.49999999999999689 0 -0.1552030103868699 -0.48582255634916099 0 -0.16424314294032191 -0.47945349305786289 0 -0.1552030103868699 -0.48582255634916099 0 -0.14763475300870679 -0.47145602808721898 0 -0.16716270666720501 -0.47183208453823139 0 -0.1490020369101708 -0.46625132982860501 0 -0.14763475300870679 -0.47145602808721898 0 -0.16424314294032191 -0.47945349305786289 0 -0.14763475300870679 -0.47145602808721898 0 -0.14380502702649939 -0.48603425001254003 0 -0.1552030103868699 -0.48582255634916099 0 -0.14763475300870679 -0.47145602808721898 0 -0.1490020369101708 -0.46625132982860501 0 -0.14763475300870679 -0.47145602808721898 0 -0.13220195266968959 -0.47624020067167439 0 -0.14380502702649939 -0.48603425001254003 0 -0.14763475300870679 -0.47145602808721898 0 -0.14380502702649939 -0.48603425001254003 0 -0.14763475300870679 -0.47145602808721898 0 -0.1478566347697238 -0.40549640169853751 0 -0.13157646338772311 -0.40235343479418412 0 -0.1433795595138814 -0.4088446964869718 0 -0.1478566347697238 -0.40549640169853751 0 -0.16413680615172441 -0.40863936860289241 0 -0.1563041080976531 -0.40041677887246108 0 -0.14094318667963651 -0.39702679905488719 0 -0.1487514623514366 -0.39684104476334497 0 -0.14454190130698741 -0.38824429098035751 0 -0.14094318667963651 -0.39702679905488719 0 -0.1478566347697238 -0.40549640169853751 0 -0.1487514623514366 -0.39684104476334497 0 -0.1478566347697238 -0.40549640169853751 0 -0.1487514623514366 -0.39684104476334497 0 -0.1563041080976531 -0.40041677887246108 0 -0.15468326663986309 -0.39108982713781049 0 -0.1487514623514366 -0.39684104476334497 0 -0.14454190130698741 -0.38824429098035751 0 -0.15468326663986309 -0.39108982713781049 0 -0.1487514623514366 -0.39684104476334497 0 -0.1563041080976531 -0.40041677887246108 0 -0.15468326663986309 -0.39108982713781049 0 -0.1542241429844993 -0.37603136075650478 0 -0.14454190130698741 -0.38824429098035751 0 -0.1542241429844993 -0.37603136075650478 0 -0.14454190130698741 -0.38824429098035751 0 -0.13461971533546691 -0.37204108600685931 0 -0.13092027878879889 -0.38880123511953929 0 -0.13461971533546691 -0.37204108600685931 0 -0.12108740855967071 -0.38114056776092681 0 -0.14454190130698741 -0.38824429098035751 0 -0.13092027878879889 -0.38880123511953929 0 -0.13461971533546691 -0.37204108600685931 0 -0.13092027878879889 -0.38880123511953929 0 -0.13157646338772311 -0.40235343479418412 0 -0.1127529974633094 -0.3920012321200208 0 -0.1478566347697238 -0.40549640169853751 0 -0.13157646338772311 -0.40235343479418412 0 -0.14094318667963651 -0.39702679905488719 0 -0.1478566347697238 -0.40549640169853751 0 -0.13157646338772311 -0.40235343479418412 0 -0.14094318667963651 -0.39702679905488719 0 -0.14454190130698741 -0.38824429098035751 0 -0.13092027878879889 -0.38880123511953929 0 -0.14094318667963651 -0.39702679905488719 0 -0.13092027878879889 -0.38880123511953929 0 -0.13157646338772311 -0.40235343479418412 0 -0.13157646338772311 -0.40235343479418412 0 -0.1433795595138814 -0.4088446964869718 0 -0.1307621202024957 -0.41939643977350932 0 -0.13422061498826829 -0.41082833263137691 0 -0.120923414606757 -0.4101805087101501 0 -0.13157646338772311 -0.40235343479418412 0 -0.13422061498826829 -0.41082833263137691 0 -0.120923414606757 -0.4101805087101501 0 -0.1307621202024957 -0.41939643977350932 0 -0.140321810202479 -0.41912945357891618 0 -0.13422061498826829 -0.41082833263137691 0 -0.13157646338772311 -0.40235343479418412 0 -0.13422061498826829 -0.41082833263137691 0 -0.1433795595138814 -0.4088446964869718 0 -0.140321810202479 -0.41912945357891618 0 -0.13422061498826829 -0.41082833263137691 0 -0.1433795595138814 -0.4088446964869718 0 -0.13597205919020769 -0.43317169848901388 0 -0.1209273657791242 -0.44176315549154482 0 -0.1216473709369055 -0.42684453866736272 0 -0.1307621202024957 -0.41939643977350932 0 -0.13597205919020769 -0.43317169848901388 0 -0.1216473709369055 -0.42684453866736272 0 -0.1307621202024957 -0.41939643977350932 0 -0.140321810202479 -0.41912945357891618 0 -0.13597205919020769 -0.43317169848901388 0 -0.14627201156164599 -0.42604562485589248 0 -0.15132449575837489 -0.416489929236733 0 -0.15656942153094891 -0.43744534921574912 0 -0.13597205919020769 -0.43317169848901388 0 -0.14627201156164599 -0.42604562485589248 0 -0.15656942153094891 -0.43744534921574912 0 -0.140321810202479 -0.41912945357891618 0 -0.13597205919020769 -0.43317169848901388 0 -0.14627201156164599 -0.42604562485589248 0 -0.1478566347697238 -0.40549640169853751 0 -0.15132449575837489 -0.416489929236733 0 -0.16413680615172441 -0.40863936860289241 0 -0.1478566347697238 -0.40549640169853751 0 -0.16413680615172441 -0.40863936860289241 0 -0.1478566347697238 -0.40549640169853751 0 -0.1433795595138814 -0.4088446964869718 0 -0.15132449575837489 -0.416489929236733 0 -0.140321810202479 -0.41912945357891618 0 -0.14627201156164599 -0.42604562485589248 0 -0.15132449575837489 -0.416489929236733 0 -0.140321810202479 -0.41912945357891618 0 -0.1433795595138814 -0.4088446964869718 0 -0.15132449575837489 -0.416489929236733 0 -0.15132449575837489 -0.416489929236733 0 -0.16413680615172441 -0.40863936860289241 0 -0.15656942153094891 -0.43744534921574912 0 -0.17768692149640239 -0.43846214753236129 0 -0.16413680615172441 -0.40863936860289241 0 -0.15656942153094891 -0.43744534921574912 0 -0.16413680615172441 -0.40863936860289241 0 -0.15656942153094891 -0.43744534921574912 0 -0.17768692149640239 -0.43846214753236129 0 -0.16413680615172441 -0.40863936860289241 0 -0.18799686420377729 -0.41324566979186261 0 -0.16413680615172441 -0.40863936860289241 0 -0.17719685395536389 -0.40129308706876238 0 -0.18799686420377729 -0.41324566979186261 0 -0.16413680615172441 -0.40863936860289241 0 -0.18799686420377729 -0.41324566979186261 0 -0.17719685395536389 -0.40129308706876238 0 -0.1688369421115844 -0.39074784701090032 0 -0.18781680335436921 -0.39253946286939467 0 -0.17719685395536389 -0.40129308706876238 0 -0.18781680335436921 -0.39253946286939467 0 -0.18799686420377729 -0.41324566979186261 0 -0.16413680615172441 -0.40863936860289241 0 -0.1688369421115844 -0.39074784701090032 0 -0.16413680615172441 -0.40863936860289241 0 -0.17719685395536389 -0.40129308706876238 0 -0.1688369421115844 -0.39074784701090032 0 -0.16413680615172441 -0.40863936860289241 0 -0.1688369421115844 -0.39074784701090032 0 -0.1563041080976531 -0.40041677887246108 0 -0.15468326663986309 -0.39108982713781049 0 -0.1688369421115844 -0.39074784701090032 0 -0.1563041080976531 -0.40041677887246108 0 -0.1542241429844993 -0.37603136075650478 0 -0.1688369421115844 -0.39074784701090032 0 -0.16964814287113791 -0.36576944870152212 0 -0.15468326663986309 -0.39108982713781049 0 -0.1542241429844993 -0.37603136075650478 0 -0.1688369421115844 -0.39074784701090032 0 -0.1688369421115844 -0.39074784701090032 0 -0.1846014351435715 -0.37967625263478461 0 -0.16964814287113791 -0.36576944870152212 0 -0.1688369421115844 -0.39074784701090032 0 -0.1846014351435715 -0.37967625263478461 0 -0.18781680335436921 -0.39253946286939467 0 -0.1846014351435715 -0.37967625263478461 0 -0.19741662461353829 -0.38292485144060923 0 -0.19784770285517531 -0.36871073407885041 0 -0.19741662461353829 -0.38292485144060923 0 -0.21077770697236481 -0.38139659757009342 0 -0.19784770285517531 -0.36871073407885041 0 -0.1846014351435715 -0.37967625263478461 0 -0.19741662461353829 -0.38292485144060923 0 -0.18781680335436921 -0.39253946286939467 0 -0.18781680335436921 -0.39253946286939467 0 -0.20315755491810619 -0.39692337190463001 0 -0.18799686420377729 -0.41324566979186261 0 -0.19741662461353829 -0.38292485144060923 0 -0.18781680335436921 -0.39253946286939467 0 -0.20315755491810619 -0.39692337190463001 0 -0.20315755491810619 -0.39692337190463001 0 -0.21185692225583019 -0.41785197098083338 0 -0.221639448196707 -0.39589275970234111 0 -0.20315755491810619 -0.39692337190463001 0 -0.21077770697236481 -0.38139659757009342 0 -0.221639448196707 -0.39589275970234111 0 -0.19741662461353829 -0.38292485144060923 0 -0.20315755491810619 -0.39692337190463001 0 -0.21077770697236481 -0.38139659757009342 0 -0.2030124069786316 -0.43770559373650741 0 -0.18799686420377729 -0.41324566979186261 0 -0.21185692225583019 -0.41785197098083338 0 -0.2030124069786316 -0.43770559373650741 0 -0.17768692149640239 -0.43846214753236129 0 -0.18799686420377729 -0.41324566979186261 0 -0.18799686420377729 -0.41324566979186261 0 -0.21185692225583019 -0.41785197098083338 0 -0.20315755491810619 -0.39692337190463001 0 -0.18799686420377729 -0.41324566979186261 0 -0.21185692225583019 -0.41785197098083338 0 -0.21185692225583019 -0.41785197098083338 0 -0.221639448196707 -0.39589275970234111 0 -0.22288989310954821 -0.43929297992095367 0 -0.2030124069786316 -0.43770559373650741 0 -0.21185692225583019 -0.41785197098083338 0 -0.2030124069786316 -0.43770559373650741 0 -0.21185692225583019 -0.41785197098083338 0 -0.22288989310954821 -0.43929297992095367 0 -0.21185692225583019 -0.41785197098083338 0 -0.23398399929764499 -0.42212371168925178 0 -0.21185692225583019 -0.41785197098083338 0 -0.23398399929764499 -0.42212371168925178 0 -0.21185692225583019 -0.41785197098083338 0 -0.23398399929764499 -0.42212371168925178 0 -0.23555355501619241 -0.40527805062250549 0 -0.21185692225583019 -0.41785197098083338 0 -0.221639448196707 -0.39589275970234111 0 -0.23555355501619241 -0.40527805062250549 0 -0.25430814362330401 -0.40911952683226133 0 -0.23398399929764499 -0.42212371168925178 0 -0.23555355501619241 -0.40527805062250549 0 -0.25430814362330401 -0.40911952683226133 0 -0.25611107633945979 -0.42639545239766968 0 -0.23398399929764499 -0.42212371168925178 0 -0.25611107633945979 -0.42639545239766968 0 -0.23398399929764499 -0.42212371168925178 0 -0.25611107633945979 -0.42639545239766968 0 -0.24655895640252171 -0.44608312833632618 0 -0.23398399929764499 -0.42212371168925178 0 -0.24655895640252171 -0.44608312833632618 0 -0.22288989310954821 -0.43929297992095367 0 -0.23398399929764499 -0.42212371168925178 0 -0.221639448196707 -0.39589275970234111 0 -0.2314219741375855 -0.37393354842384963 0 -0.2260472628392127 -0.37165201945617943 0 -0.221639448196707 -0.39589275970234111 0 -0.23817577370313339 -0.39010086890843798 0 -0.2314219741375855 -0.37393354842384963 0 -0.221639448196707 -0.39589275970234111 0 -0.2314219741375855 -0.37393354842384963 0 -0.21077770697236481 -0.38139659757009342 0 -0.221639448196707 -0.39589275970234111 0 -0.2260472628392127 -0.37165201945617943 0 -0.221639448196707 -0.39589275970234111 0 -0.23555355501619241 -0.40527805062250549 0 -0.23817577370313339 -0.39010086890843798 0 -0.25120937307449159 -0.39573472274994997 0 -0.25430814362330401 -0.40911952683226133 0 -0.23555355501619241 -0.40527805062250549 0 -0.25120937307449159 -0.39573472274994997 0 -0.23555355501619241 -0.40527805062250549 0 -0.23817577370313339 -0.39010086890843798 0 -0.25449735385820349 -0.38372889264791998 0 -0.2314219741375855 -0.37393354842384963 0 -0.25120937307449159 -0.39573472274994997 0 -0.25449735385820349 -0.38372889264791998 0 -0.23817577370313339 -0.39010086890843798 0 -0.25449735385820349 -0.38372889264791998 0 -0.26087154130867102 -0.37528427971471501 0 -0.23215458505188391 -0.3722890285984814 0 -0.25449735385820349 -0.38372889264791998 0 -0.23215458505188391 -0.3722890285984814 0 -0.2314219741375855 -0.37393354842384963 0 -0.25449735385820349 -0.38372889264791998 0 -0.23817577370313339 -0.39010086890843798 0 -0.2314219741375855 -0.37393354842384963 0 -0.26087154130867102 -0.37528427971471501 0 -0.24729727552769459 -0.36636066369430792 0 -0.23215458505188391 -0.3722890285984814 0 -0.26087154130867102 -0.37528427971471501 0 -0.23215458505188391 -0.3722890285984814 0 -0.25026491295981063 -0.3591533028701196 0 -0.24729727552769459 -0.36636066369430792 0 -0.23875760001691329 -0.35746698758693979 0 -0.24729727552769459 -0.36636066369430792 0 -0.23215458505188391 -0.3722890285984814 0 -0.23875760001691329 -0.35746698758693979 0 -0.23215458505188391 -0.3722890285984814 0 -0.23875760001691329 -0.35746698758693979 0 -0.23215458505188391 -0.3722890285984814 0 -0.23009002731834971 -0.36248750000429603 0 -0.2260472628392127 -0.37165201945617943 0 -0.23215458505188391 -0.3722890285984814 0 -0.2314219741375855 -0.37393354842384963 0 -0.2314219741375855 -0.37393354842384963 0 -0.2260472628392127 -0.37165201945617943 0 -0.23215458505188391 -0.3722890285984814 0 -0.2260472628392127 -0.37165201945617943 0 -0.23215458505188391 -0.3722890285984814 0 -0.2314219741375855 -0.37393354842384963 0 -0.2260472628392127 -0.37165201945617943 0 -0.23215458505188391 -0.3722890285984814 0 -0.23009002731834971 -0.36248750000429603 0 -0.23875760001691329 -0.35746698758693979 0 -0.23009002731834971 -0.36248750000429603 0 -0.22189652138608959 -0.36194330225738081 0 -0.2260472628392127 -0.37165201945617943 0 -0.22189652138608959 -0.36194330225738081 0 -0.2260472628392127 -0.37165201945617943 0 -0.21118747086081091 -0.36534413723327269 0 -0.2272958312366698 -0.35308790848971527 0 -0.23875760001691329 -0.35746698758693979 0 -0.2334221158110274 -0.34044489689627988 0 -0.22052129445612181 -0.3452729178084033 0 -0.2272958312366698 -0.35308790848971527 0 -0.21590494073851299 -0.3542932969088054 0 -0.22189652138608959 -0.36194330225738081 0 -0.2272958312366698 -0.35308790848971527 0 -0.21590494073851299 -0.3542932969088054 0 -0.23009002731834971 -0.36248750000429603 0 -0.22189652138608959 -0.36194330225738081 0 -0.2272958312366698 -0.35308790848971527 0 -0.23009002731834971 -0.36248750000429603 0 -0.2272958312366698 -0.35308790848971527 0 -0.23875760001691329 -0.35746698758693979 0 -0.22052129445612181 -0.3452729178084033 0 -0.2272958312366698 -0.35308790848971527 0 -0.2334221158110274 -0.34044489689627988 0 -0.23875760001691329 -0.35746698758693979 0 -0.24892009194236051 -0.34920057363171508 0 -0.2334221158110274 -0.34044489689627988 0 -0.25026491295981063 -0.3591533028701196 0 -0.23875760001691329 -0.35746698758693979 0 -0.24892009194236051 -0.34920057363171508 0 -0.2478142613430229 -0.33633621555486087 0 -0.24142044924060299 -0.32458422323193992 0 -0.2334221158110274 -0.34044489689627988 0 -0.24892009194236051 -0.34920057363171508 0 -0.2478142613430229 -0.33633621555486087 0 -0.2334221158110274 -0.34044489689627988 0 -0.25338362554719701 -0.31167564713320761 0 -0.24142044924060299 -0.32458422323193992 0 -0.2261380777788706 -0.3120714055725069 0 -0.24142044924060299 -0.32458422323193992 0 -0.2264325986603935 -0.32691366561395158 0 -0.2261380777788706 -0.3120714055725069 0 -0.2264325986603935 -0.32691366561395158 0 -0.2174091742914942 -0.33434505632747652 0 -0.2157723417121577 -0.32302212128029162 0 -0.2264325986603935 -0.32691366561395158 0 -0.2157723417121577 -0.32302212128029162 0 -0.2261380777788706 -0.3120714055725069 0 -0.2264325986603935 -0.32691366561395158 0 -0.2261380777788706 -0.3120714055725069 0 -0.2264325986603935 -0.32691366561395158 0 -0.2334221158110274 -0.34044489689627988 0 -0.2174091742914942 -0.33434505632747652 0 -0.24142044924060299 -0.32458422323193992 0 -0.2264325986603935 -0.32691366561395158 0 -0.2334221158110274 -0.34044489689627988 0 -0.22052129445612181 -0.3452729178084033 0 -0.2334221158110274 -0.34044489689627988 0 -0.2174091742914942 -0.33434505632747652 0 -0.22052129445612181 -0.3452729178084033 0 -0.2174091742914942 -0.33434505632747652 0 -0.20786751273301221 -0.34476109497790802 0 -0.2174091742914942 -0.33434505632747652 0 -0.2055306299046975 -0.32937808022171239 0 -0.2157723417121577 -0.32302212128029162 0 -0.2174091742914942 -0.33434505632747652 0 -0.2055306299046975 -0.32937808022171239 0 -0.20786751273301221 -0.34476109497790802 0 -0.2055306299046975 -0.32937808022171239 0 -0.19762893861058581 -0.33649284913727318 0 -0.20786751273301221 -0.34476109497790802 0 -0.2055306299046975 -0.32937808022171239 0 -0.2157723417121577 -0.32302212128029162 0 -0.20335122792533269 -0.31240239866581038 0 -0.2157723417121577 -0.32302212128029162 0 -0.2261380777788706 -0.3120714055725069 0 -0.20335122792533269 -0.31240239866581038 0 -0.20335122792533269 -0.31240239866581038 0 -0.18056437807179471 -0.31273339175911608 0 -0.2055306299046975 -0.32937808022171239 0 -0.19210987536820581 -0.32303714766519631 0 -0.20335122792533269 -0.31240239866581038 0 -0.19210987536820581 -0.32303714766519631 0 -0.20335122792533269 -0.31240239866581038 0 -0.18056437807179471 -0.31273339175911608 0 -0.19762893861058581 -0.33649284913727318 0 -0.19795442871519339 -0.34867520074893321 0 -0.20786751273301221 -0.34476109497790802 0 -0.2055306299046975 -0.32937808022171239 0 -0.19210987536820581 -0.32303714766519631 0 -0.19762893861058581 -0.33649284913727318 0 -0.19210987536820581 -0.32303714766519631 0 -0.19762893861058581 -0.33649284913727318 0 -0.18468224633181979 -0.33661272207261611 0 -0.19795442871519339 -0.34867520074893321 0 -0.18468224633181979 -0.33661272207261611 0 -0.19762893861058581 -0.33649284913727318 0 -0.19795442871519339 -0.34867520074893321 0 -0.18468224633181979 -0.33661272207261611 0 -0.19795442871519339 -0.34867520074893321 0 -0.18350175373784311 -0.35053542487413641 0 -0.18468224633181979 -0.33661272207261611 0 -0.19795442871519339 -0.34867520074893321 0 -0.19632767888240929 -0.35903625501036529 0 -0.20666101375837409 -0.35535042068615241 0 -0.19795442871519339 -0.34867520074893321 0 -0.19632767888240929 -0.35903625501036529 0 -0.18350175373784311 -0.35053542487413641 0 -0.19632767888240929 -0.35903625501036529 0 -0.19784770285517531 -0.36871073407885041 0 -0.16964814287113791 -0.36576944870152212 0 -0.19632767888240929 -0.35903625501036529 0 -0.19784770285517531 -0.36871073407885041 0 -0.21118747086081091 -0.36534413723327269 0 -0.19632767888240929 -0.35903625501036529 0 -0.21118747086081091 -0.36534413723327269 0 -0.20666101375837409 -0.35535042068615241 0 -0.2260472628392127 -0.37165201945617943 0 -0.19784770285517531 -0.36871073407885041 0 -0.2260472628392127 -0.37165201945617943 0 -0.19784770285517531 -0.36871073407885041 0 -0.21118747086081091 -0.36534413723327269 0 -0.21077770697236481 -0.38139659757009342 0 -0.2260472628392127 -0.37165201945617943 0 -0.19784770285517531 -0.36871073407885041 0 -0.19632767888240929 -0.35903625501036529 0 -0.21118747086081091 -0.36534413723327269 0 -0.2260472628392127 -0.37165201945617943 0 -0.21118747086081091 -0.36534413723327269 0 -0.22189652138608959 -0.36194330225738081 0 -0.21118747086081091 -0.36534413723327269 0 -0.21590494073851299 -0.3542932969088054 0 -0.21118747086081091 -0.36534413723327269 0 -0.21590494073851299 -0.3542932969088054 0 -0.20666101375837409 -0.35535042068615241 0 -0.22052129445612181 -0.3452729178084033 0 -0.21590494073851299 -0.3542932969088054 0 -0.20786751273301221 -0.34476109497790802 0 -0.19795442871519339 -0.34867520074893321 0 -0.20786751273301221 -0.34476109497790802 0 -0.20666101375837409 -0.35535042068615241 0 -0.21590494073851299 -0.3542932969088054 0 -0.20786751273301221 -0.34476109497790802 0 -0.20666101375837409 -0.35535042068615241 0 -0.24130044097179529 -0.25564058872725781 0 -0.22536421211644339 -0.27307276024919092 0 -0.22495585243800931 -0.25249364033624638 0 -0.22536421211644339 -0.27307276024919092 0 -0.2168984341667701 -0.26134027676316163 0 -0.22495585243800931 -0.25249364033624638 0 -0.22536421211644339 -0.27307276024919092 0 -0.22495585243800931 -0.25249364033624638 0 -0.24130044097179529 -0.25564058872725781 0 -0.22536421211644339 -0.27307276024919092 0 -0.2524625491404241 -0.26148940870638571 0 -0.24130044097179529 -0.25564058872725781 0 -0.2416761748935608 -0.27135090492890168 0 -0.24130044097179529 -0.25564058872725781 0 -0.2416761748935608 -0.27135090492890168 0 -0.22536421211644339 -0.27307276024919092 0 -0.2416761748935608 -0.27135090492890168 0 -0.22536421211644339 -0.27307276024919092 0 -0.23654277635611731 -0.28330444759124268 0 -0.25360365773395499 -0.27985881362419779 0 -0.2524625491404241 -0.26148940870638571 0 -0.2416761748935608 -0.27135090492890168 0 -0.25360365773395499 -0.27985881362419779 0 -0.2416761748935608 -0.27135090492890168 0 -0.23654277635611731 -0.28330444759124268 0 -0.22536421211644339 -0.27307276024919092 0 -0.21468482669385339 -0.27093265799678151 0 -0.2168984341667701 -0.26134027676316163 0 -0.22536421211644339 -0.27307276024919092 0 -0.21765267980075531 -0.28150817839260389 0 -0.22536421211644339 -0.27307276024919092 0 -0.21765267980075531 -0.28150817839260389 0 -0.21468482669385339 -0.27093265799678151 0 -0.22536421211644339 -0.27307276024919092 0 -0.22575114494765611 -0.29257208291084891 0 -0.23654277635611731 -0.28330444759124268 0 -0.22536421211644339 -0.27307276024919092 0 -0.22575114494765611 -0.29257208291084891 0 -0.22536421211644339 -0.27307276024919092 0 -0.22575114494765611 -0.29257208291084891 0 -0.21765267980075531 -0.28150817839260389 0 -0.22575114494765611 -0.29257208291084891 0 -0.21575516930932381 -0.29106612113637281 0 -0.21765267980075531 -0.28150817839260389 0 -0.22575114494765611 -0.29257208291084891 0 -0.2153147881826305 -0.30091529405850659 0 -0.21575516930932381 -0.29106612113637281 0 -0.22575114494765611 -0.29257208291084891 0 -0.23654277635611731 -0.28330444759124268 0 -0.2434535477117922 -0.29604589628799077 0 -0.25360365773395499 -0.27985881362419779 0 -0.23654277635611731 -0.28330444759124268 0 -0.2434535477117922 -0.29604589628799077 0 -0.25338362554719701 -0.31167564713320761 0 -0.2434535477117922 -0.29604589628799077 0 -0.2261380777788706 -0.3120714055725069 0 -0.25338362554719701 -0.31167564713320761 0 -0.2261380777788706 -0.3120714055725069 0 -0.22575114494765611 -0.29257208291084891 0 -0.2434535477117922 -0.29604589628799077 0 -0.2261380777788706 -0.3120714055725069 0 -0.22575114494765611 -0.29257208291084891 0 -0.2261380777788706 -0.3120714055725069 0 -0.22575114494765611 -0.29257208291084891 0 -0.2261380777788706 -0.3120714055725069 0 -0.2153147881826305 -0.30091529405850659 0 -0.2261380777788706 -0.3120714055725069 0 -0.20335122792533269 -0.31240239866581038 0 -0.2153147881826305 -0.30091529405850659 0 -0.2261380777788706 -0.3120714055725069 0 -0.20335122792533269 -0.31240239866581038 0 -0.20335122792533269 -0.31240239866581038 0 -0.2153147881826305 -0.30091529405850659 0 -0.20475317708372409 -0.29674158675242968 0 -0.20335122792533269 -0.31240239866581038 0 -0.19567690993347181 -0.30524871152301902 0 -0.20475317708372409 -0.29674158675242968 0 -0.20335122792533269 -0.31240239866581038 0 -0.19567690993347181 -0.30524871152301902 0 -0.18056437807179471 -0.31273339175911608 0 -0.19567690993347181 -0.30524871152301902 0 -0.18648732952796851 -0.30508774647442638 0 -0.18056437807179471 -0.31273339175911608 0 -0.19567690993347181 -0.30524871152301902 0 -0.19361541523649159 -0.29658224819161949 0 -0.18648732952796851 -0.30508774647442638 0 -0.19361541523649159 -0.29658224819161949 0 -0.18269415154630281 -0.29269486040466852 0 -0.18648732952796851 -0.30508774647442638 0 -0.19567690993347181 -0.30524871152301902 0 -0.19361541523649159 -0.29658224819161949 0 -0.20475317708372409 -0.29674158675242968 0 -0.1959405138748733 -0.28464479075428423 0 -0.20810880200075549 -0.28600999134767102 0 -0.20475317708372409 -0.29674158675242968 0 -0.19361541523649159 -0.29658224819161949 0 -0.1959405138748733 -0.28464479075428423 0 -0.20475317708372409 -0.29674158675242968 0 -0.19361541523649159 -0.29658224819161949 0 -0.1959405138748733 -0.28464479075428423 0 -0.18269415154630281 -0.29269486040466852 0 -0.20810880200075549 -0.28600999134767102 0 -0.21765267980075531 -0.28150817839260389 0 -0.20561732606685579 -0.2763664044480999 0 -0.1959405138748733 -0.28464479075428423 0 -0.20810880200075549 -0.28600999134767102 0 -0.20561732606685579 -0.2763664044480999 0 -0.20810880200075549 -0.28600999134767102 0 -0.20475317708372409 -0.29674158675242968 0 -0.21575516930932381 -0.29106612113637281 0 -0.2153147881826305 -0.30091529405850659 0 -0.20475317708372409 -0.29674158675242968 0 -0.21575516930932381 -0.29106612113637281 0 -0.20810880200075549 -0.28600999134767102 0 -0.21575516930932381 -0.29106612113637281 0 -0.21765267980075531 -0.28150817839260389 0 -0.21765267980075531 -0.28150817839260389 0 -0.21468482669385339 -0.27093265799678151 0 -0.20561732606685579 -0.2763664044480999 0 -0.21468482669385339 -0.27093265799678151 0 -0.20561732606685579 -0.2763664044480999 0 -0.20673933226126451 -0.26185429963573698 0 -0.1959405138748733 -0.28464479075428423 0 -0.19497574585899591 -0.2683619248040946 0 -0.18130108778456661 -0.28008820365302611 0 -0.1959405138748733 -0.28464479075428423 0 -0.20561732606685579 -0.2763664044480999 0 -0.19497574585899591 -0.2683619248040946 0 -0.20561732606685579 -0.2763664044480999 0 -0.19497574585899591 -0.2683619248040946 0 -0.20673933226126451 -0.26185429963573698 0 -0.19497574585899591 -0.2683619248040946 0 -0.20673933226126451 -0.26185429963573698 0 -0.19816737708826421 -0.24332479085234021 0 -0.19497574585899591 -0.2683619248040946 0 -0.18208883807815079 -0.26389305948108049 0 -0.19816737708826421 -0.24332479085234021 0 -0.18208883807815079 -0.26389305948108049 0 -0.19816737708826421 -0.24332479085234021 0 -0.20673933226126451 -0.26185429963573698 0 -0.21274794732428029 -0.24834802559785249 0 -0.19816737708826421 -0.24332479085234021 0 -0.21468482669385339 -0.27093265799678151 0 -0.20673933226126451 -0.26185429963573698 0 -0.2168984341667701 -0.26134027676316163 0 -0.22495585243800931 -0.25249364033624638 0 -0.2168984341667701 -0.26134027676316163 0 -0.21274794732428029 -0.24834802559785249 0 -0.20673933226126451 -0.26185429963573698 0 -0.2168984341667701 -0.26134027676316163 0 -0.21274794732428029 -0.24834802559785249 0 -0.16930196674816639 -0.25208280460960758 0 -0.16613823227874569 -0.27011249995767478 0 -0.1788834735570495 -0.2492280067697098 0 -0.15732989424637961 -0.25741631051579289 0 -0.16930196674816639 -0.25208280460960758 0 -0.16040631888775031 -0.27012053781948098 0 -0.16930196674816639 -0.25208280460960758 0 -0.16613823227874569 -0.27011249995767478 0 -0.16040631888775031 -0.27012053781948098 0 -0.16930196674816639 -0.25208280460960758 0 -0.16040631888775031 -0.27012053781948098 0 -0.15732989424637961 -0.25741631051579289 0 -0.16930196674816639 -0.25208280460960758 0 -0.16050787258751101 -0.24526753645713731 0 -0.18208883807815079 -0.26389305948108049 0 -0.1788834735570495 -0.2492280067697098 0 -0.19816737708826421 -0.24332479085234021 0 -0.18208883807815079 -0.26389305948108049 0 -0.16613823227874569 -0.27011249995767478 0 -0.1788834735570495 -0.2492280067697098 0 -0.16613823227874569 -0.27011249995767478 0 -0.1788834735570495 -0.2492280067697098 0 -0.19497574585899591 -0.2683619248040946 0 -0.18208883807815079 -0.26389305948108049 0 -0.18130108778456661 -0.28008820365302611 0 -0.18208883807815079 -0.26389305948108049 0 -0.1660102990680373 -0.28446132810982111 0 -0.18208883807815079 -0.26389305948108049 0 -0.18130108778456661 -0.28008820365302611 0 -0.1660102990680373 -0.28446132810982111 0 -0.18208883807815079 -0.26389305948108049 0 -0.16613823227874569 -0.27011249995767478 0 -0.1660102990680373 -0.28446132810982111 0 -0.16613823227874569 -0.27011249995767478 0 -0.16040631888775031 -0.27012053781948098 0 -0.1660102990680373 -0.28446132810982111 0 -0.16040631888775031 -0.27012053781948098 0 -0.15292286249425741 -0.28552334458930639 0 -0.16040631888775031 -0.27012053781948098 0 -0.1660102990680373 -0.28446132810982111 0 -0.15292286249425741 -0.28552334458930639 0 -0.1660102990680373 -0.28446132810982111 0 -0.14993176005792411 -0.30502959673856178 0 -0.15292286249425741 -0.28552334458930639 0 -0.16397604875809271 -0.29633403910475692 0 -0.1660102990680373 -0.28446132810982111 0 -0.14993176005792411 -0.30502959673856178 0 -0.1660102990680373 -0.28446132810982111 0 -0.14993176005792411 -0.30502959673856178 0 -0.16397604875809271 -0.29633403910475692 0 -0.1660102990680373 -0.28446132810982111 0 -0.17312999634793991 -0.29041644091361352 0 -0.16397604875809271 -0.29633403910475692 0 -0.17312999634793991 -0.29041644091361352 0 -0.1697196881073548 -0.29919091242670959 0 -0.18130108778456661 -0.28008820365302611 0 -0.18269415154630281 -0.29269486040466852 0 -0.17312999634793991 -0.29041644091361352 0 -0.18130108778456661 -0.28008820365302611 0 -0.1660102990680373 -0.28446132810982111 0 -0.17312999634793991 -0.29041644091361352 0 -0.1959405138748733 -0.28464479075428423 0 -0.18130108778456661 -0.28008820365302611 0 -0.18269415154630281 -0.29269486040466852 0 -0.18269415154630281 -0.29269486040466852 0 -0.17312999634793991 -0.29041644091361352 0 -0.1697196881073548 -0.29919091242670959 0 -0.18269415154630281 -0.29269486040466852 0 -0.17564444540554969 -0.30455141462702828 0 -0.1697196881073548 -0.29919091242670959 0 -0.18269415154630281 -0.29269486040466852 0 -0.17564444540554969 -0.30455141462702828 0 -0.18648732952796851 -0.30508774647442638 0 -0.17564444540554969 -0.30455141462702828 0 -0.18648732952796851 -0.30508774647442638 0 -0.18056437807179471 -0.31273339175911608 0 -0.18648732952796851 -0.30508774647442638 0 -0.18056437807179471 -0.31273339175911608 0 -0.17564444540554969 -0.30455141462702828 0 -0.1697196881073548 -0.29919091242670959 0 -0.15875667977432731 -0.31305016207021658 0 -0.17564444540554969 -0.30455141462702828 0 -0.18056437807179471 -0.31273339175911608 0 -0.15875667977432731 -0.31305016207021658 0 -0.16397604875809271 -0.29633403910475692 0 -0.1697196881073548 -0.29919091242670959 0 -0.16068251969351061 -0.30271507132068581 0 -0.16397604875809271 -0.29633403910475692 0 -0.16068251969351061 -0.30271507132068581 0 -0.14993176005792411 -0.30502959673856178 0 -0.1697196881073548 -0.29919091242670959 0 -0.16068251969351061 -0.30271507132068581 0 -0.15875667977432731 -0.31305016207021658 0 -0.16068251969351061 -0.30271507132068581 0 -0.14993176005792411 -0.30502959673856178 0 -0.15875667977432731 -0.31305016207021658 0 -0.14993176005792411 -0.30502959673856178 0 -0.14539036585597279 -0.30090213155315482 0 -0.15292286249425741 -0.28552334458930639 0 -0.14993176005792411 -0.30502959673856178 0 -0.15875667977432731 -0.31305016207021658 0 -0.14348859032101341 -0.31327194051654661 0 -0.14993176005792411 -0.30502959673856178 0 -0.15875667977432731 -0.31305016207021658 0 -0.14539036585597279 -0.30090213155315482 0 -0.14340177704526319 -0.29909479426435709 0 -0.13930187325613569 -0.31333275517240677 0 -0.14993176005792411 -0.30502959673856178 0 -0.14539036585597279 -0.30090213155315482 0 -0.14539036585597279 -0.30090213155315482 0 -0.14340177704526319 -0.29909479426435709 0 -0.14993176005792411 -0.30502959673856178 0 -0.14348859032101341 -0.31327194051654661 0 -0.14993176005792411 -0.30502959673856178 0 -0.14539036585597279 -0.30090213155315482 0 -0.14348859032101341 -0.31327194051654661 0 -0.14539036585597279 -0.30090213155315482 0 -0.14348859032101341 -0.31327194051654661 0 -0.13930187325613569 -0.31333275517240677 0 -0.14539036585597279 -0.30090213155315482 0 -0.13930187325613569 -0.31333275517240677 0 -0.14340177704526319 -0.29909479426435709 0 -0.13500914363655589 -0.31339510972621809 0 -0.13930187325613569 -0.31333275517240677 0 -0.14340177704526319 -0.29909479426435709 0 -0.13500914363655589 -0.31339510972621809 0 -0.14340177704526319 -0.29909479426435709 0 -0.13359691879421179 -0.30628179769647929 0 -0.13500914363655589 -0.31339510972621809 0 -0.13359691879421179 -0.30628179769647929 0 -0.13500914363655589 -0.31339510972621809 0 -0.13181940247648161 -0.31344144269019902 0 -0.13359691879421179 -0.30628179769647929 0 -0.1285367533768986 -0.30925998762068679 0 -0.13181940247648161 -0.31344144269019902 0 -0.13359691879421179 -0.30628179769647929 0 -0.1285367533768986 -0.30925998762068679 0 -0.12806223591387 -0.30264482312176189 0 -0.1285367533768986 -0.30925998762068679 0 -0.12806223591387 -0.30264482312176189 0 -0.1233218650564137 -0.30959565741799261 0 -0.1285367533768986 -0.30925998762068679 0 -0.12427237808688971 -0.31613607221539308 0 -0.1233218650564137 -0.30959565741799261 0 -0.12806223591387 -0.30264482312176189 0 -0.13498695156104731 -0.29932406808048079 0 -0.13116901690637869 -0.29450876044175961 0 -0.12806223591387 -0.30264482312176189 0 -0.13116901690637869 -0.29450876044175961 0 -0.1235437429290084 -0.29547536832135329 0 -0.13359691879421179 -0.30628179769647929 0 -0.12806223591387 -0.30264482312176189 0 -0.13498695156104731 -0.29932406808048079 0 -0.14340177704526319 -0.29909479426435709 0 -0.13359691879421179 -0.30628179769647929 0 -0.13498695156104731 -0.29932406808048079 0 -0.14340177704526319 -0.29909479426435709 0 -0.13498695156104731 -0.29932406808048079 0 -0.13812225437746589 -0.2942964779240686 0 -0.13812225437746589 -0.2942964779240686 0 -0.1349431533500374 -0.28749729490881037 0 -0.14204901995842409 -0.28774078963451472 0 -0.13812225437746589 -0.2942964779240686 0 -0.13116901690637869 -0.29450876044175961 0 -0.1349431533500374 -0.28749729490881037 0 -0.13498695156104731 -0.29932406808048079 0 -0.13812225437746589 -0.2942964779240686 0 -0.13116901690637869 -0.29450876044175961 0 -0.13116901690637869 -0.29450876044175961 0 -0.12740540384098351 -0.2871823888050643 0 -0.1235437429290084 -0.29547536832135329 0 -0.13116901690637869 -0.29450876044175961 0 -0.12740540384098351 -0.2871823888050643 0 -0.1349431533500374 -0.28749729490881037 0 -0.12740540384098351 -0.2871823888050643 0 -0.13106247381214839 -0.28120797859879088 0 -0.12445474201649299 -0.27837977644627282 0 -0.12740540384098351 -0.2871823888050643 0 -0.1349431533500374 -0.28749729490881037 0 -0.13106247381214839 -0.28120797859879088 0 -0.1349431533500374 -0.28749729490881037 0 -0.13829334519471381 -0.28061092781721109 0 -0.13106247381214839 -0.28120797859879088 0 -0.1349431533500374 -0.28749729490881037 0 -0.14204901995842409 -0.28774078963451472 0 -0.13829334519471381 -0.28061092781721109 0 -0.14204901995842409 -0.28774078963451472 0 -0.15292286249425741 -0.28552334458930639 0 -0.1455416699255247 -0.28010690325474957 0 -0.14204901995842409 -0.28774078963451472 0 -0.1455416699255247 -0.28010690325474957 0 -0.13829334519471381 -0.28061092781721109 0 -0.14340177704526319 -0.29909479426435709 0 -0.14204901995842409 -0.28774078963451472 0 -0.15292286249425741 -0.28552334458930639 0 -0.14340177704526319 -0.29909479426435709 0 -0.13812225437746589 -0.2942964779240686 0 -0.14204901995842409 -0.28774078963451472 0 -0.14539036585597279 -0.30090213155315482 0 -0.14340177704526319 -0.29909479426435709 0 -0.15292286249425741 -0.28552334458930639 0 -0.14340177704526319 -0.29909479426435709 0 -0.15292286249425741 -0.28552334458930639 0 -0.14340177704526319 -0.29909479426435709 0 -0.13812225437746589 -0.2942964779240686 0 -0.14539036585597279 -0.30090213155315482 0 -0.15292286249425741 -0.28552334458930639 0 -0.15292286249425741 -0.28552334458930639 0 -0.1500854059211594 -0.27484023072700448 0 -0.1455416699255247 -0.28010690325474957 0 -0.16040631888775031 -0.27012053781948098 0 -0.15292286249425741 -0.28552334458930639 0 -0.1500854059211594 -0.27484023072700448 0 -0.16040631888775031 -0.27012053781948098 0 -0.1500854059211594 -0.27484023072700448 0 -0.14912045287247369 -0.26618002498548821 0 -0.14912045287247369 -0.26618002498548821 0 -0.14340549970874911 -0.27316200172740751 0 -0.13712288968441599 -0.26668608479075551 0 -0.1500854059211594 -0.27484023072700448 0 -0.14912045287247369 -0.26618002498548821 0 -0.14340549970874911 -0.27316200172740751 0 -0.1500854059211594 -0.27484023072700448 0 -0.14340549970874911 -0.27316200172740751 0 -0.1455416699255247 -0.28010690325474957 0 -0.14340549970874911 -0.27316200172740751 0 -0.1455416699255247 -0.28010690325474957 0 -0.13829334519471381 -0.28061092781721109 0 -0.14340549970874911 -0.27316200172740751 0 -0.13829334519471381 -0.28061092781721109 0 -0.13208915290303441 -0.27418856690167742 0 -0.13829334519471381 -0.28061092781721109 0 -0.13106247381214839 -0.28120797859879088 0 -0.13208915290303441 -0.27418856690167742 0 -0.13106247381214839 -0.28120797859879088 0 -0.13208915290303441 -0.27418856690167742 0 -0.12445474201649299 -0.27837977644627282 0 -0.13208915290303441 -0.27418856690167742 0 -0.1257252129849713 -0.26760651690292381 0 -0.13712288968441599 -0.26668608479075551 0 -0.13208915290303441 -0.27418856690167742 0 -0.1257252129849713 -0.26760651690292381 0 -0.12445474201649299 -0.27837977644627282 0 -0.14340549970874911 -0.27316200172740751 0 -0.13208915290303441 -0.27418856690167742 0 -0.13712288968441599 -0.26668608479075551 0 -0.13712288968441599 -0.26668608479075551 0 -0.13398995876330039 -0.25751920465692651 0 -0.14318294807515911 -0.26018553671137279 0 -0.1257252129849713 -0.26760651690292381 0 -0.13712288968441599 -0.26668608479075551 0 -0.13398995876330039 -0.25751920465692651 0 -0.1257252129849713 -0.26760651690292381 0 -0.13398995876330039 -0.25751920465692651 0 -0.1223083114857455 -0.25613110687167828 0 -0.13398995876330039 -0.25751920465692651 0 -0.1223083114857455 -0.25613110687167828 0 -0.13178625741313191 -0.24563913469824819 0 -0.13398995876330039 -0.25751920465692651 0 -0.14555956547881591 -0.25165122890814712 0 -0.13178625741313191 -0.24563913469824819 0 -0.14555956547881591 -0.25165122890814712 0 -0.14318294807515911 -0.26018553671137279 0 -0.14917640328494489 -0.25886766526172778 0 -0.13398995876330039 -0.25751920465692651 0 -0.14555956547881591 -0.25165122890814712 0 -0.14318294807515911 -0.26018553671137279 0 -0.14912045287247369 -0.26618002498548821 0 -0.13712288968441599 -0.26668608479075551 0 -0.14318294807515911 -0.26018553671137279 0 -0.14912045287247369 -0.26618002498548821 0 -0.14318294807515911 -0.26018553671137279 0 -0.14917640328494489 -0.25886766526172778 0 -0.15732989424637961 -0.25741631051579289 0 -0.14912045287247369 -0.26618002498548821 0 -0.14917640328494489 -0.25886766526172778 0 -0.15732989424637961 -0.25741631051579289 0 -0.16040631888775031 -0.27012053781948098 0 -0.14912045287247369 -0.26618002498548821 0 -0.15732989424637961 -0.25741631051579289 0 -0.14555956547881591 -0.25165122890814712 0 -0.14917640328494489 -0.25886766526172778 0 -0.15732989424637961 -0.25741631051579289 0 -0.14555956547881591 -0.25165122890814712 0 -0.15114094217610249 -0.24408778668063341 0 -0.1714356629012159 -0.34441864277437773 0 -0.16964814287113791 -0.36576944870152212 0 -0.15301488964195609 -0.34829566470157958 0 -0.1542241429844993 -0.37603136075650478 0 -0.16964814287113791 -0.36576944870152212 0 -0.15301488964195609 -0.34829566470157958 0 -0.1846014351435715 -0.37967625263478461 0 -0.19784770285517531 -0.36871073407885041 0 -0.16964814287113791 -0.36576944870152212 0 -0.19784770285517531 -0.36871073407885041 0 -0.16964814287113791 -0.36576944870152212 0 -0.19632767888240929 -0.35903625501036529 0 -0.16964814287113791 -0.36576944870152212 0 -0.18350175373784311 -0.35053542487413641 0 -0.1714356629012159 -0.34441864277437773 0 -0.16964814287113791 -0.36576944870152212 0 -0.18350175373784311 -0.35053542487413641 0 -0.1714356629012159 -0.34441864277437773 0 -0.18350175373784311 -0.35053542487413641 0 -0.18468224633181979 -0.33661272207261611 0 -0.1714356629012159 -0.34441864277437773 0 -0.18468224633181979 -0.33661272207261611 0 -0.1714100639484453 -0.32455024339630001 0 -0.18468224633181979 -0.33661272207261611 0 -0.1821916409300664 -0.3242333762233065 0 -0.1714100639484453 -0.32455024339630001 0 -0.18468224633181979 -0.33661272207261611 0 -0.1714100639484453 -0.32455024339630001 0 -0.19210987536820581 -0.32303714766519631 0 -0.18056437807179471 -0.31273339175911608 0 -0.1821916409300664 -0.3242333762233065 0 -0.19210987536820581 -0.32303714766519631 0 -0.18468224633181979 -0.33661272207261611 0 -0.1821916409300664 -0.3242333762233065 0 -0.18056437807179471 -0.31273339175911608 0 -0.1821916409300664 -0.3242333762233065 0 -0.1714100639484453 -0.32455024339630001 0 -0.18056437807179471 -0.31273339175911608 0 -0.1714100639484453 -0.32455024339630001 0 -0.18056437807179471 -0.31273339175911608 0 -0.1714100639484453 -0.32455024339630001 0 -0.15875667977432731 -0.31305016207021658 0 -0.1714100639484453 -0.32455024339630001 0 -0.15639659891449531 -0.32190480275141992 0 -0.1495873622944752 -0.33068777488062701 0 -0.18056437807179471 -0.31273339175911608 0 -0.15875667977432731 -0.31305016207021658 0 -0.1714100639484453 -0.32455024339630001 0 -0.15875667977432731 -0.31305016207021658 0 -0.1714100639484453 -0.32455024339630001 0 -0.15639659891449531 -0.32190480275141992 0 -0.15875667977432731 -0.31305016207021658 0 -0.1714100639484453 -0.32455024339630001 0 -0.15301488964195609 -0.34829566470157958 0 -0.1714356629012159 -0.34441864277437773 0 -0.1714100639484453 -0.32455024339630001 0 -0.15301488964195609 -0.34829566470157958 0 -0.1714100639484453 -0.32455024339630001 0 -0.1495873622944752 -0.33068777488062701 0 -0.15301488964195609 -0.34829566470157958 0 -0.1495873622944752 -0.33068777488062701 0 -0.1414820502422936 -0.33827262098342847 0 -0.15301488964195609 -0.34829566470157958 0 -0.1495873622944752 -0.33068777488062701 0 -0.1414820502422936 -0.33827262098342847 0 -0.1406042898571212 -0.32483246826164308 0 -0.15875667977432731 -0.31305016207021658 0 -0.14583228964073319 -0.3193310306585298 0 -0.14348859032101341 -0.31327194051654661 0 -0.15639659891449531 -0.32190480275141992 0 -0.15875667977432731 -0.31305016207021658 0 -0.14583228964073319 -0.3193310306585298 0 -0.15875667977432731 -0.31305016207021658 0 -0.14348859032101341 -0.31327194051654661 0 -0.15639659891449531 -0.32190480275141992 0 -0.1495873622944752 -0.33068777488062701 0 -0.14583228964073319 -0.3193310306585298 0 -0.1495873622944752 -0.33068777488062701 0 -0.14583228964073319 -0.3193310306585298 0 -0.1406042898571212 -0.32483246826164308 0 -0.14583228964073319 -0.3193310306585298 0 -0.14031930510148971 -0.31970199461217269 0 -0.1406042898571212 -0.32483246826164308 0 -0.14583228964073319 -0.3193310306585298 0 -0.14083548028412171 -0.31675158108975898 0 -0.14348859032101341 -0.31327194051654661 0 -0.14583228964073319 -0.3193310306585298 0 -0.14083548028412171 -0.31675158108975898 0 -0.14031930510148971 -0.31970199461217269 0 -0.14348859032101341 -0.31327194051654661 0 -0.13930187325613569 -0.31333275517240677 0 -0.14083548028412171 -0.31675158108975898 0 -0.14348859032101341 -0.31327194051654661 0 -0.13903843234274091 -0.31620812000857151 0 -0.13717952136363901 -0.31766587328508861 0 -0.12814290376288481 -0.33611556183183322 0 -0.13717952136363901 -0.31766587328508861 0 -0.1406042898571212 -0.32483246826164308 0 -0.12814290376288481 -0.33611556183183322 0 -0.13717952136363901 -0.31766587328508861 0 -0.1293215764797383 -0.3230862281859419 0 -0.12814290376288481 -0.33611556183183322 0 -0.13500914363655589 -0.31339510972621809 0 -0.13717952136363901 -0.31766587328508861 0 -0.1293215764797383 -0.3230862281859419 0 -0.13500914363655589 -0.31339510972621809 0 -0.13181940247648161 -0.31344144269019902 0 -0.13930187325613569 -0.31333275517240677 0 -0.13903843234274091 -0.31620812000857151 0 -0.13717952136363901 -0.31766587328508861 0 -0.13930187325613569 -0.31333275517240677 0 -0.13717952136363901 -0.31766587328508861 0 -0.14348859032101341 -0.31327194051654661 0 -0.13930187325613569 -0.31333275517240677 0 -0.13903843234274091 -0.31620812000857151 0 -0.13500914363655589 -0.31339510972621809 0 -0.13930187325613569 -0.31333275517240677 0 -0.13500914363655589 -0.31339510972621809 0 -0.13930187325613569 -0.31333275517240677 0 -0.13717952136363901 -0.31766587328508861 0 -0.13903843234274091 -0.31620812000857151 0 -0.13717952136363901 -0.31766587328508861 0 -0.13905196806826139 -0.31771715384074051 0 -0.14083548028412171 -0.31675158108975898 0 -0.13905196806826139 -0.31771715384074051 0 -0.14031930510148971 -0.31970199461217269 0 -0.14083548028412171 -0.31675158108975898 0 -0.13903843234274091 -0.31620812000857151 0 -0.13905196806826139 -0.31771715384074051 0 -0.13717952136363901 -0.31766587328508861 0 -0.13905196806826139 -0.31771715384074051 0 -0.14031930510148971 -0.31970199461217269 0 -0.13717952136363901 -0.31766587328508861 0 -0.1293215764797383 -0.3230862281859419 0 -0.13717952136363901 -0.31766587328508861 0 -0.14031930510148971 -0.31970199461217269 0 -0.1406042898571212 -0.32483246826164308 0 -0.13500914363655589 -0.31339510972621809 0 -0.1293215764797383 -0.3230862281859419 0 -0.13181940247648161 -0.31344144269019902 0 -0.1293215764797383 -0.3230862281859419 0 -0.13181940247648161 -0.31344144269019902 0 -0.12427237808688971 -0.31613607221539308 0 -0.13500914363655589 -0.31339510972621809 0 -0.1293215764797383 -0.3230862281859419 0 -0.1285367533768986 -0.30925998762068679 0 -0.13181940247648161 -0.31344144269019902 0 -0.12427237808688971 -0.31613607221539308 0 -0.1414820502422936 -0.33827262098342847 0 -0.12814290376288481 -0.33611556183183322 0 -0.1360608056550307 -0.35143163524145948 0 -0.1414820502422936 -0.33827262098342847 0 -0.1406042898571212 -0.32483246826164308 0 -0.12814290376288481 -0.33611556183183322 0 -0.1360608056550307 -0.35143163524145948 0 -0.12812666361228051 -0.36150390876310767 0 -0.1191062861621304 -0.35456525037857772 0 -0.12814290376288481 -0.33611556183183322 0 -0.1360608056550307 -0.35143163524145948 0 -0.1191062861621304 -0.35456525037857772 0 -0.1360608056550307 -0.35143163524145948 0 -0.15301488964195609 -0.34829566470157958 0 -0.13461971533546691 -0.37204108600685931 0 -0.1414820502422936 -0.33827262098342847 0 -0.1360608056550307 -0.35143163524145948 0 -0.15301488964195609 -0.34829566470157958 0 -0.1542241429844993 -0.37603136075650478 0 -0.15301488964195609 -0.34829566470157958 0 -0.13461971533546691 -0.37204108600685931 0 -0.15301488964195609 -0.34829566470157958 0 -0.13461971533546691 -0.37204108600685931 0 -0.1360608056550307 -0.35143163524145948 0 -0.13461971533546691 -0.37204108600685931 0 -0.12812666361228051 -0.36150390876310767 0 -0.13461971533546691 -0.37204108600685931 0 -0.12812666361228051 -0.36150390876310767 0 -0.12271984729649391 -0.36797766342553417 0 -0.13461971533546691 -0.37204108600685931 0 -0.12271984729649391 -0.36797766342553417 0 -0.12108740855967071 -0.38114056776092681 0 -0.12271984729649391 -0.36797766342553417 0 -0.110069668561376 -0.37301493892532223 0 -0.12108740855967071 -0.38114056776092681 0 -0.12271984729649391 -0.36797766342553417 0 -0.110069668561376 -0.37301493892532223 0 -0.1191062861621304 -0.35456525037857772 0 -0.1111866503681915 -0.36212413203702232 0 -0.110069668561376 -0.37301493892532223 0 -0.1191062861621304 -0.35456525037857772 0 -0.110069668561376 -0.37301493892532223 0 -0.1191062861621304 -0.35456525037857772 0 -0.12812666361228051 -0.36150390876310767 0 -0.12271984729649391 -0.36797766342553417 0 -0.1191062861621304 -0.35456525037857772 0 -0.1111866503681915 -0.36212413203702232 0 -0.110069668561376 -0.37301493892532223 0 -0.1071586490317215 -0.36933673662457861 0 -0.1025001442797033 -0.36878760973336538 0 -0.092867294853428123 -0.37060475261786652 0 -0.090849377254120164 -0.3496240795835126 0 -0.110069668561376 -0.37301493892532223 0 -0.10487813291761509 -0.37342026580260429 0 -0.1071586490317215 -0.36933673662457861 0 -0.10487813291761509 -0.37342026580260429 0 -0.098555839244069382 -0.37268239333261449 0 -0.1019434607355445 -0.37753604055626649 0 -0.10487813291761509 -0.37342026580260429 0 -0.1025001442797033 -0.36878760973336538 0 -0.098555839244069382 -0.37268239333261449 0 -0.10487813291761509 -0.37342026580260429 0 -0.1025001442797033 -0.36878760973336538 0 -0.1071586490317215 -0.36933673662457861 0 -0.1111866503681915 -0.36212413203702232 0 -0.1025001442797033 -0.36878760973336538 0 -0.1071586490317215 -0.36933673662457861 0 -0.1025001442797033 -0.36878760973336538 0 -0.092867294853428123 -0.37060475261786652 0 -0.1025001442797033 -0.36878760973336538 0 -0.098555839244069382 -0.37268239333261449 0 -0.092867294853428123 -0.37060475261786652 0 -0.098555839244069382 -0.37268239333261449 0 -0.092867294853428123 -0.37060475261786652 0 -0.093929531538894578 -0.38164902944585938 0 -0.1025001442797033 -0.36878760973336538 0 -0.1159108603797203 -0.34593691895965328 0 -0.1025001442797033 -0.36878760973336538 0 -0.1042802350165293 -0.35389855303946671 0 -0.090849377254120164 -0.3496240795835126 0 -0.1025001442797033 -0.36878760973336538 0 -0.1042802350165293 -0.35389855303946671 0 -0.1159108603797203 -0.34593691895965328 0 -0.1042802350165293 -0.35389855303946671 0 -0.1100854768669301 -0.33635515388472847 0 -0.090849377254120164 -0.3496240795835126 0 -0.1111866503681915 -0.36212413203702232 0 -0.1025001442797033 -0.36878760973336538 0 -0.1159108603797203 -0.34593691895965328 0 -0.12814290376288481 -0.33611556183183322 0 -0.1159108603797203 -0.34593691895965328 0 -0.1191062861621304 -0.35456525037857772 0 -0.1111866503681915 -0.36212413203702232 0 -0.1159108603797203 -0.34593691895965328 0 -0.1191062861621304 -0.35456525037857772 0 -0.12814290376288481 -0.33611556183183322 0 -0.1191062861621304 -0.35456525037857772 0 -0.1042802350165293 -0.35389855303946671 0 -0.1159108603797203 -0.34593691895965328 0 -0.1100854768669301 -0.33635515388472847 0 -0.1293215764797383 -0.3230862281859419 0 -0.1100854768669301 -0.33635515388472847 0 -0.1293215764797383 -0.3230862281859419 0 -0.12814290376288481 -0.33611556183183322 0 -0.1159108603797203 -0.34593691895965328 0 -0.1293215764797383 -0.3230862281859419 0 -0.1159108603797203 -0.34593691895965328 0 -0.1293215764797383 -0.3230862281859419 0 -0.1159108603797203 -0.34593691895965328 0 -0.1100854768669301 -0.33635515388472847 0 -0.1293215764797383 -0.3230862281859419 0 -0.1100854768669301 -0.33635515388472847 0 -0.1166404068490679 -0.32219542778944471 0 -0.12427237808688971 -0.31613607221539308 0 -0.114027223223167 -0.31362206881937632 0 -0.1233218650564137 -0.30959565741799261 0 -0.12427237808688971 -0.31613607221539308 0 -0.1166404068490679 -0.32219542778944471 0 -0.114027223223167 -0.31362206881937632 0 -0.1293215764797383 -0.3230862281859419 0 -0.12427237808688971 -0.31613607221539308 0 -0.1166404068490679 -0.32219542778944471 0 -0.1100854768669301 -0.33635515388472847 0 -0.1166404068490679 -0.32219542778944471 0 -0.1054953795886153 -0.32177761584178399 0 -0.1166404068490679 -0.32219542778944471 0 -0.114027223223167 -0.31362206881937632 0 -0.1054953795886153 -0.32177761584178399 0 -0.1100854768669301 -0.33635515388472847 0 -0.1054953795886153 -0.32177761584178399 0 -0.08817993112899733 -0.32186934056284378 0 -0.1054953795886153 -0.32177761584178399 0 -0.08817993112899733 -0.32186934056284378 0 -0.098803386283195599 -0.31084306231350911 0 -0.114027223223167 -0.31362206881937632 0 -0.1054953795886153 -0.32177761584178399 0 -0.098803386283195599 -0.31084306231350911 0 -0.1100854768669301 -0.33635515388472847 0 -0.08817993112899733 -0.32186934056284378 0 -0.090849377254120164 -0.3496240795835126 0 -0.1100854768669301 -0.33635515388472847 0 -0.090849377254120164 -0.3496240795835126 0 -0.08817993112899733 -0.32186934056284378 0 -0.068607372302384811 -0.34218405705961841 0 -0.08817993112899733 -0.32186934056284378 0 -0.090849377254120164 -0.3496240795835126 0 -0.08817993112899733 -0.32186934056284378 0 -0.068607372302384811 -0.34218405705961841 0 -0.090849377254120164 -0.3496240795835126 0 -0.08817993112899733 -0.32186934056284378 0 -0.068686811322512337 -0.3200686295331503 0 -0.077803823656077631 -0.31018151184964621 0 -0.08817993112899733 -0.32186934056284378 0 -0.098803386283195599 -0.31084306231350911 0 -0.08817993112899733 -0.32186934056284378 0 -0.068686811322512337 -0.3200686295331503 0 -0.068607372302384811 -0.34218405705961841 0 -0.068686811322512337 -0.3200686295331503 0 -0.068607372302384811 -0.34218405705961841 0 -0.057020490009622171 -0.32972185262478337 0 -0.068607372302384811 -0.34218405705961841 0 -0.063750436764240706 -0.36505165535521039 0 -0.066384086614780735 -0.36650006433233739 0 -0.068607372302384811 -0.34218405705961841 0 -0.066384086614780735 -0.36650006433233739 0 -0.090849377254120164 -0.3496240795835126 0 -0.063750436764240706 -0.36505165535521039 0 -0.066384086614780735 -0.36650006433233739 0 -0.057569698252130638 -0.36777172245591222 0 -0.063750436764240706 -0.36505165535521039 0 -0.066384086614780735 -0.36650006433233739 0 -0.066384086614780735 -0.36650006433233739 0 -0.081344315728048344 -0.37472763116059221 0 -0.081344315728048344 -0.37472763116059221 0 -0.092867294853428123 -0.37060475261786652 0 -0.090849377254120164 -0.3496240795835126 0 -0.066384086614780735 -0.36650006433233739 0 -0.081344315728048344 -0.37472763116059221 0 -0.090849377254120164 -0.3496240795835126 0 -0.092867294853428123 -0.37060475261786652 0 -0.090849377254120164 -0.3496240795835126 0 -0.081344315728048344 -0.37472763116059221 0 -0.092867294853428123 -0.37060475261786652 0 -0.066384086614780735 -0.36650006433233739 0 -0.090849377254120164 -0.3496240795835126 0 -0.095721911214905878 -0.25452512295504748 0 -0.10476337173715131 -0.26964924190994238 0 -0.083240820347768987 -0.27051646648269878 0 -0.095721911214905878 -0.25452512295504748 0 -0.1091327142612739 -0.25696123718903757 0 -0.10476337173715131 -0.26964924190994238 0 -0.095721911214905878 -0.25452512295504748 0 -0.1091327142612739 -0.25696123718903757 0 -0.10425775271815001 -0.24508298738637729 0 -0.1091327142612739 -0.25696123718903757 0 -0.1223083114857455 -0.25613110687167828 0 -0.11762503027157251 -0.2438646842861463 0 -0.1257252129849713 -0.26760651690292381 0 -0.1223083114857455 -0.25613110687167828 0 -0.1154467705645582 -0.26537978080928831 0 -0.1091327142612739 -0.25696123718903757 0 -0.1154467705645582 -0.26537978080928831 0 -0.10476337173715131 -0.26964924190994238 0 -0.1091327142612739 -0.25696123718903757 0 -0.1223083114857455 -0.25613110687167828 0 -0.1154467705645582 -0.26537978080928831 0 -0.1154467705645582 -0.26537978080928831 0 -0.1152029857384768 -0.27555030453465978 0 -0.10476337173715131 -0.26964924190994238 0 -0.1257252129849713 -0.26760651690292381 0 -0.1154467705645582 -0.26537978080928831 0 -0.1152029857384768 -0.27555030453465978 0 -0.12445474201649299 -0.27837977644627282 0 -0.1152029857384768 -0.27555030453465978 0 -0.11892878243140589 -0.28618845527802489 0 -0.1257252129849713 -0.26760651690292381 0 -0.12445474201649299 -0.27837977644627282 0 -0.1152029857384768 -0.27555030453465978 0 -0.1152029857384768 -0.27555030453465978 0 -0.10476337173715131 -0.26964924190994238 0 -0.1082976643155039 -0.28410207081680222 0 -0.10476337173715131 -0.26964924190994238 0 -0.096707478297604718 -0.28330793626112222 0 -0.083240820347768987 -0.27051646648269878 0 -0.10476337173715131 -0.26964924190994238 0 -0.096707478297604718 -0.28330793626112222 0 -0.1082976643155039 -0.28410207081680222 0 -0.096707478297604718 -0.28330793626112222 0 -0.10152515934921651 -0.2960789985733962 0 -0.085710375738382916 -0.29619290352277128 0 -0.10152515934921651 -0.2960789985733962 0 -0.1082976643155039 -0.28410207081680222 0 -0.11471779628211 -0.29580868125497939 0 -0.096707478297604718 -0.28330793626112222 0 -0.10152515934921651 -0.2960789985733962 0 -0.1082976643155039 -0.28410207081680222 0 -0.1152029857384768 -0.27555030453465978 0 -0.1082976643155039 -0.28410207081680222 0 -0.11892878243140589 -0.28618845527802489 0 -0.1082976643155039 -0.28410207081680222 0 -0.11892878243140589 -0.28618845527802489 0 -0.11471779628211 -0.29580868125497939 0 -0.12740540384098351 -0.2871823888050643 0 -0.12445474201649299 -0.27837977644627282 0 -0.11892878243140589 -0.28618845527802489 0 -0.12740540384098351 -0.2871823888050643 0 -0.11892878243140589 -0.28618845527802489 0 -0.1235437429290084 -0.29547536832135329 0 -0.11892878243140589 -0.28618845527802489 0 -0.1235437429290084 -0.29547536832135329 0 -0.11471779628211 -0.29580868125497939 0 -0.11471779628211 -0.29580868125497939 0 -0.1100677433627278 -0.30384615540220961 0 -0.1189567677945495 -0.30349879238961219 0 -0.1235437429290084 -0.29547536832135329 0 -0.11471779628211 -0.29580868125497939 0 -0.1189567677945495 -0.30349879238961219 0 -0.12806223591387 -0.30264482312176189 0 -0.1235437429290084 -0.29547536832135329 0 -0.1189567677945495 -0.30349879238961219 0 -0.114027223223167 -0.31362206881937632 0 -0.1189567677945495 -0.30349879238961219 0 -0.1233218650564137 -0.30959565741799261 0 -0.12806223591387 -0.30264482312176189 0 -0.1189567677945495 -0.30349879238961219 0 -0.1233218650564137 -0.30959565741799261 0 -0.114027223223167 -0.31362206881937632 0 -0.1100677433627278 -0.30384615540220961 0 -0.1189567677945495 -0.30349879238961219 0 -0.10152515934921651 -0.2960789985733962 0 -0.098803386283195599 -0.31084306231350911 0 -0.085710375738382916 -0.29619290352277128 0 -0.114027223223167 -0.31362206881937632 0 -0.1100677433627278 -0.30384615540220961 0 -0.098803386283195599 -0.31084306231350911 0 -0.10152515934921651 -0.2960789985733962 0 -0.1100677433627278 -0.30384615540220961 0 -0.098803386283195599 -0.31084306231350911 0 -0.10152515934921651 -0.2960789985733962 0 -0.11471779628211 -0.29580868125497939 0 -0.1100677433627278 -0.30384615540220961 0 -0.08817993112899733 -0.32186934056284378 0 -0.077803823656077631 -0.31018151184964621 0 -0.085710375738382916 -0.29619290352277128 0 -0.08817993112899733 -0.32186934056284378 0 -0.085710375738382916 -0.29619290352277128 0 -0.08817993112899733 -0.32186934056284378 0 -0.098803386283195599 -0.31084306231350911 0 -0.085710375738382916 -0.29619290352277128 0 -0.077803823656077631 -0.31018151184964621 0 -0.068638176434417886 -0.30259517377981898 0 -0.085710375738382916 -0.29619290352277128 0 -0.068686811322512337 -0.3200686295331503 0 -0.077803823656077631 -0.31018151184964621 0 -0.068638176434417886 -0.30259517377981898 0 -0.068638176434417886 -0.30259517377981898 0 -0.069603619070109229 -0.286165192350259 0 -0.085710375738382916 -0.29619290352277128 0 -0.068638176434417886 -0.30259517377981898 0 -0.069603619070109229 -0.286165192350259 0 -0.053825610010505162 -0.29664550207160822 0 -0.096707478297604718 -0.28330793626112222 0 -0.085710375738382916 -0.29619290352277128 0 -0.083240820347768987 -0.27051646648269878 0 -0.069603619070109229 -0.286165192350259 0 -0.085710375738382916 -0.29619290352277128 0 -0.083240820347768987 -0.27051646648269878 0 -0.085710375738382916 -0.29619290352277128 0 -0.083240820347768987 -0.27051646648269878 0 -0.069603619070109229 -0.286165192350259 0 -0.065976498469842673 -0.2695614295332962 0 -0.056561050103304047 -0.28315485566382542 0 -0.069603619070109229 -0.286165192350259 0 -0.083240820347768987 -0.27051646648269878 0 -0.065976498469842673 -0.2695614295332962 0 -0.083240820347768987 -0.27051646648269878 0 -0.080771264957155059 -0.2448400294426262 0 -0.068158317794434542 -0.2495170602682302 0 -0.065976498469842673 -0.2695614295332962 0 -0.057576418678844839 -0.25856318574999182 0 -0.068158317794434542 -0.2495170602682302 0 -0.083240820347768987 -0.27051646648269878 0 -0.065976498469842673 -0.2695614295332962 0 -0.068158317794434542 -0.2495170602682302 0 -0.095721911214905878 -0.25452512295504748 0 -0.083240820347768987 -0.27051646648269878 0 -0.080771264957155059 -0.2448400294426262 0 -0.083240820347768987 -0.27051646648269878 0 -0.080771264957155059 -0.2448400294426262 0 -0.041423614893305441 -0.26445528927329959 0 -0.025767639489991299 -0.25946497962313969 0 -0.034892676046757463 -0.24952760846005781 0 -0.041423614893305441 -0.26445528927329959 0 -0.047152442161352552 -0.25140253843235022 0 -0.034892676046757463 -0.24952760846005781 0 -0.041423614893305441 -0.26445528927329959 0 -0.057576418678844839 -0.25856318574999182 0 -0.05435483081791645 -0.27106279540243228 0 -0.047152442161352552 -0.25140253843235022 0 -0.057576418678844839 -0.25856318574999182 0 -0.05687482565736731 -0.2475939293170851 0 -0.041423614893305441 -0.26445528927329959 0 -0.047152442161352552 -0.25140253843235022 0 -0.057576418678844839 -0.25856318574999182 0 -0.057576418678844839 -0.25856318574999182 0 -0.05687482565736731 -0.2475939293170851 0 -0.068158317794434542 -0.2495170602682302 0 -0.065976498469842673 -0.2695614295332962 0 -0.057576418678844839 -0.25856318574999182 0 -0.05435483081791645 -0.27106279540243228 0 -0.065976498469842673 -0.2695614295332962 0 -0.05435483081791645 -0.27106279540243228 0 -0.056561050103304047 -0.28315485566382542 0 -0.05435483081791645 -0.27106279540243228 0 -0.043451643150317763 -0.28418272521225629 0 -0.056561050103304047 -0.28315485566382542 0 -0.041423614893305441 -0.26445528927329959 0 -0.05435483081791645 -0.27106279540243228 0 -0.043451643150317763 -0.28418272521225629 0 -0.041423614893305441 -0.26445528927329959 0 -0.029300949854769141 -0.2762645262555754 0 -0.025767639489991299 -0.25946497962313969 0 -0.041423614893305441 -0.26445528927329959 0 -0.043451643150317763 -0.28418272521225629 0 -0.029300949854769141 -0.2762645262555754 0 -0.043451643150317763 -0.28418272521225629 0 -0.029002166555643621 -0.29161404621555059 0 -0.029300949854769141 -0.2762645262555754 0 -0.043451643150317763 -0.28418272521225629 0 -0.041774922849496597 -0.29782342139614137 0 -0.029002166555643621 -0.29161404621555059 0 -0.043451643150317763 -0.28418272521225629 0 -0.053825610010505162 -0.29664550207160822 0 -0.041774922849496597 -0.29782342139614137 0 -0.069603619070109229 -0.286165192350259 0 -0.056561050103304047 -0.28315485566382542 0 -0.053825610010505162 -0.29664550207160822 0 -0.043451643150317763 -0.28418272521225629 0 -0.056561050103304047 -0.28315485566382542 0 -0.053825610010505162 -0.29664550207160822 0 -0.068638176434417886 -0.30259517377981898 0 -0.053825610010505162 -0.29664550207160822 0 -0.048995993823199427 -0.31184232618792301 0 -0.068686811322512337 -0.3200686295331503 0 -0.068638176434417886 -0.30259517377981898 0 -0.048995993823199427 -0.31184232618792301 0 -0.053825610010505162 -0.29664550207160822 0 -0.048995993823199427 -0.31184232618792301 0 -0.041774922849496597 -0.29782342139614137 0 -0.048995993823199427 -0.31184232618792301 0 -0.041774922849496597 -0.29782342139614137 0 -0.033599200707817037 -0.30483250729336853 0 -0.041774922849496597 -0.29782342139614137 0 -0.033599200707817037 -0.30483250729336853 0 -0.029002166555643621 -0.29161404621555059 0 -0.048995993823199427 -0.31184232618792301 0 -0.033599200707817037 -0.30483250729336853 0 -0.034172123316752713 -0.31601593148002077 0 -0.033599200707817037 -0.30483250729336853 0 -0.01964115124026174 -0.30990303824227577 0 -0.034172123316752713 -0.31601593148002077 0 -0.033599200707817037 -0.30483250729336853 0 -0.024323838445463059 -0.30084998171713673 0 -0.01964115124026174 -0.30990303824227577 0 -0.033599200707817037 -0.30483250729336853 0 -0.024323838445463059 -0.30084998171713673 0 -0.029002166555643621 -0.29161404621555059 0 -0.024323838445463059 -0.30084998171713673 0 -0.01964115124026174 -0.30990303824227577 0 -0.01505283527812985 -0.29705033511735202 0 -0.01964115124026174 -0.30990303824227577 0 -0.0064590071102648833 -0.30689811281617091 0 -0.013163787212558771 -0.3147811884499806 0 -0.0064590071102648833 -0.30689811281617091 0 -0.0031332965675300618 -0.3192535604675994 0 0.0068436558020707403 -0.30952440010844662 0 -0.0064590071102648833 -0.30689811281617091 0 -0.0052124117894683216 -0.29773121284251319 0 0.001060383604688247 -0.30155388938627731 0 -0.0052124117894683216 -0.29773121284251319 0 0.001060383604688247 -0.30155388938627731 0 0.0021455206274590228 -0.29404508635188592 0 -0.0064590071102648833 -0.30689811281617091 0 -0.0052124117894683216 -0.29773121284251319 0 -0.01505283527812985 -0.29705033511735202 0 -0.01964115124026174 -0.30990303824227577 0 -0.0064590071102648833 -0.30689811281617091 0 -0.01505283527812985 -0.29705033511735202 0 -0.01505283527812985 -0.29705033511735202 0 -0.0074649649844617692 -0.28893040109489587 0 -0.0171993095363366 -0.2827848063253503 0 -0.0052124117894683216 -0.29773121284251319 0 -0.01505283527812985 -0.29705033511735202 0 -0.0074649649844617692 -0.28893040109489587 0 -0.0074649649844617692 -0.28893040109489587 0 0.0045612647380138989 -0.28431467149452821 0 0.0021455206274590228 -0.29404508635188592 0 -0.0052124117894683216 -0.29773121284251319 0 -0.0074649649844617692 -0.28893040109489587 0 0.0021455206274590228 -0.29404508635188592 0 -0.0074649649844617692 -0.28893040109489587 0 -0.0046885611662538448 -0.27467123434601781 0 0.0045612647380138989 -0.28431467149452821 0 -0.0074649649844617692 -0.28893040109489587 0 -0.0171993095363366 -0.2827848063253503 0 -0.0046885611662538448 -0.27467123434601781 0 -0.024323838445463059 -0.30084998171713673 0 -0.01505283527812985 -0.29705033511735202 0 -0.029002166555643621 -0.29161404621555059 0 -0.01505283527812985 -0.29705033511735202 0 -0.0171993095363366 -0.2827848063253503 0 -0.029002166555643621 -0.29161404621555059 0 -0.0171993095363366 -0.2827848063253503 0 -0.029002166555643621 -0.29161404621555059 0 -0.029300949854769141 -0.2762645262555754 0 -0.029300949854769141 -0.2762645262555754 0 -0.0173661246746738 -0.26998341458809377 0 -0.025767639489991299 -0.25946497962313969 0 -0.0171993095363366 -0.2827848063253503 0 -0.029300949854769141 -0.2762645262555754 0 -0.0173661246746738 -0.26998341458809377 0 -0.0171993095363366 -0.2827848063253503 0 -0.0173661246746738 -0.26998341458809377 0 -0.0046885611662538448 -0.27467123434601781 0 -0.0173661246746738 -0.26998341458809377 0 -0.0046885611662538448 -0.27467123434601781 0 -0.011000072387487479 -0.26005496459402222 0 -0.0046885611662538448 -0.27467123434601781 0 -0.011000072387487479 -0.26005496459402222 0 0.001638160530432056 -0.26101289470167283 0 -0.011000072387487479 -0.26005496459402222 0 -0.0074019412988201817 -0.24854936663358451 0 0.001638160530432056 -0.26101289470167283 0 -0.011000072387487479 -0.26005496459402222 0 -0.02058946353034052 -0.24673964048383121 0 -0.0074019412988201817 -0.24854936663358451 0 -0.011000072387487479 -0.26005496459402222 0 -0.025767639489991299 -0.25946497962313969 0 -0.02058946353034052 -0.24673964048383121 0 -0.0173661246746738 -0.26998341458809377 0 -0.011000072387487479 -0.26005496459402222 0 -0.025767639489991299 -0.25946497962313969 0 -0.025767639489991299 -0.25946497962313969 0 -0.02058946353034052 -0.24673964048383121 0 -0.034892676046757463 -0.24952760846005781 0 -0.034516181116196587 -0.35191788790384237 0 -0.049034813475771682 -0.36249877355639237 0 -0.048492507822679283 -0.34201290646057358 0 -0.03125074449343767 -0.36632186491452567 0 -0.049034813475771682 -0.36249877355639237 0 -0.029462254649158429 -0.38281349005316662 0 -0.049034813475771682 -0.36249877355639237 0 -0.029462254649158429 -0.38281349005316662 0 -0.049034813475771682 -0.36249877355639237 0 -0.029462254649158429 -0.38281349005316662 0 -0.051109456153729617 -0.37703639657970811 0 -0.034516181116196587 -0.35191788790384237 0 -0.03125074449343767 -0.36632186491452567 0 -0.049034813475771682 -0.36249877355639237 0 -0.049034813475771682 -0.36249877355639237 0 -0.057569698252130638 -0.36777172245591222 0 -0.051109456153729617 -0.37703639657970811 0 -0.066384086614780735 -0.36650006433233739 0 -0.051109456153729617 -0.37703639657970811 0 -0.066384086614780735 -0.36650006433233739 0 -0.057569698252130638 -0.36777172245591222 0 -0.051109456153729617 -0.37703639657970811 0 -0.063750436764240706 -0.36505165535521039 0 -0.049034813475771682 -0.36249877355639237 0 -0.057569698252130638 -0.36777172245591222 0 -0.068607372302384811 -0.34218405705961841 0 -0.049034813475771682 -0.36249877355639237 0 -0.068607372302384811 -0.34218405705961841 0 -0.063750436764240706 -0.36505165535521039 0 -0.049034813475771682 -0.36249877355639237 0 -0.068607372302384811 -0.34218405705961841 0 -0.049034813475771682 -0.36249877355639237 0 -0.048492507822679283 -0.34201290646057358 0 -0.068607372302384811 -0.34218405705961841 0 -0.057020490009622171 -0.32972185262478337 0 -0.048492507822679283 -0.34201290646057358 0 -0.057020490009622171 -0.32972185262478337 0 -0.048492507822679283 -0.34201290646057358 0 -0.043710091296826757 -0.32688652408015278 0 -0.048995993823199427 -0.31184232618792301 0 -0.057020490009622171 -0.32972185262478337 0 -0.043710091296826757 -0.32688652408015278 0 -0.068686811322512337 -0.3200686295331503 0 -0.048995993823199427 -0.31184232618792301 0 -0.057020490009622171 -0.32972185262478337 0 -0.043710091296826757 -0.32688652408015278 0 -0.023421693932178401 -0.32307004227387609 0 -0.043710091296826757 -0.32688652408015278 0 -0.034172123316752713 -0.31601593148002077 0 -0.023421693932178401 -0.32307004227387609 0 -0.048995993823199427 -0.31184232618792301 0 -0.043710091296826757 -0.32688652408015278 0 -0.034172123316752713 -0.31601593148002077 0 -0.043710091296826757 -0.32688652408015278 0 -0.034789525323552173 -0.3364174222726391 0 -0.023421693932178401 -0.32307004227387609 0 -0.034516181116196587 -0.35191788790384237 0 -0.048492507822679283 -0.34201290646057358 0 -0.034789525323552173 -0.3364174222726391 0 -0.048492507822679283 -0.34201290646057358 0 -0.043710091296826757 -0.32688652408015278 0 -0.034789525323552173 -0.3364174222726391 0 -0.023807152449879829 -0.33819975064475061 0 -0.023421693932178401 -0.32307004227387609 0 -0.0033260258263804669 -0.32681841465303751 0 -0.034516181116196587 -0.35191788790384237 0 -0.034789525323552173 -0.3364174222726391 0 -0.023807152449879829 -0.33819975064475061 0 -0.034789525323552173 -0.3364174222726391 0 -0.023807152449879829 -0.33819975064475061 0 -0.023421693932178401 -0.32307004227387609 0 -0.01964115124026174 -0.30990303824227577 0 -0.034172123316752713 -0.31601593148002077 0 -0.023421693932178401 -0.32307004227387609 0 -0.01964115124026174 -0.30990303824227577 0 -0.023421693932178401 -0.32307004227387609 0 -0.013163787212558771 -0.3147811884499806 0 -0.023421693932178401 -0.32307004227387609 0 -0.0031332965675300618 -0.3192535604675994 0 -0.023421693932178401 -0.32307004227387609 0 -0.013163787212558771 -0.3147811884499806 0 -0.0031332965675300618 -0.3192535604675994 0 -0.023421693932178401 -0.32307004227387609 0 -0.0033260258263804669 -0.32681841465303751 0 -0.0031332965675300618 -0.3192535604675994 0 -0.0064590071102648833 -0.30689811281617091 0 -0.013163787212558771 -0.3147811884499806 0 -0.0031332965675300618 -0.3192535604675994 0 -0.023807152449879829 -0.33819975064475061 0 -0.0033260258263804669 -0.32681841465303751 0 -0.0053138169306343359 -0.33563337472114801 0 -0.023807152449879829 -0.33819975064475061 0 -0.0033260258263804669 -0.32681841465303751 0 -0.023807152449879829 -0.33819975064475061 0 -0.0053138169306343359 -0.33563337472114801 0 -0.0073683429415816156 -0.34561773438271709 0 -0.0033260258263804669 -0.32681841465303751 0 -0.0053138169306343359 -0.33563337472114801 0 0.0016103038837324639 -0.33199173929296572 0 -0.0053138169306343359 -0.33563337472114801 0 -0.0073683429415816156 -0.34561773438271709 0 0.0044609759893579036 -0.33771915893773408 0 -0.0073683429415816156 -0.34561773438271709 0 -0.00075274073939014601 -0.3564584525775914 0 -0.012221122963374201 -0.35529528028319518 0 -0.00075274073939014601 -0.3564584525775914 0 -0.012221122963374201 -0.35529528028319518 0 -0.0104788203870329 -0.36560489059452711 0 -0.0073683429415816156 -0.34561773438271709 0 -0.012221122963374201 -0.35529528028319518 0 -0.020588287028139831 -0.35010470642616592 0 -0.023807152449879829 -0.33819975064475061 0 -0.0073683429415816156 -0.34561773438271709 0 -0.020588287028139831 -0.35010470642616592 0 -0.012221122963374201 -0.35529528028319518 0 -0.020588287028139831 -0.35010470642616592 0 -0.02284685477756641 -0.36061752371752842 0 -0.034516181116196587 -0.35191788790384237 0 -0.020588287028139831 -0.35010470642616592 0 -0.02284685477756641 -0.36061752371752842 0 -0.034516181116196587 -0.35191788790384237 0 -0.023807152449879829 -0.33819975064475061 0 -0.020588287028139831 -0.35010470642616592 0 -0.03125074449343767 -0.36632186491452567 0 -0.02025643773077002 -0.37322320494285222 0 -0.029462254649158429 -0.38281349005316662 0 -0.03125074449343767 -0.36632186491452567 0 -0.02284685477756641 -0.36061752371752842 0 -0.02025643773077002 -0.37322320494285222 0 -0.034516181116196587 -0.35191788790384237 0 -0.03125074449343767 -0.36632186491452567 0 -0.02284685477756641 -0.36061752371752842 0 -0.02284685477756641 -0.36061752371752842 0 -0.02025643773077002 -0.37322320494285222 0 -0.0104788203870329 -0.36560489059452711 0 -0.02025643773077002 -0.37322320494285222 0 -0.0104788203870329 -0.36560489059452711 0 -0.0082454498370062301 -0.37783571146599321 0 -0.012221122963374201 -0.35529528028319518 0 -0.02284685477756641 -0.36061752371752842 0 -0.0104788203870329 -0.36560489059452711 0 -0.00075274073939014601 -0.3564584525775914 0 -0.0104788203870329 -0.36560489059452711 0 0.0014496837259096161 -0.37019917058000251 0 -0.0104788203870329 -0.36560489059452711 0 -0.0082454498370062301 -0.37783571146599321 0 0.0014496837259096161 -0.37019917058000251 0 -0.0082454498370062301 -0.37783571146599321 0 0.001178295979689481 -0.3881409324793787 0 0.0014496837259096161 -0.37019917058000251 0 -0.013335108411958081 -0.38502830909826641 0 -0.0082454498370062301 -0.37783571146599321 0 0.001178295979689481 -0.3881409324793787 0 -0.02025643773077002 -0.37322320494285222 0 -0.013335108411958081 -0.38502830909826641 0 -0.0082454498370062301 -0.37783571146599321 0 -0.0098896958225452025 -0.40312820654994069 0 0.001178295979689481 -0.3881409324793787 0 0.0080763184361985277 -0.4079839549095946 0 -0.013335108411958081 -0.38502830909826641 0 -0.0098896958225452025 -0.40312820654994069 0 0.001178295979689481 -0.3881409324793787 0 -0.026827697568039811 -0.39423347186273988 0 -0.033773224259886207 -0.4104452190821718 0 -0.020176703618998499 -0.41173136554844852 0 -0.0098896958225452025 -0.40312820654994069 0 -0.029462254649158429 -0.38281349005316662 0 -0.0098896958225452025 -0.40312820654994069 0 -0.026827697568039811 -0.39423347186273988 0 -0.020176703618998499 -0.41173136554844852 0 -0.0098896958225452025 -0.40312820654994069 0 -0.026827697568039811 -0.39423347186273988 0 -0.029462254649158429 -0.38281349005316662 0 -0.02025643773077002 -0.37322320494285222 0 -0.013335108411958081 -0.38502830909826641 0 -0.029462254649158429 -0.38281349005316662 0 -0.013335108411958081 -0.38502830909826641 0 -0.0098896958225452025 -0.40312820654994069 0 -0.029462254649158429 -0.38281349005316662 0 -0.026827697568039811 -0.39423347186273988 0 -0.054086006648044221 -0.38448055151166632 0 -0.026827697568039811 -0.39423347186273988 0 -0.029462254649158429 -0.38281349005316662 0 -0.054086006648044221 -0.38448055151166632 0 -0.029462254649158429 -0.38281349005316662 0 -0.051109456153729617 -0.37703639657970811 0 -0.054086006648044221 -0.38448055151166632 0 -0.026827697568039811 -0.39423347186273988 0 -0.04244947688583655 -0.39961519165880749 0 -0.033773224259886207 -0.4104452190821718 0 -0.026827697568039811 -0.39423347186273988 0 -0.044476237978441101 -0.39376917224719388 0 -0.054086006648044221 -0.38448055151166632 0 -0.026827697568039811 -0.39423347186273988 0 -0.04244947688583655 -0.39961519165880749 0 -0.044476237978441101 -0.39376917224719388 0 -0.04244947688583655 -0.39961519165880749 0 -0.044476237978441101 -0.39376917224719388 0 -0.054541770811843859 -0.3967474739555622 0 -0.044476237978441101 -0.39376917224719388 0 -0.054541770811843859 -0.3967474739555622 0 -0.054086006648044221 -0.38448055151166632 0 -0.04244947688583655 -0.39961519165880749 0 -0.054541770811843859 -0.3967474739555622 0 -0.047940813964459143 -0.40977153777140318 0 -0.054541770811843859 -0.3967474739555622 0 -0.059047307723192027 -0.4076500050322116 0 -0.047940813964459143 -0.40977153777140318 0 -0.054541770811843859 -0.3967474739555622 0 -0.059047307723192027 -0.4076500050322116 0 -0.067385704034009272 -0.40160776068576809 0 -0.054541770811843859 -0.3967474739555622 0 -0.064224746421867457 -0.3893508556193026 0 -0.067385704034009272 -0.40160776068576809 0 -0.054541770811843859 -0.3967474739555622 0 -0.054086006648044221 -0.38448055151166632 0 -0.064224746421867457 -0.3893508556193026 0 -0.066384086614780735 -0.36650006433233739 0 -0.051109456153729617 -0.37703639657970811 0 -0.054086006648044221 -0.38448055151166632 0 -0.055567234848722502 -0.43368031821831771 0 -0.05803860556271926 -0.41951586772026223 0 -0.041253820432041233 -0.4253944886752965 0 -0.05803860556271926 -0.41951586772026223 0 -0.047940813964459143 -0.40977153777140318 0 -0.041253820432041233 -0.4253944886752965 0 -0.05803860556271926 -0.41951586772026223 0 -0.059047307723192027 -0.4076500050322116 0 -0.047940813964459143 -0.40977153777140318 0 -0.033773224259886207 -0.4104452190821718 0 -0.041253820432041233 -0.4253944886752965 0 -0.023459158130170452 -0.42867114199527478 0 -0.047940813964459143 -0.40977153777140318 0 -0.033773224259886207 -0.4104452190821718 0 -0.041253820432041233 -0.4253944886752965 0 -0.04244947688583655 -0.39961519165880749 0 -0.047940813964459143 -0.40977153777140318 0 -0.033773224259886207 -0.4104452190821718 0 -0.055567234848722502 -0.43368031821831771 0 -0.041253820432041233 -0.4253944886752965 0 -0.039612264755186782 -0.45304739528729721 0 -0.041253820432041233 -0.4253944886752965 0 -0.023459158130170452 -0.42867114199527478 0 -0.039612264755186782 -0.45304739528729721 0 -0.023459158130170452 -0.42867114199527478 0 -0.020176703618998499 -0.41173136554844852 0 -0.0062201247180692348 -0.41868752424963762 0 -0.033773224259886207 -0.4104452190821718 0 -0.023459158130170452 -0.42867114199527478 0 -0.020176703618998499 -0.41173136554844852 0 -0.0098896958225452025 -0.40312820654994069 0 -0.0062201247180692348 -0.41868752424963762 0 0.0080763184361985277 -0.4079839549095946 0 -0.0098896958225452025 -0.40312820654994069 0 -0.020176703618998499 -0.41173136554844852 0 -0.0062201247180692348 -0.41868752424963762 0 -0.023459158130170452 -0.42867114199527478 0 -0.0062201247180692348 -0.41868752424963762 0 0.00098278496791487282 -0.43499994183307022 0 -0.023459158130170452 -0.42867114199527478 0 -0.01021388243781865 -0.45148415516460921 0 0.00098278496791487282 -0.43499994183307022 0 -0.01021388243781865 -0.45148415516460921 0 -0.017137315581297458 -0.47257937858970051 0 0.0058249948487519992 -0.47378655522329088 0 -0.01021388243781865 -0.45148415516460921 0 -0.017137315581297458 -0.47257937858970051 0 -0.039612264755186782 -0.45304739528729721 0 -0.017137315581297458 -0.47257937858970051 0 -0.035731853051649283 -0.47022070656449549 0 -0.039612264755186782 -0.45304739528729721 0 -0.023459158130170452 -0.42867114199527478 0 -0.01021388243781865 -0.45148415516460921 0 -0.039612264755186782 -0.45304739528729721 0 -0.0055299371706789557 -0.5 0 -0.017137315581297458 -0.47257937858970051 0 0.0058249948487519992 -0.47378655522329088 0 -0.017137315581297458 -0.47257937858970051 0 -0.027251683969294449 -0.48565012481494002 0 -0.035731853051649283 -0.47022070656449549 0 -0.0055299371706789557 -0.5 0 -0.017137315581297458 -0.47257937858970051 0 -0.027251683969294449 -0.48565012481494002 0 -0.0055299371706789557 -0.5 0 -0.027251683969294449 -0.48565012481494002 0 -0.035450826421156267 -0.5 0 -0.027251683969294449 -0.48565012481494002 0 -0.035450826421156267 -0.5 0 -0.043777162089773433 -0.4858812690605735 0 -0.027251683969294449 -0.48565012481494002 0 -0.043777162089773433 -0.4858812690605735 0 -0.035731853051649283 -0.47022070656449549 0 -0.043777162089773433 -0.4858812690605735 0 -0.062795593314491943 -0.46246998616704887 0 -0.067631384442881345 -0.48191178913905819 0 -0.043777162089773433 -0.4858812690605735 0 -0.062795593314491943 -0.46246998616704887 0 -0.043777162089773433 -0.4858812690605735 0 -0.035731853051649283 -0.47022070656449549 0 -0.062795593314491943 -0.46246998616704887 0 -0.035450826421156267 -0.5 0 -0.043777162089773433 -0.4858812690605735 0 -0.065371715671633579 -0.5 0 -0.043777162089773433 -0.4858812690605735 0 -0.065371715671633579 -0.5 0 -0.067631384442881345 -0.48191178913905819 0 -0.035731853051649283 -0.47022070656449549 0 -0.039612264755186782 -0.45304739528729721 0 -0.062795593314491943 -0.46246998616704887 0 -0.039612264755186782 -0.45304739528729721 0 -0.063093534258204464 -0.4470929176268672 0 -0.062795593314491943 -0.46246998616704887 0 -0.039612264755186782 -0.45304739528729721 0 -0.062795593314491943 -0.46246998616704887 0 -0.055567234848722502 -0.43368031821831771 0 -0.039612264755186782 -0.45304739528729721 0 -0.063093534258204464 -0.4470929176268672 0 -0.063093534258204464 -0.4470929176268672 0 -0.078083407498481111 -0.44365101322148132 0 -0.07517077470611816 -0.42853518480640779 0 -0.063093534258204464 -0.4470929176268672 0 -0.078083407498481111 -0.44365101322148132 0 -0.062795593314491943 -0.46246998616704887 0 -0.078083407498481111 -0.44365101322148132 0 -0.062795593314491943 -0.46246998616704887 0 -0.062795593314491943 -0.46246998616704887 0 -0.085880290841635537 -0.4718524896252857 0 -0.078083407498481111 -0.44365101322148132 0 -0.062795593314491943 -0.46246998616704887 0 -0.085880290841635537 -0.4718524896252857 0 -0.078083407498481111 -0.44365101322148132 0 -0.085880290841635537 -0.4718524896252857 0 -0.097711956992144813 -0.4474166230622264 0 -0.078083407498481111 -0.44365101322148132 0 -0.097711956992144813 -0.4474166230622264 0 -0.09337122168247193 -0.42483204027591481 0 -0.065371715671633579 -0.5 0 -0.067631384442881345 -0.48191178913905819 0 -0.080332160296872165 -0.48935520084238282 0 -0.062795593314491943 -0.46246998616704887 0 -0.067631384442881345 -0.48191178913905819 0 -0.085880290841635537 -0.4718524896252857 0 -0.067631384442881345 -0.48191178913905819 0 -0.085880290841635537 -0.4718524896252857 0 -0.080332160296872165 -0.48935520084238282 0 -0.085880290841635537 -0.4718524896252857 0 -0.080332160296872165 -0.48935520084238282 0 -0.1089649883687793 -0.48123499308352191 0 -0.065371715671633579 -0.5 0 -0.080332160296872165 -0.48935520084238282 0 -0.095292604922110891 -0.5 0 -0.080332160296872165 -0.48935520084238282 0 -0.095292604922110891 -0.5 0 -0.1089649883687793 -0.48123499308352191 0 -0.085880290841635537 -0.4718524896252857 0 -0.1089649883687793 -0.48123499308352191 0 -0.085880290841635537 -0.4718524896252857 0 -0.1089649883687793 -0.48123499308352191 0 -0.1038076478007464 -0.46498510783643909 0 -0.13220195266968959 -0.47624020067167439 0 -0.132049685895923 -0.49061749654175812 0 -0.1089649883687793 -0.48123499308352191 0 -0.13220195266968959 -0.47624020067167439 0 -0.1089649883687793 -0.48123499308352191 0 -0.12267335500042589 -0.45943632557472242 0 -0.132049685895923 -0.49061749654175812 0 -0.1089649883687793 -0.48123499308352191 0 -0.132049685895923 -0.49061749654175812 0 -0.12521349417258831 -0.5 0 -0.1089649883687793 -0.48123499308352191 0 -0.12521349417258831 -0.5 0 -0.095292604922110891 -0.5 0 -0.1089649883687793 -0.48123499308352191 0 -0.097711956992144813 -0.4474166230622264 0 -0.1209273657791242 -0.44176315549154482 0 -0.10892361542948779 -0.43270009710332302 0 -0.085880290841635537 -0.4718524896252857 0 -0.097711956992144813 -0.4474166230622264 0 -0.1038076478007464 -0.46498510783643909 0 -0.097711956992144813 -0.4474166230622264 0 -0.1038076478007464 -0.46498510783643909 0 -0.12267335500042589 -0.45943632557472242 0 -0.1089649883687793 -0.48123499308352191 0 -0.1038076478007464 -0.46498510783643909 0 -0.12267335500042589 -0.45943632557472242 0 -0.097711956992144813 -0.4474166230622264 0 -0.12267335500042589 -0.45943632557472242 0 -0.097711956992144813 -0.4474166230622264 0 -0.12267335500042589 -0.45943632557472242 0 -0.1209273657791242 -0.44176315549154482 0 -0.1216473709369055 -0.42684453866736272 0 -0.10892361542948779 -0.43270009710332302 0 -0.1087215033836464 -0.41950108730796121 0 -0.1209273657791242 -0.44176315549154482 0 -0.1216473709369055 -0.42684453866736272 0 -0.10892361542948779 -0.43270009710332302 0 -0.097711956992144813 -0.4474166230622264 0 -0.10892361542948779 -0.43270009710332302 0 -0.09337122168247193 -0.42483204027591481 0 -0.10892361542948779 -0.43270009710332302 0 -0.1087215033836464 -0.41950108730796121 0 -0.09337122168247193 -0.42483204027591481 0 -0.096588227858627168 -0.4092920006955777 0 -0.1087215033836464 -0.41950108730796121 0 -0.09337122168247193 -0.42483204027591481 0 -0.096588227858627168 -0.4092920006955777 0 -0.1087215033836464 -0.41950108730796121 0 -0.1080054089967771 -0.40891004411514281 0 -0.1087215033836464 -0.41950108730796121 0 -0.1080054089967771 -0.40891004411514281 0 -0.120923414606757 -0.4101805087101501 0 -0.1216473709369055 -0.42684453866736272 0 -0.1087215033836464 -0.41950108730796121 0 -0.120923414606757 -0.4101805087101501 0 -0.1307621202024957 -0.41939643977350932 0 -0.1216473709369055 -0.42684453866736272 0 -0.120923414606757 -0.4101805087101501 0 -0.13157646338772311 -0.40235343479418412 0 -0.1127529974633094 -0.3920012321200208 0 -0.13157646338772311 -0.40235343479418412 0 -0.11341138155082391 -0.3988465766850991 0 -0.13157646338772311 -0.40235343479418412 0 -0.1127529974633094 -0.3920012321200208 0 -0.11341138155082391 -0.3988465766850991 0 -0.13157646338772311 -0.40235343479418412 0 -0.120923414606757 -0.4101805087101501 0 -0.11341138155082391 -0.3988465766850991 0 -0.1080054089967771 -0.40891004411514281 0 -0.120923414606757 -0.4101805087101501 0 -0.11341138155082391 -0.3988465766850991 0 -0.13092027878879889 -0.38880123511953929 0 -0.1127529974633094 -0.3920012321200208 0 -0.12108740855967071 -0.38114056776092681 0 -0.1127529974633094 -0.3920012321200208 0 -0.12108740855967071 -0.38114056776092681 0 -0.1098954811148765 -0.38186976570230341 0 -0.110069668561376 -0.37301493892532223 0 -0.12108740855967071 -0.38114056776092681 0 -0.1098954811148765 -0.38186976570230341 0 -0.1127529974633094 -0.3920012321200208 0 -0.1098954811148765 -0.38186976570230341 0 -0.093929531538894578 -0.38164902944585938 0 -0.1098954811148765 -0.38186976570230341 0 -0.1019434607355445 -0.37753604055626649 0 -0.093929531538894578 -0.38164902944585938 0 -0.1127529974633094 -0.3920012321200208 0 -0.093929531538894578 -0.38164902944585938 0 -0.095246299713925064 -0.39533971857601341 0 -0.1127529974633094 -0.3920012321200208 0 -0.093929531538894578 -0.38164902944585938 0 -0.10487813291761509 -0.37342026580260429 0 -0.1098954811148765 -0.38186976570230341 0 -0.1019434607355445 -0.37753604055626649 0 -0.110069668561376 -0.37301493892532223 0 -0.10487813291761509 -0.37342026580260429 0 -0.1098954811148765 -0.38186976570230341 0 -0.093929531538894578 -0.38164902944585938 0 -0.095246299713925064 -0.39533971857601341 0 -0.098555839244069382 -0.37268239333261449 0 -0.1019434607355445 -0.37753604055626649 0 -0.093929531538894578 -0.38164902944585938 0 -0.1080054089967771 -0.40891004411514281 0 -0.11341138155082391 -0.3988465766850991 0 -0.095246299713925064 -0.39533971857601341 0 -0.1127529974633094 -0.3920012321200208 0 -0.11341138155082391 -0.3988465766850991 0 -0.095246299713925064 -0.39533971857601341 0 -0.11341138155082391 -0.3988465766850991 0 -0.095246299713925064 -0.39533971857601341 0 -0.096588227858627168 -0.4092920006955777 0 -0.095246299713925064 -0.39533971857601341 0 -0.096588227858627168 -0.4092920006955777 0 -0.1080054089967771 -0.40891004411514281 0 -0.095246299713925064 -0.39533971857601341 0 -0.096588227858627168 -0.4092920006955777 0 -0.095246299713925064 -0.39533971857601341 0 -0.082445157773887515 -0.40535209700250152 0 -0.095246299713925064 -0.39533971857601341 0 -0.079735523067896136 -0.39234528709765859 0 -0.095246299713925064 -0.39533971857601341 0 -0.079735523067896136 -0.39234528709765859 0 -0.082445157773887515 -0.40535209700250152 0 -0.081344315728048344 -0.37472763116059221 0 -0.093929531538894578 -0.38164902944585938 0 -0.079735523067896136 -0.39234528709765859 0 -0.081344315728048344 -0.37472763116059221 0 -0.093929531538894578 -0.38164902944585938 0 -0.092867294853428123 -0.37060475261786652 0 -0.093929531538894578 -0.38164902944585938 0 -0.081344315728048344 -0.37472763116059221 0 -0.092867294853428123 -0.37060475261786652 0 -0.093929531538894578 -0.38164902944585938 0 -0.093929531538894578 -0.38164902944585938 0 -0.095246299713925064 -0.39533971857601341 0 -0.079735523067896136 -0.39234528709765859 0 -0.081344315728048344 -0.37472763116059221 0 -0.054086006648044221 -0.38448055151166632 0 -0.069847647966464088 -0.38522608134730479 0 -0.081344315728048344 -0.37472763116059221 0 -0.054086006648044221 -0.38448055151166632 0 -0.066384086614780735 -0.36650006433233739 0 -0.081344315728048344 -0.37472763116059221 0 -0.054086006648044221 -0.38448055151166632 0 -0.054086006648044221 -0.38448055151166632 0 -0.064224746421867457 -0.3893508556193026 0 -0.069847647966464088 -0.38522608134730479 0 -0.081344315728048344 -0.37472763116059221 0 -0.079735523067896136 -0.39234528709765859 0 -0.069847647966464088 -0.38522608134730479 0 -0.079735523067896136 -0.39234528709765859 0 -0.064224746421867457 -0.3893508556193026 0 -0.069847647966464088 -0.38522608134730479 0 -0.079735523067896136 -0.39234528709765859 0 -0.082445157773887515 -0.40535209700250152 0 -0.067385704034009272 -0.40160776068576809 0 -0.079735523067896136 -0.39234528709765859 0 -0.064224746421867457 -0.3893508556193026 0 -0.079735523067896136 -0.39234528709765859 0 -0.064224746421867457 -0.3893508556193026 0 -0.067385704034009272 -0.40160776068576809 0 -0.05803860556271926 -0.41951586772026223 0 -0.059047307723192027 -0.4076500050322116 0 -0.071173719160636528 -0.41351995860781049 0 -0.059047307723192027 -0.4076500050322116 0 -0.067385704034009272 -0.40160776068576809 0 -0.071173719160636528 -0.41351995860781049 0 -0.05803860556271926 -0.41951586772026223 0 -0.071173719160636528 -0.41351995860781049 0 -0.07517077470611816 -0.42853518480640779 0 -0.082445157773887515 -0.40535209700250152 0 -0.067385704034009272 -0.40160776068576809 0 -0.071173719160636528 -0.41351995860781049 0 -0.071173719160636528 -0.41351995860781049 0 -0.07517077470611816 -0.42853518480640779 0 -0.083749820236348263 -0.41630625627764251 0 -0.055567234848722502 -0.43368031821831771 0 -0.05803860556271926 -0.41951586772026223 0 -0.07517077470611816 -0.42853518480640779 0 -0.055567234848722502 -0.43368031821831771 0 -0.063093534258204464 -0.4470929176268672 0 -0.07517077470611816 -0.42853518480640779 0 -0.078083407498481111 -0.44365101322148132 0 -0.07517077470611816 -0.42853518480640779 0 -0.09337122168247193 -0.42483204027591481 0 -0.078083407498481111 -0.44365101322148132 0 -0.09337122168247193 -0.42483204027591481 0 -0.07517077470611816 -0.42853518480640779 0 -0.09337122168247193 -0.42483204027591481 0 -0.083749820236348263 -0.41630625627764251 0 -0.096588227858627168 -0.4092920006955777 0 -0.09337122168247193 -0.42483204027591481 0 -0.083749820236348263 -0.41630625627764251 0 -0.096588227858627168 -0.4092920006955777 0 -0.082445157773887515 -0.40535209700250152 0 -0.083749820236348263 -0.41630625627764251 0 -0.082445157773887515 -0.40535209700250152 0 -0.071173719160636528 -0.41351995860781049 0 -0.083749820236348263 -0.41630625627764251 0 -0.084759377840465486 -0.071625959810252535 0 -0.077455850545230992 -0.083275463413191586 0 -0.087769017666925353 -0.094420651272060924 0 -0.084759377840465486 -0.071625959810252535 0 -0.087769017666925353 -0.094420651272060924 0 -0.1059782127135928 -0.074433393834118733 0 -0.084759377840465486 -0.071625959810252535 0 -0.1059782127135928 -0.074433393834118733 0 -0.089206877821650585 -0.057973808767956651 0 -0.084759377840465486 -0.071625959810252535 0 -0.089206877821650585 -0.057973808767956651 0 -0.074277404596178959 -0.05973641421770063 0 -0.06844506044708043 -0.073932768015858727 0 -0.074277404596178959 -0.05973641421770063 0 -0.057325107243472263 -0.061673721710143722 0 -0.084759377840465486 -0.071625959810252535 0 -0.06844506044708043 -0.073932768015858727 0 -0.077455850545230992 -0.083275463413191586 0 -0.084759377840465486 -0.071625959810252535 0 -0.06844506044708043 -0.073932768015858727 0 -0.074277404596178959 -0.05973641421770063 0 -0.077455850545230992 -0.083275463413191586 0 -0.066762949065087646 -0.089902242077299757 0 -0.087769017666925353 -0.094420651272060924 0 -0.06844506044708043 -0.073932768015858727 0 -0.077455850545230992 -0.083275463413191586 0 -0.066762949065087646 -0.089902242077299757 0 -0.066762949065087646 -0.089902242077299757 0 -0.07076687267432108 -0.1142568572280081 0 -0.051600297873546357 -0.095051206105288819 0 -0.066762949065087646 -0.089902242077299757 0 -0.07076687267432108 -0.1142568572280081 0 -0.087769017666925353 -0.094420651272060924 0 -0.07076687267432108 -0.1142568572280081 0 -0.097242629798420327 -0.1185668471750775 0 -0.07076687267432108 -0.1142568572280081 0 -0.097242629798420327 -0.1185668471750775 0 -0.083729950295400757 -0.13590116009119169 0 -0.07076687267432108 -0.1142568572280081 0 -0.087769017666925353 -0.094420651272060924 0 -0.097242629798420327 -0.1185668471750775 0 -0.097242629798420327 -0.1185668471750775 0 -0.1184006278415676 -0.1106082292566901 0 -0.1099842562905755 -0.097964843497610643 0 -0.087769017666925353 -0.094420651272060924 0 -0.097242629798420327 -0.1185668471750775 0 -0.1099842562905755 -0.097964843497610643 0 -0.097242629798420327 -0.1185668471750775 0 -0.1184006278415676 -0.1106082292566901 0 -0.12371838692251939 -0.12287683712214691 0 -0.097242629798420327 -0.1185668471750775 0 -0.12371838692251939 -0.12287683712214691 0 -0.1128338108833226 -0.13047386474767261 0 -0.097242629798420327 -0.1185668471750775 0 -0.12371838692251939 -0.12287683712214691 0 -0.1184006278415676 -0.1106082292566901 0 -0.12371838692251939 -0.12287683712214691 0 -0.1291261972115724 -0.11262163051793379 0 -0.1184006278415676 -0.1106082292566901 0 -0.1244101908758608 -0.098938989160173352 0 -0.1299695072667052 -0.10656040677306911 0 -0.1184006278415676 -0.1106082292566901 0 -0.1099842562905755 -0.097964843497610643 0 -0.1244101908758608 -0.098938989160173352 0 -0.1099842562905755 -0.097964843497610643 0 -0.1244101908758608 -0.098938989160173352 0 -0.12267102177126871 -0.086747198019136773 0 -0.1099842562905755 -0.097964843497610643 0 -0.12267102177126871 -0.086747198019136773 0 -0.1059782127135928 -0.074433393834118733 0 -0.087769017666925353 -0.094420651272060924 0 -0.1099842562905755 -0.097964843497610643 0 -0.1059782127135928 -0.074433393834118733 0 -0.1059782127135928 -0.074433393834118733 0 -0.1176456145751838 -0.059964442654696103 0 -0.13241715236731019 -0.071499797347555794 0 -0.12267102177126871 -0.086747198019136773 0 -0.1059782127135928 -0.074433393834118733 0 -0.13241715236731019 -0.071499797347555794 0 -0.1176456145751838 -0.059964442654696103 0 -0.1131896275628357 -0.036310698784263309 0 -0.10261073543698759 -0.052826179683409413 0 -0.1176456145751838 -0.059964442654696103 0 -0.1131896275628357 -0.036310698784263309 0 -0.1277566199360311 -0.046518470620895702 0 -0.1131896275628357 -0.036310698784263309 0 -0.123096087504753 -0.021537143894235469 0 -0.1277566199360311 -0.046518470620895702 0 -0.1131896275628357 -0.036310698784263309 0 -0.097965794684774246 -0.03812649795123136 0 -0.10261073543698759 -0.052826179683409413 0 -0.097965794684774246 -0.03812649795123136 0 -0.10261073543698759 -0.052826179683409413 0 -0.082880886156258937 -0.045922202544615327 0 -0.1131896275628357 -0.036310698784263309 0 -0.097965794684774246 -0.03812649795123136 0 -0.1032973716438029 -0.027317123237146031 0 -0.1059782127135928 -0.074433393834118733 0 -0.1176456145751838 -0.059964442654696103 0 -0.10261073543698759 -0.052826179683409413 0 -0.1059782127135928 -0.074433393834118733 0 -0.10261073543698759 -0.052826179683409413 0 -0.089206877821650585 -0.057973808767956651 0 -0.1195315168135004 -0.0024303773624146621 0 -0.123096087504753 -0.021537143894235469 0 -0.1113963054135417 -0.0043700933766745859 0 -0.123096087504753 -0.021537143894235469 0 -0.1195315168135004 -0.0024303773624146621 0 -0.123096087504753 -0.021537143894235469 0 -0.1268184100029203 -0.01315007552767593 0 -0.1113963054135417 -0.0043700933766745859 0 -0.1114119624519735 -0.013561206835568459 0 -0.123096087504753 -0.021537143894235469 0 -0.1113963054135417 -0.0043700933766745859 0 -0.1195315168135004 -0.0024303773624146621 0 -0.123096087504753 -0.021537143894235469 0 -0.1195315168135004 -0.0024303773624146621 0 -0.12743649414895861 -0.006291773193808704 0 -0.1268184100029203 -0.01315007552767593 0 -0.1114119624519735 -0.013561206835568459 0 -0.11359048742354021 -0.019403281660653349 0 -0.123096087504753 -0.021537143894235469 0 -0.11359048742354021 -0.019403281660653349 0 -0.123096087504753 -0.021537143894235469 0 -0.112828499283345 -0.024865531336549059 0 -0.1114119624519735 -0.013561206835568459 0 -0.11359048742354021 -0.019403281660653349 0 -0.1071170657176144 -0.01896591174976836 0 -0.11359048742354021 -0.019403281660653349 0 -0.112828499283345 -0.024865531336549059 0 -0.1071170657176144 -0.01896591174976836 0 -0.1131896275628357 -0.036310698784263309 0 -0.123096087504753 -0.021537143894235469 0 -0.112828499283345 -0.024865531336549059 0 -0.1131896275628357 -0.036310698784263309 0 -0.112828499283345 -0.024865531336549059 0 -0.1032973716438029 -0.027317123237146031 0 -0.112828499283345 -0.024865531336549059 0 -0.1032973716438029 -0.027317123237146031 0 -0.1071170657176144 -0.01896591174976836 0 -0.097965794684774246 -0.03812649795123136 0 -0.1032973716438029 -0.027317123237146031 0 -0.094286155278714756 -0.02795183140897111 0 -0.1032973716438029 -0.027317123237146031 0 -0.094286155278714756 -0.02795183140897111 0 -0.094397087335533425 -0.01768226819209302 0 -0.1032973716438029 -0.027317123237146031 0 -0.094397087335533425 -0.01768226819209302 0 -0.1071170657176144 -0.01896591174976836 0 -0.1113963054135417 -0.0043700933766745859 0 -0.1022998594653398 -0.0098496059293485816 0 -0.095042178018154802 0.0009823759069313182 0 -0.1113963054135417 -0.0043700933766745859 0 -0.1114119624519735 -0.013561206835568459 0 -0.1022998594653398 -0.0098496059293485816 0 -0.1114119624519735 -0.013561206835568459 0 -0.1071170657176144 -0.01896591174976836 0 -0.1022998594653398 -0.0098496059293485816 0 -0.094397087335533425 -0.01768226819209302 0 -0.1071170657176144 -0.01896591174976836 0 -0.1022998594653398 -0.0098496059293485816 0 -0.094397087335533425 -0.01768226819209302 0 -0.1022998594653398 -0.0098496059293485816 0 -0.09119992214601233 -0.0072252515097783881 0 -0.1022998594653398 -0.0098496059293485816 0 -0.09119992214601233 -0.0072252515097783881 0 -0.095042178018154802 0.0009823759069313182 0 -0.09119992214601233 -0.0072252515097783881 0 -0.080555240801361186 -0.010014772595642639 0 -0.082085834664370957 0.00072418305549578471 0 -0.09119992214601233 -0.0072252515097783881 0 -0.095042178018154802 0.0009823759069313182 0 -0.082085834664370957 0.00072418305549578471 0 -0.094397087335533425 -0.01768226819209302 0 -0.09119992214601233 -0.0072252515097783881 0 -0.080555240801361186 -0.010014772595642639 0 -0.094397087335533425 -0.01768226819209302 0 -0.080555240801361186 -0.010014772595642639 0 -0.080578328941956462 -0.021189621102860021 0 -0.094286155278714756 -0.02795183140897111 0 -0.094397087335533425 -0.01768226819209302 0 -0.080578328941956462 -0.021189621102860021 0 -0.094286155278714756 -0.02795183140897111 0 -0.080578328941956462 -0.021189621102860021 0 -0.084474720586090568 -0.032751805197192257 0 -0.080578328941956462 -0.021189621102860021 0 -0.066662437868748453 -0.030568872978283489 0 -0.084474720586090568 -0.032751805197192257 0 -0.066662437868748453 -0.030568872978283489 0 -0.069748504601416489 -0.015336708063262551 0 -0.056638824423872462 -0.01491351256515484 0 -0.080578328941956462 -0.021189621102860021 0 -0.066662437868748453 -0.030568872978283489 0 -0.069748504601416489 -0.015336708063262551 0 -0.080555240801361186 -0.010014772595642639 0 -0.080578328941956462 -0.021189621102860021 0 -0.069748504601416489 -0.015336708063262551 0 -0.080555240801361186 -0.010014772595642639 0 -0.069748504601416489 -0.015336708063262551 0 -0.070517512630694557 -0.002546413074365927 0 -0.069748504601416489 -0.015336708063262551 0 -0.070517512630694557 -0.002546413074365927 0 -0.056638824423872462 -0.01491351256515484 0 -0.080555240801361186 -0.010014772595642639 0 -0.070517512630694557 -0.002546413074365927 0 -0.082085834664370957 0.00072418305549578471 0 -0.10261073543698759 -0.052826179683409413 0 -0.089206877821650585 -0.057973808767956651 0 -0.082880886156258937 -0.045922202544615327 0 -0.089206877821650585 -0.057973808767956651 0 -0.082880886156258937 -0.045922202544615327 0 -0.074277404596178959 -0.05973641421770063 0 -0.097965794684774246 -0.03812649795123136 0 -0.084474720586090568 -0.032751805197192257 0 -0.082880886156258937 -0.045922202544615327 0 -0.097965794684774246 -0.03812649795123136 0 -0.094286155278714756 -0.02795183140897111 0 -0.084474720586090568 -0.032751805197192257 0 -0.066662437868748453 -0.030568872978283489 0 -0.084474720586090568 -0.032751805197192257 0 -0.082880886156258937 -0.045922202544615327 0 -0.066662437868748453 -0.030568872978283489 0 -0.082880886156258937 -0.045922202544615327 0 -0.063495440641379144 -0.047188353309730827 0 -0.063495440641379144 -0.047188353309730827 0 -0.074277404596178959 -0.05973641421770063 0 -0.057325107243472263 -0.061673721710143722 0 -0.082880886156258937 -0.045922202544615327 0 -0.063495440641379144 -0.047188353309730827 0 -0.074277404596178959 -0.05973641421770063 0 -0.063495440641379144 -0.047188353309730827 0 -0.057325107243472263 -0.061673721710143722 0 -0.046694023406942807 -0.048562101043976187 0 -0.057325107243472263 -0.061673721710143722 0 -0.04259340245180282 -0.060362124209989078 0 -0.046694023406942807 -0.048562101043976187 0 -0.063495440641379144 -0.047188353309730827 0 -0.050841850176557173 -0.035660650400660583 0 -0.046694023406942807 -0.048562101043976187 0 -0.066662437868748453 -0.030568872978283489 0 -0.050841850176557173 -0.035660650400660583 0 -0.066662437868748453 -0.030568872978283489 0 -0.063495440641379144 -0.047188353309730827 0 -0.050841850176557173 -0.035660650400660583 0 -0.050841850176557173 -0.035660650400660583 0 -0.035021262484366579 -0.040752427823039901 0 -0.050841850176557173 -0.035660650400660583 0 -0.035021262484366579 -0.040752427823039901 0 -0.046694023406942807 -0.048562101043976187 0 -0.035021262484366579 -0.040752427823039901 0 -0.034255536741932671 -0.047445902250769348 0 -0.046694023406942807 -0.048562101043976187 0 -0.035021262484366579 -0.040752427823039901 0 -0.034255536741932671 -0.047445902250769348 0 -0.025136370030621889 -0.050391805666694857 0 -0.035021262484366579 -0.040752427823039901 0 -0.034255536741932671 -0.047445902250769348 0 -0.034255536741932671 -0.047445902250769348 0 -0.038051421926349027 -0.053999980248557337 0 -0.030277492868152789 -0.05739527141432739 0 -0.04259340245180282 -0.060362124209989078 0 -0.030277492868152789 -0.05739527141432739 0 -0.03100086444038247 -0.068981994541821523 0 -0.038051421926349027 -0.053999980248557337 0 -0.04259340245180282 -0.060362124209989078 0 -0.030277492868152789 -0.05739527141432739 0 -0.034255536741932671 -0.047445902250769348 0 -0.038051421926349027 -0.053999980248557337 0 -0.046694023406942807 -0.048562101043976187 0 -0.038051421926349027 -0.053999980248557337 0 -0.04259340245180282 -0.060362124209989078 0 -0.046694023406942807 -0.048562101043976187 0 -0.070517512630694557 -0.002546413074365927 0 -0.056638824423872462 -0.01491351256515484 0 -0.055813665327939861 0.004961667931764239 0 -0.056638824423872462 -0.01491351256515484 0 -0.038065540254775793 -0.01414133944257338 0 -0.055813665327939861 0.004961667931764239 0 -0.050841850176557173 -0.035660650400660583 0 -0.056638824423872462 -0.01491351256515484 0 -0.038065540254775793 -0.01414133944257338 0 -0.066662437868748453 -0.030568872978283489 0 -0.050841850176557173 -0.035660650400660583 0 -0.056638824423872462 -0.01491351256515484 0 -0.035021262484366579 -0.040752427823039901 0 -0.038065540254775793 -0.01414133944257338 0 -0.035021262484366579 -0.040752427823039901 0 -0.038065540254775793 -0.01414133944257338 0 -0.02211103150227026 -0.01782876186553007 0 -0.050841850176557173 -0.035660650400660583 0 -0.035021262484366579 -0.040752427823039901 0 -0.038065540254775793 -0.01414133944257338 0 -0.038065540254775793 -0.01414133944257338 0 -0.041109818025184541 0.01246974893789313 0 -0.02211103150227026 -0.01782876186553007 0 -0.008081950935871246 -0.0078643453545879025 0 -0.02332930609282181 0.002293464424054465 0 -0.038065540254775793 -0.01414133944257338 0 -0.02211103150227026 -0.01782876186553007 0 -0.02332930609282181 0.002293464424054465 0 -0.035021262484366579 -0.040752427823039901 0 -0.02211103150227026 -0.01782876186553007 0 -0.0099906299789442321 -0.0293115812195653 0 -0.0099906299789442321 -0.0293115812195653 0 -0.008081950935871246 -0.0078643453545879025 0 0.0069763512184407676 -0.022647556875415451 0 -0.02211103150227026 -0.01782876186553007 0 -0.0099906299789442321 -0.0293115812195653 0 -0.008081950935871246 -0.0078643453545879025 0 -0.008081950935871246 -0.0078643453545879025 0 0.0057465999670243432 0.0055996356184830438 0 -0.035021262484366579 -0.040752427823039901 0 -0.025136370030621889 -0.050391805666694857 0 -0.0071811579328509706 -0.049712626935109173 0 -0.018946400125805479 -0.056652799910228362 0 -0.025136370030621889 -0.050391805666694857 0 -0.0071811579328509706 -0.049712626935109173 0 -0.018946400125805479 -0.056652799910228362 0 -0.0095552923233079845 -0.062436331508622898 0 -0.021410271066296831 -0.063751429282473432 0 -0.018946400125805479 -0.056652799910228362 0 -0.030277492868152789 -0.05739527141432739 0 -0.025136370030621889 -0.050391805666694857 0 -0.018946400125805479 -0.056652799910228362 0 -0.030277492868152789 -0.05739527141432739 0 -0.021410271066296831 -0.063751429282473432 0 -0.034255536741932671 -0.047445902250769348 0 -0.030277492868152789 -0.05739527141432739 0 -0.025136370030621889 -0.050391805666694857 0 -0.035021262484366579 -0.040752427823039901 0 -0.0099906299789442321 -0.0293115812195653 0 -0.0071811579328509706 -0.049712626935109173 0 -0.035021262484366579 -0.040752427823039901 0 -0.0071811579328509706 -0.049712626935109173 0 -0.0099906299789442321 -0.0293115812195653 0 -0.0071811579328509706 -0.049712626935109173 0 0.0050241786169890248 -0.03713629370316586 0 -0.018946400125805479 -0.056652799910228362 0 -0.0071811579328509706 -0.049712626935109173 0 -0.0095552923233079845 -0.062436331508622898 0 -0.0095552923233079845 -0.062436331508622898 0 0.0055518271476778479 -0.060554578777902927 0 -0.0071811579328509706 -0.049712626935109173 0 -0.0095552923233079845 -0.062436331508622898 0 0.0055518271476778479 -0.060554578777902927 0 -0.00083418359899767053 -0.072522553478430687 0 -0.01018293480097566 -0.085106020112889605 0 -0.01727130557383541 -0.073290749037367015 0 -0.0095552923233079845 -0.062436331508622898 0 -0.00083418359899767053 -0.072522553478430687 0 0.0055518271476778479 -0.060554578777902927 0 -0.0095552923233079845 -0.062436331508622898 0 -0.00083418359899767053 -0.072522553478430687 0 -0.01727130557383541 -0.073290749037367015 0 -0.01018293480097566 -0.085106020112889605 0 -0.032453498244747199 -0.087001550327739735 0 -0.013713416355387869 -0.1050205758249743 0 -0.01018293480097566 -0.085106020112889605 0 -0.01727130557383541 -0.073290749037367015 0 -0.032453498244747199 -0.087001550327739735 0 -0.01018293480097566 -0.085106020112889605 0 -0.032453498244747199 -0.087001550327739735 0 -0.01727130557383541 -0.073290749037367015 0 -0.03100086444038247 -0.068981994541821523 0 -0.032453498244747199 -0.087001550327739735 0 -0.0095552923233079845 -0.062436331508622898 0 -0.021410271066296831 -0.063751429282473432 0 -0.01727130557383541 -0.073290749037367015 0 -0.021410271066296831 -0.063751429282473432 0 -0.01727130557383541 -0.073290749037367015 0 -0.03100086444038247 -0.068981994541821523 0 -0.030277492868152789 -0.05739527141432739 0 -0.021410271066296831 -0.063751429282473432 0 -0.03100086444038247 -0.068981994541821523 0 -0.04259340245180282 -0.060362124209989078 0 -0.03100086444038247 -0.068981994541821523 0 -0.049546184547941761 -0.07654420465893548 0 -0.03100086444038247 -0.068981994541821523 0 -0.032453498244747199 -0.087001550327739735 0 -0.049546184547941761 -0.07654420465893548 0 -0.032453498244747199 -0.087001550327739735 0 -0.049546184547941761 -0.07654420465893548 0 -0.051600297873546357 -0.095051206105288819 0 -0.06844506044708043 -0.073932768015858727 0 -0.066762949065087646 -0.089902242077299757 0 -0.049546184547941761 -0.07654420465893548 0 -0.066762949065087646 -0.089902242077299757 0 -0.049546184547941761 -0.07654420465893548 0 -0.051600297873546357 -0.095051206105288819 0 -0.06844506044708043 -0.073932768015858727 0 -0.057325107243472263 -0.061673721710143722 0 -0.049546184547941761 -0.07654420465893548 0 -0.057325107243472263 -0.061673721710143722 0 -0.04259340245180282 -0.060362124209989078 0 -0.049546184547941761 -0.07654420465893548 0 -0.07076687267432108 -0.1142568572280081 0 -0.044291115550221832 -0.10994686728093871 0 -0.050178390909508278 -0.13166414322784881 0 -0.07076687267432108 -0.1142568572280081 0 -0.044291115550221832 -0.10994686728093871 0 -0.07076687267432108 -0.1142568572280081 0 -0.051600297873546357 -0.095051206105288819 0 -0.044291115550221832 -0.10994686728093871 0 -0.032453498244747199 -0.087001550327739735 0 -0.051600297873546357 -0.095051206105288819 0 -0.044291115550221832 -0.10994686728093871 0 -0.032453498244747199 -0.087001550327739735 0 -0.044291115550221832 -0.10994686728093871 0 -0.028650089411466882 -0.1096696962239173 0 -0.044291115550221832 -0.10994686728093871 0 -0.050178390909508278 -0.13166414322784881 0 -0.033578234858004291 -0.12622010836747671 0 -0.044291115550221832 -0.10994686728093871 0 -0.028650089411466882 -0.1096696962239173 0 -0.033578234858004291 -0.12622010836747671 0 -0.028650089411466882 -0.1096696962239173 0 -0.021610958674889241 -0.1236399918879838 0 -0.013713416355387869 -0.1050205758249743 0 -0.028650089411466882 -0.1096696962239173 0 -0.021610958674889241 -0.1236399918879838 0 -0.033578234858004291 -0.12622010836747671 0 -0.032453498244747199 -0.087001550327739735 0 -0.028650089411466882 -0.1096696962239173 0 -0.013713416355387869 -0.1050205758249743 0 -0.013713416355387869 -0.1050205758249743 0 0.002348869369470805 -0.11731109275913 0 0.00271208556382007 -0.09883127110100752 0 -0.01018293480097566 -0.085106020112889605 0 -0.013713416355387869 -0.1050205758249743 0 0.00271208556382007 -0.09883127110100752 0 -0.021610958674889241 -0.1236399918879838 0 -0.013713416355387869 -0.1050205758249743 0 -0.0089565425227370356 -0.12302905988177 0 -0.013713416355387869 -0.1050205758249743 0 -0.0089565425227370356 -0.12302905988177 0 0.002348869369470805 -0.11731109275913 0 -0.0089565425227370356 -0.12302905988177 0 -8.7367507044229444e-05 -0.1320758947210427 0 0.002348869369470805 -0.11731109275913 0 -0.0089565425227370356 -0.12302905988177 0 -8.7367507044229444e-05 -0.1320758947210427 0 -0.01070795677091901 -0.13402965130026151 0 -8.7367507044229444e-05 -0.1320758947210427 0 -0.0083325490775591395 -0.1445639533356648 0 0.00207234792727306 -0.14230533698230219 0 -8.7367507044229444e-05 -0.1320758947210427 0 -0.01070795677091901 -0.13402965130026151 0 -0.0083325490775591395 -0.1445639533356648 0 -0.01070795677091901 -0.13402965130026151 0 -0.021584240955527311 -0.13825260388064289 0 -0.0083325490775591395 -0.1445639533356648 0 -0.021610958674889241 -0.1236399918879838 0 -0.0089565425227370356 -0.12302905988177 0 -0.01070795677091901 -0.13402965130026151 0 -0.021584240955527311 -0.13825260388064289 0 -0.033578234858004291 -0.12622010836747671 0 -0.035154613646412251 -0.14414734770352849 0 -0.021610958674889241 -0.1236399918879838 0 -0.01070795677091901 -0.13402965130026151 0 -0.021584240955527311 -0.13825260388064289 0 -0.021610958674889241 -0.1236399918879838 0 -0.021584240955527311 -0.13825260388064289 0 -0.033578234858004291 -0.12622010836747671 0 -0.021735869372850151 -0.1525695057058703 0 -0.035006977501845192 -0.15977716749456189 0 -0.035154613646412251 -0.14414734770352849 0 -0.021584240955527311 -0.13825260388064289 0 -0.021735869372850151 -0.1525695057058703 0 -0.035154613646412251 -0.14414734770352849 0 -0.021584240955527311 -0.13825260388064289 0 -0.021735869372850151 -0.1525695057058703 0 -0.0083325490775591395 -0.1445639533356648 0 -0.021735869372850151 -0.1525695057058703 0 -0.0083325490775591395 -0.1445639533356648 0 -0.0089773153789232361 -0.15948872001182321 0 -0.0083325490775591395 -0.1445639533356648 0 0.0044631311353323967 -0.15533498840657239 0 0.00207234792727306 -0.14230533698230219 0 -0.0083325490775591395 -0.1445639533356648 0 -0.0089773153789232361 -0.15948872001182321 0 0.0044631311353323967 -0.15533498840657239 0 -0.0089773153789232361 -0.15948872001182321 0 -0.0061774939463007019 -0.17193904810355759 0 -0.02254149666353707 -0.17016892296766931 0 -0.00089121633836973589 -0.16327629310308001 0 -0.0089773153789232361 -0.15948872001182321 0 0.0044631311353323967 -0.15533498840657239 0 -0.00089121633836973589 -0.16327629310308001 0 -0.0061774939463007019 -0.17193904810355759 0 0.0043408472213855853 -0.1709494822463099 0 -0.00089121633836973589 -0.16327629310308001 0 -0.0089773153789232361 -0.15948872001182321 0 -0.0061774939463007019 -0.17193904810355759 0 -0.0061774939463007019 -0.17193904810355759 0 -0.01111585859188041 -0.18519644467540661 0 -0.02254149666353707 -0.17016892296766931 0 -0.0061774939463007019 -0.17193904810355759 0 -0.01111585859188041 -0.18519644467540661 0 0.001720711736504155 -0.18321484223918161 0 -0.0061774939463007019 -0.17193904810355759 0 0.0043408472213855853 -0.1709494822463099 0 0.001720711736504155 -0.18321484223918161 0 -0.01111585859188041 -0.18519644467540661 0 -0.02254149666353707 -0.17016892296766931 0 -0.02905900948168361 -0.18889681296462019 0 -0.02254149666353707 -0.17016892296766931 0 -0.035986838854404138 -0.17541035913326941 0 -0.02905900948168361 -0.18889681296462019 0 -0.021735869372850151 -0.1525695057058703 0 -0.0089773153789232361 -0.15948872001182321 0 -0.02254149666353707 -0.17016892296766931 0 -0.02254149666353707 -0.17016892296766931 0 -0.035006977501845192 -0.15977716749456189 0 -0.035986838854404138 -0.17541035913326941 0 -0.021735869372850151 -0.1525695057058703 0 -0.02254149666353707 -0.17016892296766931 0 -0.035006977501845192 -0.15977716749456189 0 -0.035006977501845192 -0.15977716749456189 0 -0.046846234269656242 -0.16872630703543781 0 -0.035986838854404138 -0.17541035913326941 0 -0.035006977501845192 -0.15977716749456189 0 -0.046846234269656242 -0.16872630703543781 0 -0.052498855700484147 -0.1528508571804604 0 -0.035986838854404138 -0.17541035913326941 0 -0.049180669748795369 -0.18426403801105079 0 -0.02905900948168361 -0.18889681296462019 0 -0.046846234269656242 -0.16872630703543781 0 -0.035986838854404138 -0.17541035913326941 0 -0.049180669748795369 -0.18426403801105079 0 -0.046846234269656242 -0.16872630703543781 0 -0.049180669748795369 -0.18426403801105079 0 -0.067086850944435561 -0.17194904997627061 0 -0.049180669748795369 -0.18426403801105079 0 -0.065886087948995323 -0.1868444779592334 0 -0.067086850944435561 -0.17194904997627061 0 -0.046846234269656242 -0.16872630703543781 0 -0.052498855700484147 -0.1528508571804604 0 -0.067086850944435561 -0.17194904997627061 0 -0.052498855700484147 -0.1528508571804604 0 -0.050178390909508278 -0.13166414322784881 0 -0.066911883777597228 -0.13767809129283179 0 -0.050178390909508278 -0.13166414322784881 0 -0.033578234858004291 -0.12622010836747671 0 -0.035154613646412251 -0.14414734770352849 0 -0.035006977501845192 -0.15977716749456189 0 -0.052498855700484147 -0.1528508571804604 0 -0.035154613646412251 -0.14414734770352849 0 -0.052498855700484147 -0.1528508571804604 0 -0.050178390909508278 -0.13166414322784881 0 -0.035154613646412251 -0.14414734770352849 0 -0.030496456730285251 -0.23617075648794489 0 -0.02058946353034052 -0.24673964048383121 0 -0.01433523027994708 -0.2315735345724951 0 -0.030496456730285251 -0.23617075648794489 0 -0.02058946353034052 -0.24673964048383121 0 -0.034892676046757463 -0.24952760846005781 0 -0.0074019412988201817 -0.24854936663358451 0 -0.01433523027994708 -0.2315735345724951 0 0.0019815391129595372 -0.23326154048766989 0 -0.02058946353034052 -0.24673964048383121 0 -0.0074019412988201817 -0.24854936663358451 0 -0.01433523027994708 -0.2315735345724951 0 -0.01433523027994708 -0.2315735345724951 0 -0.00053481913395022479 -0.2137630812897415 0 0.0019815391129595372 -0.23326154048766989 0 -0.01433523027994708 -0.2315735345724951 0 -0.016979603611894871 -0.21562155904709421 0 -0.00053481913395022479 -0.2137630812897415 0 -0.01433523027994708 -0.2315735345724951 0 -0.026247679846550319 -0.22328377272885699 0 -0.016979603611894871 -0.21562155904709421 0 -0.030496456730285251 -0.23617075648794489 0 -0.01433523027994708 -0.2315735345724951 0 -0.026247679846550319 -0.22328377272885699 0 -0.030312494608010259 -0.20814308882602969 0 -0.016979603611894871 -0.21562155904709421 0 -0.013467794191016491 -0.201344317818348 0 -0.026247679846550319 -0.22328377272885699 0 -0.030312494608010259 -0.20814308882602969 0 -0.016979603611894871 -0.21562155904709421 0 -0.016979603611894871 -0.21562155904709421 0 -0.00053481913395022479 -0.2137630812897415 0 -0.013467794191016491 -0.201344317818348 0 -0.00053481913395022479 -0.2137630812897415 0 -0.013467794191016491 -0.201344317818348 0 0.0058434739981291749 -0.19505996769432099 0 -0.01111585859188041 -0.18519644467540661 0 -0.013467794191016491 -0.201344317818348 0 0.0058434739981291749 -0.19505996769432099 0 -0.01111585859188041 -0.18519644467540661 0 0.0058434739981291749 -0.19505996769432099 0 0.001720711736504155 -0.18321484223918161 0 -0.01111585859188041 -0.18519644467540661 0 -0.013467794191016491 -0.201344317818348 0 -0.02905900948168361 -0.18889681296462019 0 -0.030312494608010259 -0.20814308882602969 0 -0.013467794191016491 -0.201344317818348 0 -0.02905900948168361 -0.18889681296462019 0 -0.030312494608010259 -0.20814308882602969 0 -0.02905900948168361 -0.18889681296462019 0 -0.041609475830034527 -0.19700029446739331 0 -0.049180669748795369 -0.18426403801105079 0 -0.02905900948168361 -0.18889681296462019 0 -0.041609475830034527 -0.19700029446739331 0 -0.049180669748795369 -0.18426403801105079 0 -0.041609475830034527 -0.19700029446739331 0 -0.059602764428980909 -0.2007913685919219 0 -0.049180669748795369 -0.18426403801105079 0 -0.059602764428980909 -0.2007913685919219 0 -0.065886087948995323 -0.1868444779592334 0 -0.041609475830034527 -0.19700029446739331 0 -0.059602764428980909 -0.2007913685919219 0 -0.045998587730862482 -0.2099731760879861 0 -0.059602764428980909 -0.2007913685919219 0 -0.045998587730862482 -0.2099731760879861 0 -0.05759535120541931 -0.22008027816405351 0 -0.045998587730862482 -0.2099731760879861 0 -0.04157309878005086 -0.22466128756308301 0 -0.05759535120541931 -0.22008027816405351 0 -0.030312494608010259 -0.20814308882602969 0 -0.041609475830034527 -0.19700029446739331 0 -0.045998587730862482 -0.2099731760879861 0 -0.026247679846550319 -0.22328377272885699 0 -0.030312494608010259 -0.20814308882602969 0 -0.04157309878005086 -0.22466128756308301 0 -0.030312494608010259 -0.20814308882602969 0 -0.045998587730862482 -0.2099731760879861 0 -0.04157309878005086 -0.22466128756308301 0 -0.030496456730285251 -0.23617075648794489 0 -0.026247679846550319 -0.22328377272885699 0 -0.04157309878005086 -0.22466128756308301 0 -0.030496456730285251 -0.23617075648794489 0 -0.04157309878005086 -0.22466128756308301 0 -0.043926439475269682 -0.23893244645978129 0 -0.04157309878005086 -0.22466128756308301 0 -0.05759535120541931 -0.22008027816405351 0 -0.056579751506169992 -0.23675858024042681 0 -0.05759535120541931 -0.22008027816405351 0 -0.056579751506169992 -0.23675858024042681 0 -0.069134652816466816 -0.22964083039239391 0 -0.04157309878005086 -0.22466128756308301 0 -0.056579751506169992 -0.23675858024042681 0 -0.043926439475269682 -0.23893244645978129 0 -0.056579751506169992 -0.23675858024042681 0 -0.05687482565736731 -0.2475939293170851 0 -0.043926439475269682 -0.23893244645978129 0 -0.056579751506169992 -0.23675858024042681 0 -0.05687482565736731 -0.2475939293170851 0 -0.068158317794434542 -0.2495170602682302 0 -0.047152442161352552 -0.25140253843235022 0 -0.05687482565736731 -0.2475939293170851 0 -0.043926439475269682 -0.23893244645978129 0 -0.047152442161352552 -0.25140253843235022 0 -0.043926439475269682 -0.23893244645978129 0 -0.034892676046757463 -0.24952760846005781 0 -0.030496456730285251 -0.23617075648794489 0 -0.043926439475269682 -0.23893244645978129 0 -0.034892676046757463 -0.24952760846005781 0 -0.093742133900348884 -0.24043010099263989 0 -0.080771264957155059 -0.2448400294426262 0 -0.087282124908491243 -0.2287675351389323 0 -0.080771264957155059 -0.2448400294426262 0 -0.068158317794434542 -0.2495170602682302 0 -0.087282124908491243 -0.2287675351389323 0 -0.095721911214905878 -0.25452512295504748 0 -0.093742133900348884 -0.24043010099263989 0 -0.080771264957155059 -0.2448400294426262 0 -0.068158317794434542 -0.2495170602682302 0 -0.087282124908491243 -0.2287675351389323 0 -0.068158317794434542 -0.2495170602682302 0 -0.069134652816466816 -0.22964083039239391 0 -0.087282124908491243 -0.2287675351389323 0 -0.056579751506169992 -0.23675858024042681 0 -0.068158317794434542 -0.2495170602682302 0 -0.069134652816466816 -0.22964083039239391 0 -0.069134652816466816 -0.22964083039239391 0 -0.087282124908491243 -0.2287675351389323 0 -0.076057718667818963 -0.21308069815032701 0 -0.05759535120541931 -0.22008027816405351 0 -0.069134652816466816 -0.22964083039239391 0 -0.076057718667818963 -0.21308069815032701 0 -0.076057718667818963 -0.21308069815032701 0 -0.079724743922202038 -0.1931689517792245 0 -0.1064059320225479 -0.20801801000963441 0 -0.087282124908491243 -0.2287675351389323 0 -0.076057718667818963 -0.21308069815032701 0 -0.1064059320225479 -0.20801801000963441 0 -0.059602764428980909 -0.2007913685919219 0 -0.05759535120541931 -0.22008027816405351 0 -0.076057718667818963 -0.21308069815032701 0 -0.059602764428980909 -0.2007913685919219 0 -0.076057718667818963 -0.21308069815032701 0 -0.079724743922202038 -0.1931689517792245 0 -0.059602764428980909 -0.2007913685919219 0 -0.079724743922202038 -0.1931689517792245 0 -0.065886087948995323 -0.1868444779592334 0 -0.1064059320225479 -0.20801801000963441 0 -0.097716937947231491 -0.18236863836799291 0 -0.1110316492752499 -0.18715314187080029 0 -0.079724743922202038 -0.1931689517792245 0 -0.1064059320225479 -0.20801801000963441 0 -0.097716937947231491 -0.18236863836799291 0 -0.1064059320225479 -0.20801801000963441 0 -0.12552973913660481 -0.18726848488033629 0 -0.1064059320225479 -0.20801801000963441 0 -0.1110316492752499 -0.18715314187080029 0 -0.12552973913660481 -0.18726848488033629 0 -0.1064059320225479 -0.20801801000963441 0 -0.12552973913660481 -0.18726848488033629 0 -0.13387494140780751 -0.20470574401124339 0 -0.1064059320225479 -0.20801801000963441 0 -0.12427974049693311 -0.2192069991518282 0 -0.13387494140780751 -0.20470574401124339 0 -0.087282124908491243 -0.2287675351389323 0 -0.1064059320225479 -0.20801801000963441 0 -0.093742133900348884 -0.24043010099263989 0 -0.087282124908491243 -0.2287675351389323 0 -0.10824525073862321 -0.23051559327079299 0 -0.087282124908491243 -0.2287675351389323 0 -0.1064059320225479 -0.20801801000963441 0 -0.10824525073862321 -0.23051559327079299 0 -0.10824525073862321 -0.23051559327079299 0 -0.12427974049693311 -0.2192069991518282 0 -0.12824360402680501 -0.23191432903801429 0 -0.1064059320225479 -0.20801801000963441 0 -0.10824525073862321 -0.23051559327079299 0 -0.12427974049693311 -0.2192069991518282 0 -0.10824525073862321 -0.23051559327079299 0 -0.11762503027157251 -0.2438646842861463 0 -0.12824360402680501 -0.23191432903801429 0 -0.10824525073862321 -0.23051559327079299 0 -0.11762503027157251 -0.2438646842861463 0 -0.10425775271815001 -0.24508298738637729 0 -0.1223083114857455 -0.25613110687167828 0 -0.11762503027157251 -0.2438646842861463 0 -0.13178625741313191 -0.24563913469824819 0 -0.1091327142612739 -0.25696123718903757 0 -0.11762503027157251 -0.2438646842861463 0 -0.10425775271815001 -0.24508298738637729 0 -0.093742133900348884 -0.24043010099263989 0 -0.10824525073862321 -0.23051559327079299 0 -0.10425775271815001 -0.24508298738637729 0 -0.095721911214905878 -0.25452512295504748 0 -0.093742133900348884 -0.24043010099263989 0 -0.10425775271815001 -0.24508298738637729 0 -0.092565867144336622 -0.15088368298751351 0 -0.083729950295400757 -0.13590116009119169 0 -0.074051961468577149 -0.15384012550620929 0 -0.092565867144336622 -0.15088368298751351 0 -0.083729950295400757 -0.13590116009119169 0 -0.10068440036152999 -0.138661001170194 0 -0.07076687267432108 -0.1142568572280081 0 -0.050178390909508278 -0.13166414322784881 0 -0.066911883777597228 -0.13767809129283179 0 -0.07076687267432108 -0.1142568572280081 0 -0.083729950295400757 -0.13590116009119169 0 -0.066911883777597228 -0.13767809129283179 0 -0.083729950295400757 -0.13590116009119169 0 -0.066911883777597228 -0.13767809129283179 0 -0.074051961468577149 -0.15384012550620929 0 -0.052498855700484147 -0.1528508571804604 0 -0.066911883777597228 -0.13767809129283179 0 -0.074051961468577149 -0.15384012550620929 0 -0.074051961468577149 -0.15384012550620929 0 -0.067086850944435561 -0.17194904997627061 0 -0.08723645329314525 -0.16478450782981641 0 -0.052498855700484147 -0.1528508571804604 0 -0.074051961468577149 -0.15384012550620929 0 -0.067086850944435561 -0.17194904997627061 0 -0.065886087948995323 -0.1868444779592334 0 -0.067086850944435561 -0.17194904997627061 0 -0.080927999866602984 -0.17831632334858599 0 -0.079724743922202038 -0.1931689517792245 0 -0.065886087948995323 -0.1868444779592334 0 -0.080927999866602984 -0.17831632334858599 0 -0.079724743922202038 -0.1931689517792245 0 -0.080927999866602984 -0.17831632334858599 0 -0.097716937947231491 -0.18236863836799291 0 -0.080927999866602984 -0.17831632334858599 0 -0.08723645329314525 -0.16478450782981641 0 -0.097716937947231491 -0.18236863836799291 0 -0.067086850944435561 -0.17194904997627061 0 -0.080927999866602984 -0.17831632334858599 0 -0.08723645329314525 -0.16478450782981641 0 -0.092565867144336622 -0.15088368298751351 0 -0.074051961468577149 -0.15384012550620929 0 -0.08723645329314525 -0.16478450782981641 0 -0.10219726387108739 -0.16229156772505179 0 -0.097716937947231491 -0.18236863836799291 0 -0.11447398799461569 -0.17095743422523779 0 -0.092565867144336622 -0.15088368298751351 0 -0.08723645329314525 -0.16478450782981641 0 -0.10219726387108739 -0.16229156772505179 0 -0.08723645329314525 -0.16478450782981641 0 -0.10219726387108739 -0.16229156772505179 0 -0.097716937947231491 -0.18236863836799291 0 -0.10219726387108739 -0.16229156772505179 0 -0.1129493426271293 -0.15918494803172301 0 -0.10797388694904241 -0.149235992811763 0 -0.097716937947231491 -0.18236863836799291 0 -0.1110316492752499 -0.18715314187080029 0 -0.11447398799461569 -0.17095743422523779 0 -0.11447398799461569 -0.17095743422523779 0 -0.12552973913660481 -0.18726848488033629 0 -0.13260571201648669 -0.17305508669918321 0 -0.1110316492752499 -0.18715314187080029 0 -0.11447398799461569 -0.17095743422523779 0 -0.12552973913660481 -0.18726848488033629 0 -0.11447398799461569 -0.17095743422523779 0 -0.1227554134926354 -0.1629562434519892 0 -0.13260571201648669 -0.17305508669918321 0 -0.10219726387108739 -0.16229156772505179 0 -0.1129493426271293 -0.15918494803172301 0 -0.11447398799461569 -0.17095743422523779 0 -0.1129493426271293 -0.15918494803172301 0 -0.11447398799461569 -0.17095743422523779 0 -0.1227554134926354 -0.1629562434519892 0 -0.1129493426271293 -0.15918494803172301 0 -0.1227554134926354 -0.1629562434519892 0 -0.12006252970395979 -0.152591584973194 0 -0.12006252970395979 -0.152591584973194 0 -0.1246746975720613 -0.14429165099579869 0 -0.1147695138312526 -0.14075431864444041 0 -0.12006252970395979 -0.152591584973194 0 -0.1147695138312526 -0.14075431864444041 0 -0.10797388694904241 -0.149235992811763 0 -0.1129493426271293 -0.15918494803172301 0 -0.12006252970395979 -0.152591584973194 0 -0.10797388694904241 -0.149235992811763 0 -0.1147695138312526 -0.14075431864444041 0 -0.10797388694904241 -0.149235992811763 0 -0.10068440036152999 -0.138661001170194 0 -0.092565867144336622 -0.15088368298751351 0 -0.10797388694904241 -0.149235992811763 0 -0.10068440036152999 -0.138661001170194 0 -0.092565867144336622 -0.15088368298751351 0 -0.10219726387108739 -0.16229156772505179 0 -0.10797388694904241 -0.149235992811763 0 -0.097242629798420327 -0.1185668471750775 0 -0.083729950295400757 -0.13590116009119169 0 -0.10068440036152999 -0.138661001170194 0 -0.097242629798420327 -0.1185668471750775 0 -0.10068440036152999 -0.138661001170194 0 -0.1128338108833226 -0.13047386474767261 0 -0.1147695138312526 -0.14075431864444041 0 -0.10068440036152999 -0.138661001170194 0 -0.1128338108833226 -0.13047386474767261 0 -0.1147695138312526 -0.14075431864444041 0 -0.1128338108833226 -0.13047386474767261 0 -0.1186083316188242 -0.13346037066554581 0 -0.1147695138312526 -0.14075431864444041 0 -0.1186083316188242 -0.13346037066554581 0 -0.1249345866341606 -0.13576661566523751 0 -0.1246746975720613 -0.14429165099579869 0 -0.1147695138312526 -0.14075431864444041 0 -0.1249345866341606 -0.13576661566523751 0 -0.12371838692251939 -0.12287683712214691 0 -0.1128338108833226 -0.13047386474767261 0 -0.12245831614015221 -0.12793607091777609 0 -0.1186083316188242 -0.13346037066554581 0 -0.1249345866341606 -0.13576661566523751 0 -0.12245831614015221 -0.12793607091777609 0 -0.1128338108833226 -0.13047386474767261 0 -0.1186083316188242 -0.13346037066554581 0 -0.12245831614015221 -0.12793607091777609 0 -0.1249345866341606 -0.13576661566523751 0 -0.12245831614015221 -0.12793607091777609 0 -0.13071229567074541 -0.13389839556568781 0 -0.12245831614015221 -0.12793607091777609 0 -0.13071229567074541 -0.13389839556568781 0 -0.1368682256682496 -0.12817010881979721 0 -0.1246746975720613 -0.14429165099579869 0 -0.1249345866341606 -0.13576661566523751 0 -0.13140556420772931 -0.14067341960016061 0 -0.1249345866341606 -0.13576661566523751 0 -0.13071229567074541 -0.13389839556568781 0 -0.13140556420772931 -0.14067341960016061 0 -0.13071229567074541 -0.13389839556568781 0 -0.1374574357055475 -0.13674023456130729 0 -0.1368682256682496 -0.12817010881979721 0 -0.1374574357055475 -0.13674023456130729 0 -0.1368682256682496 -0.12817010881979721 0 -0.14540586020422219 -0.13560887798403079 0 -0.1374574357055475 -0.13674023456130729 0 -0.1407959527869285 -0.14436383516889059 0 -0.13140556420772931 -0.14067341960016061 0 -0.13071229567074541 -0.13389839556568781 0 -0.1374574357055475 -0.13674023456130729 0 -0.13140556420772931 -0.14067341960016061 0 -0.1368682256682496 -0.12817010881979721 0 -0.14737626460106781 -0.12592111807363071 0 -0.14540586020422219 -0.13560887798403079 0 -0.1374574357055475 -0.13674023456130729 0 -0.14540586020422219 -0.13560887798403079 0 -0.1407959527869285 -0.14436383516889059 0 -0.14540586020422219 -0.13560887798403079 0 -0.15587760461318551 -0.13264452279792829 0 -0.15678102103438951 -0.14391739337086179 0 -0.14737626460106781 -0.12592111807363071 0 -0.15587760461318551 -0.13264452279792829 0 -0.15719415105627091 -0.1227792853410159 0 -0.14737626460106781 -0.12592111807363071 0 -0.14540586020422219 -0.13560887798403079 0 -0.15587760461318551 -0.13264452279792829 0 -0.1407959527869285 -0.14436383516889059 0 -0.1468003276251256 -0.1530169951031469 0 -0.15678102103438951 -0.14391739337086179 0 -0.14540586020422219 -0.13560887798403079 0 -0.1407959527869285 -0.14436383516889059 0 -0.15678102103438951 -0.14391739337086179 0 -0.1468003276251256 -0.1530169951031469 0 -0.15678102103438951 -0.14391739337086179 0 -0.1618267873882652 -0.15487258848071209 0 -0.1407959527869285 -0.14436383516889059 0 -0.1468003276251256 -0.1530169951031469 0 -0.13279725999559619 -0.14901009572655571 0 -0.1468003276251256 -0.1530169951031469 0 -0.13279725999559619 -0.14901009572655571 0 -0.1330444880777725 -0.15912308851814361 0 -0.1407959527869285 -0.14436383516889059 0 -0.13140556420772931 -0.14067341960016061 0 -0.13279725999559619 -0.14901009572655571 0 -0.1246746975720613 -0.14429165099579869 0 -0.13140556420772931 -0.14067341960016061 0 -0.13279725999559619 -0.14901009572655571 0 -0.12006252970395979 -0.152591584973194 0 -0.13279725999559619 -0.14901009572655571 0 -0.1330444880777725 -0.15912308851814361 0 -0.12006252970395979 -0.152591584973194 0 -0.1246746975720613 -0.14429165099579869 0 -0.13279725999559619 -0.14901009572655571 0 -0.1227554134926354 -0.1629562434519892 0 -0.12006252970395979 -0.152591584973194 0 -0.1330444880777725 -0.15912308851814361 0 -0.1227554134926354 -0.1629562434519892 0 -0.1330444880777725 -0.15912308851814361 0 -0.13260571201648669 -0.17305508669918321 0 -0.1330444880777725 -0.15912308851814361 0 -0.13260571201648669 -0.17305508669918321 0 -0.14327860588568919 -0.16543925680275071 0 -0.12552973913660481 -0.18726848488033629 0 -0.13260571201648669 -0.17305508669918321 0 -0.142782132878364 -0.1886151523016682 0 -0.14815028328559671 -0.17628871996725609 0 -0.1573805813158452 -0.16734400462489221 0 -0.15915750844726381 -0.18474937544656761 0 -0.14815028328559671 -0.17628871996725609 0 -0.15915750844726381 -0.18474937544656761 0 -0.142782132878364 -0.1886151523016682 0 -0.13260571201648669 -0.17305508669918321 0 -0.14815028328559671 -0.17628871996725609 0 -0.142782132878364 -0.1886151523016682 0 -0.1468003276251256 -0.1530169951031469 0 -0.1330444880777725 -0.15912308851814361 0 -0.14327860588568919 -0.16543925680275071 0 -0.13260571201648669 -0.17305508669918321 0 -0.14815028328559671 -0.17628871996725609 0 -0.14327860588568919 -0.16543925680275071 0 -0.14815028328559671 -0.17628871996725609 0 -0.14327860588568919 -0.16543925680275071 0 -0.1573805813158452 -0.16734400462489221 0 -0.1468003276251256 -0.1530169951031469 0 -0.1573805813158452 -0.16734400462489221 0 -0.1618267873882652 -0.15487258848071209 0 -0.1468003276251256 -0.1530169951031469 0 -0.14327860588568919 -0.16543925680275071 0 -0.1573805813158452 -0.16734400462489221 0 -0.1573805813158452 -0.16734400462489221 0 -0.1714341228141639 -0.1623693748209821 0 -0.1618267873882652 -0.15487258848071209 0 -0.1573805813158452 -0.16734400462489221 0 -0.1714341228141639 -0.1623693748209821 0 -0.17011141627568249 -0.1756589001507198 0 -0.1573805813158452 -0.16734400462489221 0 -0.15915750844726381 -0.18474937544656761 0 -0.17011141627568249 -0.1756589001507198 0 -0.15915750844726381 -0.18474937544656761 0 -0.17011141627568249 -0.1756589001507198 0 -0.1761221468536607 -0.1906291004356713 0 -0.17011141627568249 -0.1756589001507198 0 -0.18400063951085829 -0.17367443318172859 0 -0.1761221468536607 -0.1906291004356713 0 -0.18400063951085829 -0.17367443318172859 0 -0.1761221468536607 -0.1906291004356713 0 -0.19224833781571299 -0.1899871164870536 0 -0.18400063951085829 -0.17367443318172859 0 -0.1824598360587053 -0.15604070128364789 0 -0.19280240759936959 -0.1638856888916411 0 -0.1714341228141639 -0.1623693748209821 0 -0.18400063951085829 -0.17367443318172859 0 -0.1824598360587053 -0.15604070128364789 0 -0.1714341228141639 -0.1623693748209821 0 -0.17011141627568249 -0.1756589001507198 0 -0.18400063951085829 -0.17367443318172859 0 -0.1824598360587053 -0.15604070128364789 0 -0.17282547633562689 -0.14662562120419209 0 -0.19399013383676339 -0.1411974515825771 0 -0.1714341228141639 -0.1623693748209821 0 -0.1824598360587053 -0.15604070128364789 0 -0.17282547633562689 -0.14662562120419209 0 -0.17282547633562689 -0.14662562120419209 0 -0.1711301833626718 -0.13161604866728471 0 -0.19399013383676339 -0.1411974515825771 0 -0.1711301833626718 -0.13161604866728471 0 -0.19399013383676339 -0.1411974515825771 0 -0.19078395627702749 -0.11532063674878611 0 -0.15587760461318551 -0.13264452279792829 0 -0.1711301833626718 -0.13161604866728471 0 -0.15719415105627091 -0.1227792853410159 0 -0.15587760461318551 -0.13264452279792829 0 -0.1711301833626718 -0.13161604866728471 0 -0.15678102103438951 -0.14391739337086179 0 -0.17282547633562689 -0.14662562120419209 0 -0.1711301833626718 -0.13161604866728471 0 -0.15678102103438951 -0.14391739337086179 0 -0.1714341228141639 -0.1623693748209821 0 -0.17282547633562689 -0.14662562120419209 0 -0.1618267873882652 -0.15487258848071209 0 -0.17282547633562689 -0.14662562120419209 0 -0.15678102103438951 -0.14391739337086179 0 -0.1618267873882652 -0.15487258848071209 0 -0.15114094217610249 -0.24408778668063341 0 -0.1433518357179219 -0.23763047889329689 0 -0.1571319452915064 -0.23392897992680819 0 -0.14555956547881591 -0.25165122890814712 0 -0.15114094217610249 -0.24408778668063341 0 -0.1433518357179219 -0.23763047889329689 0 -0.14555956547881591 -0.25165122890814712 0 -0.1433518357179219 -0.23763047889329689 0 -0.13178625741313191 -0.24563913469824819 0 -0.11762503027157251 -0.2438646842861463 0 -0.13178625741313191 -0.24563913469824819 0 -0.12824360402680501 -0.23191432903801429 0 -0.1433518357179219 -0.23763047889329689 0 -0.13178625741313191 -0.24563913469824819 0 -0.12824360402680501 -0.23191432903801429 0 -0.1433518357179219 -0.23763047889329689 0 -0.12824360402680501 -0.23191432903801429 0 -0.144628974288882 -0.2208813194294561 0 -0.12427974049693311 -0.2192069991518282 0 -0.12824360402680501 -0.23191432903801429 0 -0.144628974288882 -0.2208813194294561 0 -0.1433518357179219 -0.23763047889329689 0 -0.144628974288882 -0.2208813194294561 0 -0.1571319452915064 -0.23392897992680819 0 -0.144628974288882 -0.2208813194294561 0 -0.1573836060397297 -0.22035384485546611 0 -0.1571319452915064 -0.23392897992680819 0 -0.144628974288882 -0.2208813194294561 0 -0.13387494140780751 -0.20470574401124339 0 -0.15737461297642449 -0.2056235028054226 0 -0.13387494140780751 -0.20470574401124339 0 -0.15737461297642449 -0.2056235028054226 0 -0.144628974288882 -0.2208813194294561 0 -0.15737461297642449 -0.2056235028054226 0 -0.1573836060397297 -0.22035384485546611 0 -0.12427974049693311 -0.2192069991518282 0 -0.144628974288882 -0.2208813194294561 0 -0.13387494140780751 -0.20470574401124339 0 -0.12552973913660481 -0.18726848488033629 0 -0.13387494140780751 -0.20470574401124339 0 -0.142782132878364 -0.1886151523016682 0 -0.13387494140780751 -0.20470574401124339 0 -0.142782132878364 -0.1886151523016682 0 -0.15737461297642449 -0.2056235028054226 0 -0.15915750844726381 -0.18474937544656761 0 -0.142782132878364 -0.1886151523016682 0 -0.15737461297642449 -0.2056235028054226 0 -0.15915750844726381 -0.18474937544656761 0 -0.1761221468536607 -0.1906291004356713 0 -0.15737461297642449 -0.2056235028054226 0 -0.1761221468536607 -0.1906291004356713 0 -0.18087428454504151 -0.2065412615996019 0 -0.15737461297642449 -0.2056235028054226 0 -0.1761221468536607 -0.1906291004356713 0 -0.18929528125695011 -0.19970945243359611 0 -0.19224833781571299 -0.1899871164870536 0 -0.1761221468536607 -0.1906291004356713 0 -0.18087428454504151 -0.2065412615996019 0 -0.18929528125695011 -0.19970945243359611 0 -0.18699518197941381 -0.21595929857790611 0 -0.18087428454504151 -0.2065412615996019 0 -0.17039889160210589 -0.22098157726017739 0 -0.18087428454504151 -0.2065412615996019 0 -0.15737461297642449 -0.2056235028054226 0 -0.18087428454504151 -0.2065412615996019 0 -0.15737461297642449 -0.2056235028054226 0 -0.17039889160210589 -0.22098157726017739 0 -0.15737461297642449 -0.2056235028054226 0 -0.1573836060397297 -0.22035384485546611 0 -0.17039889160210589 -0.22098157726017739 0 -0.1571319452915064 -0.23392897992680819 0 -0.17039889160210589 -0.22098157726017739 0 -0.16709785011861589 -0.23725638996949749 0 -0.1573836060397297 -0.22035384485546611 0 -0.1571319452915064 -0.23392897992680819 0 -0.17039889160210589 -0.22098157726017739 0 -0.18699518197941381 -0.21595929857790611 0 -0.17814857436379011 -0.23402105159375691 0 -0.17039889160210589 -0.22098157726017739 0 -0.17814857436379011 -0.23402105159375691 0 -0.16709785011861589 -0.23725638996949749 0 -0.18699518197941381 -0.21595929857790611 0 -0.17814857436379011 -0.23402105159375691 0 -0.1916287148353534 -0.22834351358174479 0 -0.18699518197941381 -0.21595929857790611 0 -0.17039889160210589 -0.22098157726017739 0 -0.17814857436379011 -0.23402105159375691 0 -0.1788834735570495 -0.2492280067697098 0 -0.1916287148353534 -0.22834351358174479 0 -0.16930196674816639 -0.25208280460960758 0 -0.17814857436379011 -0.23402105159375691 0 -0.16930196674816639 -0.25208280460960758 0 -0.17814857436379011 -0.23402105159375691 0 -0.1788834735570495 -0.2492280067697098 0 -0.17814857436379011 -0.23402105159375691 0 -0.1788834735570495 -0.2492280067697098 0 -0.1916287148353534 -0.22834351358174479 0 -0.16930196674816639 -0.25208280460960758 0 -0.16709785011861589 -0.23725638996949749 0 -0.16050787258751101 -0.24526753645713731 0 -0.16930196674816639 -0.25208280460960758 0 -0.17814857436379011 -0.23402105159375691 0 -0.16709785011861589 -0.23725638996949749 0 -0.1571319452915064 -0.23392897992680819 0 -0.16709785011861589 -0.23725638996949749 0 -0.16050787258751101 -0.24526753645713731 0 -0.15114094217610249 -0.24408778668063341 0 -0.1571319452915064 -0.23392897992680819 0 -0.16050787258751101 -0.24526753645713731 0 -0.15732989424637961 -0.25741631051579289 0 -0.15114094217610249 -0.24408778668063341 0 -0.16050787258751101 -0.24526753645713731 0 -0.21274794732428029 -0.24834802559785249 0 -0.20952475166938869 -0.23674410193605039 0 -0.22454749275957561 -0.23191452042330199 0 -0.21274794732428029 -0.24834802559785249 0 -0.20952475166938869 -0.23674410193605039 0 -0.19816737708826421 -0.24332479085234021 0 -0.20952475166938869 -0.23674410193605039 0 -0.19816737708826421 -0.24332479085234021 0 -0.1916287148353534 -0.22834351358174479 0 -0.1788834735570495 -0.2492280067697098 0 -0.19816737708826421 -0.24332479085234021 0 -0.1916287148353534 -0.22834351358174479 0 -0.1916287148353534 -0.22834351358174479 0 -0.20988527363517701 -0.22586057531507781 0 -0.20673987456910189 -0.2175545841325415 0 -0.20988527363517701 -0.22586057531507781 0 -0.21572188022262839 -0.21834946539082201 0 -0.20673987456910189 -0.2175545841325415 0 -0.20952475166938869 -0.23674410193605039 0 -0.1916287148353534 -0.22834351358174479 0 -0.20988527363517701 -0.22586057531507781 0 -0.20952475166938869 -0.23674410193605039 0 -0.20988527363517701 -0.22586057531507781 0 -0.22454749275957561 -0.23191452042330199 0 -0.20988527363517701 -0.22586057531507781 0 -0.21572188022262839 -0.21834946539082201 0 -0.22454749275957561 -0.23191452042330199 0 -0.21572188022262839 -0.21834946539082201 0 -0.21208954803869201 -0.20776034598128229 0 -0.22413913308114189 -0.2113354005103576 0 -0.21572188022262839 -0.21834946539082201 0 -0.21208954803869201 -0.20776034598128229 0 -0.20673987456910189 -0.2175545841325415 0 -0.21208954803869201 -0.20776034598128229 0 -0.20437395611365849 -0.20745902039378039 0 -0.20673987456910189 -0.2175545841325415 0 -0.21208954803869201 -0.20776034598128229 0 -0.20437395611365849 -0.20745902039378039 0 -0.1916287148353534 -0.22834351358174479 0 -0.20437395611365849 -0.20745902039378039 0 -0.18699518197941381 -0.21595929857790611 0 -0.18087428454504151 -0.2065412615996019 0 -0.20437395611365849 -0.20745902039378039 0 -0.18699518197941381 -0.21595929857790611 0 -0.1916287148353534 -0.22834351358174479 0 -0.20437395611365849 -0.20745902039378039 0 -0.18087428454504151 -0.2065412615996019 0 -0.20437395611365849 -0.20745902039378039 0 -0.18087428454504151 -0.2065412615996019 0 -0.20437395611365849 -0.20745902039378039 0 -0.18929528125695011 -0.19970945243359611 0 -0.1916287148353534 -0.22834351358174479 0 -0.20437395611365849 -0.20745902039378039 0 -0.20673987456910189 -0.2175545841325415 0 -0.20437395611365849 -0.20745902039378039 0 -0.19694142971746051 -0.19784450892677649 0 -0.18929528125695011 -0.19970945243359611 0 -0.20437395611365849 -0.20745902039378039 0 -0.19694142971746051 -0.19784450892677649 0 -0.20269892467535061 -0.19295447674161409 0 -0.19694142971746051 -0.19784450892677649 0 -0.18929528125695011 -0.19970945243359611 0 -0.19224833781571299 -0.1899871164870536 0 -0.19694142971746051 -0.19784450892677649 0 -0.19224833781571299 -0.1899871164870536 0 -0.20269892467535061 -0.19295447674161409 0 -0.20437395611365849 -0.20745902039378039 0 -0.21569349501885079 -0.1889106988677802 0 -0.20437395611365849 -0.20745902039378039 0 -0.20269892467535061 -0.19295447674161409 0 -0.21569349501885079 -0.1889106988677802 0 -0.21208954803869201 -0.20776034598128229 0 -0.21569349501885079 -0.1889106988677802 0 -0.224534460123791 -0.20084690977075101 0 -0.21208954803869201 -0.20776034598128229 0 -0.20437395611365849 -0.20745902039378039 0 -0.21569349501885079 -0.1889106988677802 0 -0.21569349501885079 -0.1889106988677802 0 -0.224534460123791 -0.20084690977075101 0 -0.23391384498602241 -0.19118172375095249 0 -0.224534460123791 -0.20084690977075101 0 -0.23391384498602241 -0.19118172375095249 0 -0.23863336709020619 -0.2037112788664163 0 -0.23391384498602241 -0.19118172375095249 0 -0.26130534856775339 -0.18579846135542619 0 -0.23391384498602241 -0.19118172375095249 0 -0.23863336709020619 -0.2037112788664163 0 -0.26130534856775339 -0.18579846135542619 0 -0.23863336709020619 -0.2037112788664163 0 -0.2369040911752921 -0.22137571193770131 0 -0.25100332460723662 -0.21172946587330899 0 -0.23863336709020619 -0.2037112788664163 0 -0.22413913308114189 -0.2113354005103576 0 -0.2369040911752921 -0.22137571193770131 0 -0.224534460123791 -0.20084690977075101 0 -0.23863336709020619 -0.2037112788664163 0 -0.22413913308114189 -0.2113354005103576 0 -0.21208954803869201 -0.20776034598128229 0 -0.224534460123791 -0.20084690977075101 0 -0.22413913308114189 -0.2113354005103576 0 -0.22413913308114189 -0.2113354005103576 0 -0.22454749275957561 -0.23191452042330199 0 -0.2369040911752921 -0.22137571193770131 0 -0.22413913308114189 -0.2113354005103576 0 -0.22454749275957561 -0.23191452042330199 0 -0.21572188022262839 -0.21834946539082201 0 -0.22413913308114189 -0.2113354005103576 0 -0.22454749275957561 -0.23191452042330199 0 -0.22454749275957561 -0.23191452042330199 0 -0.2369040911752921 -0.22137571193770131 0 -0.23790738491192881 -0.2395582492432205 0 -0.2369040911752921 -0.22137571193770131 0 -0.23790738491192881 -0.2395582492432205 0 -0.25723666982714699 -0.23820841720532429 0 -0.2369040911752921 -0.22137571193770131 0 -0.25723666982714699 -0.23820841720532429 0 -0.25100332460723662 -0.21172946587330899 0 -0.22495585243800931 -0.25249364033624638 0 -0.24130044097179529 -0.25564058872725781 0 -0.23790738491192881 -0.2395582492432205 0 -0.24130044097179529 -0.25564058872725781 0 -0.23790738491192881 -0.2395582492432205 0 -0.25723666982714699 -0.23820841720532429 0 -0.24130044097179529 -0.25564058872725781 0 -0.25723666982714699 -0.23820841720532429 0 -0.22495585243800931 -0.25249364033624638 0 -0.21274794732428029 -0.24834802559785249 0 -0.22454749275957561 -0.23191452042330199 0 -0.22495585243800931 -0.25249364033624638 0 -0.22454749275957561 -0.23191452042330199 0 -0.22495585243800931 -0.25249364033624638 0 -0.22454749275957561 -0.23191452042330199 0 -0.23790738491192881 -0.2395582492432205 0 -0.2115864363375293 -0.14448653114936821 0 -0.2064240193048045 -0.16070738919176211 0 -0.21887002726069771 -0.15554082789779539 0 -0.2115864363375293 -0.14448653114936821 0 -0.19399013383676339 -0.1411974515825771 0 -0.2064240193048045 -0.16070738919176211 0 -0.2115864363375293 -0.14448653114936821 0 -0.2041830764487319 -0.1289196513607731 0 -0.19399013383676339 -0.1411974515825771 0 -0.2115864363375293 -0.14448653114936821 0 -0.2154345864577204 -0.12802766816547781 0 -0.2041830764487319 -0.1289196513607731 0 -0.2041830764487319 -0.1289196513607731 0 -0.19399013383676339 -0.1411974515825771 0 -0.19078395627702749 -0.11532063674878611 0 -0.1824598360587053 -0.15604070128364789 0 -0.19399013383676339 -0.1411974515825771 0 -0.19280240759936959 -0.1638856888916411 0 -0.19399013383676339 -0.1411974515825771 0 -0.19280240759936959 -0.1638856888916411 0 -0.2064240193048045 -0.16070738919176211 0 -0.18400063951085829 -0.17367443318172859 0 -0.19280240759936959 -0.1638856888916411 0 -0.20333994025977059 -0.17753731952294499 0 -0.19280240759936959 -0.1638856888916411 0 -0.20333994025977059 -0.17753731952294499 0 -0.2064240193048045 -0.16070738919176211 0 -0.18400063951085829 -0.17367443318172859 0 -0.19224833781571299 -0.1899871164870536 0 -0.20333994025977059 -0.17753731952294499 0 -0.19224833781571299 -0.1899871164870536 0 -0.20269892467535061 -0.19295447674161409 0 -0.20333994025977059 -0.17753731952294499 0 -0.21569349501885079 -0.1889106988677802 0 -0.20333994025977059 -0.17753731952294499 0 -0.2270130339240444 -0.17036237734178081 0 -0.20269892467535061 -0.19295447674161409 0 -0.21569349501885079 -0.1889106988677802 0 -0.20333994025977059 -0.17753731952294499 0 -0.20333994025977059 -0.17753731952294499 0 -0.2064240193048045 -0.16070738919176211 0 -0.2270130339240444 -0.17036237734178081 0 -0.2064240193048045 -0.16070738919176211 0 -0.2270130339240444 -0.17036237734178081 0 -0.21887002726069771 -0.15554082789779539 0 -0.2270130339240444 -0.17036237734178081 0 -0.23045661947641241 -0.14660701390827041 0 -0.21887002726069771 -0.15554082789779539 0 -0.21569349501885079 -0.1889106988677802 0 -0.2270130339240444 -0.17036237734178081 0 -0.21569349501885079 -0.1889106988677802 0 -0.23391384498602241 -0.19118172375095249 0 -0.2270130339240444 -0.17036237734178081 0 -0.23391384498602241 -0.19118172375095249 0 -0.2482519669145887 -0.16648200385476961 0 -0.26130534856775339 -0.18579846135542619 0 -0.23391384498602241 -0.19118172375095249 0 -0.2270130339240444 -0.17036237734178081 0 -0.2482519669145887 -0.16648200385476961 0 -0.2270130339240444 -0.17036237734178081 0 -0.2482519669145887 -0.16648200385476961 0 -0.23045661947641241 -0.14660701390827041 0 -0.2482519669145887 -0.16648200385476961 0 -0.23045661947641241 -0.14660701390827041 0 -0.25295801924109529 -0.1445461540838856 0 -0.2115864363375293 -0.14448653114936821 0 -0.23045661947641241 -0.14660701390827041 0 -0.21887002726069771 -0.15554082789779539 0 -0.2115864363375293 -0.14448653114936821 0 -0.2154345864577204 -0.12802766816547781 0 -0.23045661947641241 -0.14660701390827041 0 -0.23045661947641241 -0.14660701390827041 0 -0.23787402957915979 -0.1198224895175395 0 -0.23045661947641241 -0.14660701390827041 0 -0.22717493035218811 -0.12628588253686371 0 -0.23787402957915979 -0.1198224895175395 0 -0.2154345864577204 -0.12802766816547781 0 -0.23045661947641241 -0.14660701390827041 0 -0.22717493035218811 -0.12628588253686371 0 -0.23045661947641241 -0.14660701390827041 0 -0.24833379368722169 -0.12242881535128169 0 -0.23787402957915979 -0.1198224895175395 0 -0.23045661947641241 -0.14660701390827041 0 -0.24833379368722169 -0.12242881535128169 0 -0.25295801924109529 -0.1445461540838856 0 -0.24833379368722169 -0.12242881535128169 0 -0.23787402957915979 -0.1198224895175395 0 -0.25078516967255832 -0.10897906838393739 0 -0.23787402957915979 -0.1198224895175395 0 -0.2452914396819072 -0.093037965126808536 0 -0.23787402957915979 -0.1198224895175395 0 -0.22493448589546 -0.11068635855616731 0 -0.2452914396819072 -0.093037965126808536 0 -0.23787402957915979 -0.1198224895175395 0 -0.2452914396819072 -0.093037965126808536 0 -0.25078516967255832 -0.10897906838393739 0 -0.22493448589546 -0.11068635855616731 0 -0.2452914396819072 -0.093037965126808536 0 -0.2269284637984624 -0.092247471546980958 0 -0.22493448589546 -0.11068635855616731 0 -0.2269284637984624 -0.092247471546980958 0 -0.21246547666984239 -0.1018401726314586 0 -0.2154345864577204 -0.12802766816547781 0 -0.22717493035218811 -0.12628588253686371 0 -0.22493448589546 -0.11068635855616731 0 -0.22717493035218811 -0.12628588253686371 0 -0.23787402957915979 -0.1198224895175395 0 -0.22493448589546 -0.11068635855616731 0 -0.2452914396819072 -0.093037965126808536 0 -0.22154034097744349 -0.074087302449213466 0 -0.25270884978465469 -0.066253440736077598 0 -0.2452914396819072 -0.093037965126808536 0 -0.25270884978465469 -0.066253440736077598 0 -0.2452914396819072 -0.093037965126808536 0 -0.2269284637984624 -0.092247471546980958 0 -0.22154034097744349 -0.074087302449213466 0 -0.2269284637984624 -0.092247471546980958 0 -0.22154034097744349 -0.074087302449213466 0 -0.21246547666984239 -0.1018401726314586 0 -0.22154034097744349 -0.074087302449213466 0 -0.20532123375130701 -0.08414396627088537 0 -0.21029011884153381 -0.057955982925987727 0 -0.22154034097744349 -0.074087302449213466 0 -0.21246547666984239 -0.1018401726314586 0 -0.22154034097744349 -0.074087302449213466 0 -0.20532123375130701 -0.08414396627088537 0 -0.21246547666984239 -0.1018401726314586 0 -0.20532123375130701 -0.08414396627088537 0 -0.18833216816618831 -0.075451004923934889 0 -0.1870339283968423 -0.095911798024367154 0 -0.18833216816618831 -0.075451004923934889 0 -0.21029011884153381 -0.057955982925987727 0 -0.20532123375130701 -0.08414396627088537 0 -0.18833216816618831 -0.075451004923934889 0 -0.21029011884153381 -0.057955982925987727 0 -0.2095603163497565 -0.1169588974925326 0 -0.21246547666984239 -0.1018401726314586 0 -0.19078395627702749 -0.11532063674878611 0 -0.2154345864577204 -0.12802766816547781 0 -0.22493448589546 -0.11068635855616731 0 -0.2095603163497565 -0.1169588974925326 0 -0.2154345864577204 -0.12802766816547781 0 -0.2041830764487319 -0.1289196513607731 0 -0.2095603163497565 -0.1169588974925326 0 -0.22493448589546 -0.11068635855616731 0 -0.2095603163497565 -0.1169588974925326 0 -0.21246547666984239 -0.1018401726314586 0 -0.20532123375130701 -0.08414396627088537 0 -0.21246547666984239 -0.1018401726314586 0 -0.1870339283968423 -0.095911798024367154 0 -0.21246547666984239 -0.1018401726314586 0 -0.19078395627702749 -0.11532063674878611 0 -0.1870339283968423 -0.095911798024367154 0 -0.2041830764487319 -0.1289196513607731 0 -0.2095603163497565 -0.1169588974925326 0 -0.19078395627702749 -0.11532063674878611 0 -0.1711301833626718 -0.13161604866728471 0 -0.19078395627702749 -0.11532063674878611 0 -0.1693865330646602 -0.1114469694894786 0 -0.1693865330646602 -0.1114469694894786 0 -0.15719415105627091 -0.1227792853410159 0 -0.14441626681549749 -0.1104410489198291 0 -0.1711301833626718 -0.13161604866728471 0 -0.1693865330646602 -0.1114469694894786 0 -0.15719415105627091 -0.1227792853410159 0 -0.1693865330646602 -0.1114469694894786 0 -0.16637421749084291 -0.092946026921882044 0 -0.14441626681549749 -0.1104410489198291 0 -0.1693865330646602 -0.1114469694894786 0 -0.1870339283968423 -0.095911798024367154 0 -0.16637421749084291 -0.092946026921882044 0 -0.19078395627702749 -0.11532063674878611 0 -0.1693865330646602 -0.1114469694894786 0 -0.1870339283968423 -0.095911798024367154 0 -0.18833216816618831 -0.075451004923934889 0 -0.16637421749084291 -0.092946026921882044 0 -0.18833216816618831 -0.075451004923934889 0 -0.1870339283968423 -0.095911798024367154 0 -0.16637421749084291 -0.092946026921882044 0 -0.18833216816618831 -0.075451004923934889 0 -0.16428047457153011 -0.065476768921427619 0 -0.1793049329842617 -0.047856813271073183 0 -0.18833216816618831 -0.075451004923934889 0 -0.16428047457153011 -0.065476768921427619 0 -0.16637421749084291 -0.092946026921882044 0 -0.16428047457153011 -0.065476768921427619 0 -0.16637421749084291 -0.092946026921882044 0 -0.1490714142114416 -0.079478532805872637 0 -0.16637421749084291 -0.092946026921882044 0 -0.1490714142114416 -0.079478532805872637 0 -0.13707768479858939 -0.096481124074215954 0 -0.1490714142114416 -0.079478532805872637 0 -0.13241715236731019 -0.071499797347555794 0 -0.1443901597825496 -0.055099829264574553 0 -0.16428047457153011 -0.065476768921427619 0 -0.1490714142114416 -0.079478532805872637 0 -0.1443901597825496 -0.055099829264574553 0 -0.12267102177126871 -0.086747198019136773 0 -0.13241715236731019 -0.071499797347555794 0 -0.13707768479858939 -0.096481124074215954 0 -0.13241715236731019 -0.071499797347555794 0 -0.13707768479858939 -0.096481124074215954 0 -0.1490714142114416 -0.079478532805872637 0 -0.13241715236731019 -0.071499797347555794 0 -0.13707768479858939 -0.096481124074215954 0 -0.1244101908758608 -0.098938989160173352 0 -0.13707768479858939 -0.096481124074215954 0 -0.1299695072667052 -0.10656040677306911 0 -0.1244101908758608 -0.098938989160173352 0 -0.12267102177126871 -0.086747198019136773 0 -0.13707768479858939 -0.096481124074215954 0 -0.13707768479858939 -0.096481124074215954 0 -0.1299695072667052 -0.10656040677306911 0 -0.14441626681549749 -0.1104410489198291 0 -0.12371838692251939 -0.12287683712214691 0 -0.12245831614015221 -0.12793607091777609 0 -0.14441626681549749 -0.1104410489198291 0 -0.12371838692251939 -0.12287683712214691 0 -0.1291261972115724 -0.11262163051793379 0 -0.14441626681549749 -0.1104410489198291 0 -0.12245831614015221 -0.12793607091777609 0 -0.14441626681549749 -0.1104410489198291 0 -0.1184006278415676 -0.1106082292566901 0 -0.1299695072667052 -0.10656040677306911 0 -0.1291261972115724 -0.11262163051793379 0 -0.12245831614015221 -0.12793607091777609 0 -0.1368682256682496 -0.12817010881979721 0 -0.14441626681549749 -0.1104410489198291 0 -0.1299695072667052 -0.10656040677306911 0 -0.1291261972115724 -0.11262163051793379 0 -0.14441626681549749 -0.1104410489198291 0 -0.1368682256682496 -0.12817010881979721 0 -0.14737626460106781 -0.12592111807363071 0 -0.14441626681549749 -0.1104410489198291 0 -0.14737626460106781 -0.12592111807363071 0 -0.15719415105627091 -0.1227792853410159 0 -0.14441626681549749 -0.1104410489198291 0 -0.16637421749084291 -0.092946026921882044 0 -0.14441626681549749 -0.1104410489198291 0 -0.16637421749084291 -0.092946026921882044 0 -0.13707768479858939 -0.096481124074215954 0 -0.14441626681549749 -0.1104410489198291 0 -0.14534073812157411 -0.025599999862636551 0 -0.15766078152670249 -0.038822405282724078 0 -0.1596986166843726 -0.018287629878874809 0 -0.14534073812157411 -0.025599999862636551 0 -0.14470387857328831 -0.013579684409493489 0 -0.13395813965962541 -0.019909367908082069 0 -0.14534073812157411 -0.025599999862636551 0 -0.14470387857328831 -0.013579684409493489 0 -0.1596986166843726 -0.018287629878874809 0 -0.15288594458857521 -0.0057362803360174394 0 -0.14470387857328831 -0.013579684409493489 0 -0.1596986166843726 -0.018287629878874809 0 -0.15288594458857521 -0.0057362803360174394 0 -0.14263431330638721 -0.0026543475024554258 0 -0.14470387857328831 -0.013579684409493489 0 -0.14470387857328831 -0.013579684409493489 0 -0.13370551907919501 -0.0092904809688946141 0 -0.13395813965962541 -0.019909367908082069 0 -0.14263431330638721 -0.0026543475024554258 0 -0.14470387857328831 -0.013579684409493489 0 -0.13370551907919501 -0.0092904809688946141 0 -0.14263431330638721 -0.0026543475024554258 0 -0.13370551907919501 -0.0092904809688946141 0 -0.1296905307002188 -0.00029615891624961121 0 -0.13370551907919501 -0.0092904809688946141 0 -0.1296905307002188 -0.00029615891624961121 0 -0.12743649414895861 -0.006291773193808704 0 -0.1195315168135004 -0.0024303773624146621 0 -0.1296905307002188 -0.00029615891624961121 0 -0.12743649414895861 -0.006291773193808704 0 -0.13370551907919501 -0.0092904809688946141 0 -0.1268184100029203 -0.01315007552767593 0 -0.13395813965962541 -0.019909367908082069 0 -0.13370551907919501 -0.0092904809688946141 0 -0.12743649414895861 -0.006291773193808704 0 -0.1268184100029203 -0.01315007552767593 0 -0.123096087504753 -0.021537143894235469 0 -0.13395813965962541 -0.019909367908082069 0 -0.12757143638572829 -0.02810380810425436 0 -0.123096087504753 -0.021537143894235469 0 -0.1268184100029203 -0.01315007552767593 0 -0.13395813965962541 -0.019909367908082069 0 -0.1367805619498427 -0.027986289063662021 0 -0.12757143638572829 -0.02810380810425436 0 -0.13892810759773749 -0.037197864290652007 0 -0.14534073812157411 -0.025599999862636551 0 -0.13395813965962541 -0.019909367908082069 0 -0.1367805619498427 -0.027986289063662021 0 -0.14534073812157411 -0.025599999862636551 0 -0.1367805619498427 -0.027986289063662021 0 -0.13892810759773749 -0.037197864290652007 0 -0.13395813965962541 -0.019909367908082069 0 -0.1367805619498427 -0.027986289063662021 0 -0.12757143638572829 -0.02810380810425436 0 -0.123096087504753 -0.021537143894235469 0 -0.12757143638572829 -0.02810380810425436 0 -0.1277566199360311 -0.046518470620895702 0 -0.13892810759773749 -0.037197864290652007 0 -0.1443901597825496 -0.055099829264574553 0 -0.123096087504753 -0.021537143894235469 0 -0.12757143638572829 -0.02810380810425436 0 -0.1277566199360311 -0.046518470620895702 0 -0.12757143638572829 -0.02810380810425436 0 -0.1277566199360311 -0.046518470620895702 0 -0.13892810759773749 -0.037197864290652007 0 -0.123096087504753 -0.021537143894235469 0 -0.1277566199360311 -0.046518470620895702 0 -0.13241715236731019 -0.071499797347555794 0 -0.1277566199360311 -0.046518470620895702 0 -0.1443901597825496 -0.055099829264574553 0 -0.13241715236731019 -0.071499797347555794 0 -0.1277566199360311 -0.046518470620895702 0 -0.1176456145751838 -0.059964442654696103 0 -0.13241715236731019 -0.071499797347555794 0 -0.1277566199360311 -0.046518470620895702 0 -0.16428047457153011 -0.065476768921427619 0 -0.1443901597825496 -0.055099829264574553 0 -0.15766078152670249 -0.038822405282724078 0 -0.14534073812157411 -0.025599999862636551 0 -0.13892810759773749 -0.037197864290652007 0 -0.15766078152670249 -0.038822405282724078 0 -0.13892810759773749 -0.037197864290652007 0 -0.1443901597825496 -0.055099829264574553 0 -0.15766078152670249 -0.038822405282724078 0 -0.15766078152670249 -0.038822405282724078 0 -0.1793049329842617 -0.047856813271073183 0 -0.17403331282914539 -0.03058554515212648 0 -0.16428047457153011 -0.065476768921427619 0 -0.15766078152670249 -0.038822405282724078 0 -0.1793049329842617 -0.047856813271073183 0 -0.1793049329842617 -0.047856813271073183 0 -0.17403331282914539 -0.03058554515212648 0 -0.19349426202699299 -0.03023649320779195 0 -0.17403331282914539 -0.03058554515212648 0 -0.17913583508951389 -0.01379730080937374 0 -0.19349426202699299 -0.03023649320779195 0 -0.15766078152670249 -0.038822405282724078 0 -0.17403331282914539 -0.03058554515212648 0 -0.1596986166843726 -0.018287629878874809 0 -0.17403331282914539 -0.03058554515212648 0 -0.1596986166843726 -0.018287629878874809 0 -0.17913583508951389 -0.01379730080937374 0 -0.15288594458857521 -0.0057362803360174394 0 -0.1596986166843726 -0.018287629878874809 0 -0.16664299870092189 -0.00098725277767185864 0 -0.1596986166843726 -0.018287629878874809 0 -0.16664299870092189 -0.00098725277767185864 0 -0.17913583508951389 -0.01379730080937374 0 -0.16664299870092189 -0.00098725277767185864 0 -0.17913583508951389 -0.01379730080937374 0 -0.18590658937504029 0.0026401256165909611 0 -0.17913583508951389 -0.01379730080937374 0 -0.1969415444654164 -0.011779062498855091 0 -0.18590658937504029 0.0026401256165909611 0 -0.1969415444654164 -0.011779062498855091 0 -0.18590658937504029 0.0026401256165909611 0 -0.21146848345518951 0.003149405620048396 0 -0.17913583508951389 -0.01379730080937374 0 -0.1969415444654164 -0.011779062498855091 0 -0.19349426202699299 -0.03023649320779195 0 -0.1969415444654164 -0.011779062498855091 0 -0.19349426202699299 -0.03023649320779195 0 -0.2152801408691786 -0.025016295302843501 0 -0.1969415444654164 -0.011779062498855091 0 -0.2152801408691786 -0.025016295302843501 0 -0.21146848345518951 0.003149405620048396 0 -0.18833216816618831 -0.075451004923934889 0 -0.1793049329842617 -0.047856813271073183 0 -0.19759253086806949 -0.044605120483036782 0 -0.18833216816618831 -0.075451004923934889 0 -0.19759253086806949 -0.044605120483036782 0 -0.21029011884153381 -0.057955982925987727 0 -0.1793049329842617 -0.047856813271073183 0 -0.19349426202699299 -0.03023649320779195 0 -0.19759253086806949 -0.044605120483036782 0 -0.19349426202699299 -0.03023649320779195 0 -0.19759253086806949 -0.044605120483036782 0 -0.2124548436403538 -0.041828048768985278 0 -0.19349426202699299 -0.03023649320779195 0 -0.2152801408691786 -0.025016295302843501 0 -0.2124548436403538 -0.041828048768985278 0 -0.2124548436403538 -0.041828048768985278 0 -0.21029011884153381 -0.057955982925987727 0 -0.23061520528504451 -0.04633443226696831 0 -0.19759253086806949 -0.044605120483036782 0 -0.2124548436403538 -0.041828048768985278 0 -0.21029011884153381 -0.057955982925987727 0 -0.22154034097744349 -0.074087302449213466 0 -0.23061520528504451 -0.04633443226696831 0 -0.22154034097744349 -0.074087302449213466 0 -0.21029011884153381 -0.057955982925987727 0 -0.23061520528504451 -0.04633443226696831 0 -0.2152801408691786 -0.025016295302843501 0 -0.2124548436403538 -0.041828048768985278 0 -0.23061520528504451 -0.04633443226696831 0 -0.23061520528504451 -0.04633443226696831 0 -0.23969006959264549 -0.018581562084723169 0 -0.23061520528504451 -0.04633443226696831 0 -0.23969006959264549 -0.018581562084723169 0 -0.26012625988740212 -0.039468916345346647 0 -0.22154034097744349 -0.074087302449213466 0 -0.23061520528504451 -0.04633443226696831 0 -0.25270884978465469 -0.066253440736077598 0 -0.23061520528504451 -0.04633443226696831 0 -0.26012625988740212 -0.039468916345346647 0 -0.25270884978465469 -0.066253440736077598 0 -0.23969006959264549 -0.018581562084723169 0 -0.21146848345518951 0.003149405620048396 0 -0.24496178883302311 0.01237944270509766 0 -0.2152801408691786 -0.025016295302843501 0 -0.23969006959264549 -0.018581562084723169 0 -0.21146848345518951 0.003149405620048396 0 -0.2152801408691786 -0.025016295302843501 0 -0.23061520528504451 -0.04633443226696831 0 -0.23969006959264549 -0.018581562084723169 0 -0.2675436699901495 -0.012684391954615921 0 -0.2850930399986577 -0.024558673915459909 0 -0.29084842672228689 0.0076878545578341444 0 -0.23969006959264549 -0.018581562084723169 0 -0.2675436699901495 -0.012684391954615921 0 -0.24496178883302311 0.01237944270509766 0 -0.2675436699901495 -0.012684391954615921 0 -0.26012625988740212 -0.039468916345346647 0 -0.23969006959264549 -0.018581562084723169 0 -0.2675436699901495 -0.012684391954615921 0 -0.26012625988740212 -0.039468916345346647 0 -0.2675436699901495 -0.012684391954615921 0 -0.2850930399986577 -0.024558673915459909 0 -0.26012625988740212 -0.039468916345346647 0 -0.2850930399986577 -0.024558673915459909 0 -0.30499230222712781 -0.017997269794696919 0 -0.29084842672228689 0.0076878545578341444 0 -0.2850930399986577 -0.024558673915459909 0 -0.30499230222712781 -0.017997269794696919 0 -0.29350154574471021 -0.044450210418664073 0 -0.30499230222712781 -0.017997269794696919 0 -0.29084842672228689 0.0076878545578341444 0 -0.31390032267290879 0.001897368345985068 0 -0.29350154574471021 -0.044450210418664073 0 -0.30427868518195128 -0.072447131110588397 0 -0.32291102566163321 -0.052239715899617359 0 -0.29350154574471021 -0.044450210418664073 0 -0.31896657823204971 -0.032018348765597109 0 -0.32291102566163321 -0.052239715899617359 0 -0.30499230222712781 -0.017997269794696919 0 -0.29350154574471021 -0.044450210418664073 0 -0.31896657823204971 -0.032018348765597109 0 -0.29350154574471021 -0.044450210418664073 0 -0.27841129873124459 -0.067934210963657413 0 -0.30427868518195128 -0.072447131110588397 0 -0.2850930399986577 -0.024558673915459909 0 -0.29350154574471021 -0.044450210418664073 0 -0.26012625988740212 -0.039468916345346647 0 -0.29350154574471021 -0.044450210418664073 0 -0.26012625988740212 -0.039468916345346647 0 -0.27841129873124459 -0.067934210963657413 0 -0.26012625988740212 -0.039468916345346647 0 -0.25270884978465469 -0.066253440736077598 0 -0.26012625988740212 -0.039468916345346647 0 -0.25270884978465469 -0.066253440736077598 0 -0.27841129873124459 -0.067934210963657413 0 -0.25270884978465469 -0.066253440736077598 0 -0.26541167251050729 -0.084205514534511847 0 -0.27841129873124459 -0.067934210963657413 0 -0.2452914396819072 -0.093037965126808536 0 -0.26541167251050729 -0.084205514534511847 0 -0.2650004296524609 -0.10114740952445619 0 -0.2452914396819072 -0.093037965126808536 0 -0.25270884978465469 -0.066253440736077598 0 -0.26541167251050729 -0.084205514534511847 0 -0.26541167251050729 -0.084205514534511847 0 -0.2650004296524609 -0.10114740952445619 0 -0.28564634470226929 -0.092654546321559506 0 -0.26541167251050729 -0.084205514534511847 0 -0.27841129873124459 -0.067934210963657413 0 -0.28564634470226929 -0.092654546321559506 0 -0.24833379368722169 -0.12242881535128169 0 -0.26480110773064908 -0.11539739694613151 0 -0.27514493606408202 -0.1312820102745848 0 -0.24833379368722169 -0.12242881535128169 0 -0.26480110773064908 -0.11539739694613151 0 -0.25078516967255832 -0.10897906838393739 0 -0.2452914396819072 -0.093037965126808536 0 -0.25078516967255832 -0.10897906838393739 0 -0.2650004296524609 -0.10114740952445619 0 -0.26480110773064908 -0.11539739694613151 0 -0.25078516967255832 -0.10897906838393739 0 -0.2650004296524609 -0.10114740952445619 0 -0.2650004296524609 -0.10114740952445619 0 -0.28474120957692278 -0.1131496811963973 0 -0.28564634470226929 -0.092654546321559506 0 -0.26480110773064908 -0.11539739694613151 0 -0.28474120957692278 -0.1131496811963973 0 -0.27514493606408202 -0.1312820102745848 0 -0.26480110773064908 -0.11539739694613151 0 -0.2650004296524609 -0.10114740952445619 0 -0.28474120957692278 -0.1131496811963973 0 -0.28474120957692278 -0.1131496811963973 0 -0.30526983805509672 -0.11245537178651149 0 -0.28564634470226929 -0.092654546321559506 0 -0.30526983805509672 -0.11245537178651149 0 -0.28564634470226929 -0.092654546321559506 0 -0.30857905939988889 -0.092356992461175735 0 -0.28474120957692278 -0.1131496811963973 0 -0.30526983805509672 -0.11245537178651149 0 -0.30195607844094252 -0.140135205197888 0 -0.27841129873124459 -0.067934210963657413 0 -0.28564634470226929 -0.092654546321559506 0 -0.30427868518195128 -0.072447131110588397 0 -0.28564634470226929 -0.092654546321559506 0 -0.30427868518195128 -0.072447131110588397 0 -0.28564634470226929 -0.092654546321559506 0 -0.30857905939988889 -0.092356992461175735 0 -0.30427868518195128 -0.072447131110588397 0 -0.30427868518195128 -0.072447131110588397 0 -0.33155871978592788 -0.069673125282747495 0 -0.32291102566163321 -0.052239715899617359 0 -0.30427868518195128 -0.072447131110588397 0 -0.3288085468901214 -0.089977153538802326 0 -0.33155871978592788 -0.069673125282747495 0 -0.30857905939988889 -0.092356992461175735 0 -0.30427868518195128 -0.072447131110588397 0 -0.3288085468901214 -0.089977153538802326 0 -0.3288085468901214 -0.089977153538802326 0 -0.33155871978592788 -0.069673125282747495 0 -0.34774129300182488 -0.082735446380318239 0 -0.3288085468901214 -0.089977153538802326 0 -0.3511309939927556 -0.098555953437193075 0 -0.34774129300182488 -0.082735446380318239 0 -0.30526983805509672 -0.11245537178651149 0 -0.32866857856308002 -0.1107168015458582 0 -0.31915130217039878 -0.12502831046526819 0 -0.32866857856308002 -0.1107168015458582 0 -0.31915130217039878 -0.12502831046526819 0 -0.33438152878896399 -0.12563066202067411 0 -0.30857905939988889 -0.092356992461175735 0 -0.3288085468901214 -0.089977153538802326 0 -0.32866857856308002 -0.1107168015458582 0 -0.30526983805509672 -0.11245537178651149 0 -0.30857905939988889 -0.092356992461175735 0 -0.32866857856308002 -0.1107168015458582 0 -0.3288085468901214 -0.089977153538802326 0 -0.3511309939927556 -0.098555953437193075 0 -0.3288085468901214 -0.089977153538802326 0 -0.34331931687982459 -0.10686961945164419 0 -0.3511309939927556 -0.098555953437193075 0 -0.3288085468901214 -0.089977153538802326 0 -0.34331931687982459 -0.10686961945164419 0 -0.32866857856308002 -0.1107168015458582 0 -0.32866857856308002 -0.1107168015458582 0 -0.34720440431868632 -0.1189370413497579 0 -0.33438152878896399 -0.12563066202067411 0 -0.34331931687982459 -0.10686961945164419 0 -0.32866857856308002 -0.1107168015458582 0 -0.34720440431868632 -0.1189370413497579 0 -0.34720440431868632 -0.1189370413497579 0 -0.33438152878896399 -0.12563066202067411 0 -0.34741505777368009 -0.13016669333789321 0 -0.34720440431868632 -0.1189370413497579 0 -0.36268484684438951 -0.1190384266111158 0 -0.3579385988444943 -0.1288231446599975 0 -0.34331931687982459 -0.10686961945164419 0 -0.34720440431868632 -0.1189370413497579 0 -0.35464269193855241 -0.10548379146956639 0 -0.34720440431868632 -0.1189370413497579 0 -0.35464269193855241 -0.10548379146956639 0 -0.36268484684438951 -0.1190384266111158 0 -0.35464269193855241 -0.10548379146956639 0 -0.36268484684438951 -0.1190384266111158 0 -0.35464269193855241 -0.10548379146956639 0 -0.3511309939927556 -0.098555953437193075 0 -0.36379277664744242 -0.1092179971870948 0 -0.34331931687982459 -0.10686961945164419 0 -0.35464269193855241 -0.10548379146956639 0 -0.3511309939927556 -0.098555953437193075 0 -0.3511309939927556 -0.098555953437193075 0 -0.36492102778498808 -0.094211280647730239 0 -0.35678004949357789 -0.089792443070241285 0 -0.3511309939927556 -0.098555953437193075 0 -0.37345344109538969 -0.1071347533355838 0 -0.36379277664744242 -0.1092179971870948 0 -0.3511309939927556 -0.098555953437193075 0 -0.36492102778498808 -0.094211280647730239 0 -0.37345344109538969 -0.1071347533355838 0 -0.36492102778498808 -0.094211280647730239 0 -0.37345344109538969 -0.1071347533355838 0 -0.37997177527635362 -0.088800420973651331 0 -0.3511309939927556 -0.098555953437193075 0 -0.37345344109538969 -0.1071347533355838 0 -0.35464269193855241 -0.10548379146956639 0 -0.36379277664744242 -0.1092179971870948 0 -0.36268484684438951 -0.1190384266111158 0 -0.36379277664744242 -0.1092179971870948 0 -0.37462886795691103 -0.1184763459202593 0 -0.36268484684438951 -0.1190384266111158 0 -0.37345344109538969 -0.1071347533355838 0 -0.36379277664744242 -0.1092179971870948 0 -0.37462886795691103 -0.1184763459202593 0 -0.37462886795691103 -0.1184763459202593 0 -0.36268484684438951 -0.1190384266111158 0 -0.37072700175022649 -0.13259306175266519 0 -0.33155871978592788 -0.069673125282747495 0 -0.35719872502226802 -0.064404736455334247 0 -0.34774129300182488 -0.082735446380318239 0 -0.35719872502226802 -0.064404736455334247 0 -0.34774129300182488 -0.082735446380318239 0 -0.36325926057736768 -0.082155703074774683 0 -0.3511309939927556 -0.098555953437193075 0 -0.34774129300182488 -0.082735446380318239 0 -0.35678004949357789 -0.089792443070241285 0 -0.34774129300182488 -0.082735446380318239 0 -0.35678004949357789 -0.089792443070241285 0 -0.36325926057736768 -0.082155703074774683 0 -0.36492102778498808 -0.094211280647730239 0 -0.36325926057736768 -0.082155703074774683 0 -0.37997177527635362 -0.088800420973651331 0 -0.36325926057736768 -0.082155703074774683 0 -0.37544789422893882 -0.070772870030723273 0 -0.37997177527635362 -0.088800420973651331 0 -0.36492102778498808 -0.094211280647730239 0 -0.35678004949357789 -0.089792443070241285 0 -0.36325926057736768 -0.082155703074774683 0 -0.35719872502226802 -0.064404736455334247 0 -0.37884492690954558 -0.054839602117997363 0 -0.37544789422893882 -0.070772870030723273 0 -0.35719872502226802 -0.064404736455334247 0 -0.36325926057736768 -0.082155703074774683 0 -0.37544789422893882 -0.070772870030723273 0 -0.35719872502226802 -0.064404736455334247 0 -0.36555663484781642 -0.040643059528352517 0 -0.37884492690954558 -0.054839602117997363 0 -0.35719872502226802 -0.064404736455334247 0 -0.36555663484781642 -0.040643059528352517 0 -0.34281611104347398 -0.051406973640920853 0 -0.33155871978592788 -0.069673125282747495 0 -0.35719872502226802 -0.064404736455334247 0 -0.34281611104347398 -0.051406973640920853 0 -0.36555663484781642 -0.040643059528352517 0 -0.34281611104347398 -0.051406973640920853 0 -0.34154336614131509 -0.03203230068864632 0 -0.36555663484781642 -0.040643059528352517 0 -0.36338250616200651 -0.01519824168372921 0 -0.37949077953040511 -0.02492776216193596 0 -0.36338250616200651 -0.01519824168372921 0 -0.38653749201156717 -0.0085714722691885865 0 -0.36953825318317091 0.0010669767550764381 0 -0.36338250616200651 -0.01519824168372921 0 -0.34648002239000819 -0.003224372146928744 0 -0.36953825318317091 0.0010669767550764381 0 -0.36555663484781642 -0.040643059528352517 0 -0.36338250616200651 -0.01519824168372921 0 -0.34154336614131509 -0.03203230068864632 0 -0.36338250616200651 -0.01519824168372921 0 -0.34648002239000819 -0.003224372146928744 0 -0.34154336614131509 -0.03203230068864632 0 -0.34648002239000819 -0.003224372146928744 0 -0.32645969789622858 -0.01258962578465257 0 -0.34154336614131509 -0.03203230068864632 0 -0.32645969789622858 -0.01258962578465257 0 -0.31896657823204971 -0.032018348765597109 0 -0.34154336614131509 -0.03203230068864632 0 -0.34648002239000819 -0.003224372146928744 0 -0.32645969789622858 -0.01258962578465257 0 -0.33183757558868021 0.0092231901974755889 0 -0.32645969789622858 -0.01258962578465257 0 -0.31390032267290879 0.001897368345985068 0 -0.33183757558868021 0.0092231901974755889 0 -0.30499230222712781 -0.017997269794696919 0 -0.32645969789622858 -0.01258962578465257 0 -0.31390032267290879 0.001897368345985068 0 -0.30499230222712781 -0.017997269794696919 0 -0.32645969789622858 -0.01258962578465257 0 -0.31896657823204971 -0.032018348765597109 0 -0.31896657823204971 -0.032018348765597109 0 -0.32291102566163321 -0.052239715899617359 0 -0.34154336614131509 -0.03203230068864632 0 -0.30427868518195128 -0.072447131110588397 0 -0.32291102566163321 -0.052239715899617359 0 -0.33155871978592788 -0.069673125282747495 0 -0.32291102566163321 -0.052239715899617359 0 -0.34281611104347398 -0.051406973640920853 0 -0.32291102566163321 -0.052239715899617359 0 -0.34154336614131509 -0.03203230068864632 0 -0.32291102566163321 -0.052239715899617359 0 -0.34281611104347398 -0.051406973640920853 0 -0.34154336614131509 -0.03203230068864632 0 -0.30719362811525203 -0.24701180601075259 0 -0.29842519666094219 -0.22786110040171931 0 -0.32461104141330033 -0.2293359746937596 0 -0.29842519666094219 -0.22786110040171931 0 -0.27317289868249872 -0.2207762456833908 0 -0.3002256202737571 -0.21314847876976009 0 -0.29842519666094219 -0.22786110040171931 0 -0.28246916049422771 -0.24363196748454599 0 -0.27317289868249872 -0.2207762456833908 0 -0.30719362811525203 -0.24701180601075259 0 -0.29842519666094219 -0.22786110040171931 0 -0.28246916049422771 -0.24363196748454599 0 -0.2684958022756625 -0.26238831904624688 0 -0.28246916049422771 -0.24363196748454599 0 -0.25723666982714699 -0.23820841720532429 0 -0.25723666982714699 -0.23820841720532429 0 -0.27317289868249872 -0.2207762456833908 0 -0.25100332460723662 -0.21172946587330899 0 -0.25723666982714699 -0.23820841720532429 0 -0.27317289868249872 -0.2207762456833908 0 -0.28246916049422771 -0.24363196748454599 0 -0.25723666982714699 -0.23820841720532429 0 -0.27317289868249872 -0.2207762456833908 0 -0.27317289868249872 -0.2207762456833908 0 -0.28910912753785051 -0.20334407416145731 0 -0.27317289868249872 -0.2207762456833908 0 -0.26756236305051739 -0.20543053548879109 0 -0.28910912753785051 -0.20334407416145731 0 -0.27317289868249872 -0.2207762456833908 0 -0.26756236305051739 -0.20543053548879109 0 -0.25100332460723662 -0.21172946587330899 0 -0.23863336709020619 -0.2037112788664163 0 -0.25100332460723662 -0.21172946587330899 0 -0.26130534856775339 -0.18579846135542619 0 -0.26756236305051739 -0.20543053548879109 0 -0.25100332460723662 -0.21172946587330899 0 -0.26130534856775339 -0.18579846135542619 0 -0.26756236305051739 -0.20543053548879109 0 -0.27675518004583438 -0.1946499299618463 0 -0.26130534856775339 -0.18579846135542619 0 -0.26756236305051739 -0.20543053548879109 0 -0.27675518004583438 -0.1946499299618463 0 -0.28910912753785051 -0.20334407416145731 0 -0.27675518004583438 -0.1946499299618463 0 -0.29049171586200417 -0.19140211593390821 0 -0.28869685214948448 -0.18041519895989991 0 -0.29049171586200417 -0.19140211593390821 0 -0.28910912753785051 -0.20334407416145731 0 -0.3038285189476761 -0.202514407881732 0 -0.27675518004583438 -0.1946499299618463 0 -0.29049171586200417 -0.19140211593390821 0 -0.28910912753785051 -0.20334407416145731 0 -0.27317289868249872 -0.2207762456833908 0 -0.28910912753785051 -0.20334407416145731 0 -0.3002256202737571 -0.21314847876976009 0 -0.28910912753785051 -0.20334407416145731 0 -0.3002256202737571 -0.21314847876976009 0 -0.3038285189476761 -0.202514407881732 0 -0.29842519666094219 -0.22786110040171931 0 -0.3002256202737571 -0.21314847876976009 0 -0.31469301309989378 -0.21338364530541459 0 -0.3002256202737571 -0.21314847876976009 0 -0.3038285189476761 -0.202514407881732 0 -0.31469301309989378 -0.21338364530541459 0 -0.29049171586200417 -0.19140211593390821 0 -0.30368846229270369 -0.18411998976671309 0 -0.32042147073886029 -0.19306074049287991 0 -0.29049171586200417 -0.19140211593390821 0 -0.32042147073886029 -0.19306074049287991 0 -0.29049171586200417 -0.19140211593390821 0 -0.3038285189476761 -0.202514407881732 0 -0.32042147073886029 -0.19306074049287991 0 -0.28869685214948448 -0.18041519895989991 0 -0.31608835573121558 -0.1750319365643736 0 -0.30368846229270369 -0.18411998976671309 0 -0.28869685214948448 -0.18041519895989991 0 -0.31608835573121558 -0.1750319365643736 0 -0.29921503399195359 -0.16155522740870359 0 -0.28869685214948448 -0.18041519895989991 0 -0.31608835573121558 -0.1750319365643736 0 -0.29921503399195359 -0.16155522740870359 0 -0.31490971312894073 -0.15734885753334779 0 -0.31608835573121558 -0.1750319365643736 0 -0.29921503399195359 -0.16155522740870359 0 -0.28110755500329793 -0.1668342770774657 0 -0.28594446030173332 -0.15077527075862049 0 -0.29921503399195359 -0.16155522740870359 0 -0.28869685214948448 -0.18041519895989991 0 -0.28110755500329793 -0.1668342770774657 0 -0.29049171586200417 -0.19140211593390821 0 -0.30368846229270369 -0.18411998976671309 0 -0.28869685214948448 -0.18041519895989991 0 -0.28869685214948448 -0.18041519895989991 0 -0.26130534856775339 -0.18579846135542619 0 -0.28869685214948448 -0.18041519895989991 0 -0.26130534856775339 -0.18579846135542619 0 -0.28110755500329793 -0.1668342770774657 0 -0.27675518004583438 -0.1946499299618463 0 -0.28869685214948448 -0.18041519895989991 0 -0.26130534856775339 -0.18579846135542619 0 -0.2482519669145887 -0.16648200385476961 0 -0.26130534856775339 -0.18579846135542619 0 -0.26845346200273862 -0.15718481997489589 0 -0.26130534856775339 -0.18579846135542619 0 -0.26845346200273862 -0.15718481997489589 0 -0.28110755500329793 -0.1668342770774657 0 -0.26845346200273862 -0.15718481997489589 0 -0.28110755500329793 -0.1668342770774657 0 -0.28594446030173332 -0.15077527075862049 0 -0.26845346200273862 -0.15718481997489589 0 -0.27514493606408202 -0.1312820102745848 0 -0.28594446030173332 -0.15077527075862049 0 -0.2482519669145887 -0.16648200385476961 0 -0.26845346200273862 -0.15718481997489589 0 -0.25295801924109529 -0.1445461540838856 0 -0.26845346200273862 -0.15718481997489589 0 -0.25295801924109529 -0.1445461540838856 0 -0.27514493606408202 -0.1312820102745848 0 -0.24833379368722169 -0.12242881535128169 0 -0.25295801924109529 -0.1445461540838856 0 -0.27514493606408202 -0.1312820102745848 0 -0.24833379368722169 -0.12242881535128169 0 -0.27514493606408202 -0.1312820102745848 0 -0.28474120957692278 -0.1131496811963973 0 -0.27514493606408202 -0.1312820102745848 0 -0.30195607844094252 -0.140135205197888 0 -0.27514493606408202 -0.1312820102745848 0 -0.30195607844094252 -0.140135205197888 0 -0.29921503399195359 -0.16155522740870359 0 -0.28594446030173332 -0.15077527075862049 0 -0.30195607844094252 -0.140135205197888 0 -0.27514493606408202 -0.1312820102745848 0 -0.28594446030173332 -0.15077527075862049 0 -0.30195607844094252 -0.140135205197888 0 -0.29921503399195359 -0.16155522740870359 0 -0.30195607844094252 -0.140135205197888 0 -0.31490971312894073 -0.15734885753334779 0 -0.30526983805509672 -0.11245537178651149 0 -0.30195607844094252 -0.140135205197888 0 -0.31915130217039878 -0.12502831046526819 0 -0.30195607844094252 -0.140135205197888 0 -0.32432636973716999 -0.13574834017801371 0 -0.31915130217039878 -0.12502831046526819 0 -0.32432636973716999 -0.13574834017801371 0 -0.31915130217039878 -0.12502831046526819 0 -0.33438152878896399 -0.12563066202067411 0 -0.30195607844094252 -0.140135205197888 0 -0.32876722081780291 -0.14898840012119111 0 -0.31490971312894073 -0.15734885753334779 0 -0.30195607844094252 -0.140135205197888 0 -0.32432636973716999 -0.13574834017801371 0 -0.32876722081780291 -0.14898840012119111 0 -0.30195607844094252 -0.140135205197888 0 -0.32876722081780291 -0.14898840012119111 0 -0.32876722081780291 -0.14898840012119111 0 -0.32852187666278881 -0.16103351837458271 0 -0.31490971312894073 -0.15734885753334779 0 -0.32876722081780291 -0.14898840012119111 0 -0.34329220705358088 -0.15108034468061951 0 -0.32852187666278881 -0.16103351837458271 0 -0.34329220705358088 -0.15108034468061951 0 -0.32852187666278881 -0.16103351837458271 0 -0.32876722081780291 -0.14898840012119111 0 -0.34329220705358088 -0.15108034468061951 0 -0.33637806518029217 -0.1366187814658435 0 -0.32432636973716999 -0.13574834017801371 0 -0.32876722081780291 -0.14898840012119111 0 -0.33637806518029217 -0.1366187814658435 0 -0.32432636973716999 -0.13574834017801371 0 -0.33637806518029217 -0.1366187814658435 0 -0.33438152878896399 -0.12563066202067411 0 -0.33637806518029217 -0.1366187814658435 0 -0.33438152878896399 -0.12563066202067411 0 -0.34741505777368009 -0.13016669333789321 0 -0.34720440431868632 -0.1189370413497579 0 -0.34741505777368009 -0.13016669333789321 0 -0.3579385988444943 -0.1288231446599975 0 -0.33637806518029217 -0.1366187814658435 0 -0.35806253744437322 -0.1411271709866565 0 -0.33637806518029217 -0.1366187814658435 0 -0.34741505777368009 -0.13016669333789321 0 -0.35806253744437322 -0.1411271709866565 0 -0.34741505777368009 -0.13016669333789321 0 -0.3579385988444943 -0.1288231446599975 0 -0.35806253744437322 -0.1411271709866565 0 -0.36268484684438951 -0.1190384266111158 0 -0.3579385988444943 -0.1288231446599975 0 -0.37072700175022649 -0.13259306175266519 0 -0.37072700175022649 -0.13259306175266519 0 -0.35806253744437322 -0.1411271709866565 0 -0.37828494590977291 -0.14533158478565161 0 -0.36268484684438951 -0.1190384266111158 0 -0.37072700175022649 -0.13259306175266519 0 -0.37072700175022649 -0.13259306175266519 0 -0.35806253744437322 -0.1411271709866565 0 -0.3579385988444943 -0.1288231446599975 0 -0.37072700175022649 -0.13259306175266519 0 -0.35806253744437322 -0.1411271709866565 0 -0.37072700175022649 -0.13259306175266519 0 -0.37828494590977291 -0.14533158478565161 0 -0.35806253744437322 -0.1411271709866565 0 -0.37828494590977291 -0.14533158478565161 0 -0.36643973154349252 -0.1515696276524332 0 -0.35806253744437322 -0.1411271709866565 0 -0.37828494590977291 -0.14533158478565161 0 -0.36643973154349252 -0.1515696276524332 0 -0.35806253744437322 -0.1411271709866565 0 -0.35382397189279391 -0.1568470641740673 0 -0.34329220705358088 -0.15108034468061951 0 -0.33637806518029217 -0.1366187814658435 0 -0.35806253744437322 -0.1411271709866565 0 -0.34329220705358088 -0.15108034468061951 0 -0.35806253744437322 -0.1411271709866565 0 -0.35382397189279391 -0.1568470641740673 0 -0.34329220705358088 -0.15108034468061951 0 -0.35806253744437322 -0.1411271709866565 0 -0.34329220705358088 -0.15108034468061951 0 -0.35382397189279391 -0.1568470641740673 0 -0.34190848722277839 -0.16335375771085539 0 -0.35055590407450399 -0.17175358915906119 0 -0.35382397189279391 -0.1568470641740673 0 -0.34190848722277839 -0.16335375771085539 0 -0.35055590407450399 -0.17175358915906119 0 -0.35382397189279391 -0.1568470641740673 0 -0.36543192869600849 -0.16466513034968999 0 -0.36643973154349252 -0.1515696276524332 0 -0.35382397189279391 -0.1568470641740673 0 -0.36543192869600849 -0.16466513034968999 0 -0.36643973154349252 -0.1515696276524332 0 -0.36543192869600849 -0.16466513034968999 0 -0.38638443787410948 -0.15898285856661479 0 -0.36543192869600849 -0.16466513034968999 0 -0.36358297719726151 -0.1810667478955274 0 -0.37753005425245872 -0.17346469631497161 0 -0.35055590407450399 -0.17175358915906119 0 -0.36543192869600849 -0.16466513034968999 0 -0.36358297719726151 -0.1810667478955274 0 -0.36358297719726151 -0.1810667478955274 0 -0.3802809804925727 -0.19637798961082331 0 -0.37753005425245872 -0.17346469631497161 0 -0.35055590407450399 -0.17175358915906119 0 -0.3333484764302248 -0.17605427216594621 0 -0.35035122561571652 -0.19471936505185161 0 -0.35055590407450399 -0.17175358915906119 0 -0.36358297719726151 -0.1810667478955274 0 -0.35035122561571652 -0.19471936505185161 0 -0.35055590407450399 -0.17175358915906119 0 -0.3333484764302248 -0.17605427216594621 0 -0.34190848722277839 -0.16335375771085539 0 -0.34329220705358088 -0.15108034468061951 0 -0.34190848722277839 -0.16335375771085539 0 -0.32852187666278881 -0.16103351837458271 0 -0.3333484764302248 -0.17605427216594621 0 -0.34190848722277839 -0.16335375771085539 0 -0.32852187666278881 -0.16103351837458271 0 -0.32852187666278881 -0.16103351837458271 0 -0.31490971312894073 -0.15734885753334779 0 -0.31608835573121558 -0.1750319365643736 0 -0.3333484764302248 -0.17605427216594621 0 -0.32852187666278881 -0.16103351837458271 0 -0.31608835573121558 -0.1750319365643736 0 -0.3333484764302248 -0.17605427216594621 0 -0.31608835573121558 -0.1750319365643736 0 -0.32042147073886029 -0.19306074049287991 0 -0.30368846229270369 -0.18411998976671309 0 -0.31608835573121558 -0.1750319365643736 0 -0.32042147073886029 -0.19306074049287991 0 -0.3038285189476761 -0.202514407881732 0 -0.32042147073886029 -0.19306074049287991 0 -0.31469301309989378 -0.21338364530541459 0 -0.32042147073886029 -0.19306074049287991 0 -0.31469301309989378 -0.21338364530541459 0 -0.33794582326811162 -0.2136359176669998 0 -0.32042147073886029 -0.19306074049287991 0 -0.33794582326811162 -0.2136359176669998 0 -0.35035122561571652 -0.19471936505185161 0 -0.3333484764302248 -0.17605427216594621 0 -0.32042147073886029 -0.19306074049287991 0 -0.35035122561571652 -0.19471936505185161 0 -0.32042147073886029 -0.19306074049287991 0 -0.35035122561571652 -0.19471936505185161 0 -0.35035122561571652 -0.19471936505185161 0 -0.3802809804925727 -0.19637798961082331 0 -0.35035122561571652 -0.19471936505185161 0 -0.36608374714553482 -0.21674293346339141 0 -0.3802809804925727 -0.19637798961082331 0 -0.36358297719726151 -0.1810667478955274 0 -0.35035122561571652 -0.19471936505185161 0 -0.3802809804925727 -0.19637798961082331 0 -0.33794582326811162 -0.2136359176669998 0 -0.35035122561571652 -0.19471936505185161 0 -0.36608374714553482 -0.21674293346339141 0 -0.33794582326811162 -0.2136359176669998 0 -0.36608374714553482 -0.21674293346339141 0 -0.35151444159536399 -0.23457284699470149 0 -0.36608374714553482 -0.21674293346339141 0 -0.35151444159536399 -0.23457284699470149 0 -0.37841784177742749 -0.23980971929564329 0 -0.35151444159536399 -0.23457284699470149 0 -0.37841784177742749 -0.23980971929564329 0 -0.35074909256490078 -0.2544265487002364 0 -0.35151444159536399 -0.23457284699470149 0 -0.37841784177742749 -0.23980971929564329 0 -0.32984033196924661 -0.25079586296346412 0 -0.35074909256490078 -0.2544265487002364 0 -0.35151444159536399 -0.23457284699470149 0 -0.32984033196924661 -0.25079586296346412 0 -0.35151444159536399 -0.23457284699470149 0 -0.32461104141330033 -0.2293359746937596 0 -0.35151444159536399 -0.23457284699470149 0 -0.32461104141330033 -0.2293359746937596 0 -0.33794582326811162 -0.2136359176669998 0 -0.35151444159536399 -0.23457284699470149 0 -0.32461104141330033 -0.2293359746937596 0 -0.29842519666094219 -0.22786110040171931 0 -0.31469301309989378 -0.21338364530541459 0 -0.32461104141330033 -0.2293359746937596 0 -0.31469301309989378 -0.21338364530541459 0 -0.33794582326811162 -0.2136359176669998 0 -0.32461104141330033 -0.2293359746937596 0 -0.32984033196924661 -0.25079586296346412 0 -0.30719362811525203 -0.24701180601075259 0 -0.32461104141330033 -0.2293359746937596 0 -0.42874790633329363 -0.22666804866296519 0 -0.40532124195949121 -0.24504659159658509 0 -0.39529176282730127 -0.22059651023469221 0 -0.42882862824786411 -0.25215583988111961 0 -0.42874790633329363 -0.22666804866296519 0 -0.40532124195949121 -0.24504659159658509 0 -0.40532124195949121 -0.24504659159658509 0 -0.37841784177742749 -0.23980971929564329 0 -0.39529176282730127 -0.22059651023469221 0 -0.40532124195949121 -0.24504659159658509 0 -0.37841784177742749 -0.23980971929564329 0 -0.38796331349011443 -0.26301535694688227 0 -0.40532124195949121 -0.24504659159658509 0 -0.37841784177742749 -0.23980971929564329 0 -0.36608374714553482 -0.21674293346339141 0 -0.37841784177742749 -0.23980971929564329 0 -0.39529176282730127 -0.22059651023469221 0 -0.39529176282730127 -0.22059651023469221 0 -0.3802809804925727 -0.19637798961082331 0 -0.41021073536942859 -0.19803661416979501 0 -0.36608374714553482 -0.21674293346339141 0 -0.39529176282730127 -0.22059651023469221 0 -0.3802809804925727 -0.19637798961082331 0 -0.3802809804925727 -0.19637798961082331 0 -0.41021073536942859 -0.19803661416979501 0 -0.39448392983844638 -0.17263413234757791 0 -0.3802809804925727 -0.19637798961082331 0 -0.41021073536942859 -0.19803661416979501 0 -0.42874790633329363 -0.22666804866296519 0 -0.39529176282730127 -0.22059651023469221 0 -0.41021073536942859 -0.19803661416979501 0 -0.42874790633329363 -0.22666804866296519 0 -0.41021073536942859 -0.19803661416979501 0 -0.4401404902462846 -0.19969523872876671 0 -0.41021073536942859 -0.19803661416979501 0 -0.41714294136046021 -0.1761753367215155 0 -0.4401404902462846 -0.19969523872876671 0 -0.41021073536942859 -0.19803661416979501 0 -0.4401404902462846 -0.19969523872876671 0 -0.41714294136046021 -0.1761753367215155 0 -0.43904737243451408 -0.17464877847223631 0 -0.4401404902462846 -0.19969523872876671 0 -0.41714294136046021 -0.1761753367215155 0 -0.42697096754586372 -0.15545383019154099 0 -0.43904737243451408 -0.17464877847223631 0 -0.40732623982897498 -0.1647247938003796 0 -0.41714294136046021 -0.1761753367215155 0 -0.39448392983844638 -0.17263413234757791 0 -0.40732623982897498 -0.1647247938003796 0 -0.41714294136046021 -0.1761753367215155 0 -0.42697096754586372 -0.15545383019154099 0 -0.40732623982897498 -0.1647247938003796 0 -0.40262795672781843 -0.15039270748859609 0 -0.42697096754586372 -0.15545383019154099 0 -0.41021073536942859 -0.19803661416979501 0 -0.41714294136046021 -0.1761753367215155 0 -0.39448392983844638 -0.17263413234757791 0 -0.3802809804925727 -0.19637798961082331 0 -0.39448392983844638 -0.17263413234757791 0 -0.37753005425245872 -0.17346469631497161 0 -0.39448392983844638 -0.17263413234757791 0 -0.37753005425245872 -0.17346469631497161 0 -0.38638443787410948 -0.15898285856661479 0 -0.36543192869600849 -0.16466513034968999 0 -0.37753005425245872 -0.17346469631497161 0 -0.38638443787410948 -0.15898285856661479 0 -0.39448392983844638 -0.17263413234757791 0 -0.38638443787410948 -0.15898285856661479 0 -0.40732623982897498 -0.1647247938003796 0 -0.38638443787410948 -0.15898285856661479 0 -0.40262795672781843 -0.15039270748859609 0 -0.40732623982897498 -0.1647247938003796 0 -0.39448392983844638 -0.17263413234757791 0 -0.38638443787410948 -0.15898285856661479 0 -0.40262795672781843 -0.15039270748859609 0 -0.39442667454971941 -0.13415480486628081 0 -0.41253123543362141 -0.1393940864213952 0 -0.40262795672781843 -0.15039270748859609 0 -0.37828494590977291 -0.14533158478565161 0 -0.39442667454971941 -0.13415480486628081 0 -0.36643973154349252 -0.1515696276524332 0 -0.38638443787410948 -0.15898285856661479 0 -0.37828494590977291 -0.14533158478565161 0 -0.38638443787410948 -0.15898285856661479 0 -0.40262795672781843 -0.15039270748859609 0 -0.37828494590977291 -0.14533158478565161 0 -0.40262795672781843 -0.15039270748859609 0 -0.37828494590977291 -0.14533158478565161 0 -0.38638443787410948 -0.15898285856661479 0 -0.37828494590977291 -0.14533158478565161 0 -0.37828494590977291 -0.14533158478565161 0 -0.38480362760193559 -0.1319482511596429 0 -0.39442667454971941 -0.13415480486628081 0 -0.37072700175022649 -0.13259306175266519 0 -0.38480362760193559 -0.1319482511596429 0 -0.39577588819802417 -0.1157135532339737 0 -0.37072700175022649 -0.13259306175266519 0 -0.37828494590977291 -0.14533158478565161 0 -0.38480362760193559 -0.1319482511596429 0 -0.38480362760193559 -0.1319482511596429 0 -0.39442667454971941 -0.13415480486628081 0 -0.39577588819802417 -0.1157135532339737 0 -0.39442667454971941 -0.13415480486628081 0 -0.41253123543362141 -0.1393940864213952 0 -0.41165981523076728 -0.1218179481055594 0 -0.41253123543362141 -0.1393940864213952 0 -0.426970763113938 -0.13515114145499871 0 -0.41165981523076728 -0.1218179481055594 0 -0.40262795672781843 -0.15039270748859609 0 -0.42697096754586372 -0.15545383019154099 0 -0.40262795672781843 -0.15039270748859609 0 -0.41253123543362141 -0.1393940864213952 0 -0.42697096754586372 -0.15545383019154099 0 -0.42697096754586372 -0.15545383019154099 0 -0.426970763113938 -0.13515114145499871 0 -0.44509263740706551 -0.14212220901294331 0 -0.41253123543362141 -0.1393940864213952 0 -0.42697096754586372 -0.15545383019154099 0 -0.426970763113938 -0.13515114145499871 0 -0.426970763113938 -0.13515114145499871 0 -0.43006680524271368 -0.1179881169787706 0 -0.45029269494434387 -0.12341505764234929 0 -0.426970763113938 -0.13515114145499871 0 -0.44509263740706551 -0.14212220901294331 0 -0.45029269494434387 -0.12341505764234929 0 -0.42697096754586372 -0.15545383019154099 0 -0.44509263740706551 -0.14212220901294331 0 -0.45131397836390907 -0.16051495289448589 0 -0.47246189950802481 -0.1371868507305154 0 -0.47565698918195443 -0.16557607559743079 0 -0.45131397836390907 -0.16051495289448589 0 -0.44509263740706551 -0.14212220901294331 0 -0.47246189950802481 -0.1371868507305154 0 -0.45131397836390907 -0.16051495289448589 0 -0.47246189950802481 -0.1371868507305154 0 -0.45029269494434387 -0.12341505764234929 0 -0.4627810458106838 -0.1149266163432036 0 -0.44509263740706551 -0.14212220901294331 0 -0.47246189950802481 -0.1371868507305154 0 -0.45029269494434387 -0.12341505764234929 0 -0.47246189950802481 -0.1371868507305154 0 -0.5 -0.1432294961685274 0 -0.5 -0.1158217940366789 0 -0.47246189950802481 -0.1371868507305154 0 -0.5 -0.1432294961685274 0 -0.49015151825732162 -0.1569333472344516 0 -0.47246189950802481 -0.1371868507305154 0 -0.47565698918195443 -0.16557607559743079 0 -0.49015151825732162 -0.1569333472344516 0 -0.47565698918195443 -0.16557607559743079 0 -0.49999999999999978 -0.17063719830037569 0 -0.5 -0.1432294961685274 0 -0.49999999999999978 -0.17063719830037569 0 -0.49015151825732162 -0.1569333472344516 0 -0.47565698918195443 -0.16557607559743079 0 -0.49999999999999978 -0.17063719830037569 0 -0.49015151825732162 -0.1569333472344516 0 -0.49999999999999978 -0.17063719830037569 0 -0.5 -0.18682484307354291 0 -0.48423261982685789 -0.18480150032177839 0 -0.47565698918195443 -0.16557607559743079 0 -0.49999999999999978 -0.17063719830037569 0 -0.48423261982685789 -0.18480150032177839 0 -0.47565698918195443 -0.16557607559743079 0 -0.48423261982685789 -0.18480150032177839 0 -0.45966848465605259 -0.18140453382487251 0 -0.47565698918195443 -0.16557607559743079 0 -0.45131397836390907 -0.16051495289448589 0 -0.47565698918195443 -0.16557607559743079 0 -0.45966848465605259 -0.18140453382487251 0 -0.45131397836390907 -0.16051495289448589 0 -0.42697096754586372 -0.15545383019154099 0 -0.45131397836390907 -0.16051495289448589 0 -0.43904737243451408 -0.17464877847223631 0 -0.42697096754586372 -0.15545383019154099 0 -0.45131397836390907 -0.16051495289448589 0 -0.45966848465605259 -0.18140453382487251 0 -0.45131397836390907 -0.16051495289448589 0 -0.43904737243451408 -0.17464877847223631 0 -0.45966848465605259 -0.18140453382487251 0 -0.43904737243451408 -0.17464877847223631 0 -0.4401404902462846 -0.19969523872876671 0 -0.5 -0.27385615966996801 0 -0.49999999999999661 -0.20301248784671 0 -0.47514940566521352 -0.23326952014714999 0 -0.45413044471375702 -0.21811696237505071 0 -0.47007024512314061 -0.20135386328773849 0 -0.47514940566521352 -0.23326952014714999 0 -0.42874790633329363 -0.22666804866296519 0 -0.4401404902462846 -0.19969523872876671 0 -0.45413044471375702 -0.21811696237505071 0 -0.4401404902462846 -0.19969523872876671 0 -0.45413044471375702 -0.21811696237505071 0 -0.47007024512314061 -0.20135386328773849 0 -0.45966848465605259 -0.18140453382487251 0 -0.4401404902462846 -0.19969523872876671 0 -0.47007024512314061 -0.20135386328773849 0 -0.4401404902462846 -0.19969523872876671 0 -0.47007024512314061 -0.20135386328773849 0 -0.47007024512314061 -0.20135386328773849 0 -0.49999999999999661 -0.20301248784671 0 -0.47514940566521352 -0.23326952014714999 0 -0.48423261982685789 -0.18480150032177839 0 -0.45966848465605259 -0.18140453382487251 0 -0.47007024512314061 -0.20135386328773849 0 -0.48423261982685789 -0.18480150032177839 0 -0.47007024512314061 -0.20135386328773849 0 -0.49999999999999661 -0.20301248784671 0 -0.5 -0.18682484307354291 0 -0.48423261982685789 -0.18480150032177839 0 -0.49999999999999661 -0.20301248784671 0 -0.47007024512314061 -0.20135386328773849 0 -0.49999999999999661 -0.20301248784671 0 -0.47024296673703608 -0.26214578800260963 0 -0.47514940566521352 -0.23326952014714999 0 -0.45645277741734702 -0.2411318597008231 0 -0.45413044471375702 -0.21811696237505071 0 -0.47514940566521352 -0.23326952014714999 0 -0.45645277741734702 -0.2411318597008231 0 -0.42874790633329363 -0.22666804866296519 0 -0.45413044471375702 -0.21811696237505071 0 -0.45645277741734702 -0.2411318597008231 0 -0.42882862824786411 -0.25215583988111961 0 -0.42874790633329363 -0.22666804866296519 0 -0.45645277741734702 -0.2411318597008231 0 -0.41251788627771868 -0.047201757817496137 0 -0.43127794994743568 -0.02694574779495618 0 -0.41368769409973888 -0.021078929689551929 0 -0.41251788627771868 -0.047201757817496137 0 -0.4096338524315063 -0.069379980071832964 0 -0.42486825943558088 -0.070273358677097469 0 -0.41251788627771868 -0.047201757817496137 0 -0.42486825943558088 -0.070273358677097469 0 -0.43862570644421162 -0.052555419479466271 0 -0.41251788627771868 -0.047201757817496137 0 -0.43127794994743568 -0.02694574779495618 0 -0.43862570644421162 -0.052555419479466271 0 -0.43127794994743568 -0.02694574779495618 0 -0.43378871403987529 -0.0037156786729933022 0 -0.41933320277035652 -0.0073184789836325441 0 -0.43378871403987529 -0.0037156786729933022 0 -0.41933320277035652 -0.0073184789836325441 0 -0.41432406220981272 0.0057619269529878836 0 -0.41933320277035652 -0.0073184789836325441 0 -0.41196952604221698 -0.0020688422146962399 0 -0.41432406220981272 0.0057619269529878836 0 -0.41933320277035652 -0.0073184789836325441 0 -0.41368769409973888 -0.021078929689551929 0 -0.4049577091662086 -0.0072437002136591534 0 -0.41196952604221698 -0.0020688422146962399 0 -0.4049577091662086 -0.0072437002136591534 0 -0.4071055423468859 0.002776995099962481 0 -0.41933320277035652 -0.0073184789836325441 0 -0.41196952604221698 -0.0020688422146962399 0 -0.4049577091662086 -0.0072437002136591534 0 -0.43127794994743568 -0.02694574779495618 0 -0.41933320277035652 -0.0073184789836325441 0 -0.41368769409973888 -0.021078929689551929 0 -0.41251788627771868 -0.047201757817496137 0 -0.41368769409973888 -0.021078929689551929 0 -0.39786258448612799 -0.02481437816321163 0 -0.41368769409973888 -0.021078929689551929 0 -0.39786258448612799 -0.02481437816321163 0 -0.4049577091662086 -0.0072437002136591534 0 -0.4049577091662086 -0.0072437002136591534 0 -0.38653749201156717 -0.0085714722691885865 0 -0.39706540415667713 0.0062458464327191116 0 -0.39786258448612799 -0.02481437816321163 0 -0.4049577091662086 -0.0072437002136591534 0 -0.38653749201156717 -0.0085714722691885865 0 -0.38653749201156717 -0.0085714722691885865 0 -0.38342362107646139 0.00405821384166671 0 -0.36953825318317091 0.0010669767550764381 0 -0.39786258448612799 -0.02481437816321163 0 -0.38653749201156717 -0.0085714722691885865 0 -0.37949077953040511 -0.02492776216193596 0 -0.39786258448612799 -0.02481437816321163 0 -0.37949077953040511 -0.02492776216193596 0 -0.38998394583112961 -0.039862646827438022 0 -0.36338250616200651 -0.01519824168372921 0 -0.38653749201156717 -0.0085714722691885865 0 -0.37949077953040511 -0.02492776216193596 0 -0.36555663484781642 -0.040643059528352517 0 -0.37949077953040511 -0.02492776216193596 0 -0.38998394583112961 -0.039862646827438022 0 -0.36555663484781642 -0.040643059528352517 0 -0.38998394583112961 -0.039862646827438022 0 -0.37884492690954558 -0.054839602117997363 0 -0.41251788627771868 -0.047201757817496137 0 -0.39786258448612799 -0.02481437816321163 0 -0.38998394583112961 -0.039862646827438022 0 -0.41251788627771868 -0.047201757817496137 0 -0.38998394583112961 -0.039862646827438022 0 -0.39392068678855519 -0.066121683066152126 0 -0.41251788627771868 -0.047201757817496137 0 -0.39392068678855519 -0.066121683066152126 0 -0.4096338524315063 -0.069379980071832964 0 -0.38998394583112961 -0.039862646827438022 0 -0.37884492690954558 -0.054839602117997363 0 -0.39392068678855519 -0.066121683066152126 0 -0.37884492690954558 -0.054839602117997363 0 -0.37544789422893882 -0.070772870030723273 0 -0.39392068678855519 -0.066121683066152126 0 -0.37544789422893882 -0.070772870030723273 0 -0.37997177527635362 -0.088800420973651331 0 -0.39392068678855519 -0.066121683066152126 0 -0.37997177527635362 -0.088800420973651331 0 -0.40935372746676058 -0.088473393238507281 0 -0.37997177527635362 -0.088800420973651331 0 -0.39423626164356151 -0.1003391744360192 0 -0.40935372746676058 -0.088473393238507281 0 -0.37997177527635362 -0.088800420973651331 0 -0.39392068678855519 -0.066121683066152126 0 -0.40935372746676058 -0.088473393238507281 0 -0.39392068678855519 -0.066121683066152126 0 -0.4096338524315063 -0.069379980071832964 0 -0.40935372746676058 -0.088473393238507281 0 -0.37345344109538969 -0.1071347533355838 0 -0.39577588819802417 -0.1157135532339737 0 -0.37462886795691103 -0.1184763459202593 0 -0.37072700175022649 -0.13259306175266519 0 -0.39577588819802417 -0.1157135532339737 0 -0.37345344109538969 -0.1071347533355838 0 -0.37462886795691103 -0.1184763459202593 0 -0.39577588819802417 -0.1157135532339737 0 -0.37072700175022649 -0.13259306175266519 0 -0.39577588819802417 -0.1157135532339737 0 -0.37345344109538969 -0.1071347533355838 0 -0.37997177527635362 -0.088800420973651331 0 -0.39423626164356151 -0.1003391744360192 0 -0.37345344109538969 -0.1071347533355838 0 -0.39423626164356151 -0.1003391744360192 0 -0.39577588819802417 -0.1157135532339737 0 -0.39423626164356151 -0.1003391744360192 0 -0.39577588819802417 -0.1157135532339737 0 -0.41091251386727068 -0.10551354684004351 0 -0.39423626164356151 -0.1003391744360192 0 -0.41091251386727068 -0.10551354684004351 0 -0.40935372746676058 -0.088473393238507281 0 -0.39577588819802417 -0.1157135532339737 0 -0.41165981523076728 -0.1218179481055594 0 -0.41091251386727068 -0.10551354684004351 0 -0.39442667454971941 -0.13415480486628081 0 -0.39577588819802417 -0.1157135532339737 0 -0.41165981523076728 -0.1218179481055594 0 -0.39577588819802417 -0.1157135532339737 0 -0.41165981523076728 -0.1218179481055594 0 -0.39577588819802417 -0.1157135532339737 0 -0.41091251386727068 -0.10551354684004351 0 -0.41165981523076728 -0.1218179481055594 0 -0.41091251386727068 -0.10551354684004351 0 -0.42293610045570962 -0.10739846348972169 0 -0.41165981523076728 -0.1218179481055594 0 -0.42293610045570962 -0.10739846348972169 0 -0.43006680524271368 -0.1179881169787706 0 -0.41091251386727068 -0.10551354684004351 0 -0.42604913953651807 -0.095313540446114606 0 -0.40935372746676058 -0.088473393238507281 0 -0.41091251386727068 -0.10551354684004351 0 -0.42604913953651807 -0.095313540446114606 0 -0.42293610045570962 -0.10739846348972169 0 -0.41091251386727068 -0.10551354684004351 0 -0.42604913953651807 -0.095313540446114606 0 -0.42604913953651807 -0.095313540446114606 0 -0.43873567965716759 -0.088146365503363244 0 -0.43774430666010078 -0.1042641138208935 0 -0.42604913953651807 -0.095313540446114606 0 -0.42293610045570962 -0.10739846348972169 0 -0.43774430666010078 -0.1042641138208935 0 -0.426970763113938 -0.13515114145499871 0 -0.41165981523076728 -0.1218179481055594 0 -0.43006680524271368 -0.1179881169787706 0 -0.42293610045570962 -0.10739846348972169 0 -0.43006680524271368 -0.1179881169787706 0 -0.43774430666010078 -0.1042641138208935 0 -0.4096338524315063 -0.069379980071832964 0 -0.40935372746676058 -0.088473393238507281 0 -0.42486825943558088 -0.070273358677097469 0 -0.42604913953651807 -0.095313540446114606 0 -0.40935372746676058 -0.088473393238507281 0 -0.43873567965716759 -0.088146365503363244 0 -0.40935372746676058 -0.088473393238507281 0 -0.42486825943558088 -0.070273358677097469 0 -0.43873567965716759 -0.088146365503363244 0 -0.40935372746676058 -0.088473393238507281 0 -0.43873567965716759 -0.088146365503363244 0 -0.42486825943558088 -0.070273358677097469 0 -0.4421958142930027 -0.070620043593344756 0 -0.43873567965716759 -0.088146365503363244 0 -0.42486825943558088 -0.070273358677097469 0 -0.4421958142930027 -0.070620043593344756 0 -0.43862570644421162 -0.052555419479466271 0 -0.4421958142930027 -0.070620043593344756 0 -0.45908380429614032 -0.064508310287921256 0 -0.43862570644421162 -0.052555419479466271 0 -0.45203323252347127 -0.077773514288212109 0 -0.4421958142930027 -0.070620043593344756 0 -0.45908380429614032 -0.064508310287921256 0 -0.45203323252347127 -0.077773514288212109 0 -0.43873567965716759 -0.088146365503363244 0 -0.46811763184757438 -0.087819337768219194 0 -0.45203323252347127 -0.077773514288212109 0 -0.4421958142930027 -0.070620043593344756 0 -0.43873567965716759 -0.088146365503363244 0 -0.43873567965716759 -0.088146365503363244 0 -0.46811763184757438 -0.087819337768219194 0 -0.45359164258806117 -0.10280616720612371 0 -0.43873567965716759 -0.088146365503363244 0 -0.46811763184757438 -0.087819337768219194 0 -0.45203323252347127 -0.077773514288212109 0 -0.46811763184757438 -0.087819337768219194 0 -0.45908380429614032 -0.064508310287921256 0 -0.45029269494434387 -0.12341505764234929 0 -0.43774430666010078 -0.1042641138208935 0 -0.45359164258806117 -0.10280616720612371 0 -0.43006680524271368 -0.1179881169787706 0 -0.45029269494434387 -0.12341505764234929 0 -0.43774430666010078 -0.1042641138208935 0 -0.43873567965716759 -0.088146365503363244 0 -0.43774430666010078 -0.1042641138208935 0 -0.45359164258806117 -0.10280616720612371 0 -0.46811763184757438 -0.087819337768219194 0 -0.45359164258806117 -0.10280616720612371 0 -0.46887513732896818 -0.1027032158203089 0 -0.45359164258806117 -0.10280616720612371 0 -0.4627810458106838 -0.1149266163432036 0 -0.46887513732896818 -0.1027032158203089 0 -0.45029269494434387 -0.12341505764234929 0 -0.45359164258806117 -0.10280616720612371 0 -0.4627810458106838 -0.1149266163432036 0 -0.47246189950802481 -0.1371868507305154 0 -0.47733593121518259 -0.11229795564821581 0 -0.5 -0.1158217940366789 0 -0.47246189950802481 -0.1371868507305154 0 -0.4627810458106838 -0.1149266163432036 0 -0.47733593121518259 -0.11229795564821581 0 -0.4627810458106838 -0.1149266163432036 0 -0.47733593121518259 -0.11229795564821581 0 -0.46887513732896818 -0.1027032158203089 0 -0.47733593121518259 -0.11229795564821581 0 -0.46887513732896818 -0.1027032158203089 0 -0.48254943518333859 -0.095666002135782163 0 -0.46811763184757438 -0.087819337768219194 0 -0.46887513732896818 -0.1027032158203089 0 -0.48254943518333859 -0.095666002135782163 0 -0.48254943518333859 -0.095666002135782163 0 -0.5 -0.1158217940366789 0 -0.49999999999999828 -0.088414091904830544 0 -0.47733593121518259 -0.11229795564821581 0 -0.48254943518333859 -0.095666002135782163 0 -0.5 -0.1158217940366789 0 -0.46811763184757438 -0.087819337768219194 0 -0.45908380429614032 -0.064508310287921256 0 -0.47954190214806908 -0.076461201096376261 0 -0.45908380429614032 -0.064508310287921256 0 -0.47954190214806908 -0.076461201096376261 0 -0.45908380429614032 -0.064508310287921256 0 -0.47954190214806908 -0.076461201096376261 0 -0.4797541133834422 -0.054112045070692463 0 -0.46811763184757438 -0.087819337768219194 0 -0.48254943518333859 -0.095666002135782163 0 -0.47954190214806908 -0.076461201096376261 0 -0.47954190214806908 -0.076461201096376261 0 -0.49999999999999828 -0.088414091904830544 0 -0.48254943518333859 -0.095666002135782163 0 -0.47954190214806908 -0.076461201096376261 0 -0.49999999999999828 -0.088414091904830544 0 -0.47954190214806908 -0.076461201096376261 0 -0.49999999999999828 -0.088414091904830544 0 -0.5 -0.061213212032636299 0 -0.47954190214806908 -0.076461201096376261 0 -0.5 -0.061213212032636299 0 -0.4797541133834422 -0.054112045070692463 0 -0.5 -0.061213212032636299 0 -0.5 -0.034012332160442083 0 -0.4797541133834422 -0.054112045070692463 0 -0.5 -0.034012332160442083 0 -0.4797541133834422 -0.054112045070692463 0 -0.46809529795745958 -0.033821291476430232 0 -0.45908380429614032 -0.064508310287921256 0 -0.4797541133834422 -0.054112045070692463 0 -0.46809529795745958 -0.033821291476430232 0 -0.45908380429614032 -0.064508310287921256 0 -0.46809529795745958 -0.033821291476430232 0 -0.44960495292878289 -0.039319850822697143 0 -0.43127794994743568 -0.02694574779495618 0 -0.44960495292878289 -0.039319850822697143 0 -0.43862570644421162 -0.052555419479466271 0 -0.45908380429614032 -0.064508310287921256 0 -0.44960495292878289 -0.039319850822697143 0 -0.43862570644421162 -0.052555419479466271 0 -0.45908380429614032 -0.064508310287921256 0 -0.43862570644421162 -0.052555419479466271 0 -0.43378871403987529 -0.0037156786729933022 0 -0.45094200599866741 -0.018768485074711759 0 -0.45048731362507782 0.001039663864718561 0 -0.43378871403987529 -0.0037156786729933022 0 -0.45094200599866741 -0.018768485074711759 0 -0.43127794994743568 -0.02694574779495618 0 -0.44960495292878289 -0.039319850822697143 0 -0.45094200599866741 -0.018768485074711759 0 -0.43127794994743568 -0.02694574779495618 0 -0.43378871403987529 -0.0037156786729933022 0 -0.45094200599866741 -0.018768485074711759 0 -0.46809529795745958 -0.033821291476430232 0 -0.45094200599866741 -0.018768485074711759 0 -0.46809529795745958 -0.033821291476430232 0 -0.44960495292878289 -0.039319850822697143 0 -0.45094200599866741 -0.018768485074711759 0 -0.46809529795745958 -0.033821291476430232 0 -0.45094200599866741 -0.018768485074711759 0 -0.46757882059456513 -0.0077866980642548149 0 -0.45094200599866741 -0.018768485074711759 0 -0.46757882059456513 -0.0077866980642548149 0 -0.45048731362507782 0.001039663864718561 0 -0.5 -0.034012332160442083 0 -0.46809529795745958 -0.033821291476430232 0 -0.48338201569889561 -0.017018613621449911 0 -0.46757882059456513 -0.0077866980642548149 0 -0.48338201569889561 -0.017018613621449911 0 -0.48713054266686168 0.002431054637415931 0 -0.46809529795745958 -0.033821291476430232 0 -0.46757882059456513 -0.0077866980642548149 0 -0.48338201569889561 -0.017018613621449911 0 -0.5 -0.034012332160442083 0 -0.48338201569889561 -0.017018613621449911 0 -0.5 -0.0068114522882477546 0 -0.48338201569889561 -0.017018613621449911 0 -0.5 -0.0068114522882477546 0 -0.48713054266686168 0.002431054637415931 0 -0.48713054266686168 0.002431054637415931 0 -0.5 0.02038942758394657 0 -0.48240168715859227 0.01912011610724005 0 -0.5 -0.0068114522882477546 0 -0.48713054266686168 0.002431054637415931 0 -0.5 0.02038942758394657 0 -0.5 0.02038942758394657 0 -0.48870951920765338 0.027590157014227141 0 -0.49819089546775608 0.037457616660202253 0 -0.5 0.02038942758394657 0 -0.48870951920765338 0.027590157014227141 0 -0.48240168715859227 0.01912011610724005 0 -0.48240168715859227 0.01912011610724005 0 -0.47424549420426532 0.033393467705519722 0 -0.46392835701681329 0.022487435295002509 0 -0.48240168715859227 0.01912011610724005 0 -0.46687192567033559 0.01004242635699479 0 -0.46392835701681329 0.022487435295002509 0 -0.48870951920765338 0.027590157014227141 0 -0.48240168715859227 0.01912011610724005 0 -0.47424549420426532 0.033393467705519722 0 -0.46757882059456513 -0.0077866980642548149 0 -0.48713054266686168 0.002431054637415931 0 -0.46687192567033559 0.01004242635699479 0 -0.48713054266686168 0.002431054637415931 0 -0.46687192567033559 0.01004242635699479 0 -0.48713054266686168 0.002431054637415931 0 -0.48240168715859227 0.01912011610724005 0 -0.46687192567033559 0.01004242635699479 0 -0.5 0.047590307456140901 0 -0.49070102329864862 0.057885849282125097 0 -0.48379313918704819 0.045778268777172372 0 -0.5 0.047590307456140901 0 -0.49070102329864862 0.057885849282125097 0 -0.5 0.074791187328335229 0 -0.49070102329864862 0.057885849282125097 0 -0.48379313918704819 0.045778268777172372 0 -0.47901095400754612 0.063383633566851921 0 -0.5 0.047590307456140901 0 -0.49819089546775608 0.037457616660202253 0 -0.48379313918704819 0.045778268777172372 0 -0.49819089546775608 0.037457616660202253 0 -0.47424549420426532 0.033393467705519722 0 -0.49819089546775608 0.037457616660202253 0 -0.48379313918704819 0.045778268777172372 0 -0.47424549420426532 0.033393467705519722 0 -0.5 0.02038942758394657 0 -0.5 0.047590307456140901 0 -0.49819089546775608 0.037457616660202253 0 -0.48870951920765338 0.027590157014227141 0 -0.49819089546775608 0.037457616660202253 0 -0.47424549420426532 0.033393467705519722 0 -0.48379313918704819 0.045778268777172372 0 -0.47424549420426532 0.033393467705519722 0 -0.46260299950298861 0.041911466808071077 0 -0.48379313918704819 0.045778268777172372 0 -0.46519235301055489 0.054594772579183222 0 -0.46260299950298861 0.041911466808071077 0 -0.48379313918704819 0.045778268777172372 0 -0.46519235301055489 0.054594772579183222 0 -0.47901095400754612 0.063383633566851921 0 -0.46519235301055489 0.054594772579183222 0 -0.45273568262519109 0.049950704767747871 0 -0.45568495483550081 0.066004484426329169 0 -0.46519235301055489 0.054594772579183222 0 -0.45568495483550081 0.066004484426329169 0 -0.47901095400754612 0.063383633566851921 0 -0.46519235301055489 0.054594772579183222 0 -0.46260299950298861 0.041911466808071077 0 -0.45273568262519109 0.049950704767747871 0 -0.46260299950298861 0.041911466808071077 0 -0.4469094298246804 0.039673775490583887 0 -0.45273568262519109 0.049950704767747871 0 -0.47424549420426532 0.033393467705519722 0 -0.46260299950298861 0.041911466808071077 0 -0.45030009294077439 0.029329318750837191 0 -0.47424549420426532 0.033393467705519722 0 -0.45030009294077439 0.029329318750837191 0 -0.46260299950298861 0.041911466808071077 0 -0.4469094298246804 0.039673775490583887 0 -0.45030009294077439 0.029329318750837191 0 -0.4469094298246804 0.039673775490583887 0 -0.43605842863391092 0.034635208321716099 0 -0.43393451408538602 0.053064040253560991 0 -0.4469094298246804 0.039673775490583887 0 -0.45030009294077439 0.029329318750837191 0 -0.43605842863391092 0.034635208321716099 0 -0.45273568262519109 0.049950704767747871 0 -0.43393451408538602 0.053064040253560991 0 -0.45568495483550081 0.066004484426329169 0 -0.4469094298246804 0.039673775490583887 0 -0.45273568262519109 0.049950704767747871 0 -0.43393451408538602 0.053064040253560991 0 -0.46687192567033559 0.01004242635699479 0 -0.44661330867380961 0.017653798076573669 0 -0.45048731362507782 0.001039663864718561 0 -0.46757882059456513 -0.0077866980642548149 0 -0.46687192567033559 0.01004242635699479 0 -0.45048731362507782 0.001039663864718561 0 -0.46687192567033559 0.01004242635699479 0 -0.44661330867380961 0.017653798076573669 0 -0.46687192567033559 0.01004242635699479 0 -0.46392835701681329 0.022487435295002509 0 -0.44661330867380961 0.017653798076573669 0 -0.46392835701681329 0.022487435295002509 0 -0.44661330867380961 0.017653798076573669 0 -0.45030009294077439 0.029329318750837191 0 -0.47424549420426532 0.033393467705519722 0 -0.46392835701681329 0.022487435295002509 0 -0.45030009294077439 0.029329318750837191 0 -0.44661330867380961 0.017653798076573669 0 -0.45030009294077439 0.029329318750837191 0 -0.42635469167728379 0.025265169796153671 0 -0.45030009294077439 0.029329318750837191 0 -0.42635469167728379 0.025265169796153671 0 -0.45030009294077439 0.029329318750837191 0 -0.42635469167728379 0.025265169796153671 0 -0.43605842863391092 0.034635208321716099 0 -0.44661330867380961 0.017653798076573669 0 -0.43919037368972069 0.0075561255006074196 0 -0.45048731362507782 0.001039663864718561 0 -0.43378871403987529 -0.0037156786729933022 0 -0.43919037368972069 0.0075561255006074196 0 -0.45048731362507782 0.001039663864718561 0 -0.43378871403987529 -0.0037156786729933022 0 -0.43919037368972069 0.0075561255006074196 0 -0.42587215842012027 0.01524671873413075 0 -0.44661330867380961 0.017653798076573669 0 -0.43919037368972069 0.0075561255006074196 0 -0.42587215842012027 0.01524671873413075 0 -0.43378871403987529 -0.0037156786729933022 0 -0.41663542208108362 0.01133712772872579 0 -0.43378871403987529 -0.0037156786729933022 0 -0.42587215842012027 0.01524671873413075 0 -0.41663542208108362 0.01133712772872579 0 -0.43378871403987529 -0.0037156786729933022 0 -0.41432406220981272 0.0057619269529878836 0 -0.41663542208108362 0.01133712772872579 0 -0.41432406220981272 0.0057619269529878836 0 -0.41663542208108362 0.01133712772872579 0 -0.41432406220981272 0.0057619269529878836 0 -0.41663542208108362 0.01133712772872579 0 -0.40721101015951378 0.0111897445424608 0 -0.41663542208108362 0.01133712772872579 0 -0.40721101015951378 0.0111897445424608 0 -0.40491121463730589 0.02162566157335135 0 -0.41432406220981272 0.0057619269529878836 0 -0.40721101015951378 0.0111897445424608 0 -0.4071055423468859 0.002776995099962481 0 -0.41196952604221698 -0.0020688422146962399 0 -0.41432406220981272 0.0057619269529878836 0 -0.4071055423468859 0.002776995099962481 0 -0.41663542208108362 0.01133712772872579 0 -0.42211109327574492 0.024544922270632 0 -0.40491121463730589 0.02162566157335135 0 -0.42294135858208087 0.026547594306904392 0 -0.39696505689472272 0.036307159240500743 0 -0.40491121463730589 0.02162566157335135 0 -0.42211109327574492 0.024544922270632 0 -0.40491121463730589 0.02162566157335135 0 -0.42294135858208087 0.026547594306904392 0 -0.42211109327574492 0.024544922270632 0 -0.40491121463730589 0.02162566157335135 0 -0.41663542208108362 0.01133712772872579 0 -0.40491121463730589 0.02162566157335135 0 -0.41663542208108362 0.01133712772872579 0 -0.42211109327574492 0.024544922270632 0 -0.42587215842012027 0.01524671873413075 0 -0.41663542208108362 0.01133712772872579 0 -0.42211109327574492 0.024544922270632 0 -0.44661330867380961 0.017653798076573669 0 -0.42635469167728379 0.025265169796153671 0 -0.44661330867380961 0.017653798076573669 0 -0.42587215842012027 0.01524671873413075 0 -0.42635469167728379 0.025265169796153671 0 -0.42294135858208087 0.026547594306904392 0 -0.42635469167728379 0.025265169796153671 0 -0.43605842863391092 0.034635208321716099 0 -0.42211109327574492 0.024544922270632 0 -0.42635469167728379 0.025265169796153671 0 -0.42294135858208087 0.026547594306904392 0 -0.42211109327574492 0.024544922270632 0 -0.42294135858208087 0.026547594306904392 0 -0.42211109327574492 0.024544922270632 0 -0.42635469167728379 0.025265169796153671 0 -0.42294135858208087 0.026547594306904392 0 -0.42635469167728379 0.025265169796153671 0 -0.42587215842012027 0.01524671873413075 0 -0.42211109327574492 0.024544922270632 0 -0.42635469167728379 0.025265169796153671 0 -0.42294135858208087 0.026547594306904392 0 -0.43393451408538602 0.053064040253560991 0 -0.42294135858208087 0.026547594306904392 0 -0.43605842863391092 0.034635208321716099 0 -0.43393451408538602 0.053064040253560991 0 -0.42294135858208087 0.026547594306904392 0 -0.43393451408538602 0.053064040253560991 0 -0.41940708618358791 0.046057776575262478 0 -0.43393451408538602 0.053064040253560991 0 -0.41988240292948081 0.059814648023132203 0 -0.4299857102739072 0.071360049970611988 0 -0.43393451408538602 0.053064040253560991 0 -0.41988240292948081 0.059814648023132203 0 -0.41940708618358791 0.046057776575262478 0 -0.41988240292948081 0.059814648023132203 0 -0.40974970386612319 0.05229442369148745 0 -0.41940708618358791 0.046057776575262478 0 -0.40974970386612319 0.05229442369148745 0 -0.41940708618358791 0.046057776575262478 0 -0.41112828653685352 0.045037878929458618 0 -0.41988240292948081 0.059814648023132203 0 -0.40974970386612319 0.05229442369148745 0 -0.40588783373901571 0.063899837377538529 0 -0.42294135858208087 0.026547594306904392 0 -0.39696505689472272 0.036307159240500743 0 -0.42294135858208087 0.026547594306904392 0 -0.41940708618358791 0.046057776575262478 0 -0.41165533107536623 0.038598738161769813 0 -0.42294135858208087 0.026547594306904392 0 -0.41165533107536623 0.038598738161769813 0 -0.39696505689472272 0.036307159240500743 0 -0.41940708618358791 0.046057776575262478 0 -0.41112828653685352 0.045037878929458618 0 -0.41165533107536623 0.038598738161769813 0 -0.41112828653685352 0.045037878929458618 0 -0.41165533107536623 0.038598738161769813 0 -0.40370102502233679 0.04320057728931475 0 -0.40974970386612319 0.05229442369148745 0 -0.41112828653685352 0.045037878929458618 0 -0.40370102502233679 0.04320057728931475 0 -0.41165533107536623 0.038598738161769813 0 -0.40370102502233679 0.04320057728931475 0 -0.39696505689472272 0.036307159240500743 0 -0.40370102502233679 0.04320057728931475 0 -0.39100270711824869 0.046311310130119653 0 -0.39696505689472272 0.036307159240500743 0 -0.40370102502233679 0.04320057728931475 0 -0.39100270711824869 0.046311310130119653 0 -0.39876989083825259 0.048529650048697567 0 -0.39696505689472272 0.036307159240500743 0 -0.38460901564691963 0.031547892532623072 0 -0.39111972736662981 0.031013029327406471 0 -0.39696505689472272 0.036307159240500743 0 -0.39111972736662981 0.031013029327406471 0 -0.39741967133818978 0.028199837026236439 0 -0.39928439428803802 0.057180999115757962 0 -0.39326633799086402 0.064304730937405741 0 -0.40588783373901571 0.063899837377538529 0 -0.40974970386612319 0.05229442369148745 0 -0.39928439428803802 0.057180999115757962 0 -0.40588783373901571 0.063899837377538529 0 -0.40974970386612319 0.05229442369148745 0 -0.40370102502233679 0.04320057728931475 0 -0.39876989083825259 0.048529650048697567 0 -0.40974970386612319 0.05229442369148745 0 -0.39928439428803802 0.057180999115757962 0 -0.39876989083825259 0.048529650048697567 0 -0.39928439428803802 0.057180999115757962 0 -0.39876989083825259 0.048529650048697567 0 -0.39111259631673972 0.054541006896367608 0 -0.39100270711824869 0.046311310130119653 0 -0.39876989083825259 0.048529650048697567 0 -0.39111259631673972 0.054541006896367608 0 -0.39928439428803802 0.057180999115757962 0 -0.39111259631673972 0.054541006896367608 0 -0.39326633799086402 0.064304730937405741 0 -0.39100270711824869 0.046311310130119653 0 -0.3833032429943023 0.050461815299403398 0 -0.37098875520736319 0.046066724174093923 0 -0.39111259631673972 0.054541006896367608 0 -0.38104900467073288 0.060457535846821377 0 -0.39326633799086402 0.064304730937405741 0 -0.39111259631673972 0.054541006896367608 0 -0.3833032429943023 0.050461815299403398 0 -0.38104900467073288 0.060457535846821377 0 -0.39100270711824869 0.046311310130119653 0 -0.39111259631673972 0.054541006896367608 0 -0.3833032429943023 0.050461815299403398 0 -0.3833032429943023 0.050461815299403398 0 -0.38104900467073288 0.060457535846821377 0 -0.37098875520736319 0.046066724174093923 0 -0.39696505689472272 0.036307159240500743 0 -0.38460901564691963 0.031547892532623072 0 -0.37098875520736319 0.046066724174093923 0 -0.39696505689472272 0.036307159240500743 0 -0.37098875520736319 0.046066724174093923 0 -0.39100270711824869 0.046311310130119653 0 -0.39696505689472272 0.036307159240500743 0 -0.37098875520736319 0.046066724174093923 0 -0.38460901564691963 0.031547892532623072 0 -0.37169809957755168 0.034485684418351738 0 -0.37098875520736319 0.046066724174093923 0 -0.38460901564691963 0.031547892532623072 0 -0.3761672922991911 0.026867423316783549 0 -0.37169809957755168 0.034485684418351738 0 -0.38460901564691963 0.031547892532623072 0 -0.3761672922991911 0.026867423316783549 0 -0.38055333495443072 0.017491504448059879 0 -0.38055333495443072 0.017491504448059879 0 -0.39111972736662981 0.031013029327406471 0 -0.39741967133818978 0.028199837026236439 0 -0.38460901564691963 0.031547892532623072 0 -0.38055333495443072 0.017491504448059879 0 -0.39111972736662981 0.031013029327406471 0 -0.38055333495443072 0.017491504448059879 0 -0.38342362107646139 0.00405821384166671 0 -0.39706540415667713 0.0062458464327191116 0 -0.38055333495443072 0.017491504448059879 0 -0.38342362107646139 0.00405821384166671 0 -0.36953825318317091 0.0010669767550764381 0 -0.38653749201156717 -0.0085714722691885865 0 -0.38342362107646139 0.00405821384166671 0 -0.39706540415667713 0.0062458464327191116 0 -0.38055333495443072 0.017491504448059879 0 -0.39706540415667713 0.0062458464327191116 0 -0.40491121463730589 0.02162566157335135 0 -0.4049577091662086 -0.0072437002136591534 0 -0.4071055423468859 0.002776995099962481 0 -0.39706540415667713 0.0062458464327191116 0 -0.40721101015951378 0.0111897445424608 0 -0.4071055423468859 0.002776995099962481 0 -0.39706540415667713 0.0062458464327191116 0 -0.40721101015951378 0.0111897445424608 0 -0.39706540415667713 0.0062458464327191116 0 -0.40491121463730589 0.02162566157335135 0 -0.38055333495443072 0.017491504448059879 0 -0.40491121463730589 0.02162566157335135 0 -0.39741967133818978 0.028199837026236439 0 -0.38055333495443072 0.017491504448059879 0 -0.40491121463730589 0.02162566157335135 0 -0.39696505689472272 0.036307159240500743 0 -0.40491121463730589 0.02162566157335135 0 -0.39741967133818978 0.028199837026236439 0 -0.40491121463730589 0.02162566157335135 0 -0.39741967133818978 0.028199837026236439 0 -0.4002043884727714 0.106430540332039 0 -0.38827756260742841 0.1069851595481361 0 -0.39050069605298621 0.09804674460565517 0 -0.4002043884727714 0.106430540332039 0 -0.39050069605298621 0.09804674460565517 0 -0.39919300886277492 0.092084473865180677 0 -0.4002043884727714 0.106430540332039 0 -0.39919300886277492 0.092084473865180677 0 -0.40962597196079598 0.098768754046315549 0 -0.4002043884727714 0.106430540332039 0 -0.40500159503933081 0.11906023549783409 0 -0.39123204437261538 0.1183441265096393 0 -0.40500159503933081 0.11906023549783409 0 -0.39123204437261538 0.1183441265096393 0 -0.39724577858065152 0.1299831436324938 0 -0.4002043884727714 0.106430540332039 0 -0.39123204437261538 0.1183441265096393 0 -0.38827756260742841 0.1069851595481361 0 -0.39123204437261538 0.1183441265096393 0 -0.37804625210008819 0.123601833798883 0 -0.39724577858065152 0.1299831436324938 0 -0.39123204437261538 0.1183441265096393 0 -0.38088203858385289 0.11058566211189109 0 -0.38827756260742841 0.1069851595481361 0 -0.37804625210008819 0.123601833798883 0 -0.38088203858385289 0.11058566211189109 0 -0.36731618702330532 0.1060265404953956 0 -0.39123204437261538 0.1183441265096393 0 -0.37804625210008819 0.123601833798883 0 -0.38088203858385289 0.11058566211189109 0 -0.38088203858385289 0.11058566211189109 0 -0.3795381468158272 0.097970650207401519 0 -0.36731618702330532 0.1060265404953956 0 -0.38088203858385289 0.11058566211189109 0 -0.38827756260742841 0.1069851595481361 0 -0.3795381468158272 0.097970650207401519 0 -0.39050069605298621 0.09804674460565517 0 -0.3795381468158272 0.097970650207401519 0 -0.38529037350612899 0.08676289907551854 0 -0.38827756260742841 0.1069851595481361 0 -0.39050069605298621 0.09804674460565517 0 -0.3795381468158272 0.097970650207401519 0 -0.38529037350612899 0.08676289907551854 0 -0.38585427601343142 0.073387020954206642 0 -0.36915247111533223 0.076046632334744568 0 -0.3795381468158272 0.097970650207401519 0 -0.38529037350612899 0.08676289907551854 0 -0.36915247111533223 0.076046632334744568 0 -0.38529037350612899 0.08676289907551854 0 -0.38585427601343142 0.073387020954206642 0 -0.39963909762920591 0.076793050612180599 0 -0.38104900467073288 0.060457535846821377 0 -0.38585427601343142 0.073387020954206642 0 -0.36915247111533223 0.076046632334744568 0 -0.38104900467073288 0.060457535846821377 0 -0.38585427601343142 0.073387020954206642 0 -0.39326633799086402 0.064304730937405741 0 -0.38585427601343142 0.073387020954206642 0 -0.39326633799086402 0.064304730937405741 0 -0.39963909762920591 0.076793050612180599 0 -0.39326633799086402 0.064304730937405741 0 -0.39963909762920591 0.076793050612180599 0 -0.40588783373901571 0.063899837377538529 0 -0.39050069605298621 0.09804674460565517 0 -0.38529037350612899 0.08676289907551854 0 -0.39919300886277492 0.092084473865180677 0 -0.38529037350612899 0.08676289907551854 0 -0.39963909762920591 0.076793050612180599 0 -0.39919300886277492 0.092084473865180677 0 -0.39963909762920591 0.076793050612180599 0 -0.39919300886277492 0.092084473865180677 0 -0.41142221274610902 0.087150526556525748 0 -0.39919300886277492 0.092084473865180677 0 -0.41142221274610902 0.087150526556525748 0 -0.40962597196079598 0.098768754046315549 0 -0.39963909762920591 0.076793050612180599 0 -0.41142221274610902 0.087150526556525748 0 -0.41524682468080237 0.072012980574736374 0 -0.41142221274610902 0.087150526556525748 0 -0.41524682468080237 0.072012980574736374 0 -0.42307428493215049 0.083430446648407333 0 -0.41142221274610902 0.087150526556525748 0 -0.42307428493215049 0.083430446648407333 0 -0.42088711779091198 0.097099534599919282 0 -0.41988240292948081 0.059814648023132203 0 -0.40588783373901571 0.063899837377538529 0 -0.41524682468080237 0.072012980574736374 0 -0.39963909762920591 0.076793050612180599 0 -0.40588783373901571 0.063899837377538529 0 -0.41524682468080237 0.072012980574736374 0 -0.41988240292948081 0.059814648023132203 0 -0.41524682468080237 0.072012980574736374 0 -0.4299857102739072 0.071360049970611988 0 -0.43393451408538602 0.053064040253560991 0 -0.4299857102739072 0.071360049970611988 0 -0.4449276695886909 0.079580486200217571 0 -0.41524682468080237 0.072012980574736374 0 -0.4299857102739072 0.071360049970611988 0 -0.42307428493215049 0.083430446648407333 0 -0.42307428493215049 0.083430446648407333 0 -0.42732516987257141 0.097249824090241244 0 -0.42088711779091198 0.097099534599919282 0 -0.42307428493215049 0.083430446648407333 0 -0.43682238123718642 0.085048319794647276 0 -0.42732516987257141 0.097249824090241244 0 -0.4299857102739072 0.071360049970611988 0 -0.43682238123718642 0.085048319794647276 0 -0.4449276695886909 0.079580486200217571 0 -0.4299857102739072 0.071360049970611988 0 -0.42307428493215049 0.083430446648407333 0 -0.43682238123718642 0.085048319794647276 0 -0.43682238123718642 0.085048319794647276 0 -0.43069153314159431 0.1145075166488613 0 -0.44257559726247542 0.098016071726705262 0 -0.42383173818412262 0.1049838925542337 0 -0.42732516987257141 0.097249824090241244 0 -0.43069153314159431 0.1145075166488613 0 -0.43682238123718642 0.085048319794647276 0 -0.43069153314159431 0.1145075166488613 0 -0.43682238123718642 0.085048319794647276 0 -0.42732516987257141 0.097249824090241244 0 -0.43069153314159431 0.1145075166488613 0 -0.42383173818412262 0.1049838925542337 0 -0.42732516987257141 0.097249824090241244 0 -0.42088711779091198 0.097099534599919282 0 -0.4002043884727714 0.106430540332039 0 -0.40962597196079598 0.098768754046315549 0 -0.41642313193141278 0.111078694877913 0 -0.42088711779091198 0.097099534599919282 0 -0.40962597196079598 0.098768754046315549 0 -0.41642313193141278 0.111078694877913 0 -0.42383173818412262 0.1049838925542337 0 -0.42088711779091198 0.097099534599919282 0 -0.41642313193141278 0.111078694877913 0 -0.41142221274610902 0.087150526556525748 0 -0.42088711779091198 0.097099534599919282 0 -0.40962597196079598 0.098768754046315549 0 -0.40500159503933081 0.11906023549783409 0 -0.41642313193141278 0.111078694877913 0 -0.41340409697242059 0.12685292149463129 0 -0.4002043884727714 0.106430540332039 0 -0.40500159503933081 0.11906023549783409 0 -0.41642313193141278 0.111078694877913 0 -0.41642313193141278 0.111078694877913 0 -0.43069153314159431 0.1145075166488613 0 -0.41340409697242059 0.12685292149463129 0 -0.43069153314159431 0.1145075166488613 0 -0.43701833249064481 0.1242334301559498 0 -0.44179067089362839 0.1076777407290711 0 -0.42383173818412262 0.1049838925542337 0 -0.41642313193141278 0.111078694877913 0 -0.43069153314159431 0.1145075166488613 0 -0.44179067089362839 0.1076777407290711 0 -0.46025929109890668 0.1228993092208283 0 -0.43701833249064481 0.1242334301559498 0 -0.4456387852995447 0.1215821685367893 0 -0.44179067089362839 0.1076777407290711 0 -0.4456387852995447 0.1215821685367893 0 -0.44179067089362839 0.1076777407290711 0 -0.46025929109890668 0.1228993092208283 0 -0.44179067089362839 0.1076777407290711 0 -0.45439337809347963 0.10844862579155699 0 -0.45737508089389378 0.1171240750731626 0 -0.43069153314159431 0.1145075166488613 0 -0.44179067089362839 0.1076777407290711 0 -0.44257559726247542 0.098016071726705262 0 -0.44179067089362839 0.1076777407290711 0 -0.44257559726247542 0.098016071726705262 0 -0.45046103111811231 0.1019930611521717 0 -0.44257559726247542 0.098016071726705262 0 -0.45046103111811231 0.1019930611521717 0 -0.45389416723914727 0.093804188021215956 0 -0.44179067089362839 0.1076777407290711 0 -0.45046103111811231 0.1019930611521717 0 -0.45439337809347963 0.10844862579155699 0 -0.45439337809347963 0.10844862579155699 0 -0.45965134210183101 0.1020186794923091 0 -0.46021395701907231 0.1117008824395225 0 -0.45046103111811231 0.1019930611521717 0 -0.45439337809347963 0.10844862579155699 0 -0.45965134210183101 0.1020186794923091 0 -0.45965134210183101 0.1020186794923091 0 -0.45389416723914727 0.093804188021215956 0 -0.46346612645172991 0.09164912933258422 0 -0.45046103111811231 0.1019930611521717 0 -0.45965134210183101 0.1020186794923091 0 -0.45389416723914727 0.093804188021215956 0 -0.45965134210183101 0.1020186794923091 0 -0.46346612645172991 0.09164912933258422 0 -0.46942433891909358 0.09794253220754158 0 -0.45965134210183101 0.1020186794923091 0 -0.46716403993112687 0.1061796871622742 0 -0.46021395701907231 0.1117008824395225 0 -0.45965134210183101 0.1020186794923091 0 -0.46716403993112687 0.1061796871622742 0 -0.46942433891909358 0.09794253220754158 0 -0.46850251367066731 0.11368406789329109 0 -0.46310818746654842 0.1170947369159233 0 -0.46021395701907231 0.1117008824395225 0 -0.46716403993112687 0.1061796871622742 0 -0.46850251367066731 0.11368406789329109 0 -0.46021395701907231 0.1117008824395225 0 -0.44179067089362839 0.1076777407290711 0 -0.46025929109890668 0.1228993092208283 0 -0.45737508089389378 0.1171240750731626 0 -0.46843522873632337 0.122233320799193 0 -0.46025929109890668 0.1228993092208283 0 -0.47466662052273528 0.12622733750165099 0 -0.46850251367066731 0.11368406789329109 0 -0.46310818746654842 0.1170947369159233 0 -0.46843522873632337 0.122233320799193 0 -0.46310818746654842 0.1170947369159233 0 -0.46843522873632337 0.122233320799193 0 -0.46312395089326902 0.12017514188532499 0 -0.46843522873632337 0.122233320799193 0 -0.46312395089326902 0.12017514188532499 0 -0.46025929109890668 0.1228993092208283 0 -0.46312395089326902 0.12017514188532499 0 -0.46093476916251391 0.1192141210106173 0 -0.46025929109890668 0.1228993092208283 0 -0.46310818746654842 0.1170947369159233 0 -0.46312395089326902 0.12017514188532499 0 -0.46093476916251391 0.1192141210106173 0 -0.46310818746654842 0.1170947369159233 0 -0.46093476916251391 0.1192141210106173 0 -0.45737508089389378 0.1171240750731626 0 -0.46093476916251391 0.1192141210106173 0 -0.46025929109890668 0.1228993092208283 0 -0.45737508089389378 0.1171240750731626 0 -0.45439337809347963 0.10844862579155699 0 -0.46021395701907231 0.1117008824395225 0 -0.45737508089389378 0.1171240750731626 0 -0.46310818746654842 0.1170947369159233 0 -0.46021395701907231 0.1117008824395225 0 -0.45737508089389378 0.1171240750731626 0 -0.43393451408538602 0.053064040253560991 0 -0.4449276695886909 0.079580486200217571 0 -0.43393451408538602 0.053064040253560991 0 -0.4449276695886909 0.079580486200217571 0 -0.45568495483550081 0.066004484426329169 0 -0.4449276695886909 0.079580486200217571 0 -0.44607463045159118 0.088520672121561589 0 -0.45931141054148722 0.082075152416908659 0 -0.43682238123718642 0.085048319794647276 0 -0.4449276695886909 0.079580486200217571 0 -0.44607463045159118 0.088520672121561589 0 -0.43682238123718642 0.085048319794647276 0 -0.44257559726247542 0.098016071726705262 0 -0.44607463045159118 0.088520672121561589 0 -0.45389416723914727 0.093804188021215956 0 -0.44607463045159118 0.088520672121561589 0 -0.45931141054148722 0.082075152416908659 0 -0.44257559726247542 0.098016071726705262 0 -0.45389416723914727 0.093804188021215956 0 -0.44607463045159118 0.088520672121561589 0 -0.46346612645172991 0.09164912933258422 0 -0.45931141054148722 0.082075152416908659 0 -0.4778424774177511 0.083998275813429113 0 -0.45389416723914727 0.093804188021215956 0 -0.46346612645172991 0.09164912933258422 0 -0.45931141054148722 0.082075152416908659 0 -0.45931141054148722 0.082075152416908659 0 -0.45568495483550081 0.066004484426329169 0 -0.4778424774177511 0.083998275813429113 0 -0.45568495483550081 0.066004484426329169 0 -0.4778424774177511 0.083998275813429113 0 -0.4449276695886909 0.079580486200217571 0 -0.45931141054148722 0.082075152416908659 0 -0.45568495483550081 0.066004484426329169 0 -0.45568495483550081 0.066004484426329169 0 -0.47901095400754612 0.063383633566851921 0 -0.4778424774177511 0.083998275813429113 0 -0.46346612645172991 0.09164912933258422 0 -0.4778424774177511 0.083998275813429113 0 -0.46942433891909358 0.09794253220754158 0 -0.4778424774177511 0.083998275813429113 0 -0.5 0.074791187328335229 0 -0.500000000000001 0.1019920672005296 0 -0.4778424774177511 0.083998275813429113 0 -0.500000000000001 0.1019920672005296 0 -0.49070102329864862 0.057885849282125097 0 -0.47901095400754612 0.063383633566851921 0 -0.5 0.074791187328335229 0 -0.47901095400754612 0.063383633566851921 0 -0.4778424774177511 0.083998275813429113 0 -0.5 0.074791187328335229 0 -0.4758780139246695 0.1174792835986567 0 -0.47802804794497011 0.1055522737787066 0 -0.48583949670281379 0.1188773836853006 0 -0.4758780139246695 0.1174792835986567 0 -0.48583949670281379 0.1188773836853006 0 -0.47466662052273528 0.12622733750165099 0 -0.46850251367066731 0.11368406789329109 0 -0.46843522873632337 0.122233320799193 0 -0.4758780139246695 0.1174792835986567 0 -0.46843522873632337 0.122233320799193 0 -0.4758780139246695 0.1174792835986567 0 -0.47466662052273528 0.12622733750165099 0 -0.46850251367066731 0.11368406789329109 0 -0.4758780139246695 0.1174792835986567 0 -0.47802804794497011 0.1055522737787066 0 -0.46716403993112687 0.1061796871622742 0 -0.46850251367066731 0.11368406789329109 0 -0.47802804794497011 0.1055522737787066 0 -0.4778424774177511 0.083998275813429113 0 -0.46942433891909358 0.09794253220754158 0 -0.47802804794497011 0.1055522737787066 0 -0.46716403993112687 0.1061796871622742 0 -0.46942433891909358 0.09794253220754158 0 -0.47802804794497011 0.1055522737787066 0 -0.4778424774177511 0.083998275813429113 0 -0.47802804794497011 0.1055522737787066 0 -0.500000000000001 0.1019920672005296 0 -0.47802804794497011 0.1055522737787066 0 -0.500000000000001 0.1019920672005296 0 -0.48583949670281379 0.1188773836853006 0 -0.500000000000001 0.1019920672005296 0 -0.48583949670281379 0.1188773836853006 0 -0.5 0.12882254570531809 0 -0.48583949670281379 0.1188773836853006 0 -0.5 0.12882254570531809 0 -0.48012964554945292 0.1392761667154675 0 -0.46025929109890668 0.1228993092208283 0 -0.48012964554945292 0.1392761667154675 0 -0.46025929109890668 0.1228993092208283 0 -0.48012964554945292 0.1392761667154675 0 -0.47466662052273528 0.12622733750165099 0 -0.48583949670281379 0.1188773836853006 0 -0.48012964554945292 0.1392761667154675 0 -0.47466662052273528 0.12622733750165099 0 -0.48012964554945292 0.1392761667154675 0 -0.47877182913478272 0.16708886820882621 0 -0.46054832187124589 0.15920585333638149 0 -0.5 0.12882254570531809 0 -0.48012964554945292 0.1392761667154675 0 -0.49999999999999922 0.15565302421010671 0 -0.48012964554945292 0.1392761667154675 0 -0.49999999999999922 0.15565302421010671 0 -0.48012964554945292 0.1392761667154675 0 -0.49999999999999922 0.15565302421010671 0 -0.47877182913478272 0.16708886820882621 0 -0.49999999999999922 0.15565302421010671 0 -0.5 0.1779255645443959 0 -0.47877182913478272 0.16708886820882621 0 -0.5 0.1779255645443959 0 -0.48270114262150221 0.18638983864249509 0 -0.47877182913478272 0.16708886820882621 0 -0.48270114262150221 0.18638983864249509 0 -0.47877182913478272 0.16708886820882621 0 -0.46006277036340648 0.18636274336085071 0 -0.47877182913478272 0.16708886820882621 0 -0.46054832187124589 0.15920585333638149 0 -0.46006277036340648 0.18636274336085071 0 -0.46054832187124589 0.15920585333638149 0 -0.46006277036340648 0.18636274336085071 0 -0.44389494779998923 0.16842226767380999 0 -0.46006277036340648 0.18636274336085071 0 -0.44389494779998923 0.16842226767380999 0 -0.43491579376131378 0.18775851035633559 0 -0.46054832187124589 0.15920585333638149 0 -0.44389494779998923 0.16842226767380999 0 -0.44064209651387592 0.15105814280471949 0 -0.44064209651387592 0.15105814280471949 0 -0.44240998807245457 0.13343301136195221 0 -0.45666722910393531 0.14090689107754059 0 -0.46054832187124589 0.15920585333638149 0 -0.44064209651387592 0.15105814280471949 0 -0.45666722910393531 0.14090689107754059 0 -0.46025929109890668 0.1228993092208283 0 -0.44240998807245457 0.13343301136195221 0 -0.45666722910393531 0.14090689107754059 0 -0.4456387852995447 0.1215821685367893 0 -0.46025929109890668 0.1228993092208283 0 -0.44240998807245457 0.13343301136195221 0 -0.46025929109890668 0.1228993092208283 0 -0.44240998807245457 0.13343301136195221 0 -0.43701833249064481 0.1242334301559498 0 -0.4456387852995447 0.1215821685367893 0 -0.44240998807245457 0.13343301136195221 0 -0.46025929109890668 0.1228993092208283 0 -0.48012964554945292 0.1392761667154675 0 -0.45666722910393531 0.14090689107754059 0 -0.48012964554945292 0.1392761667154675 0 -0.46054832187124589 0.15920585333638149 0 -0.45666722910393531 0.14090689107754059 0 -0.47545477511343798 0.22821340015460251 0 -0.50000000000000355 0.25257516604358171 0 -0.47243170773416598 0.25252131008609718 0 -0.49999999999999728 0.22247064521297411 0 -0.47545477511343798 0.22821340015460251 0 -0.50000000000000355 0.25257516604358171 0 -0.49999999999999728 0.22247064521297411 0 -0.47545477511343798 0.22821340015460251 0 -0.47981480967647572 0.20635154742371739 0 -0.49999999999999728 0.22247064521297411 0 -0.47545477511343798 0.22821340015460251 0 -0.47545477511343798 0.22821340015460251 0 -0.47981480967647572 0.20635154742371739 0 -0.46183424333790829 0.2145505728736328 0 -0.49999999999999728 0.22247064521297411 0 -0.47981480967647572 0.20635154742371739 0 -0.5 0.200198104878685 0 -0.5 0.1779255645443959 0 -0.48270114262150221 0.18638983864249509 0 -0.5 0.200198104878685 0 -0.48270114262150221 0.18638983864249509 0 -0.47981480967647572 0.20635154742371739 0 -0.5 0.200198104878685 0 -0.48270114262150221 0.18638983864249509 0 -0.46006277036340648 0.18636274336085071 0 -0.47981480967647572 0.20635154742371739 0 -0.46006277036340648 0.18636274336085071 0 -0.44373564997161308 0.20767254717792411 0 -0.46183424333790829 0.2145505728736328 0 -0.46006277036340648 0.18636274336085071 0 -0.47981480967647572 0.20635154742371739 0 -0.46183424333790829 0.2145505728736328 0 -0.46006277036340648 0.18636274336085071 0 -0.44373564997161308 0.20767254717792411 0 -0.43491579376131378 0.18775851035633559 0 -0.44373564997161308 0.20767254717792411 0 -0.46183424333790829 0.2145505728736328 0 -0.4509095502268789 0.23395615509623141 0 -0.47545477511343798 0.22821340015460251 0 -0.46183424333790829 0.2145505728736328 0 -0.4509095502268789 0.23395615509623141 0 -0.47545477511343798 0.22821340015460251 0 -0.4509095502268789 0.23395615509623141 0 -0.44373564997161308 0.20767254717792411 0 -0.4509095502268789 0.23395615509623141 0 -0.42619555400130871 0.2210865732610654 0 -0.4509095502268789 0.23395615509623141 0 -0.45447176510546028 0.26210261842800259 0 -0.43846763777347608 0.25139159902730851 0 -0.4509095502268789 0.23395615509623141 0 -0.42483305275653133 0.2391713563412208 0 -0.43846763777347608 0.25139159902730851 0 -0.4509095502268789 0.23395615509623141 0 -0.47243170773416598 0.25252131008609718 0 -0.45447176510546028 0.26210261842800259 0 -0.47545477511343798 0.22821340015460251 0 -0.4509095502268789 0.23395615509623141 0 -0.47243170773416598 0.25252131008609718 0 -0.42483305275653133 0.2391713563412208 0 -0.4058641186269526 0.24719101802337209 0 -0.42186070460899672 0.25309052481387179 0 -0.42483305275653133 0.2391713563412208 0 -0.40570075130157518 0.22831226782547601 0 -0.4058641186269526 0.24719101802337209 0 -0.42483305275653133 0.2391713563412208 0 -0.43846763777347608 0.25139159902730851 0 -0.42186070460899672 0.25309052481387179 0 -0.4509095502268789 0.23395615509623141 0 -0.42483305275653133 0.2391713563412208 0 -0.42619555400130871 0.2210865732610654 0 -0.42619555400130871 0.2210865732610654 0 -0.4093815069092428 0.20930915628961541 0 -0.40570075130157518 0.22831226782547601 0 -0.42483305275653133 0.2391713563412208 0 -0.42619555400130871 0.2210865732610654 0 -0.40570075130157518 0.22831226782547601 0 -0.42619555400130871 0.2210865732610654 0 -0.4093815069092428 0.20930915628961541 0 -0.42673330281057742 0.203657828083776 0 -0.44373564997161308 0.20767254717792411 0 -0.42619555400130871 0.2210865732610654 0 -0.42673330281057742 0.203657828083776 0 -0.42673330281057742 0.203657828083776 0 -0.43491579376131378 0.18775851035633559 0 -0.41450696552696992 0.19227560940300201 0 -0.44373564997161308 0.20767254717792411 0 -0.42673330281057742 0.203657828083776 0 -0.43491579376131378 0.18775851035633559 0 -0.4093815069092428 0.20930915628961541 0 -0.42673330281057742 0.203657828083776 0 -0.41450696552696992 0.19227560940300201 0 -0.4093815069092428 0.20930915628961541 0 -0.41450696552696992 0.19227560940300201 0 -0.38917287431225889 0.19672734352777779 0 -0.41450696552696992 0.19227560940300201 0 -0.38917287431225889 0.19672734352777779 0 -0.39506614435951359 0.18124695928314211 0 -0.38917287431225889 0.19672734352777779 0 -0.37898545115169752 0.21022080054698841 0 -0.37264942182107469 0.19314124370032379 0 -0.38917287431225889 0.19672734352777779 0 -0.37906143969833178 0.1837364686344008 0 -0.37264942182107469 0.19314124370032379 0 -0.38917287431225889 0.19672734352777779 0 -0.37898545115169752 0.21022080054698841 0 -0.39295229269392568 0.21375641065098319 0 -0.37898545115169752 0.21022080054698841 0 -0.39295229269392568 0.21375641065098319 0 -0.38566351333877391 0.22701595062985411 0 -0.4093815069092428 0.20930915628961541 0 -0.39295229269392568 0.21375641065098319 0 -0.40570075130157518 0.22831226782547601 0 -0.4093815069092428 0.20930915628961541 0 -0.38917287431225889 0.19672734352777779 0 -0.39295229269392568 0.21375641065098319 0 -0.39295229269392568 0.21375641065098319 0 -0.40570075130157518 0.22831226782547601 0 -0.38566351333877391 0.22701595062985411 0 -0.40570075130157518 0.22831226782547601 0 -0.38566351333877391 0.22701595062985411 0 -0.38890999743407823 0.2427193981317495 0 -0.37898545115169752 0.21022080054698841 0 -0.38566351333877391 0.22701595062985411 0 -0.36918549998045508 0.2219342564482602 0 -0.38566351333877391 0.22701595062985411 0 -0.37426535240908931 0.23763306958086369 0 -0.36918549998045508 0.2219342564482602 0 -0.38566351333877391 0.22701595062985411 0 -0.38890999743407823 0.2427193981317495 0 -0.37426535240908931 0.23763306958086369 0 -0.38890999743407823 0.2427193981317495 0 -0.37426535240908931 0.23763306958086369 0 -0.37627277756599359 0.25576698107499612 0 -0.40570075130157518 0.22831226782547601 0 -0.38890999743407823 0.2427193981317495 0 -0.4058641186269526 0.24719101802337209 0 -0.38890999743407823 0.2427193981317495 0 -0.4058641186269526 0.24719101802337209 0 -0.39181582631995732 0.25666003096110762 0 -0.42456068504600192 0.1439667135030753 0 -0.40845034835474481 0.1615357131875573 0 -0.39950638225365043 0.15875242040585999 0 -0.40644770470087432 0.14163984351175291 0 -0.42456068504600192 0.1439667135030753 0 -0.39950638225365043 0.15875242040585999 0 -0.42456068504600192 0.1439667135030753 0 -0.39950638225365043 0.15875242040585999 0 -0.40644770470087432 0.14163984351175291 0 -0.41340409697242059 0.12685292149463129 0 -0.42456068504600192 0.1439667135030753 0 -0.43069153314159431 0.1145075166488613 0 -0.43701833249064481 0.1242334301559498 0 -0.42456068504600192 0.1439667135030753 0 -0.43069153314159431 0.1145075166488613 0 -0.41340409697242059 0.12685292149463129 0 -0.42456068504600192 0.1439667135030753 0 -0.43701833249064481 0.1242334301559498 0 -0.44240998807245457 0.13343301136195221 0 -0.42456068504600192 0.1439667135030753 0 -0.44240998807245457 0.13343301136195221 0 -0.42456068504600192 0.1439667135030753 0 -0.43069153314159431 0.1145075166488613 0 -0.42456068504600192 0.1439667135030753 0 -0.44064209651387592 0.15105814280471949 0 -0.44240998807245457 0.13343301136195221 0 -0.42456068504600192 0.1439667135030753 0 -0.44064209651387592 0.15105814280471949 0 -0.42456068504600192 0.1439667135030753 0 -0.41953382528648597 0.16812116145303871 0 -0.42456068504600192 0.1439667135030753 0 -0.41953382528648597 0.16812116145303871 0 -0.44389494779998923 0.16842226767380999 0 -0.44064209651387592 0.15105814280471949 0 -0.41953382528648597 0.16812116145303871 0 -0.43491579376131378 0.18775851035633559 0 -0.41450696552696992 0.19227560940300201 0 -0.41953382528648597 0.16812116145303871 0 -0.44389494779998923 0.16842226767380999 0 -0.43491579376131378 0.18775851035633559 0 -0.41953382528648597 0.16812116145303871 0 -0.41450696552696992 0.19227560940300201 0 -0.41953382528648597 0.16812116145303871 0 -0.4060243672849842 0.17307354262849031 0 -0.41450696552696992 0.19227560940300201 0 -0.41953382528648597 0.16812116145303871 0 -0.42456068504600192 0.1439667135030753 0 -0.41953382528648597 0.16812116145303871 0 -0.40845034835474481 0.1615357131875573 0 -0.41953382528648597 0.16812116145303871 0 -0.40845034835474481 0.1615357131875573 0 -0.4060243672849842 0.17307354262849031 0 -0.40845034835474481 0.1615357131875573 0 -0.39950638225365043 0.15875242040585999 0 -0.40230428932012002 0.16580132986850479 0 -0.39950638225365043 0.15875242040585999 0 -0.40230428932012002 0.16580132986850479 0 -0.39498347874854289 0.1694299291903946 0 -0.40230428932012002 0.16580132986850479 0 -0.39498347874854289 0.1694299291903946 0 -0.4060243672849842 0.17307354262849031 0 -0.40845034835474481 0.1615357131875573 0 -0.40230428932012002 0.16580132986850479 0 -0.4060243672849842 0.17307354262849031 0 -0.41450696552696992 0.19227560940300201 0 -0.4060243672849842 0.17307354262849031 0 -0.39506614435951359 0.18124695928314211 0 -0.39498347874854289 0.1694299291903946 0 -0.4060243672849842 0.17307354262849031 0 -0.39506614435951359 0.18124695928314211 0 -0.39498347874854289 0.1694299291903946 0 -0.39506614435951359 0.18124695928314211 0 -0.38614730887295268 0.17683648479544889 0 -0.38917287431225889 0.19672734352777779 0 -0.39506614435951359 0.18124695928314211 0 -0.37906143969833178 0.1837364686344008 0 -0.39506614435951359 0.18124695928314211 0 -0.38614730887295268 0.17683648479544889 0 -0.37906143969833178 0.1837364686344008 0 -0.39498347874854289 0.1694299291903946 0 -0.38614730887295268 0.17683648479544889 0 -0.37547817268542238 0.172932582073858 0 -0.37547817268542238 0.172932582073858 0 -0.37906143969833178 0.1837364686344008 0 -0.37075009083196669 0.17910762915761069 0 -0.38614730887295268 0.17683648479544889 0 -0.37547817268542238 0.172932582073858 0 -0.37906143969833178 0.1837364686344008 0 -0.39950638225365043 0.15875242040585999 0 -0.39498347874854289 0.1694299291903946 0 -0.37547817268542238 0.172932582073858 0 -0.39950638225365043 0.15875242040585999 0 -0.37547817268542238 0.172932582073858 0 -0.38095294971031302 0.15620214862961901 0 -0.39950638225365043 0.15875242040585999 0 -0.37547817268542238 0.172932582073858 0 -0.38877631717686989 0.1411771271023711 0 -0.3743845192430213 0.13462170770880841 0 -0.3727609344829107 0.14736618439603419 0 -0.38877631717686989 0.1411771271023711 0 -0.38095294971031302 0.15620214862961901 0 -0.3727609344829107 0.14736618439603419 0 -0.39950638225365043 0.15875242040585999 0 -0.38877631717686989 0.1411771271023711 0 -0.38095294971031302 0.15620214862961901 0 -0.39950638225365043 0.15875242040585999 0 -0.38877631717686989 0.1411771271023711 0 -0.40644770470087432 0.14163984351175291 0 -0.39950638225365043 0.15875242040585999 0 -0.38877631717686989 0.1411771271023711 0 -0.40500159503933081 0.11906023549783409 0 -0.41340409697242059 0.12685292149463129 0 -0.39724577858065152 0.1299831436324938 0 -0.40644770470087432 0.14163984351175291 0 -0.41340409697242059 0.12685292149463129 0 -0.39724577858065152 0.1299831436324938 0 -0.40644770470087432 0.14163984351175291 0 -0.38877631717686989 0.1411771271023711 0 -0.39724577858065152 0.1299831436324938 0 -0.37804625210008819 0.123601833798883 0 -0.38877631717686989 0.1411771271023711 0 -0.3743845192430213 0.13462170770880841 0 -0.37804625210008819 0.123601833798883 0 -0.38877631717686989 0.1411771271023711 0 -0.37804625210008819 0.123601833798883 0 -0.38877631717686989 0.1411771271023711 0 -0.39724577858065152 0.1299831436324938 0 -0.365347101462831 0.13817461851868421 0 -0.35348317360806891 0.12938077574343321 0 -0.36633164424306752 0.1221005795070398 0 -0.365347101462831 0.13817461851868421 0 -0.36633164424306752 0.1221005795070398 0 -0.3743845192430213 0.13462170770880841 0 -0.365347101462831 0.13817461851868421 0 -0.36633164424306752 0.1221005795070398 0 -0.37804625210008819 0.123601833798883 0 -0.3743845192430213 0.13462170770880841 0 -0.36633164424306752 0.1221005795070398 0 -0.3743845192430213 0.13462170770880841 0 -0.365347101462831 0.13817461851868421 0 -0.3727609344829107 0.14736618439603419 0 -0.35348317360806891 0.12938077574343321 0 -0.33623501688266189 0.13743010248621851 0 -0.34806126244690111 0.1156444249085414 0 -0.365347101462831 0.13817461851868421 0 -0.35348317360806891 0.12938077574343321 0 -0.35480555670105951 0.1470729930362859 0 -0.35348317360806891 0.12938077574343321 0 -0.35480555670105951 0.1470729930362859 0 -0.33623501688266189 0.13743010248621851 0 -0.35480555670105951 0.1470729930362859 0 -0.35095368412742989 0.16285979326107619 0 -0.34108384742594228 0.1551062344628846 0 -0.35480555670105951 0.1470729930362859 0 -0.33623501688266189 0.13743010248621851 0 -0.34108384742594228 0.1551062344628846 0 -0.35480555670105951 0.1470729930362859 0 -0.3727609344829107 0.14736618439603419 0 -0.36538929421828598 0.1597472365875848 0 -0.365347101462831 0.13817461851868421 0 -0.35480555670105951 0.1470729930362859 0 -0.3727609344829107 0.14736618439603419 0 -0.38095294971031302 0.15620214862961901 0 -0.3727609344829107 0.14736618439603419 0 -0.36538929421828598 0.1597472365875848 0 -0.37547817268542238 0.172932582073858 0 -0.38095294971031302 0.15620214862961901 0 -0.36538929421828598 0.1597472365875848 0 -0.37547817268542238 0.172932582073858 0 -0.36538929421828598 0.1597472365875848 0 -0.36047104019532872 0.17338291754511381 0 -0.36798971074878389 0.18637854837707041 0 -0.36047104019532872 0.17338291754511381 0 -0.35030780973606301 0.17549075859465871 0 -0.37906143969833178 0.1837364686344008 0 -0.36798971074878389 0.18637854837707041 0 -0.37075009083196669 0.17910762915761069 0 -0.37547817268542238 0.172932582073858 0 -0.37075009083196669 0.17910762915761069 0 -0.36047104019532872 0.17338291754511381 0 -0.36798971074878389 0.18637854837707041 0 -0.37075009083196669 0.17910762915761069 0 -0.36047104019532872 0.17338291754511381 0 -0.36798971074878389 0.18637854837707041 0 -0.34042135529351392 0.18433105797711491 0 -0.36798971074878389 0.18637854837707041 0 -0.35030780973606301 0.17549075859465871 0 -0.34042135529351392 0.18433105797711491 0 -0.35480555670105951 0.1470729930362859 0 -0.36538929421828598 0.1597472365875848 0 -0.35095368412742989 0.16285979326107619 0 -0.36047104019532872 0.17338291754511381 0 -0.35030780973606301 0.17549075859465871 0 -0.35095368412742989 0.16285979326107619 0 -0.36538929421828598 0.1597472365875848 0 -0.36047104019532872 0.17338291754511381 0 -0.35095368412742989 0.16285979326107619 0 -0.35030780973606301 0.17549075859465871 0 -0.35095368412742989 0.16285979326107619 0 -0.33901620810013772 0.16895250346694651 0 -0.35095368412742989 0.16285979326107619 0 -0.33901620810013772 0.16895250346694651 0 -0.34108384742594228 0.1551062344628846 0 -0.33901620810013772 0.16895250346694651 0 -0.32669072761201778 0.17772801114192871 0 -0.32440877131842272 0.15921578006389581 0 -0.33901620810013772 0.16895250346694651 0 -0.32440877131842272 0.15921578006389581 0 -0.34108384742594228 0.1551062344628846 0 -0.35030780973606301 0.17549075859465871 0 -0.33901620810013772 0.16895250346694651 0 -0.34042135529351392 0.18433105797711491 0 -0.33901620810013772 0.16895250346694651 0 -0.34042135529351392 0.18433105797711491 0 -0.32669072761201778 0.17772801114192871 0 -0.34042135529351392 0.18433105797711491 0 -0.31258252575418349 0.1810014576415731 0 -0.32058184338665102 0.18999642887825369 0 -0.34042135529351392 0.18433105797711491 0 -0.31258252575418349 0.1810014576415731 0 -0.34042135529351392 0.18433105797711491 0 -0.32669072761201778 0.17772801114192871 0 -0.31258252575418349 0.1810014576415731 0 -0.32669072761201778 0.17772801114192871 0 -0.31258252575418349 0.1810014576415731 0 -0.32440877131842272 0.15921578006389581 0 -0.31258252575418349 0.1810014576415731 0 -0.32058184338665102 0.18999642887825369 0 -0.31164202783444339 0.18960367438034681 0 -0.31258252575418349 0.1810014576415731 0 -0.32440877131842272 0.15921578006389581 0 -0.31258252575418349 0.1810014576415731 0 -0.32440877131842272 0.15921578006389581 0 -0.30928686699462882 0.16318737426620769 0 -0.32440877131842272 0.15921578006389581 0 -0.31214676871617769 0.1437750609055741 0 -0.30928686699462882 0.16318737426620769 0 -0.32440877131842272 0.15921578006389581 0 -0.33623501688266189 0.13743010248621851 0 -0.31214676871617769 0.1437750609055741 0 -0.33623501688266189 0.13743010248621851 0 -0.31214676871617769 0.1437750609055741 0 -0.3127173757629626 0.1125196991101781 0 -0.33623501688266189 0.13743010248621851 0 -0.34806126244690111 0.1156444249085414 0 -0.32440877131842272 0.15921578006389581 0 -0.33623501688266189 0.13743010248621851 0 -0.32440877131842272 0.15921578006389581 0 -0.33623501688266189 0.13743010248621851 0 -0.34108384742594228 0.1551062344628846 0 -0.34824261657673289 0.24684003078997019 0 -0.36034560581290948 0.2331949797244813 0 -0.34699158187959073 0.23006221094352949 0 -0.34824261657673289 0.24684003078997019 0 -0.34699158187959073 0.23006221094352949 0 -0.3369866833716032 0.23617689592248431 0 -0.34824261657673289 0.24684003078997019 0 -0.36292965957869022 0.24700153722895329 0 -0.36034560581290948 0.2331949797244813 0 -0.36292965957869022 0.24700153722895329 0 -0.37426535240908931 0.23763306958086369 0 -0.37627277756599359 0.25576698107499612 0 -0.36292965957869022 0.24700153722895329 0 -0.37426535240908931 0.23763306958086369 0 -0.36034560581290948 0.2331949797244813 0 -0.37426535240908931 0.23763306958086369 0 -0.36034560581290948 0.2331949797244813 0 -0.36918549998045508 0.2219342564482602 0 -0.36034560581290948 0.2331949797244813 0 -0.36918549998045508 0.2219342564482602 0 -0.35426280419631678 0.2199018442433508 0 -0.35426280419631678 0.2199018442433508 0 -0.34699158187959073 0.23006221094352949 0 -0.33803848401705971 0.22215341913216219 0 -0.36034560581290948 0.2331949797244813 0 -0.35426280419631678 0.2199018442433508 0 -0.34699158187959073 0.23006221094352949 0 -0.35426280419631678 0.2199018442433508 0 -0.34672654872418962 0.20331660088694001 0 -0.33803848401705971 0.22215341913216219 0 -0.35426280419631678 0.2199018442433508 0 -0.34672654872418962 0.20331660088694001 0 -0.36428910476369658 0.2087495983247315 0 -0.37898545115169752 0.21022080054698841 0 -0.36428910476369658 0.2087495983247315 0 -0.37264942182107469 0.19314124370032379 0 -0.36918549998045508 0.2219342564482602 0 -0.35426280419631678 0.2199018442433508 0 -0.36428910476369658 0.2087495983247315 0 -0.37898545115169752 0.21022080054698841 0 -0.36918549998045508 0.2219342564482602 0 -0.36428910476369658 0.2087495983247315 0 -0.34672654872418962 0.20331660088694001 0 -0.37264942182107469 0.19314124370032379 0 -0.34672654872418962 0.20331660088694001 0 -0.36428910476369658 0.2087495983247315 0 -0.37264942182107469 0.19314124370032379 0 -0.36798971074878389 0.18637854837707041 0 -0.34672654872418962 0.20331660088694001 0 -0.37264942182107469 0.19314124370032379 0 -0.37906143969833178 0.1837364686344008 0 -0.36798971074878389 0.18637854837707041 0 -0.37264942182107469 0.19314124370032379 0 -0.36798971074878389 0.18637854837707041 0 -0.34042135529351392 0.18433105797711491 0 -0.34672654872418962 0.20331660088694001 0 -0.34042135529351392 0.18433105797711491 0 -0.34672654872418962 0.20331660088694001 0 -0.32524963504831961 0.19869588108650291 0 -0.34042135529351392 0.18433105797711491 0 -0.32058184338665102 0.18999642887825369 0 -0.32524963504831961 0.19869588108650291 0 -0.32058184338665102 0.18999642887825369 0 -0.32524963504831961 0.19869588108650291 0 -0.311616888936874 0.19584633358857631 0 -0.32058184338665102 0.18999642887825369 0 -0.311616888936874 0.19584633358857631 0 -0.31164202783444339 0.18960367438034681 0 -0.32524963504831961 0.19869588108650291 0 -0.31041164584417502 0.20699007176870929 0 -0.311616888936874 0.19584633358857631 0 -0.32524963504831961 0.19869588108650291 0 -0.32080367562730439 0.2134919580735562 0 -0.31041164584417502 0.20699007176870929 0 -0.34672654872418962 0.20331660088694001 0 -0.32524963504831961 0.19869588108650291 0 -0.32080367562730439 0.2134919580735562 0 -0.34672654872418962 0.20331660088694001 0 -0.32080367562730439 0.2134919580735562 0 -0.34672654872418962 0.20331660088694001 0 -0.32080367562730439 0.2134919580735562 0 -0.33803848401705971 0.22215341913216219 0 -0.34699158187959073 0.23006221094352949 0 -0.33803848401705971 0.22215341913216219 0 -0.3369866833716032 0.23617689592248431 0 -0.33803848401705971 0.22215341913216219 0 -0.32310956683312447 0.23072473879632621 0 -0.3369866833716032 0.23617689592248431 0 -0.32080367562730439 0.2134919580735562 0 -0.32310956683312447 0.23072473879632621 0 -0.29488080253041948 0.22366731526017231 0 -0.32080367562730439 0.2134919580735562 0 -0.33803848401705971 0.22215341913216219 0 -0.32310956683312447 0.23072473879632621 0 -0.32310956683312447 0.23072473879632621 0 -0.33213242169912183 0.24992613500971911 0 -0.32310956683312447 0.23072473879632621 0 -0.33213242169912183 0.24992613500971911 0 -0.30846245916933263 0.2451797241646857 0 -0.32310956683312447 0.23072473879632621 0 -0.33213242169912183 0.24992613500971911 0 -0.3369866833716032 0.23617689592248431 0 -0.34824261657673289 0.24684003078997019 0 -0.33213242169912183 0.24992613500971911 0 -0.3369866833716032 0.23617689592248431 0 -0.28924369278351397 0.24685883917450829 0 -0.29488080253041948 0.22366731526017231 0 -0.27553996635935202 0.23890616885437449 0 -0.28924369278351397 0.24685883917450829 0 -0.30846245916933263 0.2451797241646857 0 -0.29488080253041948 0.22366731526017231 0 -0.32310956683312447 0.23072473879632621 0 -0.30846245916933263 0.2451797241646857 0 -0.29488080253041948 0.22366731526017231 0 -0.29488080253041948 0.22366731526017231 0 -0.28407512471040941 0.20883264418328651 0 -0.29950722707795763 0.20324887083473889 0 -0.32080367562730439 0.2134919580735562 0 -0.29488080253041948 0.22366731526017231 0 -0.31041164584417502 0.20699007176870929 0 -0.29488080253041948 0.22366731526017231 0 -0.31041164584417502 0.20699007176870929 0 -0.29950722707795763 0.20324887083473889 0 -0.32080367562730439 0.2134919580735562 0 -0.29488080253041948 0.22366731526017231 0 -0.29950722707795763 0.20324887083473889 0 -0.311616888936874 0.19584633358857631 0 -0.3015163791760046 0.1902883674773978 0 -0.31041164584417502 0.20699007176870929 0 -0.29950722707795763 0.20324887083473889 0 -0.311616888936874 0.19584633358857631 0 -0.311616888936874 0.19584633358857631 0 -0.31164202783444339 0.18960367438034681 0 -0.3015163791760046 0.1902883674773978 0 -0.28837844238890981 0.19566619674656741 0 -0.27286605706807421 0.19835798802342289 0 -0.28528464438297441 0.1802360771772038 0 -0.3015163791760046 0.1902883674773978 0 -0.28837844238890981 0.19566619674656741 0 -0.28528464438297441 0.1802360771772038 0 -0.29950722707795763 0.20324887083473889 0 -0.3015163791760046 0.1902883674773978 0 -0.28837844238890981 0.19566619674656741 0 -0.28407512471040941 0.20883264418328651 0 -0.29950722707795763 0.20324887083473889 0 -0.28837844238890981 0.19566619674656741 0 -0.28407512471040941 0.20883264418328651 0 -0.28837844238890981 0.19566619674656741 0 -0.27286605706807421 0.19835798802342289 0 -0.27286605706807421 0.19835798802342289 0 -0.25001791226633591 0.20223167449818141 0 -0.25771628892770448 0.1781885867772483 0 -0.27286605706807421 0.19835798802342289 0 -0.25001791226633591 0.20223167449818141 0 -0.26474309448668609 0.22322285005153111 0 -0.25001791226633591 0.20223167449818141 0 -0.26474309448668609 0.22322285005153111 0 -0.2417097275862935 0.21883514260066619 0 -0.28407512471040941 0.20883264418328651 0 -0.27286605706807421 0.19835798802342289 0 -0.26474309448668609 0.22322285005153111 0 -0.29488080253041948 0.22366731526017231 0 -0.28407512471040941 0.20883264418328651 0 -0.26474309448668609 0.22322285005153111 0 -0.29488080253041948 0.22366731526017231 0 -0.26474309448668609 0.22322285005153111 0 -0.27553996635935202 0.23890616885437449 0 -0.26474309448668609 0.22322285005153111 0 -0.25825314838481339 0.2425458797231245 0 -0.2408074769917862 0.23465833815203779 0 -0.25825314838481339 0.2425458797231245 0 -0.27553996635935202 0.23890616885437449 0 -0.27057909361132693 0.25823596006253607 0 -0.26474309448668609 0.22322285005153111 0 -0.25825314838481339 0.2425458797231245 0 -0.27553996635935202 0.23890616885437449 0 -0.28924369278351397 0.24685883917450829 0 -0.27553996635935202 0.23890616885437449 0 -0.27057909361132693 0.25823596006253607 0 -0.28994981765154099 0.129105890536617 0 -0.31214676871617769 0.1437750609055741 0 -0.3127173757629626 0.1125196991101781 0 -0.28994981765154099 0.129105890536617 0 -0.29743723577162201 0.15772453462911959 0 -0.27396272325231502 0.1460593730725179 0 -0.28994981765154099 0.129105890536617 0 -0.31214676871617769 0.1437750609055741 0 -0.29743723577162201 0.15772453462911959 0 -0.31214676871617769 0.1437750609055741 0 -0.29743723577162201 0.15772453462911959 0 -0.30928686699462882 0.16318737426620769 0 -0.29743723577162201 0.15772453462911959 0 -0.28528464438297441 0.1802360771772038 0 -0.27396272325231502 0.1460593730725179 0 -0.29743723577162201 0.15772453462911959 0 -0.30928686699462882 0.16318737426620769 0 -0.29985903341273767 0.17422003809087569 0 -0.31258252575418349 0.1810014576415731 0 -0.3015163791760046 0.1902883674773978 0 -0.28528464438297441 0.1802360771772038 0 -0.31258252575418349 0.1810014576415731 0 -0.28528464438297441 0.1802360771772038 0 -0.31258252575418349 0.1810014576415731 0 -0.29985903341273767 0.17422003809087569 0 -0.28528464438297441 0.1802360771772038 0 -0.31258252575418349 0.1810014576415731 0 -0.30928686699462882 0.16318737426620769 0 -0.29985903341273767 0.17422003809087569 0 -0.31258252575418349 0.1810014576415731 0 -0.31164202783444339 0.18960367438034681 0 -0.3015163791760046 0.1902883674773978 0 -0.29743723577162201 0.15772453462911959 0 -0.29985903341273767 0.17422003809087569 0 -0.28528464438297441 0.1802360771772038 0 -0.28528464438297441 0.1802360771772038 0 -0.25799286945900141 0.15886893947765879 0 -0.27396272325231502 0.1460593730725179 0 -0.28528464438297441 0.1802360771772038 0 -0.25771628892770448 0.1781885867772483 0 -0.25799286945900141 0.15886893947765879 0 -0.28528464438297441 0.1802360771772038 0 -0.25771628892770448 0.1781885867772483 0 -0.27286605706807421 0.19835798802342289 0 -0.28528464438297441 0.1802360771772038 0 -0.25771628892770448 0.1781885867772483 0 -0.25799286945900141 0.15886893947765879 0 -0.27396272325231502 0.1460593730725179 0 -0.24645927362986639 0.1322616828522806 0 -0.27396272325231502 0.1460593730725179 0 -0.25813148535304709 0.1137235584372733 0 -0.24645927362986639 0.1322616828522806 0 -0.28994981765154099 0.129105890536617 0 -0.27396272325231502 0.1460593730725179 0 -0.25813148535304709 0.1137235584372733 0 -0.28994981765154099 0.129105890536617 0 -0.25813148535304709 0.1137235584372733 0 -0.28527348531387148 0.1062774067215993 0 -0.25813148535304709 0.1137235584372733 0 -0.26809942719924362 0.085466672468615335 0 -0.24211114701042519 0.09453997081764981 0 -0.25813148535304709 0.1137235584372733 0 -0.28527348531387148 0.1062774067215993 0 -0.26809942719924362 0.085466672468615335 0 -0.28994981765154099 0.129105890536617 0 -0.28527348531387148 0.1062774067215993 0 -0.3127173757629626 0.1125196991101781 0 -0.28527348531387148 0.1062774067215993 0 -0.29863135018488107 0.090887834791935129 0 -0.26809942719924362 0.085466672468615335 0 -0.29863135018488107 0.090887834791935129 0 -0.3127173757629626 0.1125196991101781 0 -0.32522550257001381 0.085314451198393579 0 -0.28527348531387148 0.1062774067215993 0 -0.29863135018488107 0.090887834791935129 0 -0.3127173757629626 0.1125196991101781 0 -0.30838091471111689 0.071929158449262412 0 -0.28938518827392129 0.073094889940132288 0 -0.30045108620983141 0.056480684655655082 0 -0.30838091471111689 0.071929158449262412 0 -0.29863135018488107 0.090887834791935129 0 -0.28938518827392129 0.073094889940132288 0 -0.30838091471111689 0.071929158449262412 0 -0.29863135018488107 0.090887834791935129 0 -0.32522550257001381 0.085314451198393579 0 -0.29863135018488107 0.090887834791935129 0 -0.28938518827392129 0.073094889940132288 0 -0.26809942719924362 0.085466672468615335 0 -0.27339286909944799 0.068627364571179045 0 -0.26809942719924362 0.085466672468615335 0 -0.25797894661879511 0.062645041705594595 0 -0.28938518827392129 0.073094889940132288 0 -0.27339286909944799 0.068627364571179045 0 -0.26809942719924362 0.085466672468615335 0 -0.28938518827392129 0.073094889940132288 0 -0.27339286909944799 0.068627364571179045 0 -0.27810791430583198 0.053302854170373969 0 -0.26809942719924362 0.085466672468615335 0 -0.24155975252329931 0.073837244407682759 0 -0.24211114701042519 0.09453997081764981 0 -0.26809942719924362 0.085466672468615335 0 -0.25797894661879511 0.062645041705594595 0 -0.24155975252329931 0.073837244407682759 0 -0.25797894661879511 0.062645041705594595 0 -0.25457044692415531 0.039847410896771858 0 -0.27810791430583198 0.053302854170373969 0 -0.25457044692415531 0.039847410896771858 0 -0.27832561070586459 0.033023089959677988 0 -0.27810791430583198 0.053302854170373969 0 -0.25457044692415531 0.039847410896771858 0 -0.27832561070586459 0.033023089959677988 0 -0.26425628348590557 0.023451762646417129 0 -0.27339286909944799 0.068627364571179045 0 -0.25797894661879511 0.062645041705594595 0 -0.27810791430583198 0.053302854170373969 0 -0.2675436699901495 -0.012684391954615921 0 -0.27087138527552468 0.0084193362086761453 0 -0.24496178883302311 0.01237944270509766 0 -0.26425628348590557 0.023451762646417129 0 -0.27087138527552468 0.0084193362086761453 0 -0.24496178883302311 0.01237944270509766 0 -0.25457044692415531 0.039847410896771858 0 -0.26425628348590557 0.023451762646417129 0 -0.24496178883302311 0.01237944270509766 0 -0.27832561070586459 0.033023089959677988 0 -0.27087138527552468 0.0084193362086761453 0 -0.29084842672228689 0.0076878545578341444 0 -0.27832561070586459 0.033023089959677988 0 -0.26425628348590557 0.023451762646417129 0 -0.27087138527552468 0.0084193362086761453 0 -0.2675436699901495 -0.012684391954615921 0 -0.27087138527552468 0.0084193362086761453 0 -0.29084842672228689 0.0076878545578341444 0 -0.27832561070586459 0.033023089959677988 0 -0.29084842672228689 0.0076878545578341444 0 -0.29742139705940329 0.038172626107336738 0 -0.29084842672228689 0.0076878545578341444 0 -0.29742139705940329 0.038172626107336738 0 -0.31536361093022047 0.023162692553965091 0 -0.29084842672228689 0.0076878545578341444 0 -0.31390032267290879 0.001897368345985068 0 -0.31536361093022047 0.023162692553965091 0 -0.28938518827392129 0.073094889940132288 0 -0.27810791430583198 0.053302854170373969 0 -0.30045108620983141 0.056480684655655082 0 -0.27810791430583198 0.053302854170373969 0 -0.29742139705940329 0.038172626107336738 0 -0.30045108620983141 0.056480684655655082 0 -0.27832561070586459 0.033023089959677988 0 -0.27810791430583198 0.053302854170373969 0 -0.29742139705940329 0.038172626107336738 0 -0.29742139705940329 0.038172626107336738 0 -0.31326721037818012 0.04384481104951992 0 -0.31536361093022047 0.023162692553965091 0 -0.29742139705940329 0.038172626107336738 0 -0.30045108620983141 0.056480684655655082 0 -0.31326721037818012 0.04384481104951992 0 -0.30045108620983141 0.056480684655655082 0 -0.31614389253053521 0.058539768217305201 0 -0.31326721037818012 0.04384481104951992 0 -0.30838091471111689 0.071929158449262412 0 -0.30045108620983141 0.056480684655655082 0 -0.31614389253053521 0.058539768217305201 0 -0.31614389253053521 0.058539768217305201 0 -0.32606944419769918 0.058537200194134428 0 -0.32632993569316249 0.049539284099900133 0 -0.31614389253053521 0.058539768217305201 0 -0.32606944419769918 0.058537200194134428 0 -0.32407031919003448 0.067960545172723347 0 -0.31614389253053521 0.058539768217305201 0 -0.32632993569316249 0.049539284099900133 0 -0.31326721037818012 0.04384481104951992 0 -0.31326721037818012 0.04384481104951992 0 -0.32440600722766622 0.036233154165429153 0 -0.31536361093022047 0.023162692553965091 0 -0.32632993569316249 0.049539284099900133 0 -0.31326721037818012 0.04384481104951992 0 -0.32440600722766622 0.036233154165429153 0 -0.32632993569316249 0.049539284099900133 0 -0.32440600722766622 0.036233154165429153 0 -0.33493356877254737 0.040217683228884499 0 -0.33493356877254737 0.040217683228884499 0 -0.33773362937706508 0.058109203286609047 0 -0.35024175618411629 0.03090395537482463 0 -0.32440600722766622 0.036233154165429153 0 -0.33493356877254737 0.040217683228884499 0 -0.3356278108200631 0.02574104630544399 0 -0.33493356877254737 0.040217683228884499 0 -0.3356278108200631 0.02574104630544399 0 -0.35024175618411629 0.03090395537482463 0 -0.32632993569316249 0.049539284099900133 0 -0.33493356877254737 0.040217683228884499 0 -0.33773362937706508 0.058109203286609047 0 -0.33773362937706508 0.058109203286609047 0 -0.34582286122008349 0.055521810561559207 0 -0.34467628773160258 0.068943552874552061 0 -0.32606944419769918 0.058537200194134428 0 -0.33773362937706508 0.058109203286609047 0 -0.32407031919003448 0.067960545172723347 0 -0.32606944419769918 0.058537200194134428 0 -0.32632993569316249 0.049539284099900133 0 -0.33773362937706508 0.058109203286609047 0 -0.31390032267290879 0.001897368345985068 0 -0.31536361093022047 0.023162692553965091 0 -0.33183757558868021 0.0092231901974755889 0 -0.31536361093022047 0.023162692553965091 0 -0.3356278108200631 0.02574104630544399 0 -0.33183757558868021 0.0092231901974755889 0 -0.32440600722766622 0.036233154165429153 0 -0.31536361093022047 0.023162692553965091 0 -0.3356278108200631 0.02574104630544399 0 -0.3356278108200631 0.02574104630544399 0 -0.33183757558868021 0.0092231901974755889 0 -0.35619545527155538 0.01335734732276773 0 -0.34648002239000819 -0.003224372146928744 0 -0.33183757558868021 0.0092231901974755889 0 -0.35619545527155538 0.01335734732276773 0 -0.34648002239000819 -0.003224372146928744 0 -0.35619545527155538 0.01335734732276773 0 -0.36953825318317091 0.0010669767550764381 0 -0.33183757558868021 0.0092231901974755889 0 -0.35619545527155538 0.01335734732276773 0 -0.3356278108200631 0.02574104630544399 0 -0.35619545527155538 0.01335734732276773 0 -0.35024175618411629 0.03090395537482463 0 -0.35619545527155538 0.01335734732276773 0 -0.35024175618411629 0.03090395537482463 0 -0.36610105650922109 0.026346306655102781 0 -0.35024175618411629 0.03090395537482463 0 -0.36610105650922109 0.026346306655102781 0 -0.36322388697573799 0.035965026950029073 0 -0.38055333495443072 0.017491504448059879 0 -0.35619545527155538 0.01335734732276773 0 -0.36610105650922109 0.026346306655102781 0 -0.3761672922991911 0.026867423316783549 0 -0.38055333495443072 0.017491504448059879 0 -0.36610105650922109 0.026346306655102781 0 -0.3761672922991911 0.026867423316783549 0 -0.36610105650922109 0.026346306655102781 0 -0.37169809957755168 0.034485684418351738 0 -0.38055333495443072 0.017491504448059879 0 -0.35619545527155538 0.01335734732276773 0 -0.36953825318317091 0.0010669767550764381 0 -0.38055333495443072 0.017491504448059879 0 -0.35619545527155538 0.01335734732276773 0 -0.34582286122008349 0.055521810561559207 0 -0.35708976740043807 0.042022464127772247 0 -0.37098875520736319 0.046066724174093923 0 -0.3550784664853574 0.060270910634679757 0 -0.34582286122008349 0.055521810561559207 0 -0.37098875520736319 0.046066724174093923 0 -0.33773362937706508 0.058109203286609047 0 -0.35024175618411629 0.03090395537482463 0 -0.34582286122008349 0.055521810561559207 0 -0.34582286122008349 0.055521810561559207 0 -0.37098875520736319 0.046066724174093923 0 -0.3550784664853574 0.060270910634679757 0 -0.34582286122008349 0.055521810561559207 0 -0.34467628773160258 0.068943552874552061 0 -0.33773362937706508 0.058109203286609047 0 -0.35024175618411629 0.03090395537482463 0 -0.35024175618411629 0.03090395537482463 0 -0.34582286122008349 0.055521810561559207 0 -0.35708976740043807 0.042022464127772247 0 -0.35024175618411629 0.03090395537482463 0 -0.35708976740043807 0.042022464127772247 0 -0.36322388697573799 0.035965026950029073 0 -0.35708976740043807 0.042022464127772247 0 -0.36322388697573799 0.035965026950029073 0 -0.37098875520736319 0.046066724174093923 0 -0.36610105650922109 0.026346306655102781 0 -0.36322388697573799 0.035965026950029073 0 -0.37169809957755168 0.034485684418351738 0 -0.36322388697573799 0.035965026950029073 0 -0.37169809957755168 0.034485684418351738 0 -0.37098875520736319 0.046066724174093923 0 -0.37169809957755168 0.034485684418351738 0 -0.37098875520736319 0.046066724174093923 0 -0.37098875520736319 0.046066724174093923 0 -0.36915247111533223 0.076046632334744568 0 -0.3550784664853574 0.060270910634679757 0 -0.37098875520736319 0.046066724174093923 0 -0.36217438487350639 0.062687430482174983 0 -0.38104900467073288 0.060457535846821377 0 -0.37098875520736319 0.046066724174093923 0 -0.36915247111533223 0.076046632334744568 0 -0.37098875520736319 0.046066724174093923 0 -0.36915247111533223 0.076046632334744568 0 -0.36217438487350639 0.062687430482174983 0 -0.36915247111533223 0.076046632334744568 0 -0.35522564997771461 0.068595874489344691 0 -0.35498362600728378 0.079148189328135263 0 -0.36915247111533223 0.076046632334744568 0 -0.36217438487350639 0.062687430482174983 0 -0.35522564997771461 0.068595874489344691 0 -0.3550784664853574 0.060270910634679757 0 -0.36217438487350639 0.062687430482174983 0 -0.35522564997771461 0.068595874489344691 0 -0.3550784664853574 0.060270910634679757 0 -0.35522564997771461 0.068595874489344691 0 -0.34467628773160258 0.068943552874552061 0 -0.35522564997771461 0.068595874489344691 0 -0.34467628773160258 0.068943552874552061 0 -0.35498362600728378 0.079148189328135263 0 -0.34467628773160258 0.068943552874552061 0 -0.35988750801114122 0.093858747330864661 0 -0.34467628773160258 0.068943552874552061 0 -0.34784970493908929 0.088094859620412871 0 -0.34048815855518499 0.088930376001817135 0 -0.34467628773160258 0.068943552874552061 0 -0.34784970493908929 0.088094859620412871 0 -0.35988750801114122 0.093858747330864661 0 -0.34467628773160258 0.068943552874552061 0 -0.35498362600728378 0.079148189328135263 0 -0.35988750801114122 0.093858747330864661 0 -0.34784970493908929 0.088094859620412871 0 -0.34634686545842858 0.1006467622744177 0 -0.34048815855518499 0.088930376001817135 0 -0.3795381468158272 0.097970650207401519 0 -0.36915247111533223 0.076046632334744568 0 -0.36731618702330532 0.1060265404953956 0 -0.36915247111533223 0.076046632334744568 0 -0.35498362600728378 0.079148189328135263 0 -0.35988750801114122 0.093858747330864661 0 -0.36915247111533223 0.076046632334744568 0 -0.36731618702330532 0.1060265404953956 0 -0.35988750801114122 0.093858747330864661 0 -0.36915247111533223 0.076046632334744568 0 -0.36731618702330532 0.1060265404953956 0 -0.36731618702330532 0.1060265404953956 0 -0.35988750801114122 0.093858747330864661 0 -0.35906373670833919 0.1135882452325854 0 -0.36731618702330532 0.1060265404953956 0 -0.35988750801114122 0.093858747330864661 0 -0.36731618702330532 0.1060265404953956 0 -0.36633164424306752 0.1221005795070398 0 -0.35906373670833919 0.1135882452325854 0 -0.35348317360806891 0.12938077574343321 0 -0.36633164424306752 0.1221005795070398 0 -0.35906373670833919 0.1135882452325854 0 -0.37804625210008819 0.123601833798883 0 -0.36731618702330532 0.1060265404953956 0 -0.36731618702330532 0.1060265404953956 0 -0.36633164424306752 0.1221005795070398 0 -0.37804625210008819 0.123601833798883 0 -0.36731618702330532 0.1060265404953956 0 -0.36633164424306752 0.1221005795070398 0 -0.35348317360806891 0.12938077574343321 0 -0.34806126244690111 0.1156444249085414 0 -0.35906373670833919 0.1135882452325854 0 -0.35988750801114122 0.093858747330864661 0 -0.34806126244690111 0.1156444249085414 0 -0.34634686545842858 0.1006467622744177 0 -0.35988750801114122 0.093858747330864661 0 -0.34806126244690111 0.1156444249085414 0 -0.35988750801114122 0.093858747330864661 0 -0.34806126244690111 0.1156444249085414 0 -0.35906373670833919 0.1135882452325854 0 -0.34784970493908929 0.088094859620412871 0 -0.35988750801114122 0.093858747330864661 0 -0.34634686545842858 0.1006467622744177 0 -0.34634686545842858 0.1006467622744177 0 -0.33571579606724672 0.096074590957376832 0 -0.34048815855518499 0.088930376001817135 0 -0.34806126244690111 0.1156444249085414 0 -0.34634686545842858 0.1006467622744177 0 -0.33080265768535932 0.1094067743548789 0 -0.33571579606724672 0.096074590957376832 0 -0.33080265768535932 0.1094067743548789 0 -0.32522550257001381 0.085314451198393579 0 -0.34634686545842858 0.1006467622744177 0 -0.33571579606724672 0.096074590957376832 0 -0.33080265768535932 0.1094067743548789 0 -0.33623501688266189 0.13743010248621851 0 -0.34806126244690111 0.1156444249085414 0 -0.33080265768535932 0.1094067743548789 0 -0.33623501688266189 0.13743010248621851 0 -0.33080265768535932 0.1094067743548789 0 -0.3127173757629626 0.1125196991101781 0 -0.3127173757629626 0.1125196991101781 0 -0.32522550257001381 0.085314451198393579 0 -0.33080265768535932 0.1094067743548789 0 -0.3127173757629626 0.1125196991101781 0 -0.32522550257001381 0.085314451198393579 0 -0.30838091471111689 0.071929158449262412 0 -0.32522550257001381 0.085314451198393579 0 -0.32407031919003448 0.067960545172723347 0 -0.30838091471111689 0.071929158449262412 0 -0.31614389253053521 0.058539768217305201 0 -0.32407031919003448 0.067960545172723347 0 -0.33773362937706508 0.058109203286609047 0 -0.32522550257001381 0.085314451198393579 0 -0.32407031919003448 0.067960545172723347 0 -0.33773362937706508 0.058109203286609047 0 -0.32522550257001381 0.085314451198393579 0 -0.33773362937706508 0.058109203286609047 0 -0.34467628773160258 0.068943552874552061 0 -0.32522550257001381 0.085314451198393579 0 -0.34467628773160258 0.068943552874552061 0 -0.32522550257001381 0.085314451198393579 0 -0.34048815855518499 0.088930376001817135 0 -0.33571579606724672 0.096074590957376832 0 -0.32522550257001381 0.085314451198393579 0 -0.34048815855518499 0.088930376001817135 0 -0.39587414850767771 0.48209350728525308 0 -0.4246095660297679 0.49550093226822961 0 -0.3534751275836413 0.49999999999999878 0 -0.4246095660297679 0.49550093226822961 0 -0.43460803688680738 0.5 0 -0.3534751275836413 0.49999999999999878 0 -0.39587414850767771 0.48209350728525308 0 -0.37606570410381668 0.47366176847889557 0 -0.3534751275836413 0.49999999999999878 0 -0.39587414850767771 0.48209350728525308 0 -0.41273422942354338 0.48373000849199221 0 -0.40849540009959551 0.47651198387563498 0 -0.39587414850767771 0.48209350728525308 0 -0.3996498817311348 0.46074658372735239 0 -0.40849540009959551 0.47651198387563498 0 -0.39587414850767771 0.48209350728525308 0 -0.37606570410381668 0.47366176847889557 0 -0.3996498817311348 0.46074658372735239 0 -0.37722236811798338 0.46009136062209011 0 -0.38224190079936271 0.45006820067963232 0 -0.3996498817311348 0.46074658372735239 0 -0.37606570410381668 0.47366176847889557 0 -0.37722236811798338 0.46009136062209011 0 -0.3996498817311348 0.46074658372735239 0 -0.37722236811798338 0.46009136062209011 0 -0.38224190079936271 0.45006820067963232 0 -0.36982508649130652 0.45078168270744129 0 -0.38224190079936271 0.45006820067963232 0 -0.38478163890223388 0.44195167273689873 0 -0.37717856875035488 0.43646572130173161 0 -0.38224190079936271 0.45006820067963232 0 -0.38478163890223388 0.44195167273689873 0 -0.392783844087498 0.44712937912087741 0 -0.38478163890223388 0.44195167273689873 0 -0.392783844087498 0.44712937912087741 0 -0.38545621583256351 0.43256317926760163 0 -0.40475265770424662 0.44273224841968578 0 -0.38545621583256351 0.43256317926760163 0 -0.40475265770424662 0.44273224841968578 0 -0.392783844087498 0.44712937912087741 0 -0.38545621583256351 0.43256317926760163 0 -0.40475265770424662 0.44273224841968578 0 -0.392783844087498 0.44712937912087741 0 -0.3996498817311348 0.46074658372735239 0 -0.38224190079936271 0.45006820067963232 0 -0.392783844087498 0.44712937912087741 0 -0.3996498817311348 0.46074658372735239 0 -0.40475265770424662 0.44273224841968578 0 -0.3996498817311348 0.46074658372735239 0 -0.41260118742847002 0.4591617697880373 0 -0.38224190079936271 0.45006820067963232 0 -0.3996498817311348 0.46074658372735239 0 -0.3996498817311348 0.46074658372735239 0 -0.41705786266290701 0.47142496677507267 0 -0.3996498817311348 0.46074658372735239 0 -0.41260118742847002 0.4591617697880373 0 -0.41705786266290701 0.47142496677507267 0 -0.41260118742847002 0.4591617697880373 0 -0.42404909957592901 0.45290131757177132 0 -0.42433233267478132 0.46236191720032888 0 -0.41260118742847002 0.4591617697880373 0 -0.42433233267478132 0.46236191720032888 0 -0.41705786266290701 0.47142496677507267 0 -0.40475265770424662 0.44273224841968578 0 -0.42169110792396192 0.44280865114861362 0 -0.42404909957592901 0.45290131757177132 0 -0.40475265770424662 0.44273224841968578 0 -0.42404909957592901 0.45290131757177132 0 -0.40475265770424662 0.44273224841968578 0 -0.41260118742847002 0.4591617697880373 0 -0.42404909957592901 0.45290131757177132 0 -0.40475265770424662 0.44273224841968578 0 -0.42169110792396192 0.44280865114861362 0 -0.42167403783228991 0.43387995240292998 0 -0.42169110792396192 0.44280865114861362 0 -0.43256859531976771 0.44130543801670707 0 -0.42167403783228991 0.43387995240292998 0 -0.42169110792396192 0.44280865114861362 0 -0.42404909957592901 0.45290131757177132 0 -0.43256859531976771 0.44130543801670707 0 -0.42404909957592901 0.45290131757177132 0 -0.43256859531976771 0.44130543801670707 0 -0.43709915379447778 0.45371404382176528 0 -0.43709915379447778 0.45371404382176528 0 -0.43085435991212279 0.47460748804499753 0 -0.42433233267478132 0.46236191720032888 0 -0.43709915379447778 0.45371404382176528 0 -0.43085435991212279 0.47460748804499753 0 -0.42404909957592901 0.45290131757177132 0 -0.42433233267478132 0.46236191720032888 0 -0.43709915379447778 0.45371404382176528 0 -0.43085435991212279 0.47460748804499753 0 -0.42093848738124823 0.48048492800007481 0 -0.4246095660297679 0.49550093226822961 0 -0.43085435991212279 0.47460748804499753 0 -0.41705786266290701 0.47142496677507267 0 -0.42093848738124823 0.48048492800007481 0 -0.42433233267478132 0.46236191720032888 0 -0.43085435991212279 0.47460748804499753 0 -0.41705786266290701 0.47142496677507267 0 -0.41705786266290701 0.47142496677507267 0 -0.42093848738124823 0.48048492800007481 0 -0.40849540009959551 0.47651198387563498 0 -0.3996498817311348 0.46074658372735239 0 -0.41705786266290701 0.47142496677507267 0 -0.40849540009959551 0.47651198387563498 0 -0.42093848738124823 0.48048492800007481 0 -0.41273422942354338 0.48373000849199221 0 -0.40849540009959551 0.47651198387563498 0 -0.39587414850767771 0.48209350728525308 0 -0.41273422942354338 0.48373000849199221 0 -0.4246095660297679 0.49550093226822961 0 -0.42093848738124823 0.48048492800007481 0 -0.41273422942354338 0.48373000849199221 0 -0.4246095660297679 0.49550093226822961 0 -0.43085435991212279 0.47460748804499753 0 -0.4246095660297679 0.49550093226822961 0 -0.44359231273650979 0.48715639585560111 0 -0.4246095660297679 0.49550093226822961 0 -0.43460803688680738 0.5 0 -0.44359231273650979 0.48715639585560111 0 -0.43085435991212279 0.47460748804499753 0 -0.4246095660297679 0.49550093226822961 0 -0.43460803688680738 0.5 0 -0.44359231273650979 0.48715639585560111 0 -0.47179615636825523 0.48406193358053851 0 -0.43460803688680738 0.5 0 -0.47179615636825523 0.48406193358053851 0 -0.5 0.5 0 -0.43085435991212279 0.47460748804499753 0 -0.44359231273650979 0.48715639585560111 0 -0.44904327903594038 0.47589847328777579 0 -0.43085435991212279 0.47460748804499753 0 -0.44904327903594038 0.47589847328777579 0 -0.44503874418950079 0.4651511422224876 0 -0.44904327903594038 0.47589847328777579 0 -0.45565785419169641 0.46746222216158062 0 -0.44503874418950079 0.4651511422224876 0 -0.44904327903594038 0.47589847328777579 0 -0.47179615636825523 0.48406193358053851 0 -0.45565785419169641 0.46746222216158062 0 -0.47179615636825523 0.48406193358053851 0 -0.46998256701841551 0.46548133535631558 0 -0.45565785419169641 0.46746222216158062 0 -0.44359231273650979 0.48715639585560111 0 -0.44904327903594038 0.47589847328777579 0 -0.47179615636825523 0.48406193358053851 0 -0.44359231273650979 0.48715639585560111 0 -0.47179615636825523 0.48406193358053851 0 -0.47179615636825523 0.48406193358053851 0 -0.46998256701841551 0.46548133535631558 0 -0.48427253490423072 0.46769902061928392 0 -0.47179615636825523 0.48406193358053851 0 -0.50000000000000056 0.48096747130547601 0 -0.47179615636825523 0.48406193358053851 0 -0.50000000000000056 0.48096747130547601 0 -0.48427253490423072 0.46769902061928392 0 -0.47179615636825523 0.48406193358053851 0 -0.50000000000000056 0.48096747130547601 0 -0.5 0.5 0 -0.5 0.45281384566077187 0 -0.47380771698999419 0.44885237990829419 0 -0.48161906589270942 0.43147248004860927 0 -0.50000000000000056 0.48096747130547601 0 -0.5 0.45281384566077187 0 -0.48427253490423072 0.46769902061928392 0 -0.5 0.45281384566077187 0 -0.48427253490423072 0.46769902061928392 0 -0.47380771698999419 0.44885237990829419 0 -0.46998256701841551 0.46548133535631558 0 -0.48427253490423072 0.46769902061928392 0 -0.47380771698999419 0.44885237990829419 0 -0.47380771698999419 0.44885237990829419 0 -0.46901671851684951 0.43290530803738753 0 -0.48161906589270942 0.43147248004860927 0 -0.47380771698999419 0.44885237990829419 0 -0.46113466569365003 0.44082862444857429 0 -0.46901671851684951 0.43290530803738753 0 -0.47380771698999419 0.44885237990829419 0 -0.46113466569365003 0.44082862444857429 0 -0.45340059012245792 0.45354689150948169 0 -0.46113466569365003 0.44082862444857429 0 -0.45340059012245792 0.45354689150948169 0 -0.45211506636646381 0.44377325232024301 0 -0.46113466569365003 0.44082862444857429 0 -0.45211506636646381 0.44377325232024301 0 -0.45440318380967248 0.43695247064246079 0 -0.46998256701841551 0.46548133535631558 0 -0.47380771698999419 0.44885237990829419 0 -0.45340059012245792 0.45354689150948169 0 -0.46998256701841551 0.46548133535631558 0 -0.45340059012245792 0.45354689150948169 0 -0.45565785419169641 0.46746222216158062 0 -0.43709915379447778 0.45371404382176528 0 -0.45340059012245792 0.45354689150948169 0 -0.44503874418950079 0.4651511422224876 0 -0.43709915379447778 0.45371404382176528 0 -0.43085435991212279 0.47460748804499753 0 -0.44503874418950079 0.4651511422224876 0 -0.45340059012245792 0.45354689150948169 0 -0.45565785419169641 0.46746222216158062 0 -0.44503874418950079 0.4651511422224876 0 -0.43709915379447778 0.45371404382176528 0 -0.44334394767683138 0.4328205995985327 0 -0.43709915379447778 0.45371404382176528 0 -0.45340059012245792 0.45354689150948169 0 -0.44542372487108189 0.44604276775770552 0 -0.43709915379447778 0.45371404382176528 0 -0.44542372487108189 0.44604276775770552 0 -0.44334394767683138 0.4328205995985327 0 -0.43256859531976771 0.44130543801670707 0 -0.43709915379447778 0.45371404382176528 0 -0.44334394767683138 0.4328205995985327 0 -0.4470732206024291 0.43840322825959821 0 -0.45211506636646381 0.44377325232024301 0 -0.44542372487108189 0.44604276775770552 0 -0.4470732206024291 0.43840322825959821 0 -0.45211506636646381 0.44377325232024301 0 -0.45440318380967248 0.43695247064246079 0 -0.45340059012245792 0.45354689150948169 0 -0.45211506636646381 0.44377325232024301 0 -0.44542372487108189 0.44604276775770552 0 -0.4470732206024291 0.43840322825959821 0 -0.44542372487108189 0.44604276775770552 0 -0.44334394767683138 0.4328205995985327 0 -0.44334394767683138 0.4328205995985327 0 -0.44960658442649709 0.41186745781603251 0 -0.44334394767683138 0.4328205995985327 0 -0.4528990152817633 0.4239547785911425 0 -0.44960658442649709 0.41186745781603251 0 -0.4470732206024291 0.43840322825959821 0 -0.44334394767683138 0.4328205995985327 0 -0.44334394767683138 0.4328205995985327 0 -0.4528990152817633 0.4239547785911425 0 -0.45198936895215391 0.43108225617267493 0 -0.4470732206024291 0.43840322825959821 0 -0.44334394767683138 0.4328205995985327 0 -0.45198936895215391 0.43108225617267493 0 -0.4470732206024291 0.43840322825959821 0 -0.45198936895215391 0.43108225617267493 0 -0.45440318380967248 0.43695247064246079 0 -0.44809933733896912 0.40302973668424841 0 -0.42934858052233738 0.41186988363927901 0 -0.44960658442649709 0.41186745781603251 0 -0.44809933733896912 0.40302973668424841 0 -0.42934858052233738 0.41186988363927901 0 -0.44334394767683138 0.4328205995985327 0 -0.44960658442649709 0.41186745781603251 0 -0.42934858052233738 0.41186988363927901 0 -0.46010826796430981 0.41545055030207811 0 -0.47159940222510771 0.4212617849999718 0 -0.47440121776686051 0.40458844431137547 0 -0.44960658442649709 0.41186745781603251 0 -0.46010826796430981 0.41545055030207811 0 -0.46160428817681792 0.40351347489606881 0 -0.4528990152817633 0.4239547785911425 0 -0.44960658442649709 0.41186745781603251 0 -0.46010826796430981 0.41545055030207811 0 -0.46010826796430981 0.41545055030207811 0 -0.45976472858280099 0.42859239857736109 0 -0.47159940222510771 0.4212617849999718 0 -0.46010826796430981 0.41545055030207811 0 -0.47440121776686051 0.40458844431137547 0 -0.46160428817681792 0.40351347489606881 0 -0.46113466569365003 0.44082862444857429 0 -0.45440318380967248 0.43695247064246079 0 -0.45976472858280099 0.42859239857736109 0 -0.45198936895215391 0.43108225617267493 0 -0.45440318380967248 0.43695247064246079 0 -0.45976472858280099 0.42859239857736109 0 -0.4528990152817633 0.4239547785911425 0 -0.46010826796430981 0.41545055030207811 0 -0.45976472858280099 0.42859239857736109 0 -0.4528990152817633 0.4239547785911425 0 -0.45198936895215391 0.43108225617267493 0 -0.45976472858280099 0.42859239857736109 0 -0.45976472858280099 0.42859239857736109 0 -0.46901671851684951 0.43290530803738753 0 -0.47159940222510771 0.4212617849999718 0 -0.46113466569365003 0.44082862444857429 0 -0.45976472858280099 0.42859239857736109 0 -0.46901671851684951 0.43290530803738753 0 -0.48161906589270942 0.43147248004860927 0 -0.47159940222510771 0.4212617849999718 0 -0.48616990929982362 0.41534658070683012 0 -0.46901671851684951 0.43290530803738753 0 -0.48161906589270942 0.43147248004860927 0 -0.47159940222510771 0.4212617849999718 0 -0.47159940222510771 0.4212617849999718 0 -0.48616990929982362 0.41534658070683012 0 -0.47440121776686051 0.40458844431137547 0 -0.48616990929982362 0.41534658070683012 0 -0.5 0.42466022001606779 0 -0.5 0.39650659437136399 0 -0.5 0.45281384566077187 0 -0.48161906589270942 0.43147248004860927 0 -0.5 0.42466022001606779 0 -0.48161906589270942 0.43147248004860927 0 -0.48616990929982362 0.41534658070683012 0 -0.5 0.42466022001606779 0 -0.5 0.39650659437136399 0 -0.47718790589269738 0.38586032735699782 0 -0.49999999999999822 0.36835296872666018 0 -0.48616990929982362 0.41534658070683012 0 -0.5 0.39650659437136399 0 -0.47440121776686051 0.40458844431137547 0 -0.5 0.39650659437136399 0 -0.47440121776686051 0.40458844431137547 0 -0.47718790589269738 0.38586032735699782 0 -0.47440121776686051 0.40458844431137547 0 -0.47718790589269738 0.38586032735699782 0 -0.46621519599951411 0.39275491153772218 0 -0.47718790589269738 0.38586032735699782 0 -0.46201334698503321 0.37889799509063737 0 -0.47355516811839271 0.36425402420609448 0 -0.46201334698503321 0.37889799509063737 0 -0.45586922117616152 0.39091431603353188 0 -0.44557880415563422 0.38038898027784729 0 -0.46201334698503321 0.37889799509063737 0 -0.46621519599951411 0.39275491153772218 0 -0.45586922117616152 0.39091431603353188 0 -0.47718790589269738 0.38586032735699782 0 -0.46201334698503321 0.37889799509063737 0 -0.46621519599951411 0.39275491153772218 0 -0.44960658442649709 0.41186745781603251 0 -0.46160428817681792 0.40351347489606881 0 -0.45586922117616152 0.39091431603353188 0 -0.47440121776686051 0.40458844431137547 0 -0.46160428817681792 0.40351347489606881 0 -0.46621519599951411 0.39275491153772218 0 -0.46160428817681792 0.40351347489606881 0 -0.46621519599951411 0.39275491153772218 0 -0.45586922117616152 0.39091431603353188 0 -0.44960658442649709 0.41186745781603251 0 -0.45586922117616152 0.39091431603353188 0 -0.44809933733896912 0.40302973668424841 0 -0.44960658442649709 0.41186745781603251 0 -0.45586922117616152 0.39091431603353188 0 -0.45586922117616152 0.39091431603353188 0 -0.44809933733896912 0.40302973668424841 0 -0.44398421454236431 0.39220301952157771 0 -0.44809933733896912 0.40302973668424841 0 -0.44398421454236431 0.39220301952157771 0 -0.43488536825659008 0.39896128102100442 0 -0.45586922117616152 0.39091431603353188 0 -0.44398421454236431 0.39220301952157771 0 -0.44557880415563422 0.38038898027784729 0 -0.44398421454236431 0.39220301952157771 0 -0.44557880415563422 0.38038898027784729 0 -0.43334897886905838 0.38707198217106259 0 -0.44557880415563422 0.38038898027784729 0 -0.43334897886905838 0.38707198217106259 0 -0.42810100534158663 0.37398848971860821 0 -0.43334897886905838 0.38707198217106259 0 -0.41610538552338888 0.39204515065776818 0 -0.42810100534158663 0.37398848971860821 0 -0.41610538552338888 0.39204515065776818 0 -0.40286219052443828 0.37222041767625891 0 -0.42810100534158663 0.37398848971860821 0 -0.41610538552338888 0.39204515065776818 0 -0.40286219052443828 0.37222041767625891 0 -0.41610538552338888 0.39204515065776818 0 -0.40036473353264851 0.39541167524765902 0 -0.40286219052443828 0.37222041767625891 0 -0.41610538552338888 0.39204515065776818 0 -0.40740239817745089 0.4222165314534414 0 -0.40036473353264851 0.39541167524765902 0 -0.43334897886905838 0.38707198217106259 0 -0.41610538552338888 0.39204515065776818 0 -0.43488536825659008 0.39896128102100442 0 -0.41610538552338888 0.39204515065776818 0 -0.42934858052233738 0.41186988363927901 0 -0.41610538552338888 0.39204515065776818 0 -0.43488536825659008 0.39896128102100442 0 -0.42934858052233738 0.41186988363927901 0 -0.44809933733896912 0.40302973668424841 0 -0.43488536825659008 0.39896128102100442 0 -0.42934858052233738 0.41186988363927901 0 -0.44398421454236431 0.39220301952157771 0 -0.43334897886905838 0.38707198217106259 0 -0.43488536825659008 0.39896128102100442 0 -0.44334394767683138 0.4328205995985327 0 -0.42934858052233738 0.41186988363927901 0 -0.4324758617574791 0.43030488960998009 0 -0.42934858052233738 0.41186988363927901 0 -0.4324758617574791 0.43030488960998009 0 -0.42386178258839008 0.42400698186878177 0 -0.44334394767683138 0.4328205995985327 0 -0.42934858052233738 0.41186988363927901 0 -0.43256859531976771 0.44130543801670707 0 -0.44334394767683138 0.4328205995985327 0 -0.4324758617574791 0.43030488960998009 0 -0.4324758617574791 0.43030488960998009 0 -0.42386178258839008 0.42400698186878177 0 -0.42167403783228991 0.43387995240292998 0 -0.43256859531976771 0.44130543801670707 0 -0.4324758617574791 0.43030488960998009 0 -0.42167403783228991 0.43387995240292998 0 -0.42386178258839008 0.42400698186878177 0 -0.40740239817745089 0.4222165314534414 0 -0.42167403783228991 0.43387995240292998 0 -0.40475265770424662 0.44273224841968578 0 -0.40740239817745089 0.4222165314534414 0 -0.42167403783228991 0.43387995240292998 0 -0.42934858052233738 0.41186988363927901 0 -0.40740239817745089 0.4222165314534414 0 -0.42934858052233738 0.41186988363927901 0 -0.42386178258839008 0.42400698186878177 0 -0.40740239817745089 0.4222165314534414 0 -0.41610538552338888 0.39204515065776818 0 -0.42934858052233738 0.41186988363927901 0 -0.40740239817745089 0.4222165314534414 0 -0.40740239817745089 0.4222165314534414 0 -0.39100452383692991 0.40648545672669101 0 -0.3827523434658453 0.41826117133637652 0 -0.40740239817745089 0.4222165314534414 0 -0.39100452383692991 0.40648545672669101 0 -0.40036473353264851 0.39541167524765902 0 -0.40740239817745089 0.4222165314534414 0 -0.38545621583256351 0.43256317926760163 0 -0.40740239817745089 0.4222165314534414 0 -0.38545621583256351 0.43256317926760163 0 -0.3827523434658453 0.41826117133637652 0 -0.40475265770424662 0.44273224841968578 0 -0.40740239817745089 0.4222165314534414 0 -0.38545621583256351 0.43256317926760163 0 -0.38545621583256351 0.43256317926760163 0 -0.3827523434658453 0.41826117133637652 0 -0.36785192000822192 0.42328585742754588 0 -0.38545621583256351 0.43256317926760163 0 -0.36785192000822192 0.42328585742754588 0 -0.38545621583256351 0.43256317926760163 0 -0.37717856875035488 0.43646572130173161 0 -0.36785192000822192 0.42328585742754588 0 -0.38478163890223388 0.44195167273689873 0 -0.38545621583256351 0.43256317926760163 0 -0.37717856875035488 0.43646572130173161 0 -0.38545621583256351 0.43256317926760163 0 -0.37717856875035488 0.43646572130173161 0 -0.39100452383692991 0.40648545672669101 0 -0.3827523434658453 0.41826117133637652 0 -0.3798144567514633 0.40772155113995728 0 -0.3827523434658453 0.41826117133637652 0 -0.3798144567514633 0.40772155113995728 0 -0.36984470262962321 0.41265242782660189 0 -0.39100452383692991 0.40648545672669101 0 -0.3798144567514633 0.40772155113995728 0 -0.3867137524410672 0.38688217771584499 0 -0.3798144567514633 0.40772155113995728 0 -0.3867137524410672 0.38688217771584499 0 -0.3705653143576963 0.40154393775543129 0 -0.3867137524410672 0.38688217771584499 0 -0.3705653143576963 0.40154393775543129 0 -0.3867137524410672 0.38688217771584499 0 -0.40036473353264851 0.39541167524765902 0 -0.40286219052443828 0.37222041767625891 0 -0.3867137524410672 0.38688217771584499 0 -0.40286219052443828 0.37222041767625891 0 -0.3888982630442025 0.36590048581888218 0 -0.3867137524410672 0.38688217771584499 0 -0.40286219052443828 0.37222041767625891 0 -0.39100452383692991 0.40648545672669101 0 -0.3867137524410672 0.38688217771584499 0 -0.40036473353264851 0.39541167524765902 0 -0.40452535483654473 0.35355441468790599 0 -0.40513774515659717 0.3517922532406651 0 -0.38838520531790771 0.35105269421084939 0 -0.40513774515659717 0.3517922532406651 0 -0.38838520531790771 0.35105269421084939 0 -0.40096674788558628 0.34226624247182402 0 -0.40452535483654473 0.35355441468790599 0 -0.38838520531790771 0.35105269421084939 0 -0.39638885933713669 0.35885594300994089 0 -0.40452535483654473 0.35355441468790599 0 -0.38838520531790771 0.35105269421084939 0 -0.39638885933713669 0.35885594300994089 0 -0.3888982630442025 0.36590048581888218 0 -0.38838520531790771 0.35105269421084939 0 -0.39638885933713669 0.35885594300994089 0 -0.40452535483654473 0.35355441468790599 0 -0.40400165056791348 0.36112635213978639 0 -0.40400165056791348 0.36112635213978639 0 -0.39915538488354912 0.36667142198066771 0 -0.40286219052443828 0.37222041767625891 0 -0.39638885933713669 0.35885594300994089 0 -0.40400165056791348 0.36112635213978639 0 -0.39915538488354912 0.36667142198066771 0 -0.39915538488354912 0.36667142198066771 0 -0.40286219052443828 0.37222041767625891 0 -0.39915538488354912 0.36667142198066771 0 -0.40286219052443828 0.37222041767625891 0 -0.3888982630442025 0.36590048581888218 0 -0.39638885933713669 0.35885594300994089 0 -0.39915538488354912 0.36667142198066771 0 -0.3888982630442025 0.36590048581888218 0 -0.3867137524410672 0.38688217771584499 0 -0.3888982630442025 0.36590048581888218 0 -0.37519100471246991 0.3709854683288385 0 -0.3888982630442025 0.36590048581888218 0 -0.37519100471246991 0.3709854683288385 0 -0.37672549974694008 0.35622492463845878 0 -0.37672549974694008 0.35622492463845878 0 -0.38838520531790771 0.35105269421084939 0 -0.37913388308317869 0.33980033822586803 0 -0.3888982630442025 0.36590048581888218 0 -0.37672549974694008 0.35622492463845878 0 -0.38838520531790771 0.35105269421084939 0 -0.38838520531790771 0.35105269421084939 0 -0.37913388308317869 0.33980033822586803 0 -0.39362240827528772 0.33490398907415808 0 -0.3788145725477623 0.32633067759603118 0 -0.39362240827528772 0.33490398907415808 0 -0.37913388308317869 0.33980033822586803 0 -0.3788145725477623 0.32633067759603118 0 -0.39362240827528772 0.33490398907415808 0 -0.3788145725477623 0.32633067759603118 0 -0.38876715518139049 0.31878710207299171 0 -0.39362240827528772 0.33490398907415808 0 -0.37578149950171208 0.31311525499370502 0 -0.3788145725477623 0.32633067759603118 0 -0.38876715518139049 0.31878710207299171 0 -0.38876715518139049 0.31878710207299171 0 -0.40240558776230201 0.32701863013441079 0 -0.39362240827528772 0.33490398907415808 0 -0.38876715518139049 0.31878710207299171 0 -0.40240558776230201 0.32701863013441079 0 -0.40457359345530219 0.31146894366726913 0 -0.40513774515659717 0.3517922532406651 0 -0.40096674788558628 0.34226624247182402 0 -0.40932412850863459 0.33501089179464472 0 -0.38838520531790771 0.35105269421084939 0 -0.39362240827528772 0.33490398907415808 0 -0.40096674788558628 0.34226624247182402 0 -0.40240558776230201 0.32701863013441079 0 -0.40096674788558628 0.34226624247182402 0 -0.40932412850863459 0.33501089179464472 0 -0.40240558776230201 0.32701863013441079 0 -0.39362240827528772 0.33490398907415808 0 -0.40096674788558628 0.34226624247182402 0 -0.42472931721170898 0.33130129278301362 0 -0.42403274106079941 0.34432604134370942 0 -0.41452766950518899 0.34800263451576507 0 -0.40513774515659717 0.3517922532406651 0 -0.42472931721170898 0.33130129278301362 0 -0.41452766950518899 0.34800263451576507 0 -0.40513774515659717 0.3517922532406651 0 -0.40932412850863459 0.33501089179464472 0 -0.42472931721170898 0.33130129278301362 0 -0.40513774515659717 0.3517922532406651 0 -0.42472931721170898 0.33130129278301362 0 -0.40240558776230201 0.32701863013441079 0 -0.40932412850863459 0.33501089179464472 0 -0.41455490886051499 0.32557050574830021 0 -0.40932412850863459 0.33501089179464472 0 -0.41455490886051499 0.32557050574830021 0 -0.42472931721170898 0.33130129278301362 0 -0.41455490886051499 0.32557050574830021 0 -0.43219845517123362 0.32348926982994008 0 -0.40457359345530219 0.31146894366726913 0 -0.43219845517123362 0.32348926982994008 0 -0.40457359345530219 0.31146894366726913 0 -0.42790797361430749 0.31450024276589378 0 -0.43219845517123362 0.32348926982994008 0 -0.40457359345530219 0.31146894366726913 0 -0.40240558776230201 0.32701863013441079 0 -0.41455490886051499 0.32557050574830021 0 -0.40457359345530219 0.31146894366726913 0 -0.42790797361430749 0.31450024276589378 0 -0.44432088926682312 0.31081033232536431 0 -0.41455490886051499 0.32557050574830021 0 -0.43219845517123362 0.32348926982994008 0 -0.42472931721170898 0.33130129278301362 0 -0.42790797361430749 0.31450024276589378 0 -0.43219845517123362 0.32348926982994008 0 -0.44432088926682312 0.31081033232536431 0 -0.43219845517123362 0.32348926982994008 0 -0.42472931721170898 0.33130129278301362 0 -0.43219845517123362 0.32348926982994008 0 -0.42472931721170898 0.33130129278301362 0 -0.43861783033176682 0.3281141633673893 0 -0.42472931721170898 0.33130129278301362 0 -0.43620847317111799 0.34194410291109811 0 -0.42403274106079941 0.34432604134370942 0 -0.42472931721170898 0.33130129278301362 0 -0.43620847317111799 0.34194410291109811 0 -0.43861783033176682 0.3281141633673893 0 -0.4206655043551818 0.35605613516496148 0 -0.4471103362367872 0.36015507968552862 0 -0.43620847317111799 0.34194410291109811 0 -0.4206655043551818 0.35605613516496148 0 -0.4471103362367872 0.36015507968552862 0 -0.43620847317111799 0.34194410291109811 0 -0.42403274106079941 0.34432604134370942 0 -0.4206655043551818 0.35605613516496148 0 -0.43620847317111799 0.34194410291109811 0 -0.4206655043551818 0.35605613516496148 0 -0.40452535483654473 0.35355441468790599 0 -0.4206655043551818 0.35605613516496148 0 -0.42403274106079941 0.34432604134370942 0 -0.41452766950518899 0.34800263451576507 0 -0.4206655043551818 0.35605613516496148 0 -0.40452535483654473 0.35355441468790599 0 -0.41452766950518899 0.34800263451576507 0 -0.4206655043551818 0.35605613516496148 0 -0.40452535483654473 0.35355441468790599 0 -0.40400165056791348 0.36112635213978639 0 -0.4206655043551818 0.35605613516496148 0 -0.40452535483654473 0.35355441468790599 0 -0.40513774515659717 0.3517922532406651 0 -0.41452766950518899 0.34800263451576507 0 -0.40286219052443828 0.37222041767625891 0 -0.4206655043551818 0.35605613516496148 0 -0.40400165056791348 0.36112635213978639 0 -0.40286219052443828 0.37222041767625891 0 -0.4206655043551818 0.35605613516496148 0 -0.40286219052443828 0.37222041767625891 0 -0.4206655043551818 0.35605613516496148 0 -0.42810100534158663 0.37398848971860821 0 -0.4206655043551818 0.35605613516496148 0 -0.42810100534158663 0.37398848971860821 0 -0.4471103362367872 0.36015507968552862 0 -0.44557880415563422 0.38038898027784729 0 -0.42810100534158663 0.37398848971860821 0 -0.4471103362367872 0.36015507968552862 0 -0.46201334698503321 0.37889799509063737 0 -0.44557880415563422 0.38038898027784729 0 -0.4471103362367872 0.36015507968552862 0 -0.43620847317111799 0.34194410291109811 0 -0.4471103362367872 0.36015507968552862 0 -0.45970474012504142 0.34492472233680482 0 -0.4471103362367872 0.36015507968552862 0 -0.45970474012504142 0.34492472233680482 0 -0.47355516811839271 0.36425402420609448 0 -0.46201334698503321 0.37889799509063737 0 -0.4471103362367872 0.36015507968552862 0 -0.47355516811839271 0.36425402420609448 0 -0.4471103362367872 0.36015507968552862 0 -0.47355516811839271 0.36425402420609448 0 -0.47718790589269738 0.38586032735699782 0 -0.47355516811839271 0.36425402420609448 0 -0.49999999999999822 0.36835296872666018 0 -0.45970474012504142 0.34492472233680482 0 -0.47355516811839271 0.36425402420609448 0 -0.47341281624267928 0.34679689426055099 0 -0.47355516811839271 0.36425402420609448 0 -0.47341281624267928 0.34679689426055099 0 -0.48679711890909522 0.34714343418128107 0 -0.47355516811839271 0.36425402420609448 0 -0.48679711890909522 0.34714343418128107 0 -0.50000000000000144 0.36342147204453917 0 -0.48679711890909522 0.34714343418128107 0 -0.50000000000000144 0.36342147204453917 0 -0.5 0.34171187956590382 0 -0.48679711890909522 0.34714343418128107 0 -0.50000000000000144 0.36342147204453917 0 -0.47355516811839271 0.36425402420609448 0 -0.49999999999999822 0.36835296872666018 0 -0.47355516811839271 0.36425402420609448 0 -0.50000000000000144 0.36342147204453917 0 -0.49999999999999822 0.36835296872666018 0 -0.48443722932495759 0.31687542255032519 0 -0.5 0.32000228708726852 0 -0.48883788148227758 0.33122239323792391 0 -0.5 0.32000228708726852 0 -0.5 0.34171187956590382 0 -0.48883788148227758 0.33122239323792391 0 -0.48679711890909522 0.34714343418128107 0 -0.5 0.34171187956590382 0 -0.48883788148227758 0.33122239323792391 0 -0.48679711890909522 0.34714343418128107 0 -0.47359423781818799 0.3308653963180237 0 -0.45970474012504142 0.34492472233680482 0 -0.47341281624267928 0.34679689426055099 0 -0.47359423781818799 0.3308653963180237 0 -0.48679711890909522 0.34714343418128107 0 -0.48883788148227758 0.33122239323792391 0 -0.47359423781818799 0.3308653963180237 0 -0.47341281624267928 0.34679689426055099 0 -0.48679711890909522 0.34714343418128107 0 -0.47359423781818799 0.3308653963180237 0 -0.47359423781818799 0.3308653963180237 0 -0.47264581712595938 0.31671992269752891 0 -0.46039135672728082 0.31458735845476632 0 -0.48443722932495759 0.31687542255032519 0 -0.48883788148227758 0.33122239323792391 0 -0.47359423781818799 0.3308653963180237 0 -0.48443722932495759 0.31687542255032519 0 -0.47359423781818799 0.3308653963180237 0 -0.47264581712595938 0.31671992269752891 0 -0.48443722932495759 0.31687542255032519 0 -0.47264581712595938 0.31671992269752891 0 -0.47216044463341161 0.30455151346700049 0 -0.47359423781818799 0.3308653963180237 0 -0.46039135672728082 0.31458735845476632 0 -0.47359423781818799 0.3308653963180237 0 -0.46039135672728082 0.31458735845476632 0 -0.4608992614356977 0.32901526121317798 0 -0.46039135672728082 0.31458735845476632 0 -0.4608992614356977 0.32901526121317798 0 -0.44921264167741631 0.32840092545007737 0 -0.45970474012504142 0.34492472233680482 0 -0.4608992614356977 0.32901526121317798 0 -0.44921264167741631 0.32840092545007737 0 -0.45970474012504142 0.34492472233680482 0 -0.47359423781818799 0.3308653963180237 0 -0.4608992614356977 0.32901526121317798 0 -0.43620847317111799 0.34194410291109811 0 -0.45970474012504142 0.34492472233680482 0 -0.44921264167741631 0.32840092545007737 0 -0.43620847317111799 0.34194410291109811 0 -0.44921264167741631 0.32840092545007737 0 -0.43861783033176682 0.3281141633673893 0 -0.43219845517123362 0.32348926982994008 0 -0.43861783033176682 0.3281141633673893 0 -0.44432088926682312 0.31081033232536431 0 -0.46039135672728082 0.31458735845476632 0 -0.44921264167741631 0.32840092545007737 0 -0.44432088926682312 0.31081033232536431 0 -0.44921264167741631 0.32840092545007737 0 -0.43861783033176682 0.3281141633673893 0 -0.44432088926682312 0.31081033232536431 0 -0.43219845517123362 0.32348926982994008 0 -0.44432088926682312 0.31081033232536431 0 -0.44432088926682312 0.31081033232536431 0 -0.44371650413511771 0.29965447911541598 0 -0.43274424350808799 0.30058458220218709 0 -0.44432088926682312 0.31081033232536431 0 -0.44371650413511771 0.29965447911541598 0 -0.4552527322472365 0.29937664228707311 0 -0.44432088926682312 0.31081033232536431 0 -0.4552527322472365 0.29937664228707311 0 -0.44371650413511771 0.29965447911541598 0 -0.44254815151832222 0.28784635964703581 0 -0.43274424350808799 0.30058458220218709 0 -0.44371650413511771 0.29965447911541598 0 -0.44254815151832222 0.28784635964703581 0 -0.4552527322472365 0.29937664228707311 0 -0.44254815151832222 0.28784635964703581 0 -0.46618457522765222 0.28794295224878402 0 -0.4552527322472365 0.29937664228707311 0 -0.44254815151832222 0.28784635964703581 0 -0.46618457522765222 0.28794295224878402 0 -0.45348778201163131 0.27623694993016462 0 -0.44254815151832222 0.28784635964703581 0 -0.46618457522765222 0.28794295224878402 0 -0.46618457522765222 0.28794295224878402 0 -0.4552527322472365 0.29937664228707311 0 -0.46039135672728082 0.31458735845476632 0 -0.44432088926682312 0.31081033232536431 0 -0.47216044463341161 0.30455151346700049 0 -0.44432088926682312 0.31081033232536431 0 -0.47216044463341161 0.30455151346700049 0 -0.44432088926682312 0.31081033232536431 0 -0.4552527322472365 0.29937664228707311 0 -0.47216044463341161 0.30455151346700049 0 -0.46618457522765222 0.28794295224878402 0 -0.4552527322472365 0.29937664228707311 0 -0.47216044463341161 0.30455151346700049 0 -0.47264581712595938 0.31671992269752891 0 -0.46039135672728082 0.31458735845476632 0 -0.47216044463341161 0.30455151346700049 0 -0.46618457522765222 0.28794295224878402 0 -0.47216044463341161 0.30455151346700049 0 -0.48309228761382561 0.28801204730094082 0 -0.46618457522765222 0.28794295224878402 0 -0.48309228761382561 0.28801204730094082 0 -0.48309228761382877 0.27025905914618381 0 -0.46618457522765222 0.28794295224878402 0 -0.48309228761382561 0.28801204730094082 0 -0.48309228761382561 0.28801204730094082 0 -0.49999999999999889 0.2880811423530974 0 -0.49999999999999922 0.29829269460863311 0 -0.48309228761382561 0.28801204730094082 0 -0.49999999999999889 0.2880811423530974 0 -0.49154614380691353 0.27917010074964033 0 -0.48309228761382561 0.28801204730094082 0 -0.49999999999999889 0.2880811423530974 0 -0.47216044463341161 0.30455151346700049 0 -0.48309228761382561 0.28801204730094082 0 -0.49999999999999922 0.29829269460863311 0 -0.48443722932495759 0.31687542255032519 0 -0.5 0.32000228708726852 0 -0.49999999999999922 0.29829269460863311 0 -0.47216044463341161 0.30455151346700049 0 -0.49999999999999922 0.29829269460863311 0 -0.48443722932495759 0.31687542255032519 0 -0.47216044463341161 0.30455151346700049 0 -0.49999999999999922 0.29829269460863311 0 -0.50000000000000355 0.25257516604358171 0 -0.48309228761382877 0.27025905914618381 0 -0.50000000000000355 0.25257516604358171 0 -0.48309228761382877 0.27025905914618381 0 -0.47243170773416598 0.25252131008609718 0 -0.50000000000000355 0.25257516604358171 0 -0.5 0.27032815419833961 0 -0.48309228761382877 0.27025905914618381 0 -0.48309228761382561 0.28801204730094082 0 -0.49154614380691353 0.27917010074964033 0 -0.48309228761382877 0.27025905914618381 0 -0.49999999999999889 0.2880811423530974 0 -0.5 0.27032815419833961 0 -0.49154614380691353 0.27917010074964033 0 -0.5 0.27032815419833961 0 -0.49154614380691353 0.27917010074964033 0 -0.48309228761382877 0.27025905914618381 0 -0.46618457522765222 0.28794295224878402 0 -0.48309228761382877 0.27025905914618381 0 -0.46668787323784527 0.27080963386168561 0 -0.46618457522765222 0.28794295224878402 0 -0.48309228761382877 0.27025905914618381 0 -0.48309228761382877 0.27025905914618381 0 -0.47243170773416598 0.25252131008609718 0 -0.46668787323784527 0.27080963386168561 0 -0.47243170773416598 0.25252131008609718 0 -0.45447176510546028 0.26210261842800259 0 -0.46668787323784527 0.27080963386168561 0 -0.46618457522765222 0.28794295224878402 0 -0.46668787323784527 0.27080963386168561 0 -0.45348778201163131 0.27623694993016462 0 -0.45447176510546028 0.26210261842800259 0 -0.46668787323784527 0.27080963386168561 0 -0.45348778201163131 0.27623694993016462 0 -0.44254815151832222 0.28784635964703581 0 -0.45348778201163131 0.27623694993016462 0 -0.43566092072063228 0.2699905457307174 0 -0.45447176510546028 0.26210261842800259 0 -0.45348778201163131 0.27623694993016462 0 -0.43566092072063228 0.2699905457307174 0 -0.45447176510546028 0.26210261842800259 0 -0.43846763777347608 0.25139159902730851 0 -0.43566092072063228 0.2699905457307174 0 -0.43846763777347608 0.25139159902730851 0 -0.42186070460899672 0.25309052481387179 0 -0.43566092072063228 0.2699905457307174 0 -0.42186070460899672 0.25309052481387179 0 -0.41750954834922988 0.27017538504522087 0 -0.43566092072063228 0.2699905457307174 0 -0.4058641186269526 0.24719101802337209 0 -0.42186070460899672 0.25309052481387179 0 -0.40083419185370128 0.26677943909652108 0 -0.42186070460899672 0.25309052481387179 0 -0.41750954834922988 0.27017538504522087 0 -0.40083419185370128 0.26677943909652108 0 -0.41750954834922988 0.27017538504522087 0 -0.40093657290758961 0.28661841219936829 0 -0.40083419185370128 0.26677943909652108 0 -0.41750954834922988 0.27017538504522087 0 -0.43566092072063228 0.2699905457307174 0 -0.41891172780899222 0.28774976704528749 0 -0.44254815151832222 0.28784635964703581 0 -0.43566092072063228 0.2699905457307174 0 -0.41891172780899222 0.28774976704528749 0 -0.44254815151832222 0.28784635964703581 0 -0.41891172780899222 0.28774976704528749 0 -0.44254815151832222 0.28784635964703581 0 -0.43274424350808799 0.30058458220218709 0 -0.41891172780899222 0.28774976704528749 0 -0.42790797361430749 0.31450024276589378 0 -0.44432088926682312 0.31081033232536431 0 -0.43274424350808799 0.30058458220218709 0 -0.43274424350808799 0.30058458220218709 0 -0.41850050413787648 0.30277602932034992 0 -0.41891172780899222 0.28774976704528749 0 -0.42790797361430749 0.31450024276589378 0 -0.43274424350808799 0.30058458220218709 0 -0.41850050413787648 0.30277602932034992 0 -0.41850050413787648 0.30277602932034992 0 -0.40093657290758961 0.28661841219936829 0 -0.40457359345530219 0.31146894366726913 0 -0.42790797361430749 0.31450024276589378 0 -0.41850050413787648 0.30277602932034992 0 -0.40457359345530219 0.31146894366726913 0 -0.41750954834922988 0.27017538504522087 0 -0.41891172780899222 0.28774976704528749 0 -0.40093657290758961 0.28661841219936829 0 -0.41850050413787648 0.30277602932034992 0 -0.41891172780899222 0.28774976704528749 0 -0.40093657290758961 0.28661841219936829 0 -0.40457359345530219 0.31146894366726913 0 -0.37740526954597697 0.29988511697237552 0 -0.40093657290758961 0.28661841219936829 0 -0.40457359345530219 0.31146894366726913 0 -0.37740526954597697 0.29988511697237552 0 -0.38876715518139049 0.31878710207299171 0 -0.40457359345530219 0.31146894366726913 0 -0.37740526954597697 0.29988511697237552 0 -0.37578149950171208 0.31311525499370502 0 -0.38876715518139049 0.31878710207299171 0 -0.37740526954597697 0.29988511697237552 0 -0.37740526954597697 0.29988511697237552 0 -0.38255970199057582 0.28326929796902273 0 -0.36781326237388512 0.28424507279515338 0 -0.40093657290758961 0.28661841219936829 0 -0.37740526954597697 0.29988511697237552 0 -0.38255970199057582 0.28326929796902273 0 -0.38255970199057582 0.28326929796902273 0 -0.38731087667428082 0.27028903193159992 0 -0.37144618940786778 0.27264003028858419 0 -0.40093657290758961 0.28661841219936829 0 -0.38255970199057582 0.28326929796902273 0 -0.38731087667428082 0.27028903193159992 0 -0.38731087667428082 0.27028903193159992 0 -0.37627277756599359 0.25576698107499612 0 -0.37144618940786778 0.27264003028858419 0 -0.38890999743407823 0.2427193981317495 0 -0.37627277756599359 0.25576698107499612 0 -0.39181582631995732 0.25666003096110762 0 -0.38731087667428082 0.27028903193159992 0 -0.37627277756599359 0.25576698107499612 0 -0.39181582631995732 0.25666003096110762 0 -0.38731087667428082 0.27028903193159992 0 -0.39181582631995732 0.25666003096110762 0 -0.40083419185370128 0.26677943909652108 0 -0.4058641186269526 0.24719101802337209 0 -0.39181582631995732 0.25666003096110762 0 -0.40083419185370128 0.26677943909652108 0 -0.40093657290758961 0.28661841219936829 0 -0.38731087667428082 0.27028903193159992 0 -0.40083419185370128 0.26677943909652108 0 -0.35023694563665198 0.28830129027748203 0 -0.34115527656511913 0.26912753122311178 0 -0.3577765426805905 0.27576787636115602 0 -0.3589477142039037 0.26180195300715509 0 -0.34115527656511913 0.26912753122311178 0 -0.3577765426805905 0.27576787636115602 0 -0.35023694563665198 0.28830129027748203 0 -0.34115527656511913 0.26912753122311178 0 -0.34824261657673289 0.24684003078997019 0 -0.3589477142039037 0.26180195300715509 0 -0.34115527656511913 0.26912753122311178 0 -0.34824261657673289 0.24684003078997019 0 -0.36292965957869022 0.24700153722895329 0 -0.3589477142039037 0.26180195300715509 0 -0.36292965957869022 0.24700153722895329 0 -0.37627277756599359 0.25576698107499612 0 -0.3589477142039037 0.26180195300715509 0 -0.37627277756599359 0.25576698107499612 0 -0.3589477142039037 0.26180195300715509 0 -0.37144618940786778 0.27264003028858419 0 -0.3577765426805905 0.27576787636115602 0 -0.3589477142039037 0.26180195300715509 0 -0.37144618940786778 0.27264003028858419 0 -0.3577765426805905 0.27576787636115602 0 -0.37144618940786778 0.27264003028858419 0 -0.36781326237388512 0.28424507279515338 0 -0.38255970199057582 0.28326929796902273 0 -0.37144618940786778 0.27264003028858419 0 -0.36781326237388512 0.28424507279515338 0 -0.37740526954597697 0.29988511697237552 0 -0.36781326237388512 0.28424507279515338 0 -0.35023694563665198 0.28830129027748203 0 -0.37740526954597697 0.29988511697237552 0 -0.35023694563665198 0.28830129027748203 0 -0.37740526954597697 0.29988511697237552 0 -0.35709243412567682 0.30304314677720418 0 -0.35023694563665198 0.28830129027748203 0 -0.37578149950171208 0.31311525499370502 0 -0.37740526954597697 0.29988511697237552 0 -0.35709243412567682 0.30304314677720418 0 -0.37578149950171208 0.31311525499370502 0 -0.35709243412567682 0.30304314677720418 0 -0.36400673682023688 0.31775736611790389 0 -0.35709243412567682 0.30304314677720418 0 -0.36400673682023688 0.31775736611790389 0 -0.35709243412567682 0.30304314677720418 0 -0.3444992345986792 0.30646308275448292 0 -0.36400673682023688 0.31775736611790389 0 -0.3444992345986792 0.30646308275448292 0 -0.36400673682023688 0.31775736611790389 0 -0.35709243412567682 0.30304314677720418 0 -0.34813351616335581 0.29789210333375371 0 -0.3444992345986792 0.30646308275448292 0 -0.34813351616335581 0.29789210333375371 0 -0.3444992345986792 0.30646308275448292 0 -0.34070545029241528 0.29376089352584578 0 -0.3444992345986792 0.30646308275448292 0 -0.351052017028814 0.31540627098667767 0 -0.34532581149395131 0.3130827004918989 0 -0.3577765426805905 0.27576787636115602 0 -0.36781326237388512 0.28424507279515338 0 -0.35023694563665198 0.28830129027748203 0 -0.35709243412567682 0.30304314677720418 0 -0.35023694563665198 0.28830129027748203 0 -0.35709243412567682 0.30304314677720418 0 -0.34813351616335581 0.29789210333375371 0 -0.35023694563665198 0.28830129027748203 0 -0.34813351616335581 0.29789210333375371 0 -0.35023694563665198 0.28830129027748203 0 -0.34070545029241528 0.29376089352584578 0 -0.34070545029241528 0.29376089352584578 0 -0.33529009231047052 0.28213215458023211 0 -0.32499173237712159 0.29516879939106172 0 -0.35023694563665198 0.28830129027748203 0 -0.34070545029241528 0.29376089352584578 0 -0.33529009231047052 0.28213215458023211 0 -0.3444992345986792 0.30646308275448292 0 -0.32688830354676129 0.30683168260340521 0 -0.32499173237712159 0.29516879939106172 0 -0.3444992345986792 0.30646308275448292 0 -0.32499173237712159 0.29516879939106172 0 -0.3444992345986792 0.30646308275448292 0 -0.34033680093529323 0.3108945386121843 0 -0.32688830354676129 0.30683168260340521 0 -0.3444992345986792 0.30646308275448292 0 -0.34070545029241528 0.29376089352584578 0 -0.32499173237712159 0.29516879939106172 0 -0.3444992345986792 0.30646308275448292 0 -0.34033680093529323 0.3108945386121843 0 -0.34532581149395131 0.3130827004918989 0 -0.31611652273877461 0.29791372018525958 0 -0.3128306593774417 0.30780996527884852 0 -0.30861864703865222 0.29078205514389821 0 -0.32688830354676129 0.30683168260340521 0 -0.3128306593774417 0.30780996527884852 0 -0.32304672373342191 0.32232603545831301 0 -0.32688830354676129 0.30683168260340521 0 -0.31611652273877461 0.29791372018525958 0 -0.32499173237712159 0.29516879939106172 0 -0.32688830354676129 0.30683168260340521 0 -0.31611652273877461 0.29791372018525958 0 -0.3128306593774417 0.30780996527884852 0 -0.33529009231047052 0.28213215458023211 0 -0.32272624059089872 0.28224728311081981 0 -0.32499173237712159 0.29516879939106172 0 -0.32272624059089872 0.28224728311081981 0 -0.32499173237712159 0.29516879939106172 0 -0.31846697777256622 0.28960038322154302 0 -0.31611652273877461 0.29791372018525958 0 -0.32499173237712159 0.29516879939106172 0 -0.31846697777256622 0.28960038322154302 0 -0.31611652273877461 0.29791372018525958 0 -0.31846697777256622 0.28960038322154302 0 -0.31244299861246178 0.28896833078018391 0 -0.31846697777256622 0.28960038322154302 0 -0.31605739454357429 0.28370378264039031 0 -0.31244299861246178 0.28896833078018391 0 -0.32272624059089872 0.28224728311081981 0 -0.31846697777256622 0.28960038322154302 0 -0.31605739454357429 0.28370378264039031 0 -0.31605739454357429 0.28370378264039031 0 -0.31244299861246178 0.28896833078018391 0 -0.31102576664501591 0.2812828250670425 0 -0.32272624059089872 0.28224728311081981 0 -0.31605739454357429 0.28370378264039031 0 -0.31325657699857379 0.27418829140685252 0 -0.31605739454357429 0.28370378264039031 0 -0.31325657699857379 0.27418829140685252 0 -0.31102576664501591 0.2812828250670425 0 -0.31325657699857379 0.27418829140685252 0 -0.32587706162660812 0.26805700104009672 0 -0.31519362659259781 0.25982261629526332 0 -0.32272624059089872 0.28224728311081981 0 -0.31325657699857379 0.27418829140685252 0 -0.32587706162660812 0.26805700104009672 0 -0.33529009231047052 0.28213215458023211 0 -0.32272624059089872 0.28224728311081981 0 -0.32587706162660812 0.26805700104009672 0 -0.35023694563665198 0.28830129027748203 0 -0.33529009231047052 0.28213215458023211 0 -0.34115527656511913 0.26912753122311178 0 -0.33529009231047052 0.28213215458023211 0 -0.32587706162660812 0.26805700104009672 0 -0.34115527656511913 0.26912753122311178 0 -0.33213242169912183 0.24992613500971911 0 -0.34115527656511913 0.26912753122311178 0 -0.33213242169912183 0.24992613500971911 0 -0.32587706162660812 0.26805700104009672 0 -0.34115527656511913 0.26912753122311178 0 -0.34824261657673289 0.24684003078997019 0 -0.33213242169912183 0.24992613500971911 0 -0.34115527656511913 0.26912753122311178 0 -0.33213242169912183 0.24992613500971911 0 -0.30846245916933263 0.2451797241646857 0 -0.31519362659259781 0.25982261629526332 0 -0.33213242169912183 0.24992613500971911 0 -0.32587706162660812 0.26805700104009672 0 -0.31519362659259781 0.25982261629526332 0 -0.28924369278351397 0.24685883917450829 0 -0.30846245916933263 0.2451797241646857 0 -0.29915910949743851 0.26353543308035182 0 -0.30846245916933263 0.2451797241646857 0 -0.31519362659259781 0.25982261629526332 0 -0.29915910949743851 0.26353543308035182 0 -0.31325657699857379 0.27418829140685252 0 -0.29915910949743851 0.26353543308035182 0 -0.30322896420061962 0.28074858152769949 0 -0.29915910949743851 0.26353543308035182 0 -0.30322896420061962 0.28074858152769949 0 -0.29190860569478971 0.27678046567888659 0 -0.31325657699857379 0.27418829140685252 0 -0.31519362659259781 0.25982261629526332 0 -0.29915910949743851 0.26353543308035182 0 -0.31325657699857379 0.27418829140685252 0 -0.30322896420061962 0.28074858152769949 0 -0.31102576664501591 0.2812828250670425 0 -0.29915910949743851 0.26353543308035182 0 -0.29190860569478971 0.27678046567888659 0 -0.27894375475268302 0.27357869090854747 0 -0.29190860569478971 0.27678046567888659 0 -0.2770608724549985 0.27532776734952041 0 -0.30115032756820909 0.29071185552831408 0 -0.29190860569478971 0.27678046567888659 0 -0.27894375475268302 0.27357869090854747 0 -0.2770608724549985 0.27532776734952041 0 -0.28924369278351397 0.24685883917450829 0 -0.29915910949743851 0.26353543308035182 0 -0.27057909361132693 0.25823596006253607 0 -0.29915910949743851 0.26353543308035182 0 -0.27057909361132693 0.25823596006253607 0 -0.29915910949743851 0.26353543308035182 0 -0.27057909361132693 0.25823596006253607 0 -0.27894375475268302 0.27357869090854747 0 -0.2770608724549985 0.27532776734952041 0 -0.25952997509010678 0.26413212719712081 0 -0.27057909361132693 0.25823596006253607 0 -0.27894375475268302 0.27357869090854747 0 -0.2770608724549985 0.27532776734952041 0 -0.27057909361132693 0.25823596006253607 0 -0.2770608724549985 0.27532776734952041 0 -0.25952997509010678 0.26413212719712081 0 -0.27894375475268302 0.27357869090854747 0 -0.2770608724549985 0.27532776734952041 0 -0.2770608724549985 0.27532776734952041 0 -0.25952997509010678 0.26413212719712081 0 -0.25612174437497598 0.29477886934581687 0 -0.25952997509010678 0.26413212719712081 0 -0.25612174437497598 0.29477886934581687 0 -0.24013215390960629 0.27688613297126707 0 -0.27057909361132693 0.25823596006253607 0 -0.2419990777252152 0.25293648704472099 0 -0.25825314838481339 0.2425458797231245 0 -0.27057909361132693 0.25823596006253607 0 -0.2419990777252152 0.25293648704472099 0 -0.25952997509010678 0.26413212719712081 0 -0.2419990777252152 0.25293648704472099 0 -0.27057909361132693 0.25823596006253607 0 -0.25952997509010678 0.26413212719712081 0 -0.2419990777252152 0.25293648704472099 0 -0.26361768802922342 0.31212406153912858 0 -0.25612174437497598 0.29477886934581687 0 -0.23436961135623169 0.31498520059168772 0 -0.26361768802922342 0.31212406153912858 0 -0.25612174437497598 0.29477886934581687 0 -0.27258965791741868 0.29151054676198002 0 -0.2770608724549985 0.27532776734952041 0 -0.27258965791741868 0.29151054676198002 0 -0.28611816753393748 0.30145305834151293 0 -0.2770608724549985 0.27532776734952041 0 -0.25612174437497598 0.29477886934581687 0 -0.27258965791741868 0.29151054676198002 0 -0.2770608724549985 0.27532776734952041 0 -0.25612174437497598 0.29477886934581687 0 -0.26361768802922342 0.31212406153912858 0 -0.27258965791741868 0.29151054676198002 0 -0.28611816753393748 0.30145305834151293 0 -0.26361768802922342 0.31212406153912858 0 -0.28611816753393748 0.30145305834151293 0 -0.26361768802922342 0.31212406153912858 0 -0.28611816753393748 0.30145305834151293 0 -0.28190370938614318 0.31852221847294188 0 -0.2770608724549985 0.27532776734952041 0 -0.28611816753393748 0.30145305834151293 0 -0.30115032756820909 0.29071185552831408 0 -0.2770608724549985 0.27532776734952041 0 -0.30115032756820909 0.29071185552831408 0 -0.28611816753393748 0.30145305834151293 0 -0.30115032756820909 0.29071185552831408 0 -0.30861864703865222 0.29078205514389821 0 -0.28611816753393748 0.30145305834151293 0 -0.30861864703865222 0.29078205514389821 0 -0.30322896420061962 0.28074858152769949 0 -0.30115032756820909 0.29071185552831408 0 -0.30615257798896878 0.28717199236562518 0 -0.30322896420061962 0.28074858152769949 0 -0.29190860569478971 0.27678046567888659 0 -0.30115032756820909 0.29071185552831408 0 -0.31611652273877461 0.29791372018525958 0 -0.30861864703865222 0.29078205514389821 0 -0.31244299861246178 0.28896833078018391 0 -0.30861864703865222 0.29078205514389821 0 -0.30931283375884261 0.28890787624351011 0 -0.31244299861246178 0.28896833078018391 0 -0.30861864703865222 0.29078205514389821 0 -0.31244299861246178 0.28896833078018391 0 -0.30861864703865222 0.29078205514389821 0 -0.30931283375884261 0.28890787624351011 0 -0.30115032756820909 0.29071185552831408 0 -0.30861864703865222 0.29078205514389821 0 -0.30615257798896878 0.28717199236562518 0 -0.30615257798896878 0.28717199236562518 0 -0.30931283375884261 0.28890787624351011 0 -0.30845211737852068 0.28470959338470531 0 -0.30861864703865222 0.29078205514389821 0 -0.30615257798896878 0.28717199236562518 0 -0.30931283375884261 0.28890787624351011 0 -0.30931283375884261 0.28890787624351011 0 -0.31244299861246178 0.28896833078018391 0 -0.30845211737852068 0.28470959338470531 0 -0.31244299861246178 0.28896833078018391 0 -0.31102576664501591 0.2812828250670425 0 -0.30845211737852068 0.28470959338470531 0 -0.30322896420061962 0.28074858152769949 0 -0.31102576664501591 0.2812828250670425 0 -0.30845211737852068 0.28470959338470531 0 -0.30322896420061962 0.28074858152769949 0 -0.30615257798896878 0.28717199236562518 0 -0.30845211737852068 0.28470959338470531 0 -0.28611816753393748 0.30145305834151293 0 -0.30861864703865222 0.29078205514389821 0 -0.29854260818416711 0.31798554214723529 0 -0.30861864703865222 0.29078205514389821 0 -0.29854260818416711 0.31798554214723529 0 -0.3128306593774417 0.30780996527884852 0 -0.30861864703865222 0.29078205514389821 0 -0.29854260818416711 0.31798554214723529 0 -0.3128306593774417 0.30780996527884852 0 -0.29854260818416711 0.31798554214723529 0 -0.32304672373342191 0.32232603545831301 0 -0.29854260818416711 0.31798554214723529 0 -0.30575664653155071 0.33375753230444172 0 -0.32304672373342191 0.32232603545831301 0 -0.30575664653155071 0.33375753230444172 0 -0.28846656932968029 0.34518902915057159 0 -0.3041054378257747 0.35153638994353797 0 -0.30575664653155071 0.33375753230444172 0 -0.28846656932968029 0.34518902915057159 0 -0.29854260818416711 0.31798554214723529 0 -0.30575664653155071 0.33375753230444172 0 -0.28846656932968029 0.34518902915057159 0 -0.29854260818416711 0.31798554214723529 0 -0.28846656932968029 0.34518902915057159 0 -0.28611816753393748 0.30145305834151293 0 -0.29854260818416711 0.31798554214723529 0 -0.28190370938614318 0.31852221847294188 0 -0.29854260818416711 0.31798554214723529 0 -0.28190370938614318 0.31852221847294188 0 -0.28846656932968029 0.34518902915057159 0 -0.26361768802922342 0.31212406153912858 0 -0.28190370938614318 0.31852221847294188 0 -0.27206742811597701 0.33013049889133689 0 -0.28190370938614318 0.31852221847294188 0 -0.27206742811597701 0.33013049889133689 0 -0.28846656932968029 0.34518902915057159 0 -0.27206742811597701 0.33013049889133689 0 -0.2681619949663539 0.34773943884959019 0 -0.28846656932968029 0.34518902915057159 0 -0.27206742811597701 0.33013049889133689 0 -0.2631791069261773 0.33765391847382609 0 -0.2681619949663539 0.34773943884959019 0 -0.2631791069261773 0.33765391847382609 0 -0.25230409672890253 0.33574309273892178 0 -0.25909234631111477 0.32649215728561137 0 -0.27206742811597701 0.33013049889133689 0 -0.2631791069261773 0.33765391847382609 0 -0.25909234631111477 0.32649215728561137 0 -0.25230409672890253 0.33574309273892178 0 -0.25909234631111477 0.32649215728561137 0 -0.24111720852450971 0.32279506473674557 0 -0.2631791069261773 0.33765391847382609 0 -0.25230409672890253 0.33574309273892178 0 -0.2634909849332957 0.34869112074109782 0 -0.25230409672890253 0.33574309273892178 0 -0.2634909849332957 0.34869112074109782 0 -0.26361768802922342 0.31212406153912858 0 -0.27206742811597701 0.33013049889133689 0 -0.25909234631111477 0.32649215728561137 0 -0.26361768802922342 0.31212406153912858 0 -0.25909234631111477 0.32649215728561137 0 -0.24111720852450971 0.32279506473674557 0 -0.26361768802922342 0.31212406153912858 0 -0.24111720852450971 0.32279506473674557 0 -0.2620274014018274 0.36010090915767551 0 -0.26028792276529711 0.383831650878519 0 -0.2620274014018274 0.36010090915767551 0 -0.26827366003954672 0.37161780368733821 0 -0.26028792276529711 0.383831650878519 0 -0.2620274014018274 0.36010090915767551 0 -0.25290804108530268 0.3738556417100492 0 -0.26028792276529711 0.383831650878519 0 -0.2620274014018274 0.36010090915767551 0 -0.26410600543883272 0.36129524464265589 0 -0.26827366003954672 0.37161780368733821 0 -0.2620274014018274 0.36010090915767551 0 -0.26410600543883272 0.36129524464265589 0 -0.26327584899804768 0.35821787545842598 0 -0.2620274014018274 0.36010090915767551 0 -0.25290804108530268 0.3738556417100492 0 -0.2620274014018274 0.36010090915767551 0 -0.25290804108530268 0.3738556417100492 0 -0.25013698891243169 0.36042207492819578 0 -0.2620274014018274 0.36010090915767551 0 -0.25013698891243169 0.36042207492819578 0 -0.25638881925187118 0.35499186180119519 0 -0.25013698891243169 0.36042207492819578 0 -0.25638881925187118 0.35499186180119519 0 -0.24931110960080999 0.34956578338164179 0 -0.25638881925187118 0.35499186180119519 0 -0.25718509976155501 0.34956746112504511 0 -0.24931110960080999 0.34956578338164179 0 -0.25230409672890253 0.33574309273892178 0 -0.25718509976155501 0.34956746112504511 0 -0.2634909849332957 0.34869112074109782 0 -0.25230409672890253 0.33574309273892178 0 -0.25718509976155501 0.34956746112504511 0 -0.24931110960080999 0.34956578338164179 0 -0.2631791069261773 0.33765391847382609 0 -0.2634909849332957 0.34869112074109782 0 -0.2681619949663539 0.34773943884959019 0 -0.25718509976155501 0.34956746112504511 0 -0.2634909849332957 0.34869112074109782 0 -0.26254802102246583 0.35299838458921629 0 -0.2634909849332957 0.34869112074109782 0 -0.26254802102246583 0.35299838458921629 0 -0.2681619949663539 0.34773943884959019 0 -0.26254802102246583 0.35299838458921629 0 -0.26327584899804768 0.35821787545842598 0 -0.2681619949663539 0.34773943884959019 0 -0.26410600543883272 0.36129524464265589 0 -0.26327584899804768 0.35821787545842598 0 -0.2681619949663539 0.34773943884959019 0 -0.2620274014018274 0.36010090915767551 0 -0.25638881925187118 0.35499186180119519 0 -0.26254802102246583 0.35299838458921629 0 -0.25638881925187118 0.35499186180119519 0 -0.25718509976155501 0.34956746112504511 0 -0.26254802102246583 0.35299838458921629 0 -0.2620274014018274 0.36010090915767551 0 -0.26254802102246583 0.35299838458921629 0 -0.2620274014018274 0.36010090915767551 0 -0.26254802102246583 0.35299838458921629 0 -0.26327584899804768 0.35821787545842598 0 -0.2620274014018274 0.36010090915767551 0 -0.26327584899804768 0.35821787545842598 0 -0.26410600543883272 0.36129524464265589 0 -0.2681619949663539 0.34773943884959019 0 -0.28846656932968029 0.34518902915057159 0 -0.27521347850747579 0.36153214594551819 0 -0.28000767922184272 0.36802650630150652 0 -0.28846656932968029 0.34518902915057159 0 -0.26410600543883272 0.36129524464265589 0 -0.27521347850747579 0.36153214594551819 0 -0.28846656932968029 0.34518902915057159 0 -0.26410600543883272 0.36129524464265589 0 -0.28846656932968029 0.34518902915057159 0 -0.27521347850747579 0.36153214594551819 0 -0.26827366003954672 0.37161780368733821 0 -0.28000767922184272 0.36802650630150652 0 -0.26410600543883272 0.36129524464265589 0 -0.27521347850747579 0.36153214594551819 0 -0.26827366003954672 0.37161780368733821 0 -0.28000767922184272 0.36802650630150652 0 -0.28846656932968029 0.34518902915057159 0 -0.2969182424431504 0.37090505478451319 0 -0.28000767922184272 0.36802650630150652 0 -0.28846656932968029 0.34518902915057159 0 -0.28846656932968029 0.34518902915057159 0 -0.3041054378257747 0.35153638994353797 0 -0.2969182424431504 0.37090505478451319 0 -0.30575664653155071 0.33375753230444172 0 -0.3041054378257747 0.35153638994353797 0 -0.31642343812736118 0.34606288319997758 0 -0.3041054378257747 0.35153638994353797 0 -0.31296229269712961 0.36176745027818508 0 -0.31642343812736118 0.34606288319997758 0 -0.2969182424431504 0.37090505478451319 0 -0.31296229269712961 0.36176745027818508 0 -0.31513637375938253 0.38444066485979828 0 -0.3041054378257747 0.35153638994353797 0 -0.2969182424431504 0.37090505478451319 0 -0.31296229269712961 0.36176745027818508 0 -0.31296229269712961 0.36176745027818508 0 -0.32978211621601938 0.36434258303214617 0 -0.31513637375938253 0.38444066485979828 0 -0.34764373191620562 0.36091067885718892 0 -0.33589885594156482 0.38644176117037271 0 -0.32978211621601938 0.36434258303214617 0 -0.34764373191620562 0.36091067885718892 0 -0.33589885594156482 0.38644176117037271 0 -0.32978211621601938 0.36434258303214617 0 -0.33249508292647689 0.34343527267675139 0 -0.34764373191620562 0.36091067885718892 0 -0.33249508292647689 0.34343527267675139 0 -0.34774660372624711 0.33900961131040652 0 -0.34764373191620562 0.36091067885718892 0 -0.31296229269712961 0.36176745027818508 0 -0.32978211621601938 0.36434258303214617 0 -0.31642343812736118 0.34606288319997758 0 -0.32978211621601938 0.36434258303214617 0 -0.31642343812736118 0.34606288319997758 0 -0.33249508292647689 0.34343527267675139 0 -0.30575664653155071 0.33375753230444172 0 -0.31642343812736118 0.34606288319997758 0 -0.32304672373342191 0.32232603545831301 0 -0.31642343812736118 0.34606288319997758 0 -0.32304672373342191 0.32232603545831301 0 -0.33249508292647689 0.34343527267675139 0 -0.30575664653155071 0.33375753230444172 0 -0.32304672373342191 0.32232603545831301 0 -0.34033680093529323 0.3108945386121843 0 -0.32688830354676129 0.30683168260340521 0 -0.32304672373342191 0.32232603545831301 0 -0.34033680093529323 0.3108945386121843 0 -0.32304672373342191 0.32232603545831301 0 -0.33831408539238939 0.32823606731402988 0 -0.34033680093529323 0.3108945386121843 0 -0.33831408539238939 0.32823606731402988 0 -0.34541519341301891 0.31956690961425083 0 -0.34033680093529323 0.3108945386121843 0 -0.32304672373342191 0.32232603545831301 0 -0.34033680093529323 0.3108945386121843 0 -0.34532581149395131 0.3130827004918989 0 -0.34541519341301891 0.31956690961425083 0 -0.32304672373342191 0.32232603545831301 0 -0.33249508292647689 0.34343527267675139 0 -0.33831408539238939 0.32823606731402988 0 -0.33249508292647689 0.34343527267675139 0 -0.33831408539238939 0.32823606731402988 0 -0.34774660372624711 0.33900961131040652 0 -0.34774660372624711 0.33900961131040652 0 -0.35624387713182271 0.33226078983692442 0 -0.36393572936362911 0.3428684834504227 0 -0.34774660372624711 0.33900961131040652 0 -0.35624387713182271 0.33226078983692442 0 -0.34848262125113572 0.32769457727765772 0 -0.33831408539238939 0.32823606731402988 0 -0.34774660372624711 0.33900961131040652 0 -0.34848262125113572 0.32769457727765772 0 -0.35624387713182271 0.33226078983692442 0 -0.34848262125113572 0.32769457727765772 0 -0.35633036072664598 0.32494060448670198 0 -0.3444992345986792 0.30646308275448292 0 -0.35683516605591969 0.31729293706393341 0 -0.36400673682023688 0.31775736611790389 0 -0.3444992345986792 0.30646308275448292 0 -0.351052017028814 0.31540627098667767 0 -0.35683516605591969 0.31729293706393341 0 -0.351052017028814 0.31540627098667767 0 -0.34532581149395131 0.3130827004918989 0 -0.34541519341301891 0.31956690961425083 0 -0.351052017028814 0.31540627098667767 0 -0.34541519341301891 0.31956690961425083 0 -0.35162307169510681 0.32098025988584439 0 -0.33831408539238939 0.32823606731402988 0 -0.34541519341301891 0.31956690961425083 0 -0.34848262125113572 0.32769457727765772 0 -0.34541519341301891 0.31956690961425083 0 -0.34848262125113572 0.32769457727765772 0 -0.35162307169510681 0.32098025988584439 0 -0.34848262125113572 0.32769457727765772 0 -0.35633036072664598 0.32494060448670198 0 -0.35162307169510681 0.32098025988584439 0 -0.35633036072664598 0.32494060448670198 0 -0.35683516605591969 0.31729293706393341 0 -0.36095184795767687 0.32097028871907701 0 -0.35633036072664598 0.32494060448670198 0 -0.35162307169510681 0.32098025988584439 0 -0.35683516605591969 0.31729293706393341 0 -0.351052017028814 0.31540627098667767 0 -0.35162307169510681 0.32098025988584439 0 -0.35683516605591969 0.31729293706393341 0 -0.35683516605591969 0.31729293706393341 0 -0.36400673682023688 0.31775736611790389 0 -0.36095184795767687 0.32097028871907701 0 -0.36400673682023688 0.31775736611790389 0 -0.36537503389666781 0.32066921770948609 0 -0.36095184795767687 0.32097028871907701 0 -0.36400673682023688 0.31775736611790389 0 -0.36537503389666781 0.32066921770948609 0 -0.35633036072664598 0.32494060448670198 0 -0.36095184795767687 0.32097028871907701 0 -0.365995081839809 0.32948707576050512 0 -0.36537503389666781 0.32066921770948609 0 -0.36095184795767687 0.32097028871907701 0 -0.365995081839809 0.32948707576050512 0 -0.3788145725477623 0.32633067759603118 0 -0.36400673682023688 0.31775736611790389 0 -0.3788145725477623 0.32633067759603118 0 -0.36400673682023688 0.31775736611790389 0 -0.36537503389666781 0.32066921770948609 0 -0.3788145725477623 0.32633067759603118 0 -0.36537503389666781 0.32066921770948609 0 -0.365995081839809 0.32948707576050512 0 -0.37578149950171208 0.31311525499370502 0 -0.3788145725477623 0.32633067759603118 0 -0.36400673682023688 0.31775736611790389 0 -0.35624387713182271 0.33226078983692442 0 -0.35633036072664598 0.32494060448670198 0 -0.365995081839809 0.32948707576050512 0 -0.35624387713182271 0.33226078983692442 0 -0.36393572936362911 0.3428684834504227 0 -0.365995081839809 0.32948707576050512 0 -0.37913388308317869 0.33980033822586803 0 -0.3788145725477623 0.32633067759603118 0 -0.365995081839809 0.32948707576050512 0 -0.37913388308317869 0.33980033822586803 0 -0.36393572936362911 0.3428684834504227 0 -0.365995081839809 0.32948707576050512 0 -0.37672549974694008 0.35622492463845878 0 -0.37913388308317869 0.33980033822586803 0 -0.36393572936362911 0.3428684834504227 0 -0.37672549974694008 0.35622492463845878 0 -0.36393572936362911 0.3428684834504227 0 -0.36481504158517469 0.36290719650509867 0 -0.37519100471246991 0.3709854683288385 0 -0.37672549974694008 0.35622492463845878 0 -0.36481504158517469 0.36290719650509867 0 -0.37519100471246991 0.3709854683288385 0 -0.36481504158517469 0.36290719650509867 0 -0.36057924218662879 0.38354642725058452 0 -0.36481504158517469 0.36290719650509867 0 -0.34764373191620562 0.36091067885718892 0 -0.36057924218662879 0.38354642725058452 0 -0.34774660372624711 0.33900961131040652 0 -0.36393572936362911 0.3428684834504227 0 -0.34764373191620562 0.36091067885718892 0 -0.36393572936362911 0.3428684834504227 0 -0.36481504158517469 0.36290719650509867 0 -0.34764373191620562 0.36091067885718892 0 -0.35710293298350892 0.40294030475805531 0 -0.36057924218662879 0.38354642725058452 0 -0.34310604851199838 0.40050804040373339 0 -0.35710293298350892 0.40294030475805531 0 -0.3476787854432668 0.41265477830065223 0 -0.34310604851199838 0.40050804040373339 0 -0.34764373191620562 0.36091067885718892 0 -0.36057924218662879 0.38354642725058452 0 -0.33589885594156482 0.38644176117037271 0 -0.36057924218662879 0.38354642725058452 0 -0.34310604851199838 0.40050804040373339 0 -0.33589885594156482 0.38644176117037271 0 -0.3867137524410672 0.38688217771584499 0 -0.37519100471246991 0.3709854683288385 0 -0.36057924218662879 0.38354642725058452 0 -0.3867137524410672 0.38688217771584499 0 -0.36057924218662879 0.38354642725058452 0 -0.3705653143576963 0.40154393775543129 0 -0.35710293298350892 0.40294030475805531 0 -0.36057924218662879 0.38354642725058452 0 -0.3705653143576963 0.40154393775543129 0 -0.35710293298350892 0.40294030475805531 0 -0.3705653143576963 0.40154393775543129 0 -0.35441687627432628 0.4162056977950187 0 -0.3705653143576963 0.40154393775543129 0 -0.36984470262962321 0.41265242782660189 0 -0.35441687627432628 0.4162056977950187 0 -0.3798144567514633 0.40772155113995728 0 -0.3705653143576963 0.40154393775543129 0 -0.36984470262962321 0.41265242782660189 0 -0.3705653143576963 0.40154393775543129 0 -0.35441687627432628 0.4162056977950187 0 -0.3827523434658453 0.41826117133637652 0 -0.36984470262962321 0.41265242782660189 0 -0.36785192000822192 0.42328585742754588 0 -0.36984470262962321 0.41265242782660189 0 -0.36785192000822192 0.42328585742754588 0 -0.36785192000822192 0.42328585742754588 0 -0.35441687627432628 0.4162056977950187 0 -0.36984470262962321 0.41265242782660189 0 -0.36785192000822192 0.42328585742754588 0 -0.35441687627432628 0.4162056977950187 0 -0.36785192000822192 0.42328585742754588 0 -0.35840405020933419 0.42492678281148311 0 -0.35441687627432628 0.4162056977950187 0 -0.36785192000822192 0.42328585742754588 0 -0.35840405020933419 0.42492678281148311 0 -0.36483391986759101 0.43938981763191159 0 -0.36785192000822192 0.42328585742754588 0 -0.36483391986759101 0.43938981763191159 0 -0.37717856875035488 0.43646572130173161 0 -0.36785192000822192 0.42328585742754588 0 -0.36483391986759101 0.43938981763191159 0 -0.35081753161354018 0.43079190134805728 0 -0.36483391986759101 0.43938981763191159 0 -0.35840405020933419 0.42492678281148311 0 -0.35081753161354018 0.43079190134805728 0 -0.36483391986759101 0.43938981763191159 0 -0.35840405020933419 0.42492678281148311 0 -0.35081753161354018 0.43079190134805728 0 -0.35441687627432628 0.4162056977950187 0 -0.35441687627432628 0.4162056977950187 0 -0.33964677515101499 0.42961601508467567 0 -0.35081753161354018 0.43079190134805728 0 -0.35441687627432628 0.4162056977950187 0 -0.33964677515101499 0.42961601508467567 0 -0.35081753161354018 0.43079190134805728 0 -0.33964677515101499 0.42961601508467567 0 -0.34460848101734648 0.43787887615672372 0 -0.35081753161354018 0.43079190134805728 0 -0.34460848101734648 0.43787887615672372 0 -0.35329417083808762 0.44272955033713368 0 -0.35441687627432628 0.4162056977950187 0 -0.3476787854432668 0.41265477830065223 0 -0.33964677515101499 0.42961601508467567 0 -0.35710293298350892 0.40294030475805531 0 -0.35441687627432628 0.4162056977950187 0 -0.3476787854432668 0.41265477830065223 0 -0.35441687627432628 0.4162056977950187 0 -0.3476787854432668 0.41265477830065223 0 -0.3476787854432668 0.41265477830065223 0 -0.33199806346126393 0.42227960460212538 0 -0.33964677515101499 0.42961601508467567 0 -0.33199806346126393 0.42227960460212538 0 -0.32415397996692402 0.41197284348355628 0 -0.34310604851199838 0.40050804040373339 0 -0.3476787854432668 0.41265477830065223 0 -0.33199806346126393 0.42227960460212538 0 -0.34310604851199838 0.40050804040373339 0 -0.33199806346126393 0.42227960460212538 0 -0.33964677515101499 0.42961601508467567 0 -0.32487667402770459 0.44302633237433381 0 -0.33964677515101499 0.42961601508467567 0 -0.3367027099777144 0.44313791075801068 0 -0.34460848101734648 0.43787887615672372 0 -0.33964677515101499 0.42961601508467567 0 -0.32487667402770459 0.44302633237433381 0 -0.33199806346126393 0.42227960460212538 0 -0.31240910399228322 0.43750392579674002 0 -0.32487667402770459 0.44302633237433381 0 -0.32415397996692402 0.41197284348355628 0 -0.31240910399228322 0.43750392579674002 0 -0.32415397996692402 0.41197284348355628 0 -0.30739597146189029 0.42213535649593859 0 -0.31240910399228322 0.43750392579674002 0 -0.33199806346126393 0.42227960460212538 0 -0.32415397996692402 0.41197284348355628 0 -0.31240910399228322 0.43750392579674002 0 -0.32415397996692402 0.41197284348355628 0 -0.30725672201245108 0.40587634723818822 0 -0.30739597146189029 0.42213535649593859 0 -0.32415397996692402 0.41197284348355628 0 -0.33589885594156482 0.38644176117037271 0 -0.31513637375938253 0.38444066485979828 0 -0.32415397996692402 0.41197284348355628 0 -0.31513637375938253 0.38444066485979828 0 -0.30725672201245108 0.40587634723818822 0 -0.32415397996692402 0.41197284348355628 0 -0.33589885594156482 0.38644176117037271 0 -0.32415397996692402 0.41197284348355628 0 -0.34310604851199838 0.40050804040373339 0 -0.33589885594156482 0.38644176117037271 0 -0.32978211621601938 0.36434258303214617 0 -0.33589885594156482 0.38644176117037271 0 -0.31513637375938253 0.38444066485979828 0 -0.2969182424431504 0.37090505478451319 0 -0.31513637375938253 0.38444066485979828 0 -0.29898240703843809 0.38977861403162661 0 -0.31513637375938253 0.38444066485979828 0 -0.29898240703843809 0.38977861403162661 0 -0.30725672201245108 0.40587634723818822 0 -0.29898240703843809 0.38977861403162661 0 -0.30725672201245108 0.40587634723818822 0 -0.28836376322748097 0.40524005999358059 0 -0.29898240703843809 0.38977861403162661 0 -0.28836376322748097 0.40524005999358059 0 -0.27154878911400387 0.39086398345244089 0 -0.2969182424431504 0.37090505478451319 0 -0.29898240703843809 0.38977861403162661 0 -0.27154878911400387 0.39086398345244089 0 -0.28000767922184272 0.36802650630150652 0 -0.2969182424431504 0.37090505478451319 0 -0.27154878911400387 0.39086398345244089 0 -0.26827366003954672 0.37161780368733821 0 -0.27154878911400387 0.39086398345244089 0 -0.26028792276529711 0.383831650878519 0 -0.28000767922184272 0.36802650630150652 0 -0.27154878911400387 0.39086398345244089 0 -0.26827366003954672 0.37161780368733821 0 -0.28000767922184272 0.36802650630150652 0 -0.27154878911400387 0.39086398345244089 0 -0.27154878911400387 0.39086398345244089 0 -0.26260716915057719 0.41500474412007088 0 -0.27406892944141142 0.4079891850190322 0 -0.27154878911400387 0.39086398345244089 0 -0.26260716915057719 0.41500474412007088 0 -0.28836376322748097 0.40524005999358059 0 -0.27154878911400387 0.39086398345244089 0 -0.27406892944141142 0.4079891850190322 0 -0.27154878911400387 0.39086398345244089 0 -0.25854844412876848 0.40756239259936272 0 -0.26260716915057719 0.41500474412007088 0 -0.25854844412876848 0.40756239259936272 0 -0.24378868076877391 0.38761037426242018 0 -0.26028792276529711 0.383831650878519 0 -0.25854844412876848 0.40756239259936272 0 -0.24378868076877391 0.38761037426242018 0 -0.27154878911400387 0.39086398345244089 0 -0.26028792276529711 0.383831650878519 0 -0.25854844412876848 0.40756239259936272 0 -0.26028792276529711 0.383831650878519 0 -0.25854844412876848 0.40756239259936272 0 -0.25290804108530268 0.3738556417100492 0 -0.26028792276529711 0.383831650878519 0 -0.24378868076877391 0.38761037426242018 0 -0.25650706503281162 0.43541179474966613 0 -0.25804637789612622 0.41441180359152341 0 -0.25650706503281162 0.43541179474966613 0 -0.25059996062830647 0.42641743371929303 0 -0.25804637789612622 0.41441180359152341 0 -0.25876689418163368 0.42537279367958231 0 -0.25650706503281162 0.43541179474966613 0 -0.25804637789612622 0.41441180359152341 0 -0.25876689418163368 0.42537279367958231 0 -0.26544090832943301 0.43060703621748248 0 -0.2642079780894766 0.41521286250246908 0 -0.26544090832943301 0.43060703621748248 0 -0.25650706503281162 0.43541179474966613 0 -0.27012863850171509 0.44372989779681399 0 -0.25876689418163368 0.42537279367958231 0 -0.26544090832943301 0.43060703621748248 0 -0.25650706503281162 0.43541179474966613 0 -0.25059996062830647 0.42641743371929303 0 -0.25804637789612622 0.41441180359152341 0 -0.24299842589361209 0.42296427722315849 0 -0.25854844412876848 0.40756239259936272 0 -0.25804637789612622 0.41441180359152341 0 -0.25854844412876848 0.40756239259936272 0 -0.26260716915057719 0.41500474412007088 0 -0.25854844412876848 0.40756239259936272 0 -0.25804637789612622 0.41441180359152341 0 -0.26260716915057719 0.41500474412007088 0 -0.25876689418163368 0.42537279367958231 0 -0.26260716915057719 0.41500474412007088 0 -0.2642079780894766 0.41521286250246908 0 -0.25876689418163368 0.42537279367958231 0 -0.25804637789612622 0.41441180359152341 0 -0.26260716915057719 0.41500474412007088 0 -0.25876689418163368 0.42537279367958231 0 -0.26260716915057719 0.41500474412007088 0 -0.25804637789612622 0.41441180359152341 0 -0.26260716915057719 0.41500474412007088 0 -0.26260716915057719 0.41500474412007088 0 -0.2642079780894766 0.41521286250246908 0 -0.2642079780894766 0.41521286250246908 0 -0.2806297690639486 0.41734783094914069 0 -0.2642079780894766 0.41521286250246908 0 -0.27406892944141142 0.4079891850190322 0 -0.2806297690639486 0.41734783094914069 0 -0.26260716915057719 0.41500474412007088 0 -0.2642079780894766 0.41521286250246908 0 -0.27406892944141142 0.4079891850190322 0 -0.28836376322748097 0.40524005999358059 0 -0.27406892944141142 0.4079891850190322 0 -0.2806297690639486 0.41734783094914069 0 -0.2642079780894766 0.41521286250246908 0 -0.27759396584152762 0.43330783235888048 0 -0.2642079780894766 0.41521286250246908 0 -0.2806297690639486 0.41734783094914069 0 -0.27759396584152762 0.43330783235888048 0 -0.26544090832943301 0.43060703621748248 0 -0.2642079780894766 0.41521286250246908 0 -0.27759396584152762 0.43330783235888048 0 -0.26544090832943301 0.43060703621748248 0 -0.27759396584152762 0.43330783235888048 0 -0.27012863850171509 0.44372989779681399 0 -0.27759396584152762 0.43330783235888048 0 -0.2878459465608173 0.42649483231730739 0 -0.29610849129937239 0.435840866565397 0 -0.2806297690639486 0.41734783094914069 0 -0.27759396584152762 0.43330783235888048 0 -0.2878459465608173 0.42649483231730739 0 -0.2878459465608173 0.42649483231730739 0 -0.29610849129937239 0.435840866565397 0 -0.29705156003842059 0.41948279939581151 0 -0.2806297690639486 0.41734783094914069 0 -0.2878459465608173 0.42649483231730739 0 -0.29705156003842059 0.41948279939581151 0 -0.2806297690639486 0.41734783094914069 0 -0.29705156003842059 0.41948279939581151 0 -0.28836376322748097 0.40524005999358059 0 -0.2806297690639486 0.41734783094914069 0 -0.29705156003842059 0.41948279939581151 0 -0.30725672201245108 0.40587634723818822 0 -0.28836376322748097 0.40524005999358059 0 -0.29705156003842059 0.41948279939581151 0 -0.30725672201245108 0.40587634723818822 0 -0.29705156003842059 0.41948279939581151 0 -0.30739597146189029 0.42213535649593859 0 -0.29610849129937239 0.435840866565397 0 -0.29705156003842059 0.41948279939581151 0 -0.30739597146189029 0.42213535649593859 0 -0.29610849129937239 0.435840866565397 0 -0.30739597146189029 0.42213535649593859 0 -0.31240910399228322 0.43750392579674002 0 -0.30295941231266271 0.44481052759696688 0 -0.31234010036541721 0.45449451581043843 0 -0.2909799535935777 0.4514028022152925 0 -0.29610849129937239 0.435840866565397 0 -0.31240910399228322 0.43750392579674002 0 -0.30295941231266271 0.44481052759696688 0 -0.31240910399228322 0.43750392579674002 0 -0.30295941231266271 0.44481052759696688 0 -0.31234010036541721 0.45449451581043843 0 -0.31234010036541721 0.45449451581043843 0 -0.2909799535935777 0.4514028022152925 0 -0.30436594134562778 0.46949777207170462 0 -0.2909799535935777 0.4514028022152925 0 -0.30436594134562778 0.46949777207170462 0 -0.31234010036541721 0.45449451581043843 0 -0.30436594134562778 0.46949777207170462 0 -0.31784154853414542 0.46675816179249952 0 -0.28863295306311088 0.46578716309770191 0 -0.2909799535935777 0.4514028022152925 0 -0.30436594134562778 0.46949777207170462 0 -0.28863295306311088 0.46578716309770191 0 -0.2909799535935777 0.4514028022152925 0 -0.27612665239948481 0.45564060305112192 0 -0.27759396584152762 0.43330783235888048 0 -0.2909799535935777 0.4514028022152925 0 -0.27759396584152762 0.43330783235888048 0 -0.2909799535935777 0.4514028022152925 0 -0.27909594563663248 0.44663691103322339 0 -0.27759396584152762 0.43330783235888048 0 -0.29610849129937239 0.435840866565397 0 -0.2909799535935777 0.4514028022152925 0 -0.29610849129937239 0.435840866565397 0 -0.30295941231266271 0.44481052759696688 0 -0.2909799535935777 0.4514028022152925 0 -0.2909799535935777 0.4514028022152925 0 -0.27909594563663248 0.44663691103322339 0 -0.27612665239948481 0.45564060305112192 0 -0.27759396584152762 0.43330783235888048 0 -0.27012863850171509 0.44372989779681399 0 -0.27909594563663248 0.44663691103322339 0 -0.27012863850171509 0.44372989779681399 0 -0.27612665239948481 0.45564060305112192 0 -0.26413281477365202 0.45078555543729681 0 -0.27012863850171509 0.44372989779681399 0 -0.27909594563663248 0.44663691103322339 0 -0.27612665239948481 0.45564060305112192 0 -0.28863295306311088 0.46578716309770191 0 -0.27612665239948481 0.45564060305112192 0 -0.26293396576474998 0.46273369568107342 0 -0.28863295306311088 0.46578716309770191 0 -0.26293396576474998 0.46273369568107342 0 -0.27334555514248549 0.47380874842581489 0 -0.28863295306311088 0.46578716309770191 0 -0.26293396576474998 0.46273369568107342 0 -0.27612665239948481 0.45564060305112192 0 -0.26293396576474998 0.46273369568107342 0 -0.26413281477365202 0.45078555543729681 0 -0.26293396576474998 0.46273369568107342 0 -0.25496775216949857 0.45641178590780879 0 -0.23723497846638911 0.45968022826444532 0 -0.26293396576474998 0.46273369568107342 0 -0.23723497846638911 0.45968022826444532 0 -0.26293396576474998 0.46273369568107342 0 -0.25496775216949857 0.45641178590780879 0 -0.26413281477365202 0.45078555543729681 0 -0.26293396576474998 0.46273369568107342 0 -0.25658680314654969 0.47327500690366958 0 -0.23723497846638911 0.45968022826444532 0 -0.25650706503281162 0.43541179474966613 0 -0.25496775216949857 0.45641178590780879 0 -0.25650706503281162 0.43541179474966613 0 -0.25496775216949857 0.45641178590780879 0 -0.2445193356415174 0.4455358069413623 0 -0.25650706503281162 0.43541179474966613 0 -0.25496775216949857 0.45641178590780879 0 -0.26413281477365202 0.45078555543729681 0 -0.25650706503281162 0.43541179474966613 0 -0.27012863850171509 0.44372989779681399 0 -0.26413281477365202 0.45078555543729681 0 -0.27453203683748661 0.5 0 -0.26608230303987801 0.4856092473520624 0 -0.24821767325543501 0.5 0 -0.25030165867090959 0.4837517237055165 0 -0.26608230303987801 0.4856092473520624 0 -0.24821767325543501 0.5 0 -0.26293396576474998 0.46273369568107342 0 -0.25658680314654969 0.47327500690366958 0 -0.27334555514248549 0.47380874842581489 0 -0.25658680314654969 0.47327500690366958 0 -0.27334555514248549 0.47380874842581489 0 -0.26608230303987801 0.4856092473520624 0 -0.25030165867090959 0.4837517237055165 0 -0.25658680314654969 0.47327500690366958 0 -0.26608230303987801 0.4856092473520624 0 -0.25030165867090959 0.4837517237055165 0 -0.25658680314654969 0.47327500690366958 0 -0.24515571949348289 0.47537835920254562 0 -0.27334555514248549 0.47380874842581489 0 -0.26608230303987801 0.4856092473520624 0 -0.28734523070608842 0.48266340545820441 0 -0.27453203683748661 0.5 0 -0.26608230303987801 0.4856092473520624 0 -0.28734523070608842 0.48266340545820441 0 -0.27453203683748661 0.5 0 -0.28734523070608842 0.48266340545820441 0 -0.30084640041953808 0.5 0 -0.28863295306311088 0.46578716309770191 0 -0.27334555514248549 0.47380874842581489 0 -0.28734523070608842 0.48266340545820441 0 -0.28863295306311088 0.46578716309770191 0 -0.28734523070608842 0.48266340545820441 0 -0.30436594134562778 0.46949777207170462 0 -0.28734523070608842 0.48266340545820441 0 -0.30436594134562778 0.46949777207170462 0 -0.30265097838973321 0.48380098708060498 0 -0.30436594134562778 0.46949777207170462 0 -0.30265097838973321 0.48380098708060498 0 -0.31804634108767832 0.48304277079251101 0 -0.28734523070608842 0.48266340545820441 0 -0.30265097838973321 0.48380098708060498 0 -0.30084640041953808 0.5 0 -0.30265097838973321 0.48380098708060498 0 -0.30084640041953808 0.5 0 -0.31804634108767832 0.48304277079251101 0 -0.30084640041953808 0.5 0 -0.32716076400158978 0.5 0 -0.31804634108767832 0.48304277079251101 0 -0.32716076400158978 0.5 0 -0.33920218584201978 0.48464023757875091 0 -0.3534751275836413 0.49999999999999878 0 -0.32716076400158978 0.5 0 -0.33920218584201978 0.48464023757875091 0 -0.31804634108767832 0.48304277079251101 0 -0.33920218584201978 0.48464023757875091 0 -0.32946526020550537 0.47134900962393789 0 -0.31804634108767832 0.48304277079251101 0 -0.33920218584201978 0.48464023757875091 0 -0.32946526020550537 0.47134900962393789 0 -0.34430864220961099 0.46594404311087101 0 -0.30436594134562778 0.46949777207170462 0 -0.31804634108767832 0.48304277079251101 0 -0.31784154853414542 0.46675816179249952 0 -0.32946526020550537 0.47134900962393789 0 -0.31804634108767832 0.48304277079251101 0 -0.31784154853414542 0.46675816179249952 0 -0.32946526020550537 0.47134900962393789 0 -0.31784154853414542 0.46675816179249952 0 -0.33004176634922527 0.45564057889047732 0 -0.31234010036541721 0.45449451581043843 0 -0.31784154853414542 0.46675816179249952 0 -0.33004176634922527 0.45564057889047732 0 -0.31234010036541721 0.45449451581043843 0 -0.32487667402770459 0.44302633237433381 0 -0.33004176634922527 0.45564057889047732 0 -0.31240910399228322 0.43750392579674002 0 -0.31234010036541721 0.45449451581043843 0 -0.32487667402770459 0.44302633237433381 0 -0.33964677515101499 0.42961601508467567 0 -0.32487667402770459 0.44302633237433381 0 -0.3367027099777144 0.44313791075801068 0 -0.32487667402770459 0.44302633237433381 0 -0.3367027099777144 0.44313791075801068 0 -0.33004176634922527 0.45564057889047732 0 -0.3367027099777144 0.44313791075801068 0 -0.33004176634922527 0.45564057889047732 0 -0.34447300263438452 0.45001296842709659 0 -0.3367027099777144 0.44313791075801068 0 -0.34460848101734648 0.43787887615672372 0 -0.34447300263438452 0.45001296842709659 0 -0.32946526020550537 0.47134900962393789 0 -0.33004176634922527 0.45564057889047732 0 -0.34430864220961099 0.46594404311087101 0 -0.33004176634922527 0.45564057889047732 0 -0.34430864220961099 0.46594404311087101 0 -0.34447300263438452 0.45001296842709659 0 -0.34430864220961099 0.46594404311087101 0 -0.34447300263438452 0.45001296842709659 0 -0.3610476557729419 0.45959321175460749 0 -0.34430864220961099 0.46594404311087101 0 -0.3610476557729419 0.45959321175460749 0 -0.35726139167829152 0.47979660587730311 0 -0.34447300263438452 0.45001296842709659 0 -0.35329417083808762 0.44272955033713368 0 -0.3610476557729419 0.45959321175460749 0 -0.34460848101734648 0.43787887615672372 0 -0.34447300263438452 0.45001296842709659 0 -0.35329417083808762 0.44272955033713368 0 -0.35081753161354018 0.43079190134805728 0 -0.35329417083808762 0.44272955033713368 0 -0.36483391986759101 0.43938981763191159 0 -0.36483391986759101 0.43938981763191159 0 -0.36982508649130652 0.45078168270744129 0 -0.3610476557729419 0.45959321175460749 0 -0.36483391986759101 0.43938981763191159 0 -0.3610476557729419 0.45959321175460749 0 -0.35329417083808762 0.44272955033713368 0 -0.36483391986759101 0.43938981763191159 0 -0.3610476557729419 0.45959321175460749 0 -0.38224190079936271 0.45006820067963232 0 -0.36483391986759101 0.43938981763191159 0 -0.38224190079936271 0.45006820067963232 0 -0.36483391986759101 0.43938981763191159 0 -0.36982508649130652 0.45078168270744129 0 -0.38224190079936271 0.45006820067963232 0 -0.37717856875035488 0.43646572130173161 0 -0.36483391986759101 0.43938981763191159 0 -0.37606570410381668 0.47366176847889557 0 -0.37722236811798338 0.46009136062209011 0 -0.3610476557729419 0.45959321175460749 0 -0.37722236811798338 0.46009136062209011 0 -0.36982508649130652 0.45078168270744129 0 -0.3610476557729419 0.45959321175460749 0 -0.37606570410381668 0.47366176847889557 0 -0.3610476557729419 0.45959321175460749 0 -0.35726139167829152 0.47979660587730311 0 -0.37606570410381668 0.47366176847889557 0 -0.3534751275836413 0.49999999999999878 0 -0.35726139167829152 0.47979660587730311 0 -0.33920218584201978 0.48464023757875091 0 -0.3534751275836413 0.49999999999999878 0 -0.35726139167829152 0.47979660587730311 0 -0.3534751275836413 0.49999999999999878 0 -0.35726139167829152 0.47979660587730311 0 -0.3610476557729419 0.45959321175460749 0 -0.35726139167829152 0.47979660587730311 0 -0.33920218584201978 0.48464023757875091 0 -0.34430864220961099 0.46594404311087101 0 -0.35726139167829152 0.47979660587730311 0 -0.14074422522680519 0.47879457849721951 0 -0.1525287557788256 0.46243479849400582 0 -0.16033737588042549 0.48336075324267158 0 -0.1389051124483377 0.5 0 -0.16033737588042549 0.48336075324267158 0 -0.167624060821566 0.499999999999999 0 -0.14074422522680519 0.47879457849721951 0 -0.1389051124483377 0.5 0 -0.16033737588042549 0.48336075324267158 0 -0.14074422522680519 0.47879457849721951 0 -0.1389051124483377 0.5 0 -0.1251989796214896 0.48343113578115859 0 -0.14074422522680519 0.47879457849721951 0 -0.1251989796214896 0.48343113578115859 0 -0.12859057658337589 0.46069914291469699 0 -0.12859057658337589 0.46069914291469699 0 -0.1525287557788256 0.46243479849400582 0 -0.14074422522680519 0.47879457849721951 0 -0.12859057658337589 0.46069914291469699 0 -0.1525287557788256 0.46243479849400582 0 -0.12859057658337589 0.46069914291469699 0 -0.14501086790572379 0.44334818002460891 0 -0.12774258126637361 0.43196655821060898 0 -0.14501086790572379 0.44334818002460891 0 -0.1525287557788256 0.46243479849400582 0 -0.16289800859892981 0.4473349573461155 0 -0.14501086790572379 0.44334818002460891 0 -0.16289800859892981 0.4473349573461155 0 -0.15693904437447709 0.43076927195765408 0 -0.12859057658337589 0.46069914291469699 0 -0.14501086790572379 0.44334818002460891 0 -0.1525287557788256 0.46243479849400582 0 -0.1525287557788256 0.46243479849400582 0 -0.17116507124605071 0.46350946990546521 0 -0.16289800859892981 0.4473349573461155 0 -0.17116507124605071 0.46350946990546521 0 -0.16289800859892981 0.4473349573461155 0 -0.17844818379536559 0.44929710834515268 0 -0.16289800859892981 0.4473349573461155 0 -0.17329612849313619 0.43465091534980699 0 -0.15693904437447709 0.43076927195765408 0 -0.16289800859892981 0.4473349573461155 0 -0.17844818379536559 0.44929710834515268 0 -0.17329612849313619 0.43465091534980699 0 -0.17844818379536559 0.44929710834515268 0 -0.1878478987239891 0.45885169976324902 0 -0.18975402272338099 0.44864736319382442 0 -0.17844818379536559 0.44929710834515268 0 -0.18740826922785739 0.43733359046116332 0 -0.17329612849313619 0.43465091534980699 0 -0.17844818379536559 0.44929710834515268 0 -0.18975402272338099 0.44864736319382442 0 -0.18740826922785739 0.43733359046116332 0 -0.17116507124605071 0.46350946990546521 0 -0.18452312836754931 0.47700061596283239 0 -0.1878478987239891 0.45885169976324902 0 -0.17116507124605071 0.46350946990546521 0 -0.17844818379536559 0.44929710834515268 0 -0.1878478987239891 0.45885169976324902 0 -0.17116507124605071 0.46350946990546521 0 -0.18452312836754931 0.47700061596283239 0 -0.16033737588042549 0.48336075324267158 0 -0.1525287557788256 0.46243479849400582 0 -0.17116507124605071 0.46350946990546521 0 -0.16033737588042549 0.48336075324267158 0 -0.16033737588042549 0.48336075324267158 0 -0.167624060821566 0.499999999999999 0 -0.17002912715607979 0.49886192019447412 0 -0.18452312836754931 0.47700061596283239 0 -0.16033737588042549 0.48336075324267158 0 -0.17002912715607979 0.49886192019447412 0 -0.167624060821566 0.499999999999999 0 -0.17002912715607979 0.49886192019447412 0 -0.17002912715607979 0.49886192019447412 0 -0.19558894609133179 0.5 0 -0.19095988421122859 0.48895746492981268 0 -0.17002912715607979 0.49886192019447412 0 -0.19095988421122859 0.48895746492981268 0 -0.18452312836754931 0.47700061596283239 0 -0.17002912715607979 0.49886192019447412 0 -0.18452312836754931 0.47700061596283239 0 -0.17002912715607979 0.49886192019447412 0 -0.19095988421122859 0.48895746492981268 0 -0.19558894609133179 0.5 0 -0.19095988421122859 0.48895746492981268 0 -0.21189064126637641 0.47905300966514941 0 -0.19095988421122859 0.48895746492981268 0 -0.1978274015659173 0.47672329503604838 0 -0.21189064126637641 0.47905300966514941 0 -0.18452312836754931 0.47700061596283239 0 -0.1978274015659173 0.47672329503604838 0 -0.1990171295790176 0.45513931173119021 0 -0.1978274015659173 0.47672329503604838 0 -0.21189064126637641 0.47905300966514941 0 -0.1990171295790176 0.45513931173119021 0 -0.19095988421122859 0.48895746492981268 0 -0.21189064126637641 0.47905300966514941 0 -0.18452312836754931 0.47700061596283239 0 -0.19095988421122859 0.48895746492981268 0 -0.1978274015659173 0.47672329503604838 0 -0.19558894609133179 0.5 0 -0.21189064126637641 0.47905300966514941 0 -0.22190330967338351 0.5 0 -0.21189064126637641 0.47905300966514941 0 -0.22190330967338351 0.5 0 -0.2354657944192021 0.48449600506930479 0 -0.21189064126637641 0.47905300966514941 0 -0.23282139832152429 0.46914855440048608 0 -0.2354657944192021 0.48449600506930479 0 -0.21189064126637641 0.47905300966514941 0 -0.23282139832152429 0.46914855440048608 0 -0.25658680314654969 0.47327500690366958 0 -0.24515571949348289 0.47537835920254562 0 -0.23723497846638911 0.45968022826444532 0 -0.23282139832152429 0.46914855440048608 0 -0.24515571949348289 0.47537835920254562 0 -0.2354657944192021 0.48449600506930479 0 -0.25030165867090959 0.4837517237055165 0 -0.24515571949348289 0.47537835920254562 0 -0.2354657944192021 0.48449600506930479 0 -0.25030165867090959 0.4837517237055165 0 -0.24821767325543501 0.5 0 -0.2354657944192021 0.48449600506930479 0 -0.22190330967338351 0.5 0 -0.24821767325543501 0.5 0 -0.2354657944192021 0.48449600506930479 0 -0.2445193356415174 0.4455358069413623 0 -0.23723497846638911 0.45968022826444532 0 -0.2283264819684625 0.44202446297585779 0 -0.2445193356415174 0.4455358069413623 0 -0.2283264819684625 0.44202446297585779 0 -0.24252929423762939 0.43360278573544547 0 -0.25650706503281162 0.43541179474966613 0 -0.2445193356415174 0.4455358069413623 0 -0.24252929423762939 0.43360278573544547 0 -0.25496775216949857 0.45641178590780879 0 -0.2445193356415174 0.4455358069413623 0 -0.23723497846638911 0.45968022826444532 0 -0.23282139832152429 0.46914855440048608 0 -0.24515571949348289 0.47537835920254562 0 -0.23723497846638911 0.45968022826444532 0 -0.24515571949348289 0.47537835920254562 0 -0.23723497846638911 0.45968022826444532 0 -0.23282139832152429 0.46914855440048608 0 -0.23723497846638911 0.45968022826444532 0 -0.2181260540227038 0.45740976999781402 0 -0.21189064126637641 0.47905300966514941 0 -0.23282139832152429 0.46914855440048608 0 -0.2181260540227038 0.45740976999781402 0 -0.23723497846638911 0.45968022826444532 0 -0.2181260540227038 0.45740976999781402 0 -0.23723497846638911 0.45968022826444532 0 -0.2283264819684625 0.44202446297585779 0 -0.2181260540227038 0.45740976999781402 0 -0.23723497846638911 0.45968022826444532 0 -0.2283264819684625 0.44202446297585779 0 -0.2283264819684625 0.44202446297585779 0 -0.2092175575247788 0.43975400470923109 0 -0.2181260540227038 0.45740976999781402 0 -0.2092175575247788 0.43975400470923109 0 -0.2181260540227038 0.45740976999781402 0 -0.1990171295790176 0.45513931173119021 0 -0.2092175575247788 0.43975400470923109 0 -0.1990171295790176 0.45513931173119021 0 -0.2181260540227038 0.45740976999781402 0 -0.1990171295790176 0.45513931173119021 0 -0.21189064126637641 0.47905300966514941 0 -0.2181260540227038 0.45740976999781402 0 -0.1990171295790176 0.45513931173119021 0 -0.18452312836754931 0.47700061596283239 0 -0.1990171295790176 0.45513931173119021 0 -0.1878478987239891 0.45885169976324902 0 -0.18452312836754931 0.47700061596283239 0 -0.1990171295790176 0.45513931173119021 0 -0.1990171295790176 0.45513931173119021 0 -0.1878478987239891 0.45885169976324902 0 -0.18975402272338099 0.44864736319382442 0 -0.2092175575247788 0.43975400470923109 0 -0.1990171295790176 0.45513931173119021 0 -0.19909658388642329 0.44406925373068717 0 -0.1990171295790176 0.45513931173119021 0 -0.19909658388642329 0.44406925373068717 0 -0.18975402272338099 0.44864736319382442 0 -0.19909658388642329 0.44406925373068717 0 -0.18975402272338099 0.44864736319382442 0 -0.18740826922785739 0.43733359046116332 0 -0.19909658388642329 0.44406925373068717 0 -0.20048926588598009 0.42594532692747028 0 -0.18740826922785739 0.43733359046116332 0 -0.20048926588598009 0.42594532692747028 0 -0.1833454982117661 0.42085425028779871 0 -0.18740826922785739 0.43733359046116332 0 -0.2092175575247788 0.43975400470923109 0 -0.19909658388642329 0.44406925373068717 0 -0.20048926588598009 0.42594532692747028 0 -0.20048926588598009 0.42594532692747028 0 -0.19486434893031629 0.40619761803476301 0 -0.1833454982117661 0.42085425028779871 0 -0.21132955935436279 0.40833823136845998 0 -0.19486434893031629 0.40619761803476301 0 -0.20048926588598009 0.42594532692747028 0 -0.21132955935436279 0.40833823136845998 0 -0.19486434893031629 0.40619761803476301 0 -0.20048926588598009 0.42594532692747028 0 -0.21132955935436279 0.40833823136845998 0 -0.21941798547053701 0.42436869768726992 0 -0.21132955935436279 0.40833823136845998 0 -0.21941798547053701 0.42436869768726992 0 -0.2092175575247788 0.43975400470923109 0 -0.20048926588598009 0.42594532692747028 0 -0.21941798547053701 0.42436869768726992 0 -0.2092175575247788 0.43975400470923109 0 -0.21941798547053701 0.42436869768726992 0 -0.2283264819684625 0.44202446297585779 0 -0.23158720667105651 0.42817995472838932 0 -0.21941798547053701 0.42436869768726992 0 -0.2283264819684625 0.44202446297585779 0 -0.21941798547053701 0.42436869768726992 0 -0.2283264819684625 0.44202446297585779 0 -0.2092175575247788 0.43975400470923109 0 -0.21941798547053701 0.42436869768726992 0 -0.2283264819684625 0.44202446297585779 0 -0.23158720667105651 0.42817995472838932 0 -0.24252929423762939 0.43360278573544547 0 -0.21132955935436279 0.40833823136845998 0 -0.22856089411213629 0.41057844719260839 0 -0.2189001512750211 0.40091762296778061 0 -0.21941798547053701 0.42436869768726992 0 -0.22856089411213629 0.41057844719260839 0 -0.21132955935436279 0.40833823136845998 0 -0.21941798547053701 0.42436869768726992 0 -0.22856089411213629 0.41057844719260839 0 -0.23158720667105651 0.42817995472838932 0 -0.21941798547053701 0.42436869768726992 0 -0.22856089411213629 0.41057844719260839 0 -0.21132955935436279 0.40833823136845998 0 -0.22856089411213629 0.41057844719260839 0 -0.25854844412876848 0.40756239259936272 0 -0.25804637789612622 0.41441180359152341 0 -0.22856089411213629 0.41057844719260839 0 -0.25804637789612622 0.41441180359152341 0 -0.22856089411213629 0.41057844719260839 0 -0.23158720667105651 0.42817995472838932 0 -0.22856089411213629 0.41057844719260839 0 -0.24299842589361209 0.42296427722315849 0 -0.25804637789612622 0.41441180359152341 0 -0.22856089411213629 0.41057844719260839 0 -0.24299842589361209 0.42296427722315849 0 -0.25059996062830647 0.42641743371929303 0 -0.24299842589361209 0.42296427722315849 0 -0.24252929423762939 0.43360278573544547 0 -0.25650706503281162 0.43541179474966613 0 -0.25059996062830647 0.42641743371929303 0 -0.24252929423762939 0.43360278573544547 0 -0.23158720667105651 0.42817995472838932 0 -0.24299842589361209 0.42296427722315849 0 -0.24252929423762939 0.43360278573544547 0 -0.23739305070524519 0.38471179273785477 0 -0.24378868076877391 0.38761037426242018 0 -0.23119885757998021 0.3903619350973514 0 -0.23739305070524519 0.38471179273785477 0 -0.23756097464447151 0.37848409563832158 0 -0.24271981770988271 0.38616550181898318 0 -0.23739305070524519 0.38471179273785477 0 -0.24271981770988271 0.38616550181898318 0 -0.24378868076877391 0.38761037426242018 0 -0.23756097464447151 0.37848409563832158 0 -0.24271981770988271 0.38616550181898318 0 -0.24437978108753519 0.37268013198276051 0 -0.23739305070524519 0.38471179273785477 0 -0.23756097464447151 0.37848409563832158 0 -0.23167959020988649 0.38191612672804248 0 -0.25290804108530268 0.3738556417100492 0 -0.24271981770988271 0.38616550181898318 0 -0.24437978108753519 0.37268013198276051 0 -0.25290804108530268 0.3738556417100492 0 -0.24271981770988271 0.38616550181898318 0 -0.24378868076877391 0.38761037426242018 0 -0.25290804108530268 0.3738556417100492 0 -0.24378868076877391 0.38761037426242018 0 -0.24271981770988271 0.38616550181898318 0 -0.24378868076877391 0.38761037426242018 0 -0.22856089411213629 0.41057844719260839 0 -0.24378868076877391 0.38761037426242018 0 -0.23119885757998021 0.3903619350973514 0 -0.22856089411213629 0.41057844719260839 0 -0.24378868076877391 0.38761037426242018 0 -0.25854844412876848 0.40756239259936272 0 -0.22856089411213629 0.41057844719260839 0 -0.24378868076877391 0.38761037426242018 0 -0.22856089411213629 0.41057844719260839 0 -0.2232124820461181 0.39403621301794528 0 -0.23119885757998021 0.3903619350973514 0 -0.22856089411213629 0.41057844719260839 0 -0.2189001512750211 0.40091762296778061 0 -0.2232124820461181 0.39403621301794528 0 -0.2189001512750211 0.40091762296778061 0 -0.2232124820461181 0.39403621301794528 0 -0.21414419274657409 0.39211836991671001 0 -0.2232124820461181 0.39403621301794528 0 -0.22255844763771909 0.3833186566452369 0 -0.23119885757998021 0.3903619350973514 0 -0.2232124820461181 0.39403621301794528 0 -0.22255844763771909 0.3833186566452369 0 -0.21414419274657409 0.39211836991671001 0 -0.23739305070524519 0.38471179273785477 0 -0.23119885757998021 0.3903619350973514 0 -0.23167959020988649 0.38191612672804248 0 -0.22255844763771909 0.3833186566452369 0 -0.23119885757998021 0.3903619350973514 0 -0.23167959020988649 0.38191612672804248 0 -0.22255844763771909 0.3833186566452369 0 -0.23167959020988649 0.38191612672804248 0 -0.22969731770877591 0.37447434519136508 0 -0.23756097464447151 0.37848409563832158 0 -0.23167959020988649 0.38191612672804248 0 -0.22969731770877591 0.37447434519136508 0 -0.22255844763771909 0.3833186566452369 0 -0.22020829545972739 0.37274929056908179 0 -0.22969731770877591 0.37447434519136508 0 -0.22255844763771909 0.3833186566452369 0 -0.2105831245280709 0.381802810003806 0 -0.22020829545972739 0.37274929056908179 0 -0.2105831245280709 0.381802810003806 0 -0.21047234143722779 0.37204181356124832 0 -0.22020829545972739 0.37274929056908179 0 -0.22255844763771909 0.3833186566452369 0 -0.2105831245280709 0.381802810003806 0 -0.21414419274657409 0.39211836991671001 0 -0.2105831245280709 0.381802810003806 0 -0.21414419274657409 0.39211836991671001 0 -0.20360141312730179 0.39302180441216927 0 -0.2105831245280709 0.381802810003806 0 -0.20360141312730179 0.39302180441216927 0 -0.20086912161820161 0.38329517663812301 0 -0.2105831245280709 0.381802810003806 0 -0.19943229032995041 0.37312591810137219 0 -0.21047234143722779 0.37204181356124832 0 -0.2105831245280709 0.381802810003806 0 -0.20086912161820161 0.38329517663812301 0 -0.19943229032995041 0.37312591810137219 0 -0.21132955935436279 0.40833823136845998 0 -0.20360141312730179 0.39302180441216927 0 -0.19486434893031629 0.40619761803476301 0 -0.21132955935436279 0.40833823136845998 0 -0.2189001512750211 0.40091762296778061 0 -0.21414419274657409 0.39211836991671001 0 -0.21132955935436279 0.40833823136845998 0 -0.21414419274657409 0.39211836991671001 0 -0.20360141312730179 0.39302180441216927 0 -0.21132955935436279 0.40833823136845998 0 -0.20360141312730179 0.39302180441216927 0 -0.20360141312730179 0.39302180441216927 0 -0.19486434893031629 0.40619761803476301 0 -0.1877112454818621 0.39682397913574557 0 -0.20360141312730179 0.39302180441216927 0 -0.1877112454818621 0.39682397913574557 0 -0.18985965848748329 0.38523017403514459 0 -0.18985965848748329 0.38523017403514459 0 -0.1887085335126239 0.36947516734503449 0 -0.19943229032995041 0.37312591810137219 0 -0.20086912161820161 0.38329517663812301 0 -0.18985965848748329 0.38523017403514459 0 -0.19943229032995041 0.37312591810137219 0 -0.20360141312730179 0.39302180441216927 0 -0.20086912161820161 0.38329517663812301 0 -0.18985965848748329 0.38523017403514459 0 -0.18985965848748329 0.38523017403514459 0 -0.17556941793498981 0.37336007291772211 0 -0.1887085335126239 0.36947516734503449 0 -0.18985965848748329 0.38523017403514459 0 -0.17642159248316461 0.38995159067756829 0 -0.17556941793498981 0.37336007291772211 0 -0.16218396038267571 0.38954757926818168 0 -0.15350510409007651 0.37579406406054011 0 -0.16413677363352891 0.37158314056209829 0 -0.17642159248316461 0.38995159067756829 0 -0.16218396038267571 0.38954757926818168 0 -0.17556941793498981 0.37336007291772211 0 -0.16218396038267571 0.38954757926818168 0 -0.17556941793498981 0.37336007291772211 0 -0.16218396038267571 0.38954757926818168 0 -0.16413677363352891 0.37158314056209829 0 -0.17556941793498981 0.37336007291772211 0 -0.16218396038267571 0.38954757926818168 0 -0.16447737850430391 0.40251100716897059 0 -0.1493495066599603 0.39977691111673053 0 -0.17642159248316461 0.38995159067756829 0 -0.16218396038267571 0.38954757926818168 0 -0.16447737850430391 0.40251100716897059 0 -0.19486434893031629 0.40619761803476301 0 -0.1877112454818621 0.39682397913574557 0 -0.17839913850626979 0.40405700470106631 0 -0.19486434893031629 0.40619761803476301 0 -0.17839913850626979 0.40405700470106631 0 -0.17642159248316461 0.38995159067756829 0 -0.16447737850430391 0.40251100716897059 0 -0.17839913850626979 0.40405700470106631 0 -0.1877112454818621 0.39682397913574557 0 -0.18985965848748329 0.38523017403514459 0 -0.17642159248316461 0.38995159067756829 0 -0.1877112454818621 0.39682397913574557 0 -0.17642159248316461 0.38995159067756829 0 -0.17839913850626979 0.40405700470106631 0 -0.17839913850626979 0.40405700470106631 0 -0.1833454982117661 0.42085425028779871 0 -0.16770997162977111 0.41795230513206932 0 -0.19486434893031629 0.40619761803476301 0 -0.17839913850626979 0.40405700470106631 0 -0.1833454982117661 0.42085425028779871 0 -0.1833454982117661 0.42085425028779871 0 -0.18740826922785739 0.43733359046116332 0 -0.17329612849313619 0.43465091534980699 0 -0.1833454982117661 0.42085425028779871 0 -0.17329612849313619 0.43465091534980699 0 -0.16770997162977111 0.41795230513206932 0 -0.17329612849313619 0.43465091534980699 0 -0.15693904437447709 0.43076927195765408 0 -0.16770997162977111 0.41795230513206932 0 -0.15693904437447709 0.43076927195765408 0 -0.16770997162977111 0.41795230513206932 0 -0.15280010136398209 0.41378065211820769 0 -0.16447737850430391 0.40251100716897059 0 -0.17839913850626979 0.40405700470106631 0 -0.16770997162977111 0.41795230513206932 0 -0.16447737850430391 0.40251100716897059 0 -0.16770997162977111 0.41795230513206932 0 -0.15280010136398209 0.41378065211820769 0 -0.15280010136398209 0.41378065211820769 0 -0.14199277348474171 0.42363298598113303 0 -0.13745591264119639 0.40953448361945199 0 -0.15280010136398209 0.41378065211820769 0 -0.13745591264119639 0.40953448361945199 0 -0.1493495066599603 0.39977691111673053 0 -0.14501086790572379 0.44334818002460891 0 -0.15693904437447709 0.43076927195765408 0 -0.14199277348474171 0.42363298598113303 0 -0.15693904437447709 0.43076927195765408 0 -0.15280010136398209 0.41378065211820769 0 -0.14199277348474171 0.42363298598113303 0 -0.14501086790572379 0.44334818002460891 0 -0.14199277348474171 0.42363298598113303 0 -0.12774258126637361 0.43196655821060898 0 -0.14199277348474171 0.42363298598113303 0 -0.12774258126637361 0.43196655821060898 0 -0.12626538229327941 0.41751927109444859 0 -0.12626538229327941 0.41751927109444859 0 -0.13745591264119639 0.40953448361945199 0 -0.12082572697990961 0.40660523088268802 0 -0.14199277348474171 0.42363298598113303 0 -0.12626538229327941 0.41751927109444859 0 -0.13745591264119639 0.40953448361945199 0 -0.13745591264119639 0.40953448361945199 0 -0.1334006945047167 0.39596166816184108 0 -0.1493495066599603 0.39977691111673053 0 -0.13745591264119639 0.40953448361945199 0 -0.1334006945047167 0.39596166816184108 0 -0.12082572697990961 0.40660523088268802 0 -0.1334006945047167 0.39596166816184108 0 -0.12169056730583371 0.39481169775787001 0 -0.12082572697990961 0.40660523088268802 0 -0.1334006945047167 0.39596166816184108 0 -0.1230736302473963 0.38318059764092671 0 -0.12169056730583371 0.39481169775787001 0 -0.1334006945047167 0.39596166816184108 0 -0.1430260472012212 0.38525677025339772 0 -0.1230736302473963 0.38318059764092671 0 -0.1430260472012212 0.38525677025339772 0 -0.13578162110228301 0.37275117300411681 0 -0.1230736302473963 0.38318059764092671 0 -0.13578162110228301 0.37275117300411681 0 -0.12296577242776111 0.37403941816587571 0 -0.1230736302473963 0.38318059764092671 0 -0.15350510409007651 0.37579406406054011 0 -0.1430260472012212 0.38525677025339772 0 -0.13578162110228301 0.37275117300411681 0 -0.16218396038267571 0.38954757926818168 0 -0.15350510409007651 0.37579406406054011 0 -0.1430260472012212 0.38525677025339772 0 -0.1334006945047167 0.39596166816184108 0 -0.1430260472012212 0.38525677025339772 0 -0.1493495066599603 0.39977691111673053 0 -0.16218396038267571 0.38954757926818168 0 -0.1430260472012212 0.38525677025339772 0 -0.1493495066599603 0.39977691111673053 0 -0.16447737850430391 0.40251100716897059 0 -0.15280010136398209 0.41378065211820769 0 -0.1493495066599603 0.39977691111673053 0 -0.1428843656714115 0.34706315433005902 0 -0.16631830912670331 0.34731303947048142 0 -0.1410999396266128 0.35893913972579711 0 -0.14491470097235229 0.34935738400776728 0 -0.16234657347154871 0.36015256631142162 0 -0.1428843656714115 0.34706315433005902 0 -0.14491470097235229 0.34935738400776728 0 -0.16631830912670331 0.34731303947048142 0 -0.1410999396266128 0.35893913972579711 0 -0.1428843656714115 0.34706315433005902 0 -0.14491470097235229 0.34935738400776728 0 -0.1428843656714115 0.34706315433005902 0 -0.14491470097235229 0.34935738400776728 0 -0.15350510409007651 0.37579406406054011 0 -0.13578162110228301 0.37275117300411681 0 -0.16234657347154871 0.36015256631142162 0 -0.13578162110228301 0.37275117300411681 0 -0.16234657347154871 0.36015256631142162 0 -0.1410999396266128 0.35893913972579711 0 -0.13578162110228301 0.37275117300411681 0 -0.16234657347154871 0.36015256631142162 0 -0.1410999396266128 0.35893913972579711 0 -0.13578162110228301 0.37275117300411681 0 -0.12541893198456541 0.36256701212732789 0 -0.13578162110228301 0.37275117300411681 0 -0.12541893198456541 0.36256701212732789 0 -0.12296577242776111 0.37403941816587571 0 -0.1410999396266128 0.35893913972579711 0 -0.1428843656714115 0.34706315433005902 0 -0.12541893198456541 0.36256701212732789 0 -0.1428843656714115 0.34706315433005902 0 -0.1233244569280421 0.34685457950984999 0 -0.1428843656714115 0.34706315433005902 0 -0.12541893198456541 0.36256701212732789 0 -0.1233244569280421 0.34685457950984999 0 -0.1428843656714115 0.34706315433005902 0 -0.12541893198456541 0.36256701212732789 0 -0.13762904156263481 0.3324767652746291 0 -0.13357863635577469 0.33654790576064919 0 -0.1200149295023538 0.32122124578067102 0 -0.1428843656714115 0.34706315433005902 0 -0.13357863635577469 0.33654790576064919 0 -0.1233244569280421 0.34685457950984999 0 -0.13357863635577469 0.33654790576064919 0 -0.1233244569280421 0.34685457950984999 0 -0.13357863635577469 0.33654790576064919 0 -0.1200149295023538 0.32122124578067102 0 -0.13762904156263481 0.3324767652746291 0 -0.13357863635577469 0.33654790576064919 0 -0.13762904156263481 0.3324767652746291 0 -0.14138759889620839 0.32869896672157578 0 -0.13762904156263481 0.3324767652746291 0 -0.1408724196979067 0.3351484720948788 0 -0.14138759889620839 0.32869896672157578 0 -0.13762904156263481 0.3324767652746291 0 -0.13357863635577469 0.33654790576064919 0 -0.1408724196979067 0.3351484720948788 0 -0.1428843656714115 0.34706315433005902 0 -0.13357863635577469 0.33654790576064919 0 -0.1408724196979067 0.3351484720948788 0 -0.1428843656714115 0.34706315433005902 0 -0.13357863635577469 0.33654790576064919 0 -0.13762904156263481 0.3324767652746291 0 -0.14153783749322921 0.30828147096186159 0 -0.13762904156263481 0.3324767652746291 0 -0.14153783749322921 0.30828147096186159 0 -0.1200149295023538 0.32122124578067102 0 -0.13762904156263481 0.3324767652746291 0 -0.14138759889620839 0.32869896672157578 0 -0.14153783749322921 0.30828147096186159 0 -0.15390821799736731 0.32163012621833098 0 -0.14138759889620839 0.32869896672157578 0 -0.14153783749322921 0.30828147096186159 0 -0.15390821799736731 0.32163012621833098 0 -0.1579847350986246 0.31633475918929083 0 -0.14153783749322921 0.30828147096186159 0 -0.15390821799736731 0.32163012621833098 0 -0.14138759889620839 0.32869896672157578 0 -0.1482398499157013 0.33093676768602409 0 -0.15545517759327521 0.32785866820686771 0 -0.15390821799736731 0.32163012621833098 0 -0.1482398499157013 0.33093676768602409 0 -0.1428843656714115 0.34706315433005902 0 -0.15155239359649139 0.33472630926263941 0 -0.1645813707379335 0.3294187289111295 0 -0.1428843656714115 0.34706315433005902 0 -0.1645813707379335 0.3294187289111295 0 -0.1428843656714115 0.34706315433005902 0 -0.145760477322955 0.33834526218693878 0 -0.1408724196979067 0.3351484720948788 0 -0.1428843656714115 0.34706315433005902 0 -0.145760477322955 0.33834526218693878 0 -0.15155239359649139 0.33472630926263941 0 -0.1408724196979067 0.3351484720948788 0 -0.14138759889620839 0.32869896672157578 0 -0.1482398499157013 0.33093676768602409 0 -0.145760477322955 0.33834526218693878 0 -0.1408724196979067 0.3351484720948788 0 -0.1482398499157013 0.33093676768602409 0 -0.145760477322955 0.33834526218693878 0 -0.1482398499157013 0.33093676768602409 0 -0.15155239359649139 0.33472630926263941 0 -0.15545517759327521 0.32785866820686771 0 -0.1482398499157013 0.33093676768602409 0 -0.15155239359649139 0.33472630926263941 0 -0.1645813707379335 0.3294187289111295 0 -0.17248684443749321 0.33720122695469978 0 -0.16631830912670331 0.34731303947048142 0 -0.1428843656714115 0.34706315433005902 0 -0.1645813707379335 0.3294187289111295 0 -0.16631830912670331 0.34731303947048142 0 -0.15545517759327521 0.32785866820686771 0 -0.15155239359649139 0.33472630926263941 0 -0.1645813707379335 0.3294187289111295 0 -0.1645813707379335 0.3294187289111295 0 -0.17248684443749321 0.33720122695469978 0 -0.17255437102990259 0.32871626499449003 0 -0.1579847350986246 0.31633475918929083 0 -0.16881672061678399 0.32163868358561631 0 -0.15390821799736731 0.32163012621833098 0 -0.1579847350986246 0.31633475918929083 0 -0.15970103420221479 0.32415772963659018 0 -0.15545517759327521 0.32785866820686771 0 -0.1645813707379335 0.3294187289111295 0 -0.15970103420221479 0.32415772963659018 0 -0.1579847350986246 0.31633475918929083 0 -0.15970103420221479 0.32415772963659018 0 -0.16881672061678399 0.32163868358561631 0 -0.15545517759327521 0.32785866820686771 0 -0.15390821799736731 0.32163012621833098 0 -0.15970103420221479 0.32415772963659018 0 -0.1645813707379335 0.3294187289111295 0 -0.15970103420221479 0.32415772963659018 0 -0.16881672061678399 0.32163868358561631 0 -0.1645813707379335 0.3294187289111295 0 -0.16881672061678399 0.32163868358561631 0 -0.17255437102990259 0.32871626499449003 0 -0.1579847350986246 0.31633475918929083 0 -0.16881672061678399 0.32163868358561631 0 -0.16741700534784271 0.313583066958524 0 -0.16881672061678399 0.32163868358561631 0 -0.16741700534784271 0.313583066958524 0 -0.17421600553906061 0.31597224189195228 0 -0.17421600553906061 0.31597224189195228 0 -0.18085654929183709 0.32051846040107451 0 -0.18129620578495889 0.30783812483036188 0 -0.16881672061678399 0.32163868358561631 0 -0.17421600553906061 0.31597224189195228 0 -0.18085654929183709 0.32051846040107451 0 -0.16881672061678399 0.32163868358561631 0 -0.18085654929183709 0.32051846040107451 0 -0.17255437102990259 0.32871626499449003 0 -0.18085654929183709 0.32051846040107451 0 -0.17255437102990259 0.32871626499449003 0 -0.17958410155823071 0.33254315379729299 0 -0.185145212308329 0.32705195644964369 0 -0.18085654929183709 0.32051846040107451 0 -0.17958410155823071 0.33254315379729299 0 -0.185145212308329 0.32705195644964369 0 -0.18085654929183709 0.32051846040107451 0 -0.1923952675718674 0.32413375498961278 0 -0.18085654929183709 0.32051846040107451 0 -0.18983841364249041 0.3148084349979593 0 -0.18129620578495889 0.30783812483036188 0 -0.1793731837509375 0.33976311090655481 0 -0.17248684443749321 0.33720122695469978 0 -0.16631830912670331 0.34731303947048142 0 -0.1793731837509375 0.33976311090655481 0 -0.17248684443749321 0.33720122695469978 0 -0.17958410155823071 0.33254315379729299 0 -0.17248684443749321 0.33720122695469978 0 -0.17255437102990259 0.32871626499449003 0 -0.17958410155823071 0.33254315379729299 0 -0.185145212308329 0.32705195644964369 0 -0.17958410155823071 0.33254315379729299 0 -0.18956513779144579 0.33420417469157387 0 -0.1793731837509375 0.33976311090655481 0 -0.17958410155823071 0.33254315379729299 0 -0.18956513779144579 0.33420417469157387 0 -0.1793731837509375 0.33976311090655481 0 -0.18891152584081439 0.34755395961872609 0 -0.18956513779144579 0.33420417469157387 0 -0.16234657347154871 0.36015256631142162 0 -0.1758484651531971 0.36209020946479442 0 -0.18891152584081439 0.34755395961872609 0 -0.16631830912670331 0.34731303947048142 0 -0.16234657347154871 0.36015256631142162 0 -0.18891152584081439 0.34755395961872609 0 -0.16234657347154871 0.36015256631142162 0 -0.18891152584081439 0.34755395961872609 0 -0.1793731837509375 0.33976311090655481 0 -0.16631830912670331 0.34731303947048142 0 -0.18891152584081439 0.34755395961872609 0 -0.16631830912670331 0.34731303947048142 0 -0.18891152584081439 0.34755395961872609 0 -0.1758484651531971 0.36209020946479442 0 -0.18891152584081439 0.34755395961872609 0 -0.18895487548730391 0.35717256656726237 0 -0.14491470097235229 0.34935738400776728 0 -0.16631830912670331 0.34731303947048142 0 -0.16234657347154871 0.36015256631142162 0 -0.15350510409007651 0.37579406406054011 0 -0.16234657347154871 0.36015256631142162 0 -0.16413677363352891 0.37158314056209829 0 -0.16234657347154871 0.36015256631142162 0 -0.16413677363352891 0.37158314056209829 0 -0.1758484651531971 0.36209020946479442 0 -0.16413677363352891 0.37158314056209829 0 -0.17556941793498981 0.37336007291772211 0 -0.1758484651531971 0.36209020946479442 0 -0.17556941793498981 0.37336007291772211 0 -0.1758484651531971 0.36209020946479442 0 -0.18895487548730391 0.35717256656726237 0 -0.17556941793498981 0.37336007291772211 0 -0.18895487548730391 0.35717256656726237 0 -0.17556941793498981 0.37336007291772211 0 -0.1887085335126239 0.36947516734503449 0 -0.18895487548730391 0.35717256656726237 0 -0.1887085335126239 0.36947516734503449 0 -0.19403110810591151 0.36544491593512268 0 -0.19943229032995041 0.37312591810137219 0 -0.1887085335126239 0.36947516734503449 0 -0.19403110810591151 0.36544491593512268 0 -0.18895487548730391 0.35717256656726237 0 -0.19403110810591151 0.36544491593512268 0 -0.1990287330937679 0.36200601172682167 0 -0.18895487548730391 0.35717256656726237 0 -0.19403110810591151 0.36544491593512268 0 -0.1990287330937679 0.36200601172682167 0 -0.19943229032995041 0.37312591810137219 0 -0.1990287330937679 0.36200601172682167 0 -0.19943229032995041 0.37312591810137219 0 -0.20447906623287371 0.36726335424727902 0 -0.18895487548730391 0.35717256656726237 0 -0.19919131104944551 0.3476635769170362 0 -0.19683860913770521 0.34763848915284212 0 -0.18891152584081439 0.34755395961872609 0 -0.19683860913770521 0.34763848915284212 0 -0.18891152584081439 0.34755395961872609 0 -0.18895487548730391 0.35717256656726237 0 -0.19683860913770521 0.34763848915284212 0 -0.18895487548730391 0.35717256656726237 0 -0.19919131104944551 0.3476635769170362 0 -0.18895487548730391 0.35717256656726237 0 -0.19683860913770521 0.34763848915284212 0 -0.1990287330937679 0.36200601172682167 0 -0.19919131104944551 0.3476635769170362 0 -0.2063862942472999 0.35513297594545679 0 -0.1990287330937679 0.36200601172682167 0 -0.18895487548730391 0.35717256656726237 0 -0.19919131104944551 0.3476635769170362 0 -0.18891152584081439 0.34755395961872609 0 -0.19683860913770521 0.34763848915284212 0 -0.20206798448888391 0.34131442093363279 0 -0.18891152584081439 0.34755395961872609 0 -0.20206798448888391 0.34131442093363279 0 -0.19919131104944551 0.3476635769170362 0 -0.19683860913770521 0.34763848915284212 0 -0.20206798448888391 0.34131442093363279 0 -0.19683860913770521 0.34763848915284212 0 -0.20206798448888391 0.34131442093363279 0 -0.19919131104944551 0.3476635769170362 0 -0.19683860913770521 0.34763848915284212 0 -0.19919131104944551 0.3476635769170362 0 -0.21218322392106359 0.34780211467439331 0 -0.21015481537899311 0.33747918718810788 0 -0.19919131104944551 0.3476635769170362 0 -0.21218322392106359 0.34780211467439331 0 -0.19919131104944551 0.3476635769170362 0 -0.2063862942472999 0.35513297594545679 0 -0.21218322392106359 0.34780211467439331 0 -0.2063862942472999 0.35513297594545679 0 -0.21655684370411191 0.3535600745968992 0 -0.20991500494565829 0.36229611192001188 0 -0.2063862942472999 0.35513297594545679 0 -0.21655684370411191 0.3535600745968992 0 -0.21218322392106359 0.34780211467439331 0 -0.21655684370411191 0.3535600745968992 0 -0.21218322392106359 0.34780211467439331 0 -0.21763880722213191 0.34156719967384458 0 -0.21047234143722779 0.37204181356124832 0 -0.20447906623287371 0.36726335424727902 0 -0.20991500494565829 0.36229611192001188 0 -0.19943229032995041 0.37312591810137219 0 -0.21047234143722779 0.37204181356124832 0 -0.20447906623287371 0.36726335424727902 0 -0.1990287330937679 0.36200601172682167 0 -0.20447906623287371 0.36726335424727902 0 -0.20991500494565829 0.36229611192001188 0 -0.1990287330937679 0.36200601172682167 0 -0.2063862942472999 0.35513297594545679 0 -0.20991500494565829 0.36229611192001188 0 -0.21047234143722779 0.37204181356124832 0 -0.20991500494565829 0.36229611192001188 0 -0.21844689384747601 0.36418923709297391 0 -0.21655684370411191 0.3535600745968992 0 -0.20991500494565829 0.36229611192001188 0 -0.21844689384747601 0.36418923709297391 0 -0.21047234143722779 0.37204181356124832 0 -0.21844689384747601 0.36418923709297391 0 -0.22020829545972739 0.37274929056908179 0 -0.22020829545972739 0.37274929056908179 0 -0.22969731770877591 0.37447434519136508 0 -0.22751765044067249 0.36694176310520238 0 -0.21844689384747601 0.36418923709297391 0 -0.22020829545972739 0.37274929056908179 0 -0.22751765044067249 0.36694176310520238 0 -0.22969731770877591 0.37447434519136508 0 -0.22751765044067249 0.36694176310520238 0 -0.2363782431787369 0.37020284557565031 0 -0.22751765044067249 0.36694176310520238 0 -0.2363782431787369 0.37020284557565031 0 -0.23443223533832311 0.36170954208896672 0 -0.22751765044067249 0.36694176310520238 0 -0.2251783145570726 0.35767262075029632 0 -0.23443223533832311 0.36170954208896672 0 -0.21844689384747601 0.36418923709297391 0 -0.22751765044067249 0.36694176310520238 0 -0.2251783145570726 0.35767262075029632 0 -0.21655684370411191 0.3535600745968992 0 -0.21844689384747601 0.36418923709297391 0 -0.2251783145570726 0.35767262075029632 0 -0.21655684370411191 0.3535600745968992 0 -0.2251783145570726 0.35767262075029632 0 -0.2259415599017861 0.34541428636038352 0 -0.21655684370411191 0.3535600745968992 0 -0.2259415599017861 0.34541428636038352 0 -0.21763880722213191 0.34156719967384458 0 -0.2259415599017861 0.34541428636038352 0 -0.2319311782442918 0.35164072461913493 0 -0.23817818013140279 0.34125229153523851 0 -0.2251783145570726 0.35767262075029632 0 -0.2319311782442918 0.35164072461913493 0 -0.23443223533832311 0.36170954208896672 0 -0.2251783145570726 0.35767262075029632 0 -0.2259415599017861 0.34541428636038352 0 -0.2319311782442918 0.35164072461913493 0 -0.2319311782442918 0.35164072461913493 0 -0.2401512479996504 0.35485552222905631 0 -0.23443223533832311 0.36170954208896672 0 -0.2319311782442918 0.35164072461913493 0 -0.2401512479996504 0.35485552222905631 0 -0.23817818013140279 0.34125229153523851 0 -0.2401512479996504 0.35485552222905631 0 -0.24931110960080999 0.34956578338164179 0 -0.23817818013140279 0.34125229153523851 0 -0.25013698891243169 0.36042207492819578 0 -0.2401512479996504 0.35485552222905631 0 -0.24931110960080999 0.34956578338164179 0 -0.25013698891243169 0.36042207492819578 0 -0.2401512479996504 0.35485552222905631 0 -0.24109569930333549 0.36397402336092588 0 -0.25013698891243169 0.36042207492819578 0 -0.24437978108753519 0.37268013198276051 0 -0.24109569930333549 0.36397402336092588 0 -0.25290804108530268 0.3738556417100492 0 -0.25013698891243169 0.36042207492819578 0 -0.24437978108753519 0.37268013198276051 0 -0.24437978108753519 0.37268013198276051 0 -0.2363782431787369 0.37020284557565031 0 -0.24109569930333549 0.36397402336092588 0 -0.23756097464447151 0.37848409563832158 0 -0.24437978108753519 0.37268013198276051 0 -0.2363782431787369 0.37020284557565031 0 -0.23756097464447151 0.37848409563832158 0 -0.22969731770877591 0.37447434519136508 0 -0.2363782431787369 0.37020284557565031 0 -0.2363782431787369 0.37020284557565031 0 -0.23443223533832311 0.36170954208896672 0 -0.24109569930333549 0.36397402336092588 0 -0.2401512479996504 0.35485552222905631 0 -0.23443223533832311 0.36170954208896672 0 -0.24109569930333549 0.36397402336092588 0 -0.26361768802922342 0.31212406153912858 0 -0.24111720852450971 0.32279506473674557 0 -0.23779655217768911 0.3183518374477855 0 -0.26361768802922342 0.31212406153912858 0 -0.23779655217768911 0.3183518374477855 0 -0.23436961135623169 0.31498520059168772 0 -0.24111720852450971 0.32279506473674557 0 -0.23436961135623169 0.31498520059168772 0 -0.24111720852450971 0.32279506473674557 0 -0.23779655217768911 0.3183518374477855 0 -0.23436961135623169 0.31498520059168772 0 -0.23779655217768911 0.3183518374477855 0 -0.23436961135623169 0.31498520059168772 0 -0.25230409672890253 0.33574309273892178 0 -0.24111720852450971 0.32279506473674557 0 -0.23817818013140279 0.34125229153523851 0 -0.25230409672890253 0.33574309273892178 0 -0.24111720852450971 0.32279506473674557 0 -0.24111720852450971 0.32279506473674557 0 -0.23817818013140279 0.34125229153523851 0 -0.2273712029837818 0.32931419998667583 0 -0.25230409672890253 0.33574309273892178 0 -0.24931110960080999 0.34956578338164179 0 -0.23817818013140279 0.34125229153523851 0 -0.2259415599017861 0.34541428636038352 0 -0.2273712029837818 0.32931419998667583 0 -0.21763880722213191 0.34156719967384458 0 -0.2259415599017861 0.34541428636038352 0 -0.23817818013140279 0.34125229153523851 0 -0.2273712029837818 0.32931419998667583 0 -0.2273712029837818 0.32931419998667583 0 -0.21333009062427899 0.33452956089868618 0 -0.2273712029837818 0.32931419998667583 0 -0.21763880722213191 0.34156719967384458 0 -0.21333009062427899 0.33452956089868618 0 -0.2273712029837818 0.32931419998667583 0 -0.23436961135623169 0.31498520059168772 0 -0.21333009062427899 0.33452956089868618 0 -0.23436961135623169 0.31498520059168772 0 -0.21333009062427899 0.33452956089868618 0 -0.23095511348401401 0.31103316198585901 0 -0.23436961135623169 0.31498520059168772 0 -0.21333009062427899 0.33452956089868618 0 -0.24111720852450971 0.32279506473674557 0 -0.2273712029837818 0.32931419998667583 0 -0.23436961135623169 0.31498520059168772 0 -0.24111720852450971 0.32279506473674557 0 -0.2273712029837818 0.32931419998667583 0 -0.23436961135623169 0.31498520059168772 0 -0.23095511348401401 0.31103316198585901 0 -0.23436961135623169 0.31498520059168772 0 -0.23324890844559501 0.3111807439700171 0 -0.21333009062427899 0.33452956089868618 0 -0.20782105187013319 0.30954472436532471 0 -0.23095511348401401 0.31103316198585901 0 -0.21333009062427899 0.33452956089868618 0 -0.21108687226168621 0.3304075615658662 0 -0.20782105187013319 0.30954472436532471 0 -0.21333009062427899 0.33452956089868618 0 -0.20782105187013319 0.30954472436532471 0 -0.20324196905272149 0.32237139571303869 0 -0.21108687226168621 0.3304075615658662 0 -0.20782105187013319 0.30954472436532471 0 -0.20324196905272149 0.32237139571303869 0 -0.21108687226168621 0.3304075615658662 0 -0.20053484459300119 0.33086437552815651 0 -0.21218322392106359 0.34780211467439331 0 -0.21763880722213191 0.34156719967384458 0 -0.21015481537899311 0.33747918718810788 0 -0.21763880722213191 0.34156719967384458 0 -0.21333009062427899 0.33452956089868618 0 -0.21015481537899311 0.33747918718810788 0 -0.21333009062427899 0.33452956089868618 0 -0.21015481537899311 0.33747918718810788 0 -0.21333009062427899 0.33452956089868618 0 -0.21108687226168621 0.3304075615658662 0 -0.21015481537899311 0.33747918718810788 0 -0.21108687226168621 0.3304075615658662 0 -0.20206798448888391 0.34131442093363279 0 -0.20053484459300119 0.33086437552815651 0 -0.21108687226168621 0.3304075615658662 0 -0.20206798448888391 0.34131442093363279 0 -0.19919131104944551 0.3476635769170362 0 -0.21015481537899311 0.33747918718810788 0 -0.20206798448888391 0.34131442093363279 0 -0.21015481537899311 0.33747918718810788 0 -0.20206798448888391 0.34131442093363279 0 -0.19919131104944551 0.3476635769170362 0 -0.21015481537899311 0.33747918718810788 0 -0.21108687226168621 0.3304075615658662 0 -0.21015481537899311 0.33747918718810788 0 -0.20206798448888391 0.34131442093363279 0 -0.18891152584081439 0.34755395961872609 0 -0.20206798448888391 0.34131442093363279 0 -0.1952698731785362 0.33848423269302202 0 -0.20206798448888391 0.34131442093363279 0 -0.20053484459300119 0.33086437552815651 0 -0.1952698731785362 0.33848423269302202 0 -0.185145212308329 0.32705195644964369 0 -0.18956513779144579 0.33420417469157387 0 -0.1923952675718674 0.32413375498961278 0 -0.20053484459300119 0.33086437552815651 0 -0.18956513779144579 0.33420417469157387 0 -0.1952698731785362 0.33848423269302202 0 -0.20053484459300119 0.33086437552815651 0 -0.18956513779144579 0.33420417469157387 0 -0.1923952675718674 0.32413375498961278 0 -0.18891152584081439 0.34755395961872609 0 -0.18956513779144579 0.33420417469157387 0 -0.1952698731785362 0.33848423269302202 0 -0.1982137340385926 0.31841575160056651 0 -0.18983841364249041 0.3148084349979593 0 -0.20782105187013319 0.30954472436532471 0 -0.20324196905272149 0.32237139571303869 0 -0.1982137340385926 0.31841575160056651 0 -0.20782105187013319 0.30954472436532471 0 -0.20324196905272149 0.32237139571303869 0 -0.20053484459300119 0.33086437552815651 0 -0.1985964538140457 0.32394631945784358 0 -0.20324196905272149 0.32237139571303869 0 -0.1982137340385926 0.31841575160056651 0 -0.1985964538140457 0.32394631945784358 0 -0.20053484459300119 0.33086437552815651 0 -0.1985964538140457 0.32394631945784358 0 -0.1923952675718674 0.32413375498961278 0 -0.1982137340385926 0.31841575160056651 0 -0.1985964538140457 0.32394631945784358 0 -0.1923952675718674 0.32413375498961278 0 -0.1982137340385926 0.31841575160056651 0 -0.1923952675718674 0.32413375498961278 0 -0.18983841364249041 0.3148084349979593 0 -0.18085654929183709 0.32051846040107451 0 -0.1923952675718674 0.32413375498961278 0 -0.18983841364249041 0.3148084349979593 0 -0.20782105187013319 0.30954472436532471 0 -0.18129620578495889 0.30783812483036188 0 -0.20782105187013319 0.30954472436532471 0 -0.20512060648249131 0.29729754485027621 0 -0.18129620578495889 0.30783812483036188 0 -0.18983841364249041 0.3148084349979593 0 -0.20782105187013319 0.30954472436532471 0 -0.18129620578495889 0.30783812483036188 0 -0.20512060648249131 0.29729754485027621 0 -0.1770120885195243 0.29561212733020042 0 -0.18129620578495889 0.30783812483036188 0 -0.19888730759529799 0.29058631156216919 0 -0.20512060648249131 0.29729754485027621 0 -0.1770120885195243 0.29561212733020042 0 -0.20512060648249131 0.29729754485027621 0 -0.1770120885195243 0.29561212733020042 0 -0.19888730759529799 0.29058631156216919 0 -0.18971533855842251 0.28027900102146153 0 -0.1770120885195243 0.29561212733020042 0 -0.19888730759529799 0.29058631156216919 0 -0.20188151216473829 0.28260746085252603 0 -0.20512060648249131 0.29729754485027621 0 -0.19888730759529799 0.29058631156216919 0 -0.20188151216473829 0.28260746085252603 0 -0.18971533855842251 0.28027900102146153 0 -0.19888730759529799 0.29058631156216919 0 -0.20188151216473829 0.28260746085252603 0 -0.20188151216473829 0.28260746085252603 0 -0.20512060648249131 0.29729754485027621 0 -0.21985086836803661 0.29818078748476767 0 -0.20188151216473829 0.28260746085252603 0 -0.21985086836803661 0.29818078748476767 0 -0.20324850884328399 0.27896473632728491 0 -0.21985086836803661 0.29818078748476767 0 -0.20324850884328399 0.27896473632728491 0 -0.21985086836803661 0.29818078748476767 0 -0.2200276237484329 0.29033234993457691 0 -0.20324850884328399 0.27896473632728491 0 -0.20188151216473829 0.28260746085252603 0 -0.20512060648249131 0.29729754485027621 0 -0.20782105187013319 0.30954472436532471 0 -0.20512060648249131 0.29729754485027621 0 -0.21985086836803661 0.29818078748476767 0 -0.20782105187013319 0.30954472436532471 0 -0.20512060648249131 0.29729754485027621 0 -0.20512060648249131 0.29729754485027621 0 -0.21985086836803661 0.29818078748476767 0 -0.23324890844559501 0.3111807439700171 0 -0.2200276237484329 0.29033234993457691 0 -0.23694379911766311 0.29641863380189992 0 -0.23324890844559501 0.3111807439700171 0 -0.2200276237484329 0.29033234993457691 0 -0.23324890844559501 0.3111807439700171 0 -0.22252503121021719 0.29834113321739142 0 -0.2200276237484329 0.29033234993457691 0 -0.20782105187013319 0.30954472436532471 0 -0.23095511348401401 0.31103316198585901 0 -0.20782105187013319 0.30954472436532471 0 -0.23095511348401401 0.31103316198585901 0 -0.21985086836803661 0.29818078748476767 0 -0.23324890844559501 0.3111807439700171 0 -0.23095511348401401 0.31103316198585901 0 -0.22252503121021719 0.29834113321739142 0 -0.23436961135623169 0.31498520059168772 0 -0.23324890844559501 0.3111807439700171 0 -0.23095511348401401 0.31103316198585901 0 -0.23436961135623169 0.31498520059168772 0 -0.23324890844559501 0.3111807439700171 0 -0.23476681729957999 0.31127840570709142 0 -0.23324890844559501 0.3111807439700171 0 -0.23476681729957999 0.31127840570709142 0 -0.23324890844559501 0.3111807439700171 0 -0.23095511348401401 0.31103316198585901 0 -0.23095511348401401 0.31103316198585901 0 -0.22252503121021719 0.29834113321739142 0 -0.21985086836803661 0.29818078748476767 0 -0.23095511348401401 0.31103316198585901 0 -0.21985086836803661 0.29818078748476767 0 -0.22252503121021719 0.29834113321739142 0 -0.21985086836803661 0.29818078748476767 0 -0.2200276237484329 0.29033234993457691 0 -0.23694379911766311 0.29641863380189992 0 -0.24013215390960629 0.27688613297126707 0 -0.22252503121021719 0.29834113321739142 0 -0.21985086836803661 0.29818078748476767 0 -0.2200276237484329 0.29033234993457691 0 -0.25612174437497598 0.29477886934581687 0 -0.23694379911766311 0.29641863380189992 0 -0.24013215390960629 0.27688613297126707 0 -0.25612174437497598 0.29477886934581687 0 -0.23436961135623169 0.31498520059168772 0 -0.23476681729957999 0.31127840570709142 0 -0.25612174437497598 0.29477886934581687 0 -0.23694379911766311 0.29641863380189992 0 -0.23476681729957999 0.31127840570709142 0 -0.25612174437497598 0.29477886934581687 0 -0.23436961135623169 0.31498520059168772 0 -0.23324890844559501 0.3111807439700171 0 -0.23694379911766311 0.29641863380189992 0 -0.23476681729957999 0.31127840570709142 0 -0.2419990777252152 0.25293648704472099 0 -0.24013215390960629 0.27688613297126707 0 -0.22517260394651531 0.26614107237684492 0 -0.25952997509010678 0.26413212719712081 0 -0.2419990777252152 0.25293648704472099 0 -0.24013215390960629 0.27688613297126707 0 -0.2200276237484329 0.29033234993457691 0 -0.24013215390960629 0.27688613297126707 0 -0.22517260394651531 0.26614107237684492 0 -0.2419990777252152 0.25293648704472099 0 -0.21490162638859439 0.2479119197812811 0 -0.2419990777252152 0.25293648704472099 0 -0.22517260394651531 0.26614107237684492 0 -0.21490162638859439 0.2479119197812811 0 -0.20680633905127091 0.26948395589913671 0 -0.1969000237016991 0.25386287439473609 0 -0.21490162638859439 0.2479119197812811 0 -0.20680633905127091 0.26948395589913671 0 -0.21490162638859439 0.2479119197812811 0 -0.22517260394651531 0.26614107237684492 0 -0.20680633905127091 0.26948395589913671 0 -0.21490162638859439 0.2479119197812811 0 -0.2200276237484329 0.29033234993457691 0 -0.20680633905127091 0.26948395589913671 0 -0.2200276237484329 0.29033234993457691 0 -0.20680633905127091 0.26948395589913671 0 -0.20324850884328399 0.27896473632728491 0 -0.2200276237484329 0.29033234993457691 0 -0.22517260394651531 0.26614107237684492 0 -0.20680633905127091 0.26948395589913671 0 -0.20680633905127091 0.26948395589913671 0 -0.20324850884328399 0.27896473632728491 0 -0.20680633905127091 0.26948395589913671 0 -0.20324850884328399 0.27896473632728491 0 -0.20033467627648729 0.27559218222830578 0 -0.20033467627648729 0.27559218222830578 0 -0.18971533855842251 0.28027900102146153 0 -0.1872646715440206 0.2604645806850896 0 -0.20188151216473829 0.28260746085252603 0 -0.20033467627648729 0.27559218222830578 0 -0.18971533855842251 0.28027900102146153 0 -0.20188151216473829 0.28260746085252603 0 -0.20033467627648729 0.27559218222830578 0 -0.20188151216473829 0.28260746085252603 0 -0.20324850884328399 0.27896473632728491 0 -0.20033467627648729 0.27559218222830578 0 -0.20188151216473829 0.28260746085252603 0 -0.20324850884328399 0.27896473632728491 0 -0.20324850884328399 0.27896473632728491 0 -0.20033467627648729 0.27559218222830578 0 -0.20033467627648729 0.27559218222830578 0 -0.19699554568844041 0.26044840930728608 0 -0.20680633905127091 0.26948395589913671 0 -0.20033467627648729 0.27559218222830578 0 -0.19699554568844041 0.26044840930728608 0 -0.20033467627648729 0.27559218222830578 0 -0.1872646715440206 0.2604645806850896 0 -0.1969000237016991 0.25386287439473609 0 -0.19422753500318671 0.24927008917741861 0 -0.21490162638859439 0.2479119197812811 0 -0.1969000237016991 0.25386287439473609 0 -0.19699554568844041 0.26044840930728608 0 -0.19207355326670039 0.2563579636235741 0 -0.20680633905127091 0.26948395589913671 0 -0.1969000237016991 0.25386287439473609 0 -0.20680633905127091 0.26948395589913671 0 -0.1969000237016991 0.25386287439473609 0 -0.19699554568844041 0.26044840930728608 0 -0.20033467627648729 0.27559218222830578 0 -0.19699554568844041 0.26044840930728608 0 -0.1872646715440206 0.2604645806850896 0 -0.19699554568844041 0.26044840930728608 0 -0.19207355326670039 0.2563579636235741 0 -0.1872646715440206 0.2604645806850896 0 -0.19207355326670039 0.2563579636235741 0 -0.18950928732507449 0.25308855862167973 0 -0.1872646715440206 0.2604645806850896 0 -0.19207355326670039 0.2563579636235741 0 -0.18950928732507449 0.25308855862167973 0 -0.19422753500318671 0.24927008917741861 0 -0.1969000237016991 0.25386287439473609 0 -0.19207355326670039 0.2563579636235741 0 -0.19422753500318671 0.24927008917741861 0 -0.1872646715440206 0.2604645806850896 0 -0.16692061718588039 0.26216235265565202 0 -0.17419466681155291 0.24533697914187419 0 -0.1872646715440206 0.2604645806850896 0 -0.17419466681155291 0.24533697914187419 0 -0.18523891074017471 0.24700351220784261 0 -0.18950928732507449 0.25308855862167973 0 -0.1872646715440206 0.2604645806850896 0 -0.18523891074017471 0.24700351220784261 0 -0.1872646715440206 0.2604645806850896 0 -0.17419466681155291 0.24533697914187419 0 -0.15080605250994189 0.2509115815981382 0 -0.15020312497912239 0.2546436794913306 0 -0.17419466681155291 0.24533697914187419 0 -0.16692061718588039 0.26216235265565202 0 -0.15020312497912239 0.2546436794913306 0 -0.17419466681155291 0.24533697914187419 0 -0.16484959687625761 0.27726751789666942 0 -0.15676194440302049 0.28433257382407401 0 -0.1477491970139613 0.26983339785823662 0 -0.16692061718588039 0.26216235265565202 0 -0.16484959687625761 0.27726751789666942 0 -0.1477491970139613 0.26983339785823662 0 -0.16692061718588039 0.26216235265565202 0 -0.16484959687625761 0.27726751789666942 0 -0.17715246253682099 0.27515711591781461 0 -0.1872646715440206 0.2604645806850896 0 -0.16692061718588039 0.26216235265565202 0 -0.17715246253682099 0.27515711591781461 0 -0.18971533855842251 0.28027900102146153 0 -0.1872646715440206 0.2604645806850896 0 -0.17715246253682099 0.27515711591781461 0 -0.18971533855842251 0.28027900102146153 0 -0.17715246253682099 0.27515711591781461 0 -0.1770120885195243 0.29561212733020042 0 -0.16484959687625761 0.27726751789666942 0 -0.17715246253682099 0.27515711591781461 0 -0.1770120885195243 0.29561212733020042 0 -0.16741700534784271 0.313583066958524 0 -0.17421600553906061 0.31597224189195228 0 -0.18129620578495889 0.30783812483036188 0 -0.1770120885195243 0.29561212733020042 0 -0.18129620578495889 0.30783812483036188 0 -0.15477135969978459 0.30613152529539928 0 -0.18129620578495889 0.30783812483036188 0 -0.15477135969978459 0.30613152529539928 0 -0.16741700534784271 0.313583066958524 0 -0.18129620578495889 0.30783812483036188 0 -0.15477135969978459 0.30613152529539928 0 -0.1770120885195243 0.29561212733020042 0 -0.14890357055655751 0.29392670981012209 0 -0.15477135969978459 0.30613152529539928 0 -0.1579847350986246 0.31633475918929083 0 -0.16741700534784271 0.313583066958524 0 -0.15477135969978459 0.30613152529539928 0 -0.1770120885195243 0.29561212733020042 0 -0.14890357055655751 0.29392670981012209 0 -0.1770120885195243 0.29561212733020042 0 -0.15676194440302049 0.28433257382407401 0 -0.14890357055655751 0.29392670981012209 0 -0.16484959687625761 0.27726751789666942 0 -0.1770120885195243 0.29561212733020042 0 -0.15676194440302049 0.28433257382407401 0 -0.15676194440302049 0.28433257382407401 0 -0.14890357055655751 0.29392670981012209 0 -0.14529526904879969 0.28502311622514259 0 -0.14390529397997651 0.29362700767273542 0 -0.14529526904879969 0.28502311622514259 0 -0.14890357055655751 0.29392670981012209 0 -0.14529526904879969 0.28502311622514259 0 -0.14890357055655751 0.29392670981012209 0 -0.14390529397997651 0.29362700767273542 0 -0.14529526904879969 0.28502311622514259 0 -0.14890357055655751 0.29392670981012209 0 -0.14390529397997651 0.29362700767273542 0 -0.14390529397997651 0.29362700767273542 0 -0.14529526904879969 0.28502311622514259 0 -0.13423183353405599 0.28540722228863619 0 -0.1579847350986246 0.31633475918929083 0 -0.14153783749322921 0.30828147096186159 0 -0.1579847350986246 0.31633475918929083 0 -0.14890357055655751 0.29392670981012209 0 -0.15477135969978459 0.30613152529539928 0 -0.1579847350986246 0.31633475918929083 0 -0.14890357055655751 0.29392670981012209 0 -0.1579847350986246 0.31633475918929083 0 -0.14890357055655751 0.29392670981012209 0 -0.14153783749322921 0.30828147096186159 0 -0.14890357055655751 0.29392670981012209 0 -0.14390529397997651 0.29362700767273542 0 -0.14153783749322921 0.30828147096186159 0 -0.14390529397997651 0.29362700767273542 0 -0.14153783749322921 0.30828147096186159 0 -0.14153783749322921 0.30828147096186159 0 -0.1243204009912955 0.29985088532714921 0 -0.1200149295023538 0.32122124578067102 0 -0.14153783749322921 0.30828147096186159 0 -0.1243204009912955 0.29985088532714921 0 -0.14390529397997651 0.29362700767273542 0 -0.14153783749322921 0.30828147096186159 0 -0.1243204009912955 0.29985088532714921 0 -0.14390529397997651 0.29362700767273542 0 -0.12550412923466861 0.2925236536825867 0 -0.1243204009912955 0.29985088532714921 0 -0.14390529397997651 0.29362700767273542 0 -0.12550412923466861 0.2925236536825867 0 -0.14390529397997651 0.29362700767273542 0 -0.13423183353405599 0.28540722228863619 0 -0.12550412923466861 0.2925236536825867 0 -0.14529526904879969 0.28502311622514259 0 -0.13423183353405599 0.28540722228863619 0 -0.1330037197495082 0.27569099839950217 0 -0.13423183353405599 0.28540722228863619 0 -0.12550412923466861 0.2925236536825867 0 -0.1234507556573279 0.28017133546321421 0 -0.1355266931395111 0.26033690063920339 0 -0.11831606392684139 0.27095355460316778 0 -0.1330037197495082 0.27569099839950217 0 -0.1249246084536931 0.2743639077932753 0 -0.1234507556573279 0.28017133546321421 0 -0.14529526904879969 0.28502311622514259 0 -0.1355266931395111 0.26033690063920339 0 -0.13423183353405599 0.28540722228863619 0 -0.1330037197495082 0.27569099839950217 0 -0.1234507556573279 0.28017133546321421 0 -0.1290752114230965 0.26961104510022887 0 -0.1355266931395111 0.26033690063920339 0 -0.11831606392684139 0.27095355460316778 0 -0.14529526904879969 0.28502311622514259 0 -0.1330037197495082 0.27569099839950217 0 -0.1355266931395111 0.26033690063920339 0 -0.1330037197495082 0.27569099839950217 0 -0.1290752114230965 0.26961104510022887 0 -0.1355266931395111 0.26033690063920339 0 -0.1330037197495082 0.27569099839950217 0 -0.1290752114230965 0.26961104510022887 0 -0.1249246084536931 0.2743639077932753 0 -0.1355266931395111 0.26033690063920339 0 -0.1204693105274901 0.25832786696498372 0 -0.12654932572426339 0.23876693159931081 0 -0.1355266931395111 0.26033690063920339 0 -0.15020312497912239 0.2546436794913306 0 -0.1477491970139613 0.26983339785823662 0 -0.16692061718588039 0.26216235265565202 0 -0.15020312497912239 0.2546436794913306 0 -0.1477491970139613 0.26983339785823662 0 -0.1355266931395111 0.26033690063920339 0 -0.15080605250994189 0.2509115815981382 0 -0.13753920806889611 0.24804208742008771 0 -0.1355266931395111 0.26033690063920339 0 -0.15080605250994189 0.2509115815981382 0 -0.15020312497912239 0.2546436794913306 0 -0.1355266931395111 0.26033690063920339 0 -0.15020312497912239 0.2546436794913306 0 -0.1355266931395111 0.26033690063920339 0 -0.15080605250994189 0.2509115815981382 0 -0.15080605250994189 0.2509115815981382 0 -0.15020312497912239 0.2546436794913306 0 -0.15020312497912239 0.2546436794913306 0 -0.1477491970139613 0.26983339785823662 0 -0.14529526904879969 0.28502311622514259 0 -0.1355266931395111 0.26033690063920339 0 -0.1477491970139613 0.26983339785823662 0 -0.15676194440302049 0.28433257382407401 0 -0.14529526904879969 0.28502311622514259 0 -0.1477491970139613 0.26983339785823662 0 -0.14529526904879969 0.28502311622514259 0 -0.1477491970139613 0.26983339785823662 0 -0.1018839670273729 0.27188498094534558 0 -0.1041885249694095 0.2640934756760609 0 -0.1108986617350682 0.26989050540870929 0 -0.1018839670273729 0.27188498094534558 0 -0.1108986617350682 0.26989050540870929 0 -0.1012912518496599 0.28145558427282669 0 -0.09638562342688281 0.27531518231215307 0 -0.1012912518496599 0.28145558427282669 0 -0.093259782363701721 0.28092606518439278 0 -0.1018839670273729 0.27188498094534558 0 -0.09638562342688281 0.27531518231215307 0 -0.1012912518496599 0.28145558427282669 0 -0.1018839670273729 0.27188498094534558 0 -0.096164990964494629 0.26761781546297991 0 -0.1041885249694095 0.2640934756760609 0 -0.1018839670273729 0.27188498094534558 0 -0.09638562342688281 0.27531518231215307 0 -0.096164990964494629 0.26761781546297991 0 -0.096164990964494629 0.26761781546297991 0 -0.09737855826487482 0.25720975253264677 0 -0.08783196166619564 0.26043889480308002 0 -0.096164990964494629 0.26761781546297991 0 -0.09737855826487482 0.25720975253264677 0 -0.1041885249694095 0.2640934756760609 0 -0.09737855826487482 0.25720975253264677 0 -0.1000966024206025 0.24603533827206769 0 -0.09001103415809375 0.24995591684023821 0 -0.09737855826487482 0.25720975253264677 0 -0.1059782354104529 0.25511707414145401 0 -0.1000966024206025 0.24603533827206769 0 -0.1041885249694095 0.2640934756760609 0 -0.112085834079476 0.26045841366712852 0 -0.1108986617350682 0.26989050540870929 0 -0.1059782354104529 0.25511707414145401 0 -0.1041885249694095 0.2640934756760609 0 -0.112085834079476 0.26045841366712852 0 -0.09737855826487482 0.25720975253264677 0 -0.1059782354104529 0.25511707414145401 0 -0.1041885249694095 0.2640934756760609 0 -0.1355266931395111 0.26033690063920339 0 -0.1108986617350682 0.26989050540870929 0 -0.112085834079476 0.26045841366712852 0 -0.1204693105274901 0.25832786696498372 0 -0.1108986617350682 0.26989050540870929 0 -0.1355266931395111 0.26033690063920339 0 -0.1204693105274901 0.25832786696498372 0 -0.1108986617350682 0.26989050540870929 0 -0.1059782354104529 0.25511707414145401 0 -0.112085834079476 0.26045841366712852 0 -0.1118507546894966 0.24845023294428681 0 -0.112085834079476 0.26045841366712852 0 -0.1204693105274901 0.25832786696498372 0 -0.1118507546894966 0.24845023294428681 0 -0.11831606392684139 0.27095355460316778 0 -0.1108986617350682 0.26989050540870929 0 -0.1012912518496599 0.28145558427282669 0 -0.11831606392684139 0.27095355460316778 0 -0.1012912518496599 0.28145558427282669 0 -0.1355266931395111 0.26033690063920339 0 -0.11831606392684139 0.27095355460316778 0 -0.1108986617350682 0.26989050540870929 0 -0.11831606392684139 0.27095355460316778 0 -0.1129626587512412 0.28132561724835009 0 -0.1012912518496599 0.28145558427282669 0 -0.1290752114230965 0.26961104510022887 0 -0.11831606392684139 0.27095355460316778 0 -0.1249246084536931 0.2743639077932753 0 -0.11831606392684139 0.27095355460316778 0 -0.1193163840466625 0.27686455163511459 0 -0.1129626587512412 0.28132561724835009 0 -0.1193163840466625 0.27686455163511459 0 -0.1234507556573279 0.28017133546321421 0 -0.1129626587512412 0.28132561724835009 0 -0.11831606392684139 0.27095355460316778 0 -0.1193163840466625 0.27686455163511459 0 -0.1249246084536931 0.2743639077932753 0 -0.1193163840466625 0.27686455163511459 0 -0.1249246084536931 0.2743639077932753 0 -0.1234507556573279 0.28017133546321421 0 -0.12550412923466861 0.2925236536825867 0 -0.1129626587512412 0.28132561724835009 0 -0.1071029644893606 0.29142029969243921 0 -0.12550412923466861 0.2925236536825867 0 -0.1234507556573279 0.28017133546321421 0 -0.1129626587512412 0.28132561724835009 0 -0.12550412923466861 0.2925236536825867 0 -0.1071029644893606 0.29142029969243921 0 -0.1243204009912955 0.29985088532714921 0 -0.1071029644893606 0.29142029969243921 0 -0.12550412923466861 0.2925236536825867 0 -0.1243204009912955 0.29985088532714921 0 -0.1071029644893606 0.29142029969243921 0 -0.1243204009912955 0.29985088532714921 0 -0.1064512226489296 0.30589458580069567 0 -0.1071029644893606 0.29142029969243921 0 -0.1243204009912955 0.29985088532714921 0 -0.1064512226489296 0.30589458580069567 0 -0.1200149295023538 0.32122124578067102 0 -0.1064512226489296 0.30589458580069567 0 -0.092275405543860017 0.30640893924871992 0 -0.10105370920257301 0.32465452415714158 0 -0.1064512226489296 0.30589458580069567 0 -0.09288751579550529 0.29056792582072039 0 -0.092275405543860017 0.30640893924871992 0 -0.1064512226489296 0.30589458580069567 0 -0.09288751579550529 0.29056792582072039 0 -0.1071638920678781 0.28470762709100428 0 -0.1071029644893606 0.29142029969243921 0 -0.098997533701894735 0.28745144356497337 0 -0.1071638920678781 0.28470762709100428 0 -0.098997533701894735 0.28745144356497337 0 -0.1012912518496599 0.28145558427282669 0 -0.1129626587512412 0.28132561724835009 0 -0.1071638920678781 0.28470762709100428 0 -0.1071029644893606 0.29142029969243921 0 -0.1129626587512412 0.28132561724835009 0 -0.1071638920678781 0.28470762709100428 0 -0.1012912518496599 0.28145558427282669 0 -0.1071029644893606 0.29142029969243921 0 -0.098997533701894735 0.28745144356497337 0 -0.1064512226489296 0.30589458580069567 0 -0.1071029644893606 0.29142029969243921 0 -0.09288751579550529 0.29056792582072039 0 -0.1071029644893606 0.29142029969243921 0 -0.09288751579550529 0.29056792582072039 0 -0.1071029644893606 0.29142029969243921 0 -0.098997533701894735 0.28745144356497337 0 -0.09288751579550529 0.29056792582072039 0 -0.098997533701894735 0.28745144356497337 0 -0.1012912518496599 0.28145558427282669 0 -0.093259782363701721 0.28092606518439278 0 -0.098997533701894735 0.28745144356497337 0 -0.09288751579550529 0.29056792582072039 0 -0.093259782363701721 0.28092606518439278 0 -0.09288751579550529 0.29056792582072039 0 -0.081003241175594431 0.27713898355763678 0 -0.09288751579550529 0.29056792582072039 0 -0.069788545433559113 0.28918288626100219 0 -0.09288751579550529 0.29056792582072039 0 -0.069788545433559113 0.28918288626100219 0 -0.081003241175594431 0.27713898355763678 0 -0.09288751579550529 0.29056792582072039 0 -0.080651490978062235 0.30026763512215521 0 -0.069788545433559113 0.28918288626100219 0 -0.09288751579550529 0.29056792582072039 0 -0.081003241175594431 0.27713898355763678 0 -0.093259782363701721 0.28092606518439278 0 -0.09288751579550529 0.29056792582072039 0 -0.092275405543860017 0.30640893924871992 0 -0.080651490978062235 0.30026763512215521 0 -0.092275405543860017 0.30640893924871992 0 -0.080651490978062235 0.30026763512215521 0 -0.078004369378311414 0.31598930823932792 0 -0.068250117772607574 0.30162375820359011 0 -0.057990039490294798 0.31110589033109293 0 -0.078004369378311414 0.31598930823932792 0 -0.080651490978062235 0.30026763512215521 0 -0.068250117772607574 0.30162375820359011 0 -0.078004369378311414 0.31598930823932792 0 -0.080651490978062235 0.30026763512215521 0 -0.068250117772607574 0.30162375820359011 0 -0.069788545433559113 0.28918288626100219 0 -0.068250117772607574 0.30162375820359011 0 -0.069788545433559113 0.28918288626100219 0 -0.05788742368789801 0.29820619175006952 0 -0.064859725488673525 0.27335016847815591 0 -0.081003241175594431 0.27713898355763678 0 -0.076912573476577956 0.26486425980272982 0 -0.069788545433559113 0.28918288626100219 0 -0.064859725488673525 0.27335016847815591 0 -0.081003241175594431 0.27713898355763678 0 -0.088641776525075669 0.27216926309349659 0 -0.08783196166619564 0.26043889480308002 0 -0.076912573476577956 0.26486425980272982 0 -0.081003241175594431 0.27713898355763678 0 -0.088641776525075669 0.27216926309349659 0 -0.076912573476577956 0.26486425980272982 0 -0.096164990964494629 0.26761781546297991 0 -0.088641776525075669 0.27216926309349659 0 -0.08783196166619564 0.26043889480308002 0 -0.09638562342688281 0.27531518231215307 0 -0.096164990964494629 0.26761781546297991 0 -0.088641776525075669 0.27216926309349659 0 -0.081003241175594431 0.27713898355763678 0 -0.088641776525075669 0.27216926309349659 0 -0.093259782363701721 0.28092606518439278 0 -0.09638562342688281 0.27531518231215307 0 -0.088641776525075669 0.27216926309349659 0 -0.093259782363701721 0.28092606518439278 0 -0.08783196166619564 0.26043889480308002 0 -0.076912573476577956 0.26486425980272982 0 -0.077543192831836513 0.2490590682366626 0 -0.09737855826487482 0.25720975253264677 0 -0.08783196166619564 0.26043889480308002 0 -0.09001103415809375 0.24995591684023821 0 -0.08783196166619564 0.26043889480308002 0 -0.077543192831836513 0.2490590682366626 0 -0.09001103415809375 0.24995591684023821 0 -0.076912573476577956 0.26486425980272982 0 -0.062235378715942993 0.2575407036156 0 -0.077543192831836513 0.2490590682366626 0 -0.064859725488673525 0.27335016847815591 0 -0.076912573476577956 0.26486425980272982 0 -0.062235378715942993 0.2575407036156 0 -0.062235378715942993 0.2575407036156 0 -0.047541637402478777 0.25235478858570443 0 -0.046945053321640888 0.26834754077662148 0 -0.062235378715942993 0.2575407036156 0 -0.047541637402478777 0.25235478858570443 0 -0.063122606478691751 0.2425446012462259 0 -0.064859725488673525 0.27335016847815591 0 -0.046945053321640888 0.26834754077662148 0 -0.046689575071612921 0.287797846701284 0 -0.064859725488673525 0.27335016847815591 0 -0.062235378715942993 0.2575407036156 0 -0.046945053321640888 0.26834754077662148 0 -0.046945053321640888 0.26834754077662148 0 -0.033744549417732639 0.2791280462328477 0 -0.033158238182537131 0.25447225048241212 0 -0.046945053321640888 0.26834754077662148 0 -0.033744549417732639 0.2791280462328477 0 -0.046689575071612921 0.287797846701284 0 -0.047541637402478777 0.25235478858570443 0 -0.046945053321640888 0.26834754077662148 0 -0.033158238182537131 0.25447225048241212 0 -0.033158238182537131 0.25447225048241212 0 -0.019810624336267221 0.2755507448036309 0 -0.016725929346704929 0.2556928351502844 0 -0.019810624336267221 0.2755507448036309 0 -0.033158238182537131 0.25447225048241212 0 -0.016725929346704929 0.2556928351502844 0 -0.019810624336267221 0.2755507448036309 0 -0.033744549417732639 0.2791280462328477 0 -0.033158238182537131 0.25447225048241212 0 -0.019810624336267221 0.2755507448036309 0 -0.016725929346704929 0.2556928351502844 0 -0.019810624336267221 0.2755507448036309 0 -0.0086793527695252833 0.26659395542764408 0 -0.019810624336267221 0.2755507448036309 0 -0.0086793527695252833 0.26659395542764408 0 -0.002429867640735646 0.27818434943237969 0 -0.0086793527695252833 0.26659395542764408 0 -0.002429867640735646 0.27818434943237969 0 0.00013404393218866101 0.26668544968263141 0 -0.0086793527695252833 0.26659395542764408 0 -0.004564386456106905 0.25685639806929428 0 0.00013404393218866101 0.26668544968263141 0 -0.004564386456106905 0.25685639806929428 0 -0.0066167852236678039 0.24551400104462359 0 0.003791674785571924 0.24772290422529519 0 -0.016725929346704929 0.2556928351502844 0 -0.004564386456106905 0.25685639806929428 0 -0.0066167852236678039 0.24551400104462359 0 -0.016725929346704929 0.2556928351502844 0 -0.0086793527695252833 0.26659395542764408 0 -0.004564386456106905 0.25685639806929428 0 -0.00032039209777558631 0.30632963564433752 0 -0.024797042878766801 0.30765111428773101 0 -0.0073196809387918917 0.31630478116898952 0 -0.00032039209777558631 0.30632963564433752 0 -0.024797042878766801 0.30765111428773101 0 -0.00032039209777558631 0.30632963564433752 0 -0.010065508217021291 0.2909401902239841 0 -0.024797042878766801 0.30765111428773101 0 -0.00032039209777558631 0.30632963564433752 0 -0.010065508217021291 0.2909401902239841 0 0.002272398575433739 0.29367378081891471 0 -0.00032039209777558631 0.30632963564433752 0 -0.010065508217021291 0.2909401902239841 0 -0.019810624336267221 0.2755507448036309 0 -0.002429867640735646 0.27818434943237969 0 -0.010065508217021291 0.2909401902239841 0 -0.002429867640735646 0.27818434943237969 0 -0.010065508217021291 0.2909401902239841 0 0.002272398575433739 0.29367378081891471 0 -0.019810624336267221 0.2755507448036309 0 -0.010065508217021291 0.2909401902239841 0 -0.033744549417732639 0.2791280462328477 0 -0.022303833607517039 0.29160092954568101 0 -0.033559971986820293 0.29699896508745699 0 -0.033744549417732639 0.2791280462328477 0 -0.019810624336267221 0.2755507448036309 0 -0.022303833607517039 0.29160092954568101 0 -0.019810624336267221 0.2755507448036309 0 -0.022303833607517039 0.29160092954568101 0 -0.010065508217021291 0.2909401902239841 0 -0.022303833607517039 0.29160092954568101 0 -0.024797042878766801 0.30765111428773101 0 -0.019810624336267221 0.2755507448036309 0 -0.010065508217021291 0.2909401902239841 0 -0.022303833607517039 0.29160092954568101 0 -0.024797042878766801 0.30765111428773101 0 -0.035080465030515179 0.30820630964007201 0 -0.033559971986820293 0.29699896508745699 0 -0.022303833607517039 0.29160092954568101 0 -0.024797042878766801 0.30765111428773101 0 -0.033559971986820293 0.29699896508745699 0 -0.022303833607517039 0.29160092954568101 0 -0.024797042878766801 0.30765111428773101 0 -0.024797042878766801 0.30765111428773101 0 -0.035080465030515179 0.30820630964007201 0 -0.035080465030515179 0.30820630964007201 0 -0.033559971986820293 0.29699896508745699 0 -0.046718840671415643 0.30132057725337819 0 -0.035080465030515179 0.30820630964007201 0 -0.046718840671415643 0.30132057725337819 0 -0.046224983532875519 0.31095755650060808 0 -0.033744549417732639 0.2791280462328477 0 -0.033559971986820293 0.29699896508745699 0 -0.046689575071612921 0.287797846701284 0 -0.033559971986820293 0.29699896508745699 0 -0.046718840671415643 0.30132057725337819 0 -0.046689575071612921 0.287797846701284 0 -0.069788545433559113 0.28918288626100219 0 -0.064859725488673525 0.27335016847815591 0 -0.046689575071612921 0.287797846701284 0 -0.069788545433559113 0.28918288626100219 0 -0.046689575071612921 0.287797846701284 0 -0.069788545433559113 0.28918288626100219 0 -0.046689575071612921 0.287797846701284 0 -0.05788742368789801 0.29820619175006952 0 -0.046718840671415643 0.30132057725337819 0 -0.046689575071612921 0.287797846701284 0 -0.05788742368789801 0.29820619175006952 0 -0.046718840671415643 0.30132057725337819 0 -0.046224983532875519 0.31095755650060808 0 -0.057990039490294798 0.31110589033109293 0 -0.046718840671415643 0.30132057725337819 0 -0.05788742368789801 0.29820619175006952 0 -0.057990039490294798 0.31110589033109293 0 -0.068250117772607574 0.30162375820359011 0 -0.05788742368789801 0.29820619175006952 0 -0.057990039490294798 0.31110589033109293 0 -0.057990039490294798 0.31110589033109293 0 -0.045110588939276441 0.32319744877788908 0 -0.064047286880262039 0.32684540546392088 0 -0.046224983532875519 0.31095755650060808 0 -0.057990039490294798 0.31110589033109293 0 -0.045110588939276441 0.32319744877788908 0 -0.056408554639371847 0.34192227679241999 0 -0.045110588939276441 0.32319744877788908 0 -0.064047286880262039 0.32684540546392088 0 -0.056408554639371847 0.34192227679241999 0 -0.045110588939276441 0.32319744877788908 0 -0.029745462152803701 0.33950686119404511 0 -0.045110588939276441 0.32319744877788908 0 -0.027271252515784449 0.32357898774088822 0 -0.029745462152803701 0.33950686119404511 0 -0.056408554639371847 0.34192227679241999 0 -0.029745462152803701 0.33950686119404511 0 -0.035080465030515179 0.30820630964007201 0 -0.045110588939276441 0.32319744877788908 0 -0.027271252515784449 0.32357898774088822 0 -0.035080465030515179 0.30820630964007201 0 -0.046224983532875519 0.31095755650060808 0 -0.045110588939276441 0.32319744877788908 0 -0.024797042878766801 0.30765111428773101 0 -0.017017764890708761 0.32036778384122028 0 -0.027271252515784449 0.32357898774088822 0 -0.024797042878766801 0.30765111428773101 0 -0.027271252515784449 0.32357898774088822 0 -0.024797042878766801 0.30765111428773101 0 -0.035080465030515179 0.30820630964007201 0 -0.027271252515784449 0.32357898774088822 0 -0.024797042878766801 0.30765111428773101 0 -0.017017764890708761 0.32036778384122028 0 -0.0073196809387918917 0.31630478116898952 0 -0.017017764890708761 0.32036778384122028 0 -0.027271252515784449 0.32357898774088822 0 -0.01959498458670619 0.32968211546373433 0 -0.017017764890708761 0.32036778384122028 0 -0.01959498458670619 0.32968211546373433 0 -0.012145355212834301 0.32930739653553792 0 -0.027271252515784449 0.32357898774088822 0 -0.029745462152803701 0.33950686119404511 0 -0.02415363030457127 0.33900029587809288 0 -0.027271252515784449 0.32357898774088822 0 -0.02415363030457127 0.33900029587809288 0 -0.01959498458670619 0.32968211546373433 0 -0.027271252515784449 0.32357898774088822 0 -0.029745462152803701 0.33950686119404511 0 -0.029745462152803701 0.33950686119404511 0 -0.02415363030457127 0.33900029587809288 0 -0.029745462152803701 0.33950686119404511 0 -0.02415363030457127 0.33900029587809288 0 -0.025089257807807089 0.34635543622108239 0 -0.02415363030457127 0.33900029587809288 0 -0.016183554124338331 0.34221439479260951 0 -0.025089257807807089 0.34635543622108239 0 -0.02415363030457127 0.33900029587809288 0 -0.017887924409333809 0.33599171701546371 0 -0.016183554124338331 0.34221439479260951 0 -0.02415363030457127 0.33900029587809288 0 -0.017887924409333809 0.33599171701546371 0 -0.01959498458670619 0.32968211546373433 0 -0.017887924409333809 0.33599171701546371 0 -0.01959498458670619 0.32968211546373433 0 -0.012145355212834301 0.32930739653553792 0 -0.017887924409333809 0.33599171701546371 0 -0.012145355212834301 0.32930739653553792 0 -0.01018667915839656 0.33605890644529829 0 -0.012145355212834301 0.32930739653553792 0 -0.01018667915839656 0.33605890644529829 0 -0.0050053922650978933 0.32930959642776192 0 -0.016183554124338331 0.34221439479260951 0 -0.01018667915839656 0.33605890644529829 0 -0.0097171709973471829 0.34352630725604932 0 -0.017887924409333809 0.33599171701546371 0 -0.016183554124338331 0.34221439479260951 0 -0.01018667915839656 0.33605890644529829 0 -0.01018667915839656 0.33605890644529829 0 -0.0097171709973471829 0.34352630725604932 0 -0.0022169591028925739 0.34003475710261488 0 -0.01018667915839656 0.33605890644529829 0 -0.0022169591028925739 0.34003475710261488 0 -0.0050053922650978933 0.32930959642776192 0 -0.0022169591028925739 0.34003475710261488 0 -0.0050053922650978933 0.32930959642776192 0 0.0032683553199878181 0.33129555223838958 0 -0.0050053922650978933 0.32930959642776192 0 -0.00096930810877692583 0.32313220051569053 0 0.0032683553199878181 0.33129555223838958 0 -0.0050053922650978933 0.32930959642776192 0 -0.0073344624523362994 0.32321460206398672 0 -0.00096930810877692583 0.32313220051569053 0 -0.0073344624523362994 0.32321460206398672 0 -0.00096930810877692583 0.32313220051569053 0 -0.0073196809387918917 0.31630478116898952 0 -0.00096930810877692583 0.32313220051569053 0 -0.0073196809387918917 0.31630478116898952 0 0.0065208847956155381 0.31713335066096943 0 -0.00032039209777558631 0.30632963564433752 0 -0.0073196809387918917 0.31630478116898952 0 0.0065208847956155381 0.31713335066096943 0 -0.017017764890708761 0.32036778384122028 0 -0.0073344624523362994 0.32321460206398672 0 -0.0073196809387918917 0.31630478116898952 0 -0.017017764890708761 0.32036778384122028 0 -0.012145355212834301 0.32930739653553792 0 -0.0073344624523362994 0.32321460206398672 0 -0.012145355212834301 0.32930739653553792 0 -0.0050053922650978933 0.32930959642776192 0 -0.0073344624523362994 0.32321460206398672 0 -0.0076686872235991448 0.37344720763265937 0 -0.0073873219459194631 0.36168333091019972 0 -0.01861608957053662 0.36476063077242882 0 -0.0073873219459194631 0.36168333091019972 0 -0.014762174057493129 0.35750226177021799 0 -0.01861608957053662 0.36476063077242882 0 -0.0076686872235991448 0.37344720763265937 0 -0.0073873219459194631 0.36168333091019972 0 0.0030432833389739309 0.3686872213646244 0 -0.0073873219459194631 0.36168333091019972 0 0.001025247234433042 0.35787708659393203 0 0.0030432833389739309 0.3686872213646244 0 -0.0073873219459194631 0.36168333091019972 0 -0.0062651488388395593 0.35121833234929339 0 0.001025247234433042 0.35787708659393203 0 -0.0022169591028925739 0.34003475710261488 0 -0.0062651488388395593 0.35121833234929339 0 0.0066219711490996831 0.34891505666914191 0 -0.0097171709973471829 0.34352630725604932 0 -0.0022169591028925739 0.34003475710261488 0 -0.0062651488388395593 0.35121833234929339 0 -0.0097171709973471829 0.34352630725604932 0 -0.0062651488388395593 0.35121833234929339 0 -0.01688746127572234 0.34988561547910502 0 -0.016183554124338331 0.34221439479260951 0 -0.0097171709973471829 0.34352630725604932 0 -0.01688746127572234 0.34988561547910502 0 -0.0062651488388395593 0.35121833234929339 0 -0.014762174057493129 0.35750226177021799 0 -0.01688746127572234 0.34988561547910502 0 -0.0073873219459194631 0.36168333091019972 0 -0.0062651488388395593 0.35121833234929339 0 -0.014762174057493129 0.35750226177021799 0 -0.014762174057493129 0.35750226177021799 0 -0.01688746127572234 0.34988561547910502 0 -0.024405278689527549 0.35663257260671982 0 -0.01688746127572234 0.34988561547910502 0 -0.025089257807807089 0.34635543622108239 0 -0.024405278689527549 0.35663257260671982 0 -0.016183554124338331 0.34221439479260951 0 -0.01688746127572234 0.34988561547910502 0 -0.025089257807807089 0.34635543622108239 0 -0.025089257807807089 0.34635543622108239 0 -0.024405278689527549 0.35663257260671982 0 -0.031411090243902748 0.35022944227939129 0 -0.029745462152803701 0.33950686119404511 0 -0.031411090243902748 0.35022944227939129 0 -0.029745462152803701 0.33950686119404511 0 -0.025089257807807089 0.34635543622108239 0 -0.031411090243902748 0.35022944227939129 0 -0.024405278689527549 0.35663257260671982 0 -0.034943092971367017 0.3650212258081893 0 -0.031411090243902748 0.35022944227939129 0 -0.024163526534932981 0.37380641121506342 0 -0.01861608957053662 0.36476063077242882 0 -0.034943092971367017 0.3650212258081893 0 -0.0076686872235991448 0.37344720763265937 0 -0.024163526534932981 0.37380641121506342 0 -0.01861608957053662 0.36476063077242882 0 -0.024405278689527549 0.35663257260671982 0 -0.01861608957053662 0.36476063077242882 0 -0.034943092971367017 0.3650212258081893 0 -0.014762174057493129 0.35750226177021799 0 -0.024405278689527549 0.35663257260671982 0 -0.01861608957053662 0.36476063077242882 0 -0.034943092971367017 0.3650212258081893 0 -0.055339640862150583 0.36330732969928092 0 -0.043770308492812993 0.38053909799841701 0 -0.024163526534932981 0.37380641121506342 0 -0.034943092971367017 0.3650212258081893 0 -0.043770308492812993 0.38053909799841701 0 -0.034943092971367017 0.3650212258081893 0 -0.041569568173919193 0.35199742715466531 0 -0.055339640862150583 0.36330732969928092 0 -0.056408554639371847 0.34192227679241999 0 -0.029745462152803701 0.33950686119404511 0 -0.041569568173919193 0.35199742715466531 0 -0.029745462152803701 0.33950686119404511 0 -0.031411090243902748 0.35022944227939129 0 -0.041569568173919193 0.35199742715466531 0 -0.034943092971367017 0.3650212258081893 0 -0.031411090243902748 0.35022944227939129 0 -0.041569568173919193 0.35199742715466531 0 -0.056408554639371847 0.34192227679241999 0 -0.041569568173919193 0.35199742715466531 0 -0.055339640862150583 0.36330732969928092 0 -0.055339640862150583 0.36330732969928092 0 -0.071896364411212027 0.3771855066284231 0 -0.043770308492812993 0.38053909799841701 0 -0.055339640862150583 0.36330732969928092 0 -0.076761971411841837 0.36028292396265182 0 -0.071896364411212027 0.3771855066284231 0 -0.076761971411841837 0.36028292396265182 0 -0.085780831888840309 0.37252567947064358 0 -0.092595481949522357 0.36439707468599147 0 -0.085780831888840309 0.37252567947064358 0 -0.092595481949522357 0.36439707468599147 0 -0.10242827258793551 0.36785773789170878 0 -0.076761971411841837 0.36028292396265182 0 -0.092595481949522357 0.36439707468599147 0 -0.092698221134687661 0.35480053989376981 0 -0.076761971411841837 0.36028292396265182 0 -0.085780831888840309 0.37252567947064358 0 -0.071896364411212027 0.3771855066284231 0 -0.076761971411841837 0.36028292396265182 0 -0.083071647125939924 0.34433769239079531 0 -0.092698221134687661 0.35480053989376981 0 -0.056408554639371847 0.34192227679241999 0 -0.055339640862150583 0.36330732969928092 0 -0.076761971411841837 0.36028292396265182 0 -0.056408554639371847 0.34192227679241999 0 -0.076761971411841837 0.36028292396265182 0 -0.083071647125939924 0.34433769239079531 0 -0.083071647125939924 0.34433769239079531 0 -0.064047286880262039 0.32684540546392088 0 -0.078004369378311414 0.31598930823932792 0 -0.056408554639371847 0.34192227679241999 0 -0.083071647125939924 0.34433769239079531 0 -0.056408554639371847 0.34192227679241999 0 -0.083071647125939924 0.34433769239079531 0 -0.064047286880262039 0.32684540546392088 0 -0.057990039490294798 0.31110589033109293 0 -0.064047286880262039 0.32684540546392088 0 -0.078004369378311414 0.31598930823932792 0 -0.092275405543860017 0.30640893924871992 0 -0.078004369378311414 0.31598930823932792 0 -0.10105370920257301 0.32465452415714158 0 -0.083071647125939924 0.34433769239079531 0 -0.078004369378311414 0.31598930823932792 0 -0.10105370920257301 0.32465452415714158 0 -0.10105370920257301 0.32465452415714158 0 -0.1097347396125079 0.34675310798917058 0 -0.1066096221582484 0.34647000288988122 0 -0.083071647125939924 0.34433769239079531 0 -0.10105370920257301 0.32465452415714158 0 -0.1066096221582484 0.34647000288988122 0 -0.1064512226489296 0.30589458580069567 0 -0.10105370920257301 0.32465452415714158 0 -0.1200149295023538 0.32122124578067102 0 -0.10105370920257301 0.32465452415714158 0 -0.1200149295023538 0.32122124578067102 0 -0.1175413869550218 0.33519758545627881 0 -0.1064512226489296 0.30589458580069567 0 -0.1200149295023538 0.32122124578067102 0 -0.13357863635577469 0.33654790576064919 0 -0.1175413869550218 0.33519758545627881 0 -0.1233244569280421 0.34685457950984999 0 -0.13357863635577469 0.33654790576064919 0 -0.1200149295023538 0.32122124578067102 0 -0.1175413869550218 0.33519758545627881 0 -0.10105370920257301 0.32465452415714158 0 -0.1175413869550218 0.33519758545627881 0 -0.1097347396125079 0.34675310798917058 0 -0.1175413869550218 0.33519758545627881 0 -0.1233244569280421 0.34685457950984999 0 -0.1097347396125079 0.34675310798917058 0 -0.1233244569280421 0.34685457950984999 0 -0.10242827258793551 0.36785773789170878 0 -0.1045707468566409 0.35468806785020818 0 -0.12541893198456541 0.36256701212732789 0 -0.1233244569280421 0.34685457950984999 0 -0.10242827258793551 0.36785773789170878 0 -0.1233244569280421 0.34685457950984999 0 -0.1097347396125079 0.34675310798917058 0 -0.1045707468566409 0.35468806785020818 0 -0.1233244569280421 0.34685457950984999 0 -0.10242827258793551 0.36785773789170878 0 -0.1233244569280421 0.34685457950984999 0 -0.1097347396125079 0.34675310798917058 0 -0.12541893198456541 0.36256701212732789 0 -0.10242827258793551 0.36785773789170878 0 -0.1075889063767998 0.37765888989113172 0 -0.12541893198456541 0.36256701212732789 0 -0.1075889063767998 0.37765888989113172 0 -0.12541893198456541 0.36256701212732789 0 -0.12296577242776111 0.37403941816587571 0 -0.1075889063767998 0.37765888989113172 0 -0.092595481949522357 0.36439707468599147 0 -0.10242827258793551 0.36785773789170878 0 -0.1045707468566409 0.35468806785020818 0 -0.092698221134687661 0.35480053989376981 0 -0.1066096221582484 0.34647000288988122 0 -0.1045707468566409 0.35468806785020818 0 -0.083071647125939924 0.34433769239079531 0 -0.1066096221582484 0.34647000288988122 0 -0.092595481949522357 0.36439707468599147 0 -0.092698221134687661 0.35480053989376981 0 -0.1045707468566409 0.35468806785020818 0 -0.083071647125939924 0.34433769239079531 0 -0.092698221134687661 0.35480053989376981 0 -0.1066096221582484 0.34647000288988122 0 -0.1097347396125079 0.34675310798917058 0 -0.1066096221582484 0.34647000288988122 0 -0.1045707468566409 0.35468806785020818 0 -0.1097347396125079 0.34675310798917058 0 -0.1066096221582484 0.34647000288988122 0 -0.1037417565082928 0.39080808423435348 0 -0.1133160668901174 0.38884776321146919 0 -0.11048547401226411 0.39777954653306408 0 -0.1037417565082928 0.39080808423435348 0 -0.099471428486036476 0.40095149097095778 0 -0.11048547401226411 0.39777954653306408 0 -0.099471428486036476 0.40095149097095778 0 -0.11048547401226411 0.39777954653306408 0 -0.10756742271486661 0.40772702681560918 0 -0.099471428486036476 0.40095149097095778 0 -0.097342726513010625 0.4122462048574117 0 -0.08872943259465231 0.40254705436776678 0 -0.1037417565082928 0.39080808423435348 0 -0.099471428486036476 0.40095149097095778 0 -0.089758880769034238 0.3927507676549355 0 -0.10242827258793551 0.36785773789170878 0 -0.1075889063767998 0.37765888989113172 0 -0.089758880769034238 0.3927507676549355 0 -0.1037417565082928 0.39080808423435348 0 -0.1075889063767998 0.37765888989113172 0 -0.089758880769034238 0.3927507676549355 0 -0.1075889063767998 0.37765888989113172 0 -0.089758880769034238 0.3927507676549355 0 -0.1037417565082928 0.39080808423435348 0 -0.1075889063767998 0.37765888989113172 0 -0.1133160668901174 0.38884776321146919 0 -0.1075889063767998 0.37765888989113172 0 -0.1133160668901174 0.38884776321146919 0 -0.1230736302473963 0.38318059764092671 0 -0.12296577242776111 0.37403941816587571 0 -0.1075889063767998 0.37765888989113172 0 -0.1230736302473963 0.38318059764092671 0 -0.1133160668901174 0.38884776321146919 0 -0.1230736302473963 0.38318059764092671 0 -0.12169056730583371 0.39481169775787001 0 -0.1133160668901174 0.38884776321146919 0 -0.12169056730583371 0.39481169775787001 0 -0.11048547401226411 0.39777954653306408 0 -0.11048547401226411 0.39777954653306408 0 -0.12082572697990961 0.40660523088268802 0 -0.10756742271486661 0.40772702681560918 0 -0.12169056730583371 0.39481169775787001 0 -0.11048547401226411 0.39777954653306408 0 -0.12082572697990961 0.40660523088268802 0 -0.12626538229327941 0.41751927109444859 0 -0.12082572697990961 0.40660523088268802 0 -0.109711757583112 0.42105266083392501 0 -0.12082572697990961 0.40660523088268802 0 -0.109711757583112 0.42105266083392501 0 -0.10756742271486661 0.40772702681560918 0 -0.12774258126637361 0.43196655821060898 0 -0.109711757583112 0.42105266083392501 0 -0.1139830273234793 0.44205060688803338 0 -0.12774258126637361 0.43196655821060898 0 -0.12626538229327941 0.41751927109444859 0 -0.109711757583112 0.42105266083392501 0 -0.109711757583112 0.42105266083392501 0 -0.093402607744937 0.42613481156479688 0 -0.1014012365235671 0.43783226536693592 0 -0.109711757583112 0.42105266083392501 0 -0.1014012365235671 0.43783226536693592 0 -0.1139830273234793 0.44205060688803338 0 -0.109711757583112 0.42105266083392501 0 -0.097342726513010625 0.4122462048574117 0 -0.093402607744937 0.42613481156479688 0 -0.109711757583112 0.42105266083392501 0 -0.10756742271486661 0.40772702681560918 0 -0.097342726513010625 0.4122462048574117 0 -0.099471428486036476 0.40095149097095778 0 -0.10756742271486661 0.40772702681560918 0 -0.097342726513010625 0.4122462048574117 0 -0.097342726513010625 0.4122462048574117 0 -0.08792649551044196 0.41581777554148719 0 -0.08872943259465231 0.40254705436776678 0 -0.08792649551044196 0.41581777554148719 0 -0.093402607744937 0.42613481156479688 0 -0.077841435976202467 0.42223553683588982 0 -0.097342726513010625 0.4122462048574117 0 -0.08792649551044196 0.41581777554148719 0 -0.093402607744937 0.42613481156479688 0 -0.08792649551044196 0.41581777554148719 0 -0.078709576319330204 0.40700250786042902 0 -0.077841435976202467 0.42223553683588982 0 -0.08792649551044196 0.41581777554148719 0 -0.078709576319330204 0.40700250786042902 0 -0.08872943259465231 0.40254705436776678 0 -0.093402607744937 0.42613481156479688 0 -0.085256392578380802 0.44095976021253552 0 -0.1014012365235671 0.43783226536693592 0 -0.093402607744937 0.42613481156479688 0 -0.077841435976202467 0.42223553683588982 0 -0.085256392578380802 0.44095976021253552 0 -0.077841435976202467 0.42223553683588982 0 -0.070305114503580485 0.43484466263193511 0 -0.085256392578380802 0.44095976021253552 0 -0.077841435976202467 0.42223553683588982 0 -0.070305114503580485 0.43484466263193511 0 -0.060818557027946557 0.42663654893408298 0 -0.070305114503580485 0.43484466263193511 0 -0.060818557027946557 0.42663654893408298 0 -0.059037903421098631 0.43899232806748201 0 -0.077841435976202467 0.42223553683588982 0 -0.060635903907721563 0.40986405465542602 0 -0.060818557027946557 0.42663654893408298 0 -0.078709576319330204 0.40700250786042902 0 -0.077841435976202467 0.42223553683588982 0 -0.060635903907721563 0.40986405465542602 0 -0.08153208824782851 0.38886089627356751 0 -0.059700930103258269 0.39110300484557708 0 -0.060635903907721563 0.40986405465542602 0 -0.078709576319330204 0.40700250786042902 0 -0.08153208824782851 0.38886089627356751 0 -0.060635903907721563 0.40986405465542602 0 -0.08153208824782851 0.38886089627356751 0 -0.060635903907721563 0.40986405465542602 0 -0.078709576319330204 0.40700250786042902 0 -0.08872943259465231 0.40254705436776678 0 -0.08153208824782851 0.38886089627356751 0 -0.089758880769034238 0.3927507676549355 0 -0.08872943259465231 0.40254705436776678 0 -0.08153208824782851 0.38886089627356751 0 -0.099471428486036476 0.40095149097095778 0 -0.089758880769034238 0.3927507676549355 0 -0.08872943259465231 0.40254705436776678 0 -0.10242827258793551 0.36785773789170878 0 -0.089758880769034238 0.3927507676549355 0 -0.08153208824782851 0.38886089627356751 0 -0.10242827258793551 0.36785773789170878 0 -0.08153208824782851 0.38886089627356751 0 -0.085780831888840309 0.37252567947064358 0 -0.08153208824782851 0.38886089627356751 0 -0.071896364411212027 0.3771855066284231 0 -0.085780831888840309 0.37252567947064358 0 -0.10242827258793551 0.36785773789170878 0 -0.08153208824782851 0.38886089627356751 0 -0.08153208824782851 0.38886089627356751 0 -0.071896364411212027 0.3771855066284231 0 -0.059700930103258269 0.39110300484557708 0 -0.071896364411212027 0.3771855066284231 0 -0.043770308492812993 0.38053909799841701 0 -0.059700930103258269 0.39110300484557708 0 -0.040669985456716247 0.39906546867205211 0 -0.043770308492812993 0.38053909799841701 0 -0.071896364411212027 0.3771855066284231 0 -0.059700930103258269 0.39110300484557708 0 -0.043770308492812993 0.38053909799841701 0 -0.059700930103258269 0.39110300484557708 0 -0.040669985456716247 0.39906546867205211 0 -0.060635903907721563 0.40986405465542602 0 -0.040669985456716247 0.39906546867205211 0 -0.043770308492812993 0.38053909799841701 0 -0.023492557925130549 0.39481507974969032 0 -0.043770308492812993 0.38053909799841701 0 -0.015644252574413951 0.38389268936841081 0 -0.023492557925130549 0.39481507974969032 0 -0.0076686872235991448 0.37344720763265937 0 -0.024163526534932981 0.37380641121506342 0 -0.015644252574413951 0.38389268936841081 0 -0.024163526534932981 0.37380641121506342 0 -0.043770308492812993 0.38053909799841701 0 -0.015644252574413951 0.38389268936841081 0 -0.043770308492812993 0.38053909799841701 0 -0.015644252574413951 0.38389268936841081 0 -0.015644252574413951 0.38389268936841081 0 -0.023492557925130549 0.39481507974969032 0 -0.0103240943211206 0.38834871657323011 0 -0.0103240943211206 0.38834871657323011 0 -0.025031906944368042 0.40960796480525707 0 -0.040669985456716247 0.39906546867205211 0 -0.023492557925130549 0.39481507974969032 0 -0.025031906944368042 0.40960796480525707 0 -0.01280205951620886 0.40347902325538387 0 -0.0103240943211206 0.38834871657323011 0 -0.025031906944368042 0.40960796480525707 0 -0.023492557925130549 0.39481507974969032 0 -0.0103240943211206 0.38834871657323011 0 -0.025031906944368042 0.40960796480525707 0 -0.01280205951620886 0.40347902325538387 0 -0.0072461172275262997 0.39895558191686659 0 -0.0103240943211206 0.38834871657323011 0 -0.01280205951620886 0.40347902325538387 0 -0.0072461172275262997 0.39895558191686659 0 -0.0062698827988422884 0.40687083329545848 0 -0.0072461172275262997 0.39895558191686659 0 -0.0062698827988422884 0.40687083329545848 0 0.0019362671598315191 0.39720683037777738 0 -0.0072461172275262997 0.39895558191686659 0 -0.0103240943211206 0.38834871657323011 0 0.0019362671598315191 0.39720683037777738 0 -0.0076686872235991448 0.37344720763265937 0 -0.015644252574413951 0.38389268936841081 0 0.012481803343984891 0.38724628073840472 0 -0.015644252574413951 0.38389268936841081 0 -0.0103240943211206 0.38834871657323011 0 0.012481803343984891 0.38724628073840472 0 -0.015644252574413951 0.38389268936841081 0 0.012481803343984891 0.38724628073840472 0 -0.015439552706762789 0.42408249941583381 0 -0.01249245218021542 0.43142762754182712 0 -0.0080640383630453498 0.42020559079123732 0 -0.01249245218021542 0.43142762754182712 0 -0.0033847971853434139 0.43093556859388288 0 -0.0080640383630453498 0.42020559079123732 0 -0.01249245218021542 0.43142762754182712 0 -0.016846456926664179 0.44083414641674012 0 -0.0073226350732990709 0.4383012970811524 0 -0.01249245218021542 0.43142762754182712 0 -0.0033847971853434139 0.43093556859388288 0 -0.0073226350732990709 0.4383012970811524 0 -0.0033847971853434139 0.43093556859388288 0 -0.00033789435619270938 0.43757237590417902 0 -0.0073226350732990709 0.4383012970811524 0 -0.0033847971853434139 0.43093556859388288 0 -0.0080640383630453498 0.42020559079123732 0 0.0056028285917074346 0.42165407256078619 0 -0.00096918350646317563 0.41465633725833412 0 -0.0080640383630453498 0.42020559079123732 0 0.0056028285917074346 0.42165407256078619 0 -0.00096918350646317563 0.41465633725833412 0 -0.0062698827988422884 0.40687083329545848 0 -0.0080640383630453498 0.42020559079123732 0 -0.00096918350646317563 0.41465633725833412 0 -0.0062698827988422884 0.40687083329545848 0 0.0062110592726292973 0.41010007649745189 0 -0.0062698827988422884 0.40687083329545848 0 -0.01513829628918709 0.41361201968610678 0 -0.0080640383630453498 0.42020559079123732 0 -0.01280205951620886 0.40347902325538387 0 -0.0062698827988422884 0.40687083329545848 0 -0.01513829628918709 0.41361201968610678 0 -0.015439552706762789 0.42408249941583381 0 -0.01513829628918709 0.41361201968610678 0 -0.0080640383630453498 0.42020559079123732 0 -0.015439552706762789 0.42408249941583381 0 -0.01513829628918709 0.41361201968610678 0 -0.022103022583682911 0.42087581371226812 0 -0.01513829628918709 0.41361201968610678 0 -0.022103022583682911 0.42087581371226812 0 -0.025031906944368042 0.40960796480525707 0 -0.022103022583682911 0.42087581371226812 0 -0.025031906944368042 0.40960796480525707 0 -0.039739719567614677 0.4308672130372847 0 -0.01280205951620886 0.40347902325538387 0 -0.01513829628918709 0.41361201968610678 0 -0.025031906944368042 0.40960796480525707 0 -0.022103022583682911 0.42087581371226812 0 -0.02324651953077464 0.43184838008081999 0 -0.035855072897683311 0.43477174641707139 0 -0.022103022583682911 0.42087581371226812 0 -0.035855072897683311 0.43477174641707139 0 -0.015439552706762789 0.42408249941583381 0 -0.022103022583682911 0.42087581371226812 0 -0.02324651953077464 0.43184838008081999 0 -0.015439552706762789 0.42408249941583381 0 -0.01249245218021542 0.43142762754182712 0 -0.02324651953077464 0.43184838008081999 0 -0.01249245218021542 0.43142762754182712 0 -0.02324651953077464 0.43184838008081999 0 -0.016846456926664179 0.44083414641674012 0 -0.02324651953077464 0.43184838008081999 0 -0.02626313167212321 0.43750900095123268 0 -0.016846456926664179 0.44083414641674012 0 -0.02324651953077464 0.43184838008081999 0 -0.035855072897683311 0.43477174641707139 0 -0.02626313167212321 0.43750900095123268 0 -0.035855072897683311 0.43477174641707139 0 -0.031635147800528667 0.43901327461822742 0 -0.022103022583682911 0.42087581371226812 0 -0.035855072897683311 0.43477174641707139 0 -0.039739719567614677 0.4308672130372847 0 -0.035855072897683311 0.43477174641707139 0 -0.031635147800528667 0.43901327461822742 0 -0.02626313167212321 0.43750900095123268 0 -0.035855072897683311 0.43477174641707139 0 -0.039739719567614677 0.4308672130372847 0 -0.040669985456716247 0.39906546867205211 0 -0.025031906944368042 0.40960796480525707 0 -0.041184439137046593 0.41303076208244272 0 -0.025031906944368042 0.40960796480525707 0 -0.039739719567614677 0.4308672130372847 0 -0.025031906944368042 0.40960796480525707 0 -0.039739719567614677 0.4308672130372847 0 -0.041184439137046593 0.41303076208244272 0 -0.039739719567614677 0.4308672130372847 0 -0.041184439137046593 0.41303076208244272 0 -0.060635903907721563 0.40986405465542602 0 -0.040669985456716247 0.39906546867205211 0 -0.041184439137046593 0.41303076208244272 0 -0.060635903907721563 0.40986405465542602 0 -0.039739719567614677 0.4308672130372847 0 -0.060635903907721563 0.40986405465542602 0 -0.039739719567614677 0.4308672130372847 0 -0.060818557027946557 0.42663654893408298 0 -0.059037903421098631 0.43899232806748201 0 -0.039739719567614677 0.4308672130372847 0 -0.060635903907721563 0.40986405465542602 0 -0.060818557027946557 0.42663654893408298 0 -0.039739719567614677 0.4308672130372847 0 -0.059037903421098631 0.43899232806748201 0 -0.05632887096349537 0.45545975392418431 0 -0.039739719567614677 0.4308672130372847 0 -0.05632887096349537 0.45545975392418431 0 -0.059037903421098631 0.43899232806748201 0 -0.05632887096349537 0.45545975392418431 0 -0.070417933538512584 0.44550335176896072 0 -0.057740284855762672 0.45688593489485391 0 -0.052602622555938193 0.46562114260525023 0 -0.058749162537518329 0.47381198931568042 0 -0.05632887096349537 0.45545975392418431 0 -0.048190084851704083 0.46303305198939249 0 -0.040088203484183189 0.46056432170757777 0 -0.057740284855762672 0.45688593489485391 0 -0.05632887096349537 0.45545975392418431 0 -0.052602622555938193 0.46562114260525023 0 -0.057740284855762672 0.45688593489485391 0 -0.05632887096349537 0.45545975392418431 0 -0.05632887096349537 0.45545975392418431 0 -0.048190084851704083 0.46303305198939249 0 -0.052602622555938193 0.46562114260525023 0 -0.048190084851704083 0.46303305198939249 0 -0.052602622555938193 0.46562114260525023 0 -0.043740642403197708 0.47048698972055969 0 -0.05632887096349537 0.45545975392418431 0 -0.040088203484183189 0.46056432170757777 0 -0.033508988212780817 0.45380518126466751 0 -0.05632887096349537 0.45545975392418431 0 -0.033508988212780817 0.45380518126466751 0 -0.048190084851704083 0.46303305198939249 0 -0.040088203484183189 0.46056432170757777 0 -0.043740642403197708 0.47048698972055969 0 -0.040088203484183189 0.46056432170757777 0 -0.031665320753723358 0.46052837149624432 0 -0.033508988212780817 0.45380518126466751 0 -0.040088203484183189 0.46056432170757777 0 -0.031486775258480072 0.46757037194391682 0 -0.043740642403197708 0.47048698972055969 0 -0.040088203484183189 0.46056432170757777 0 -0.031665320753723358 0.46052837149624432 0 -0.031486775258480072 0.46757037194391682 0 -0.035855072897683311 0.43477174641707139 0 -0.05632887096349537 0.45545975392418431 0 -0.05632887096349537 0.45545975392418431 0 -0.033508988212780817 0.45380518126466751 0 -0.035003262161986813 0.44615934404612251 0 -0.035855072897683311 0.43477174641707139 0 -0.05632887096349537 0.45545975392418431 0 -0.035003262161986813 0.44615934404612251 0 -0.035855072897683311 0.43477174641707139 0 -0.039739719567614677 0.4308672130372847 0 -0.05632887096349537 0.45545975392418431 0 -0.033508988212780817 0.45380518126466751 0 -0.035003262161986813 0.44615934404612251 0 -0.028042397000470232 0.45066633222321673 0 -0.035855072897683311 0.43477174641707139 0 -0.035003262161986813 0.44615934404612251 0 -0.031635147800528667 0.43901327461822742 0 -0.035003262161986813 0.44615934404612251 0 -0.031635147800528667 0.43901327461822742 0 -0.027472302926090261 0.44279698103165038 0 -0.016846456926664179 0.44083414641674012 0 -0.028042397000470232 0.45066633222321673 0 -0.003662180686688134 0.44777646677072458 0 -0.027472302926090261 0.44279698103165038 0 -0.02626313167212321 0.43750900095123268 0 -0.016846456926664179 0.44083414641674012 0 -0.028042397000470232 0.45066633222321673 0 -0.003662180686688134 0.44777646677072458 0 -0.027472302926090261 0.44279698103165038 0 -0.016846456926664179 0.44083414641674012 0 -0.028042397000470232 0.45066633222321673 0 -0.033508988212780817 0.45380518126466751 0 -0.01068910546206637 0.45215060860514888 0 -0.031635147800528667 0.43901327461822742 0 -0.027472302926090261 0.44279698103165038 0 -0.02626313167212321 0.43750900095123268 0 -0.033508988212780817 0.45380518126466751 0 -0.028042397000470232 0.45066633222321673 0 -0.01068910546206637 0.45215060860514888 0 -0.035003262161986813 0.44615934404612251 0 -0.027472302926090261 0.44279698103165038 0 -0.028042397000470232 0.45066633222321673 0 -0.031665320753723358 0.46052837149624432 0 -0.033508988212780817 0.45380518126466751 0 -0.021577316059449372 0.46017361106881532 0 -0.033508988212780817 0.45380518126466751 0 -0.021577316059449372 0.46017361106881532 0 -0.01068910546206637 0.45215060860514888 0 -0.031486775258480072 0.46757037194391682 0 -0.021577316059449372 0.46017361106881532 0 -0.0205992538548363 0.47366305482565169 0 -0.031665320753723358 0.46052837149624432 0 -0.031486775258480072 0.46757037194391682 0 -0.021577316059449372 0.46017361106881532 0 -0.021577316059449372 0.46017361106881532 0 -0.0094517430675019921 0.46743856230645392 0 -0.0205992538548363 0.47366305482565169 0 -0.021577316059449372 0.46017361106881532 0 -0.0094517430675019921 0.46743856230645392 0 -0.01068910546206637 0.45215060860514888 0 -0.0094517430675019921 0.46743856230645392 0 0.002334760443109415 0.47154344293807721 0 0.0014539775662769251 0.46057763459147982 0 -0.0094517430675019921 0.46743856230645392 0 -0.01068910546206637 0.45215060860514888 0 0.0014539775662769251 0.46057763459147982 0 -0.003662180686688134 0.44777646677072458 0 -0.01068910546206637 0.45215060860514888 0 0.01213077728864808 0.4504960359456302 0 -0.028042397000470232 0.45066633222321673 0 -0.003662180686688134 0.44777646677072458 0 -0.01068910546206637 0.45215060860514888 0 -0.003662180686688134 0.44777646677072458 0 -0.00033789435619270938 0.43757237590417902 0 -0.0073226350732990709 0.4383012970811524 0 -0.016846456926664179 0.44083414641674012 0 -0.003662180686688134 0.44777646677072458 0 -0.0073226350732990709 0.4383012970811524 0 -0.0064975003056543766 0.48465894610548932 0 -0.02402931895542371 0.5 0 0.0046896294178049858 0.5 0 -0.0094517430675019921 0.46743856230645392 0 -0.0064975003056543766 0.48465894610548932 0 0.002334760443109415 0.47154344293807721 0 -0.0094517430675019921 0.46743856230645392 0 -0.0064975003056543766 0.48465894610548932 0 -0.0205992538548363 0.47366305482565169 0 -0.031486775258480072 0.46757037194391682 0 -0.0205992538548363 0.47366305482565169 0 -0.034088727847501818 0.48114040672817732 0 -0.0064975003056543766 0.48465894610548932 0 -0.0205992538548363 0.47366305482565169 0 -0.02402931895542371 0.5 0 -0.0205992538548363 0.47366305482565169 0 -0.02402931895542371 0.5 0 -0.034088727847501818 0.48114040672817732 0 -0.02402931895542371 0.5 0 -0.034088727847501818 0.48114040672817732 0 -0.052748267328652232 0.5 0 -0.034088727847501818 0.48114040672817732 0 -0.049626144380444812 0.48210042655998381 0 -0.052748267328652232 0.5 0 -0.031486775258480072 0.46757037194391682 0 -0.034088727847501818 0.48114040672817732 0 -0.043740642403197708 0.47048698972055969 0 -0.034088727847501818 0.48114040672817732 0 -0.043740642403197708 0.47048698972055969 0 -0.049626144380444812 0.48210042655998381 0 -0.049626144380444812 0.48210042655998381 0 -0.058749162537518329 0.47381198931568042 0 -0.065809656052592175 0.48780033096783959 0 -0.052602622555938193 0.46562114260525023 0 -0.043740642403197708 0.47048698972055969 0 -0.051088541014488113 0.47385125477368789 0 -0.052602622555938193 0.46562114260525023 0 -0.051088541014488113 0.47385125477368789 0 -0.058749162537518329 0.47381198931568042 0 -0.043740642403197708 0.47048698972055969 0 -0.051088541014488113 0.47385125477368789 0 -0.049626144380444812 0.48210042655998381 0 -0.051088541014488113 0.47385125477368789 0 -0.049626144380444812 0.48210042655998381 0 -0.058749162537518329 0.47381198931568042 0 -0.049626144380444812 0.48210042655998381 0 -0.052748267328652232 0.5 0 -0.065809656052592175 0.48780033096783959 0 -0.052748267328652232 0.5 0 -0.065809656052592175 0.48780033096783959 0 -0.081467215701880979 0.5 0 -0.065809656052592175 0.48780033096783959 0 -0.077379812790901226 0.48899417301105019 0 -0.081467215701880979 0.5 0 -0.065809656052592175 0.48780033096783959 0 -0.077379812790901226 0.48899417301105019 0 -0.074185840368506589 0.48065698473855317 0 -0.081467215701880979 0.5 0 -0.088056539040625159 0.48751937633780812 0 -0.11018616407510939 0.5 0 -0.077379812790901226 0.48899417301105019 0 -0.081467215701880979 0.5 0 -0.088056539040625159 0.48751937633780812 0 -0.077379812790901226 0.48899417301105019 0 -0.088056539040625159 0.48751937633780812 0 -0.074185840368506589 0.48065698473855317 0 -0.088056539040625159 0.48751937633780812 0 -0.090567936112822447 0.47131154054064323 0 -0.072898411948193964 0.47220265561633101 0 -0.088056539040625159 0.48751937633780812 0 -0.072898411948193964 0.47220265561633101 0 -0.088056539040625159 0.48751937633780812 0 -0.072898411948193964 0.47220265561633101 0 -0.074185840368506589 0.48065698473855317 0 -0.057740284855762672 0.45688593489485391 0 -0.072898411948193964 0.47220265561633101 0 -0.074185840368506589 0.48065698473855317 0 -0.057740284855762672 0.45688593489485391 0 -0.074185840368506589 0.48065698473855317 0 -0.057740284855762672 0.45688593489485391 0 -0.058749162537518329 0.47381198931568042 0 -0.074185840368506589 0.48065698473855317 0 -0.058749162537518329 0.47381198931568042 0 -0.065809656052592175 0.48780033096783959 0 -0.074185840368506589 0.48065698473855317 0 -0.057740284855762672 0.45688593489485391 0 -0.05632887096349537 0.45545975392418431 0 -0.080714218192476539 0.45722783175607951 0 -0.057740284855762672 0.45688593489485391 0 -0.072898411948193964 0.47220265561633101 0 -0.05632887096349537 0.45545975392418431 0 -0.080714218192476539 0.45722783175607951 0 -0.057740284855762672 0.45688593489485391 0 -0.072898411948193964 0.47220265561633101 0 -0.080714218192476539 0.45722783175607951 0 -0.05632887096349537 0.45545975392418431 0 -0.070417933538512584 0.44550335176896072 0 -0.080714218192476539 0.45722783175607951 0 -0.070305114503580485 0.43484466263193511 0 -0.059037903421098631 0.43899232806748201 0 -0.070417933538512584 0.44550335176896072 0 -0.070305114503580485 0.43484466263193511 0 -0.070417933538512584 0.44550335176896072 0 -0.085256392578380802 0.44095976021253552 0 -0.070417933538512584 0.44550335176896072 0 -0.085256392578380802 0.44095976021253552 0 -0.080714218192476539 0.45722783175607951 0 -0.085256392578380802 0.44095976021253552 0 -0.080714218192476539 0.45722783175607951 0 -0.1046523973879262 0.45896348733538828 0 -0.090567936112822447 0.47131154054064323 0 -0.072898411948193964 0.47220265561633101 0 -0.080714218192476539 0.45722783175607951 0 -0.080714218192476539 0.45722783175607951 0 -0.1046523973879262 0.45896348733538828 0 -0.090567936112822447 0.47131154054064323 0 -0.080714218192476539 0.45722783175607951 0 -0.1046523973879262 0.45896348733538828 0 -0.1046523973879262 0.45896348733538828 0 -0.1014012365235671 0.43783226536693592 0 -0.1139830273234793 0.44205060688803338 0 -0.085256392578380802 0.44095976021253552 0 -0.1046523973879262 0.45896348733538828 0 -0.1014012365235671 0.43783226536693592 0 -0.12859057658337589 0.46069914291469699 0 -0.12774258126637361 0.43196655821060898 0 -0.1139830273234793 0.44205060688803338 0 -0.12859057658337589 0.46069914291469699 0 -0.1046523973879262 0.45896348733538828 0 -0.12859057658337589 0.46069914291469699 0 -0.1046523973879262 0.45896348733538828 0 -0.1139830273234793 0.44205060688803338 0 -0.12859057658337589 0.46069914291469699 0 -0.1046523973879262 0.45896348733538828 0 -0.10756881977382 0.47766195749387652 0 -0.1251989796214896 0.48343113578115859 0 -0.12859057658337589 0.46069914291469699 0 -0.10756881977382 0.47766195749387652 0 -0.1389051124483377 0.5 0 -0.1251989796214896 0.48343113578115859 0 -0.11018616407510939 0.5 0 -0.1251989796214896 0.48343113578115859 0 -0.11018616407510939 0.5 0 -0.10756881977382 0.47766195749387652 0 -0.088056539040625159 0.48751937633780812 0 -0.11018616407510939 0.5 0 -0.10756881977382 0.47766195749387652 0 -0.090567936112822447 0.47131154054064323 0 -0.1046523973879262 0.45896348733538828 0 -0.10756881977382 0.47766195749387652 0 -0.088056539040625159 0.48751937633780812 0 -0.090567936112822447 0.47131154054064323 0 -0.10756881977382 0.47766195749387652 0 -0.16667453092926049 0.091067064751970003 0 -0.16526333526843739 0.068459433131343977 0 -0.14511349618049041 0.084123127738330833 0 -0.16667453092926049 0.091067064751970003 0 -0.16526333526843739 0.068459433131343977 0 -0.17782243958881219 0.08133434583691046 0 -0.16526333526843739 0.068459433131343977 0 -0.18334941338716551 0.069111255833377558 0 -0.17782243958881219 0.08133434583691046 0 -0.16526333526843739 0.068459433131343977 0 -0.18334941338716551 0.069111255833377558 0 -0.18541317435638441 0.052795738524357157 0 -0.18334941338716551 0.069111255833377558 0 -0.17782243958881219 0.08133434583691046 0 -0.1912471069594148 0.080798770948406221 0 -0.16667453092926049 0.091067064751970003 0 -0.17782243958881219 0.08133434583691046 0 -0.18257781139978299 0.097235204519454568 0 -0.17782243958881219 0.08133434583691046 0 -0.18257781139978299 0.097235204519454568 0 -0.1912471069594148 0.080798770948406221 0 -0.18257781139978299 0.097235204519454568 0 -0.17136278407969571 0.1114512224444392 0 -0.1895518980050237 0.1151226267716067 0 -0.16667453092926049 0.091067064751970003 0 -0.18257781139978299 0.097235204519454568 0 -0.17136278407969571 0.1114512224444392 0 -0.1895518980050237 0.1151226267716067 0 -0.19434096616379359 0.1315084048054635 0 -0.1774270875202196 0.12794909696787951 0 -0.17136278407969571 0.1114512224444392 0 -0.1895518980050237 0.1151226267716067 0 -0.1774270875202196 0.12794909696787951 0 -0.17136278407969571 0.1114512224444392 0 -0.15862950761492059 0.1082855062774002 0 -0.156711790986029 0.1266486597490438 0 -0.17136278407969571 0.1114512224444392 0 -0.156711790986029 0.1266486597490438 0 -0.1774270875202196 0.12794909696787951 0 -0.16667453092926049 0.091067064751970003 0 -0.17136278407969571 0.1114512224444392 0 -0.15862950761492059 0.1082855062774002 0 -0.16667453092926049 0.091067064751970003 0 -0.15862950761492059 0.1082855062774002 0 -0.15296810313452061 0.097596719298821452 0 -0.15296810313452061 0.097596719298821452 0 -0.14063334412426109 0.1006974005130126 0 -0.14511349618049041 0.084123127738330833 0 -0.15862950761492059 0.1082855062774002 0 -0.15296810313452061 0.097596719298821452 0 -0.14679787046225301 0.11078363960680029 0 -0.15296810313452061 0.097596719298821452 0 -0.14063334412426109 0.1006974005130126 0 -0.14679787046225301 0.11078363960680029 0 -0.14679787046225301 0.11078363960680029 0 -0.14056994565931541 0.1241699255409693 0 -0.156711790986029 0.1266486597490438 0 -0.15862950761492059 0.1082855062774002 0 -0.14679787046225301 0.11078363960680029 0 -0.156711790986029 0.1266486597490438 0 -0.14056994565931541 0.1241699255409693 0 -0.13283149307853759 0.1116874834401934 0 -0.12538013163551431 0.1235615211388761 0 -0.14679787046225301 0.11078363960680029 0 -0.14056994565931541 0.1241699255409693 0 -0.13283149307853759 0.1116874834401934 0 -0.13283149307853759 0.1116874834401934 0 -0.12538013163551431 0.1235615211388761 0 -0.1203286734786395 0.1140085367330374 0 -0.14063334412426109 0.1006974005130126 0 -0.13283149307853759 0.1116874834401934 0 -0.12496365709254351 0.099786822345317605 0 -0.14063334412426109 0.1006974005130126 0 -0.14511349618049041 0.084123127738330833 0 -0.12496365709254351 0.099786822345317605 0 -0.14063334412426109 0.1006974005130126 0 -0.14679787046225301 0.11078363960680029 0 -0.13283149307853759 0.1116874834401934 0 -0.13283149307853759 0.1116874834401934 0 -0.12496365709254351 0.099786822345317605 0 -0.1203286734786395 0.1140085367330374 0 -0.12819293178220359 0.086370742676851742 0 -0.14511349618049041 0.084123127738330833 0 -0.12496365709254351 0.099786822345317605 0 -0.14511349618049041 0.084123127738330833 0 -0.12496365709254351 0.099786822345317605 0 -0.12507013881000539 0.089626186415924514 0 -0.12819293178220359 0.086370742676851742 0 -0.12496365709254351 0.099786822345317605 0 -0.12819293178220359 0.086370742676851742 0 -0.1257527236209417 0.085016396217428403 0 -0.1216068506933829 0.089672221297597041 0 -0.12819293178220359 0.086370742676851742 0 -0.1218107812678077 0.091921798454556253 0 -0.12507013881000539 0.089626186415924514 0 -0.12819293178220359 0.086370742676851742 0 -0.1218107812678077 0.091921798454556253 0 -0.1274383000896771 0.080256685286637694 0 -0.12670438843014881 0.076799680774201962 0 -0.12485635251832949 0.078351939813024546 0 -0.1274383000896771 0.080256685286637694 0 -0.12487663512593079 0.081391171732444381 0 -0.12485635251832949 0.078351939813024546 0 -0.1274383000896771 0.080256685286637694 0 -0.12553973240708449 0.083487465722660095 0 -0.12487663512593079 0.081391171732444381 0 -0.1274383000896771 0.080256685286637694 0 -0.12795615124755361 0.082407051699447065 0 -0.13105527497339781 0.079543894337821205 0 -0.12819293178220359 0.086370742676851742 0 -0.12795615124755361 0.082407051699447065 0 -0.12553973240708449 0.083487465722660095 0 -0.1274383000896771 0.080256685286637694 0 -0.12795615124755361 0.082407051699447065 0 -0.12553973240708449 0.083487465722660095 0 -0.12819293178220359 0.086370742676851742 0 -0.12553973240708449 0.083487465722660095 0 -0.1257527236209417 0.085016396217428403 0 -0.12819293178220359 0.086370742676851742 0 -0.12795615124755361 0.082407051699447065 0 -0.13105527497339781 0.079543894337821205 0 -0.1274383000896771 0.080256685286637694 0 -0.13105527497339781 0.079543894337821205 0 -0.12925999599444521 0.077032649067396819 0 -0.12819293178220359 0.086370742676851742 0 -0.14511349618049041 0.084123127738330833 0 -0.1490118197004501 0.065565408412650905 0 -0.16667453092926049 0.091067064751970003 0 -0.15296810313452061 0.097596719298821452 0 -0.14511349618049041 0.084123127738330833 0 -0.12819293178220359 0.086370742676851742 0 -0.1490118197004501 0.065565408412650905 0 -0.14703098366294429 0.066514125147222658 0 -0.16526333526843739 0.068459433131343977 0 -0.14511349618049041 0.084123127738330833 0 -0.16526333526843739 0.068459433131343977 0 -0.14511349618049041 0.084123127738330833 0 -0.1490118197004501 0.065565408412650905 0 -0.14703098366294429 0.066514125147222658 0 -0.1419384174890034 0.065870714333301689 0 -0.1377808952583166 0.07060535669392895 0 -0.14703098366294429 0.066514125147222658 0 -0.14451951639672889 0.063702406861364566 0 -0.14775880618976051 0.060117427161460298 0 -0.14451951639672889 0.063702406861364566 0 -0.1419384174890034 0.065870714333301689 0 -0.14167870498430879 0.062059228787699407 0 -0.14703098366294429 0.066514125147222658 0 -0.14451951639672889 0.063702406861364566 0 -0.1419384174890034 0.065870714333301689 0 -0.1419384174890034 0.065870714333301689 0 -0.1373518483985352 0.065726389066509544 0 -0.14167870498430879 0.062059228787699407 0 -0.12819293178220359 0.086370742676851742 0 -0.13105527497339781 0.079543894337821205 0 -0.14703098366294429 0.066514125147222658 0 -0.12819293178220359 0.086370742676851742 0 -0.14703098366294429 0.066514125147222658 0 -0.13105527497339781 0.079543894337821205 0 -0.14703098366294429 0.066514125147222658 0 -0.1377808952583166 0.07060535669392895 0 -0.12819293178220359 0.086370742676851742 0 -0.1490118197004501 0.065565408412650905 0 -0.1373518483985352 0.065726389066509544 0 -0.12987677580399101 0.066971745259348264 0 -0.13557407051914391 0.05738375743153358 0 -0.1419384174890034 0.065870714333301689 0 -0.1373518483985352 0.065726389066509544 0 -0.1377808952583166 0.07060535669392895 0 -0.1373518483985352 0.065726389066509544 0 -0.13353133164218031 0.070685430785599954 0 -0.12987677580399101 0.066971745259348264 0 -0.1373518483985352 0.065726389066509544 0 -0.1377808952583166 0.07060535669392895 0 -0.13353133164218031 0.070685430785599954 0 -0.13105527497339781 0.079543894337821205 0 -0.1377808952583166 0.07060535669392895 0 -0.1321122724136011 0.075096229777755763 0 -0.1377808952583166 0.07060535669392895 0 -0.13353133164218031 0.070685430785599954 0 -0.1321122724136011 0.075096229777755763 0 -0.13105527497339781 0.079543894337821205 0 -0.12925999599444521 0.077032649067396819 0 -0.1321122724136011 0.075096229777755763 0 -0.12925999599444521 0.077032649067396819 0 -0.1321122724136011 0.075096229777755763 0 -0.1289897440654012 0.073466755160567443 0 -0.13353133164218031 0.070685430785599954 0 -0.1289897440654012 0.073466755160567443 0 -0.12987677580399101 0.066971745259348264 0 -0.13353133164218031 0.070685430785599954 0 -0.1321122724136011 0.075096229777755763 0 -0.1289897440654012 0.073466755160567443 0 -0.1289897440654012 0.073466755160567443 0 -0.12987677580399101 0.066971745259348264 0 -0.1226215052325052 0.073936349983915309 0 -0.1289897440654012 0.073466755160567443 0 -0.12670438843014881 0.076799680774201962 0 -0.1226215052325052 0.073936349983915309 0 -0.12925999599444521 0.077032649067396819 0 -0.1289897440654012 0.073466755160567443 0 -0.12670438843014881 0.076799680774201962 0 -0.1274383000896771 0.080256685286637694 0 -0.12925999599444521 0.077032649067396819 0 -0.12670438843014881 0.076799680774201962 0 -0.13557407051914391 0.05738375743153358 0 -0.13430865049500881 0.045465367544568022 0 -0.1197864358152651 0.053282202866922403 0 -0.12987677580399101 0.066971745259348264 0 -0.13557407051914391 0.05738375743153358 0 -0.1197864358152651 0.053282202866922403 0 -0.1373518483985352 0.065726389066509544 0 -0.13557407051914391 0.05738375743153358 0 -0.14167870498430879 0.062059228787699407 0 -0.13557407051914391 0.05738375743153358 0 -0.14264962174837839 0.057176221125366133 0 -0.14269659830178691 0.051420214059066167 0 -0.13557407051914391 0.05738375743153358 0 -0.14167870498430879 0.062059228787699407 0 -0.14264962174837839 0.057176221125366133 0 -0.13557407051914391 0.05738375743153358 0 -0.13430865049500881 0.045465367544568022 0 -0.14269659830178691 0.051420214059066167 0 -0.128895210172768 0.032880780971351282 0 -0.13430865049500881 0.045465367544568022 0 -0.1197864358152651 0.053282202866922403 0 -0.128895210172768 0.032880780971351282 0 -0.1390257380427467 0.037204695217623672 0 -0.13430865049500881 0.045465367544568022 0 -0.128895210172768 0.032880780971351282 0 -0.1390257380427467 0.037204695217623672 0 -0.1391655650141633 0.029395878277285691 0 -0.1390257380427467 0.037204695217623672 0 -0.13430865049500881 0.045465367544568022 0 -0.14545664780969769 0.043655247382139842 0 -0.13430865049500881 0.045465367544568022 0 -0.14545664780969769 0.043655247382139842 0 -0.14269659830178691 0.051420214059066167 0 -0.14545664780969769 0.043655247382139842 0 -0.14730261672209591 0.03462620191277356 0 -0.1519875103267323 0.040138102807254328 0 -0.1390257380427467 0.037204695217623672 0 -0.14545664780969769 0.043655247382139842 0 -0.14730261672209591 0.03462620191277356 0 -0.1390257380427467 0.037204695217623672 0 -0.14730261672209591 0.03462620191277356 0 -0.1391655650141633 0.029395878277285691 0 -0.14730261672209591 0.03462620191277356 0 -0.1519875103267323 0.040138102807254328 0 -0.15719461041450569 0.035005091616041317 0 -0.14730261672209591 0.03462620191277356 0 -0.15295002147725789 0.02943269054907274 0 -0.15719461041450569 0.035005091616041317 0 -0.14545664780969769 0.043655247382139842 0 -0.15198701724311961 0.045138124839463681 0 -0.1519875103267323 0.040138102807254328 0 -0.14545664780969769 0.043655247382139842 0 -0.15198701724311961 0.045138124839463681 0 -0.14986068991450849 0.049684027915639903 0 -0.1519875103267323 0.040138102807254328 0 -0.15666668185469079 0.04229589094091641 0 -0.15719461041450569 0.035005091616041317 0 -0.15198701724311961 0.045138124839463681 0 -0.1519875103267323 0.040138102807254328 0 -0.15666668185469079 0.04229589094091641 0 -0.15198701724311961 0.045138124839463681 0 -0.1553432811445972 0.047690691994382382 0 -0.15666668185469079 0.04229589094091641 0 -0.14703098366294429 0.066514125147222658 0 -0.1542481713148034 0.054214291431465687 0 -0.16690953771003481 0.047679342297204927 0 -0.1490118197004501 0.065565408412650905 0 -0.14703098366294429 0.066514125147222658 0 -0.16690953771003481 0.047679342297204927 0 -0.15198701724311961 0.045138124839463681 0 -0.1553432811445972 0.047690691994382382 0 -0.14986068991450849 0.049684027915639903 0 -0.1553432811445972 0.047690691994382382 0 -0.14986068991450849 0.049684027915639903 0 -0.1542481713148034 0.054214291431465687 0 -0.14986068991450849 0.049684027915639903 0 -0.1542481713148034 0.054214291431465687 0 -0.1481782216428216 0.055725866464508132 0 -0.14703098366294429 0.066514125147222658 0 -0.1542481713148034 0.054214291431465687 0 -0.14775880618976051 0.060117427161460298 0 -0.1542481713148034 0.054214291431465687 0 -0.1481782216428216 0.055725866464508132 0 -0.14775880618976051 0.060117427161460298 0 -0.1481782216428216 0.055725866464508132 0 -0.1448171379315045 0.060430445902740527 0 -0.14264962174837839 0.057176221125366133 0 -0.1481782216428216 0.055725866464508132 0 -0.14775880618976051 0.060117427161460298 0 -0.1448171379315045 0.060430445902740527 0 -0.14451951639672889 0.063702406861364566 0 -0.14775880618976051 0.060117427161460298 0 -0.1448171379315045 0.060430445902740527 0 -0.1448171379315045 0.060430445902740527 0 -0.14167870498430879 0.062059228787699407 0 -0.14264962174837839 0.057176221125366133 0 -0.14451951639672889 0.063702406861364566 0 -0.1448171379315045 0.060430445902740527 0 -0.14167870498430879 0.062059228787699407 0 -0.1481782216428216 0.055725866464508132 0 -0.14264962174837839 0.057176221125366133 0 -0.14269659830178691 0.051420214059066167 0 -0.14545664780969769 0.043655247382139842 0 -0.14986068991450849 0.049684027915639903 0 -0.14269659830178691 0.051420214059066167 0 -0.14986068991450849 0.049684027915639903 0 -0.1481782216428216 0.055725866464508132 0 -0.14269659830178691 0.051420214059066167 0 -0.14263431330638721 -0.0026543475024554258 0 -0.1296905307002188 -0.00029615891624961121 0 -0.13737113239023321 0.0066873079309429807 0 -0.1296905307002188 -0.00029615891624961121 0 -0.13737113239023321 0.0066873079309429807 0 -0.12688342370485001 0.01070171800265522 0 -0.1195315168135004 -0.0024303773624146621 0 -0.1296905307002188 -0.00029615891624961121 0 -0.12688342370485001 0.01070171800265522 0 -0.13737113239023321 0.0066873079309429807 0 -0.13451732322943211 0.0201794642440477 0 -0.14286676982687729 0.015003223074219189 0 -0.13737113239023321 0.0066873079309429807 0 -0.12688342370485001 0.01070171800265522 0 -0.13451732322943211 0.0201794642440477 0 -0.12688342370485001 0.01070171800265522 0 -0.13451732322943211 0.0201794642440477 0 -0.1242230929734665 0.023393682950198631 0 -0.128895210172768 0.032880780971351282 0 -0.13451732322943211 0.0201794642440477 0 -0.1242230929734665 0.023393682950198631 0 -0.128895210172768 0.032880780971351282 0 -0.13451732322943211 0.0201794642440477 0 -0.1391655650141633 0.029395878277285691 0 -0.13451732322943211 0.0201794642440477 0 -0.1391655650141633 0.029395878277285691 0 -0.1473711077332375 0.02355402125048545 0 -0.14730261672209591 0.03462620191277356 0 -0.1391655650141633 0.029395878277285691 0 -0.1473711077332375 0.02355402125048545 0 -0.1473711077332375 0.02355402125048545 0 -0.15295002147725789 0.02943269054907274 0 -0.15993175103919269 0.024545447416990641 0 -0.14730261672209591 0.03462620191277356 0 -0.1473711077332375 0.02355402125048545 0 -0.15295002147725789 0.02943269054907274 0 -0.1473711077332375 0.02355402125048545 0 -0.1522075159546063 0.0095920988714006342 0 -0.15993175103919269 0.024545447416990641 0 -0.1473711077332375 0.02355402125048545 0 -0.14286676982687729 0.015003223074219189 0 -0.1522075159546063 0.0095920988714006342 0 -0.13451732322943211 0.0201794642440477 0 -0.1473711077332375 0.02355402125048545 0 -0.14286676982687729 0.015003223074219189 0 -0.13737113239023321 0.0066873079309429807 0 -0.14286676982687729 0.015003223074219189 0 -0.1522075159546063 0.0095920988714006342 0 -0.15288594458857521 -0.0057362803360174394 0 -0.14263431330638721 -0.0026543475024554258 0 -0.1522075159546063 0.0095920988714006342 0 -0.14263431330638721 -0.0026543475024554258 0 -0.13737113239023321 0.0066873079309429807 0 -0.1522075159546063 0.0095920988714006342 0 -0.16664299870092189 -0.00098725277767185864 0 -0.1522075159546063 0.0095920988714006342 0 -0.17060107900225699 0.015300224281148829 0 -0.15288594458857521 -0.0057362803360174394 0 -0.16664299870092189 -0.00098725277767185864 0 -0.1522075159546063 0.0095920988714006342 0 -0.1522075159546063 0.0095920988714006342 0 -0.17060107900225699 0.015300224281148829 0 -0.15993175103919269 0.024545447416990641 0 -0.17060107900225699 0.015300224281148829 0 -0.15993175103919269 0.024545447416990641 0 -0.17471210158793971 0.02940441131841641 0 -0.15993175103919269 0.024545447416990641 0 -0.15719461041450569 0.035005091616041317 0 -0.16444464809090731 0.033382629238682307 0 -0.15295002147725789 0.02943269054907274 0 -0.15993175103919269 0.024545447416990641 0 -0.15719461041450569 0.035005091616041317 0 -0.15993175103919269 0.024545447416990641 0 -0.17471210158793971 0.02940441131841641 0 -0.16444464809090731 0.033382629238682307 0 -0.17060107900225699 0.015300224281148829 0 -0.17471210158793971 0.02940441131841641 0 -0.19064959553694311 0.023954739884249229 0 -0.17060107900225699 0.015300224281148829 0 -0.18590658937504029 0.0026401256165909611 0 -0.19064959553694311 0.023954739884249229 0 -0.16664299870092189 -0.00098725277767185864 0 -0.17060107900225699 0.015300224281148829 0 -0.18590658937504029 0.0026401256165909611 0 -0.16526333526843739 0.068459433131343977 0 -0.16690953771003481 0.047679342297204927 0 -0.16983070761869659 0.044760074148450069 0 -0.1490118197004501 0.065565408412650905 0 -0.16690953771003481 0.047679342297204927 0 -0.14703098366294429 0.066514125147222658 0 -0.16690953771003481 0.047679342297204927 0 -0.16526333526843739 0.068459433131343977 0 -0.1490118197004501 0.065565408412650905 0 -0.16690953771003481 0.047679342297204927 0 -0.1553432811445972 0.047690691994382382 0 -0.1542481713148034 0.054214291431465687 0 -0.1605154985578609 0.045755128638589701 0 -0.1542481713148034 0.054214291431465687 0 -0.16690953771003481 0.047679342297204927 0 -0.1605154985578609 0.045755128638589701 0 -0.1553432811445972 0.047690691994382382 0 -0.15666668185469079 0.04229589094091641 0 -0.1605154985578609 0.045755128638589701 0 -0.15666668185469079 0.04229589094091641 0 -0.16284294944854361 0.039584317592061768 0 -0.1605154985578609 0.045755128638589701 0 -0.16284294944854361 0.039584317592061768 0 -0.1605154985578609 0.045755128638589701 0 -0.16550768156407261 0.043210112185032221 0 -0.15666668185469079 0.04229589094091641 0 -0.16284294944854361 0.039584317592061768 0 -0.15719461041450569 0.035005091616041317 0 -0.16284294944854361 0.039584317592061768 0 -0.15719461041450569 0.035005091616041317 0 -0.16444464809090731 0.033382629238682307 0 -0.17471210158793971 0.02940441131841641 0 -0.16754182796435471 0.03837387824990144 0 -0.16983070761869659 0.044760074148450069 0 -0.17471210158793971 0.02940441131841641 0 -0.16444464809090731 0.033382629238682307 0 -0.16754182796435471 0.03837387824990144 0 -0.16284294944854361 0.039584317592061768 0 -0.16444464809090731 0.033382629238682307 0 -0.16754182796435471 0.03837387824990144 0 -0.16690953771003481 0.047679342297204927 0 -0.1605154985578609 0.045755128638589701 0 -0.16550768156407261 0.043210112185032221 0 -0.16690953771003481 0.047679342297204927 0 -0.16550768156407261 0.043210112185032221 0 -0.16983070761869659 0.044760074148450069 0 -0.16754182796435471 0.03837387824990144 0 -0.16550768156407261 0.043210112185032221 0 -0.16983070761869659 0.044760074148450069 0 -0.16284294944854361 0.039584317592061768 0 -0.16754182796435471 0.03837387824990144 0 -0.16550768156407261 0.043210112185032221 0 -0.16690953771003481 0.047679342297204927 0 -0.16983070761869659 0.044760074148450069 0 -0.16983070761869659 0.044760074148450069 0 -0.18541317435638441 0.052795738524357157 0 -0.19064959553694311 0.023954739884249229 0 -0.16983070761869659 0.044760074148450069 0 -0.19064959553694311 0.023954739884249229 0 -0.17471210158793971 0.02940441131841641 0 -0.16983070761869659 0.044760074148450069 0 -0.19064959553694311 0.023954739884249229 0 -0.16526333526843739 0.068459433131343977 0 -0.16983070761869659 0.044760074148450069 0 -0.18541317435638441 0.052795738524357157 0 -0.16526333526843739 0.068459433131343977 0 -0.18541317435638441 0.052795738524357157 0 -0.18541317435638441 0.052795738524357157 0 -0.212003188180026 0.045459358316512939 0 -0.20084988603359241 0.064238746366122021 0 -0.18334941338716551 0.069111255833377558 0 -0.18541317435638441 0.052795738524357157 0 -0.20084988603359241 0.064238746366122021 0 -0.18541317435638441 0.052795738524357157 0 -0.212003188180026 0.045459358316512939 0 -0.19064959553694311 0.023954739884249229 0 -0.212003188180026 0.045459358316512939 0 -0.2202950493619435 0.065540231179995606 0 -0.20084988603359241 0.064238746366122021 0 -0.18590658937504029 0.0026401256165909611 0 -0.19064959553694311 0.023954739884249229 0 -0.21146848345518951 0.003149405620048396 0 -0.19064959553694311 0.023954739884249229 0 -0.21146848345518951 0.003149405620048396 0 -0.19064959553694311 0.023954739884249229 0 -0.21836653901732489 0.023447964772470659 0 -0.21146848345518951 0.003149405620048396 0 -0.212003188180026 0.045459358316512939 0 -0.19064959553694311 0.023954739884249229 0 -0.21836653901732489 0.023447964772470659 0 -0.21836653901732489 0.023447964772470659 0 -0.21146848345518951 0.003149405620048396 0 -0.24496178883302311 0.01237944270509766 0 -0.21836653901732489 0.023447964772470659 0 -0.24496178883302311 0.01237944270509766 0 -0.23243935723684681 0.034580329818073442 0 -0.25457044692415531 0.039847410896771858 0 -0.24496178883302311 0.01237944270509766 0 -0.23243935723684681 0.034580329818073442 0 -0.212003188180026 0.045459358316512939 0 -0.23593583031384649 0.054100596417343112 0 -0.2202950493619435 0.065540231179995606 0 -0.212003188180026 0.045459358316512939 0 -0.23243935723684681 0.034580329818073442 0 -0.23593583031384649 0.054100596417343112 0 -0.212003188180026 0.045459358316512939 0 -0.21836653901732489 0.023447964772470659 0 -0.23243935723684681 0.034580329818073442 0 -0.25457044692415531 0.039847410896771858 0 -0.23243935723684681 0.034580329818073442 0 -0.23593583031384649 0.054100596417343112 0 -0.25797894661879511 0.062645041705594595 0 -0.25457044692415531 0.039847410896771858 0 -0.23593583031384649 0.054100596417343112 0 -0.25797894661879511 0.062645041705594595 0 -0.23593583031384649 0.054100596417343112 0 -0.24155975252329931 0.073837244407682759 0 -0.24155975252329931 0.073837244407682759 0 -0.22740017521243619 0.083596905565955004 0 -0.24211114701042519 0.09453997081764981 0 -0.22740017521243619 0.083596905565955004 0 -0.2226730059828548 0.1015290852565431 0 -0.24211114701042519 0.09453997081764981 0 -0.22740017521243619 0.083596905565955004 0 -0.21036192118365829 0.082537996167903832 0 -0.2226730059828548 0.1015290852565431 0 -0.22740017521243619 0.083596905565955004 0 -0.2202950493619435 0.065540231179995606 0 -0.21036192118365829 0.082537996167903832 0 -0.24155975252329931 0.073837244407682759 0 -0.22740017521243619 0.083596905565955004 0 -0.2202950493619435 0.065540231179995606 0 -0.23593583031384649 0.054100596417343112 0 -0.24155975252329931 0.073837244407682759 0 -0.2202950493619435 0.065540231179995606 0 -0.2202950493619435 0.065540231179995606 0 -0.21036192118365829 0.082537996167903832 0 -0.20084988603359241 0.064238746366122021 0 -0.18257781139978299 0.097235204519454568 0 -0.1912471069594148 0.080798770948406221 0 -0.20161825686011489 0.099426740396407046 0 -0.21036192118365829 0.082537996167903832 0 -0.1912471069594148 0.080798770948406221 0 -0.20161825686011489 0.099426740396407046 0 -0.18334941338716551 0.069111255833377558 0 -0.1912471069594148 0.080798770948406221 0 -0.20084988603359241 0.064238746366122021 0 -0.21036192118365829 0.082537996167903832 0 -0.1912471069594148 0.080798770948406221 0 -0.20084988603359241 0.064238746366122021 0 -0.1895518980050237 0.1151226267716067 0 -0.20998448200653561 0.12316509149599671 0 -0.19434096616379359 0.1315084048054635 0 -0.1895518980050237 0.1151226267716067 0 -0.20161825686011489 0.099426740396407046 0 -0.20998448200653561 0.12316509149599671 0 -0.18257781139978299 0.097235204519454568 0 -0.1895518980050237 0.1151226267716067 0 -0.20161825686011489 0.099426740396407046 0 -0.20161825686011489 0.099426740396407046 0 -0.20998448200653561 0.12316509149599671 0 -0.2226730059828548 0.1015290852565431 0 -0.21036192118365829 0.082537996167903832 0 -0.20161825686011489 0.099426740396407046 0 -0.2226730059828548 0.1015290852565431 0 -0.22892009829693391 0.1206968140226765 0 -0.2226730059828548 0.1015290852565431 0 -0.24007097381998019 0.1107183825947216 0 -0.20998448200653561 0.12316509149599671 0 -0.22892009829693391 0.1206968140226765 0 -0.2226730059828548 0.1015290852565431 0 -0.2226730059828548 0.1015290852565431 0 -0.24211114701042519 0.09453997081764981 0 -0.24007097381998019 0.1107183825947216 0 -0.25813148535304709 0.1137235584372733 0 -0.24211114701042519 0.09453997081764981 0 -0.24007097381998019 0.1107183825947216 0 -0.25813148535304709 0.1137235584372733 0 -0.24007097381998019 0.1107183825947216 0 -0.24645927362986639 0.1322616828522806 0 -0.22892009829693391 0.1206968140226765 0 -0.24007097381998019 0.1107183825947216 0 -0.24645927362986639 0.1322616828522806 0 -0.22892009829693391 0.1206968140226765 0 -0.24645927362986639 0.1322616828522806 0 -0.22727076960377021 0.1407272603990129 0 -0.20998448200653561 0.12316509149599671 0 -0.22892009829693391 0.1206968140226765 0 -0.22727076960377021 0.1407272603990129 0 -0.22727076960377021 0.1407272603990129 0 -0.24172537073617961 0.1498083737734853 0 -0.2327985481080396 0.1657027679543413 0 -0.22727076960377021 0.1407272603990129 0 -0.2327985481080396 0.1657027679543413 0 -0.21083925957963481 0.14978172045773511 0 -0.25799286945900141 0.15886893947765879 0 -0.24645927362986639 0.1322616828522806 0 -0.24172537073617961 0.1498083737734853 0 -0.24645927362986639 0.1322616828522806 0 -0.22727076960377021 0.1407272603990129 0 -0.24172537073617961 0.1498083737734853 0 -0.25799286945900141 0.15886893947765879 0 -0.24172537073617961 0.1498083737734853 0 -0.2327985481080396 0.1657027679543413 0 -0.25771628892770448 0.1781885867772483 0 -0.25799286945900141 0.15886893947765879 0 -0.2327985481080396 0.1657027679543413 0 -0.25771628892770448 0.1781885867772483 0 -0.23807852779806479 0.18615093052029949 0 -0.2327985481080396 0.1657027679543413 0 -0.23807852779806479 0.18615093052029949 0 -0.2327985481080396 0.1657027679543413 0 -0.2122352646949715 0.17861803039921961 0 -0.2327985481080396 0.1657027679543413 0 -0.2122352646949715 0.17861803039921961 0 -0.21083925957963481 0.14978172045773511 0 -0.2122352646949715 0.17861803039921961 0 -0.19344280684722351 0.16730730133756089 0 -0.21083925957963481 0.14978172045773511 0 -0.1939016413080776 0.184184334175128 0 -0.19344280684722351 0.16730730133756089 0 -0.1760463541148122 0.18483288221738681 0 -0.2122352646949715 0.17861803039921961 0 -0.1939016413080776 0.184184334175128 0 -0.19344280684722351 0.16730730133756089 0 -0.2122352646949715 0.17861803039921961 0 -0.1939016413080776 0.184184334175128 0 -0.20109745657390221 0.19819464053519739 0 -0.19344280684722351 0.16730730133756089 0 -0.21083925957963481 0.14978172045773511 0 -0.19344280684722351 0.16730730133756089 0 -0.1897292010882938 0.1474887291484186 0 -0.21083925957963481 0.14978172045773511 0 -0.1897292010882938 0.1474887291484186 0 -0.19434096616379359 0.1315084048054635 0 -0.21083925957963481 0.14978172045773511 0 -0.20998448200653561 0.12316509149599671 0 -0.19434096616379359 0.1315084048054635 0 -0.21083925957963481 0.14978172045773511 0 -0.20998448200653561 0.12316509149599671 0 -0.22727076960377021 0.1407272603990129 0 -0.21083925957963481 0.14978172045773511 0 -0.2419990777252152 0.25293648704472099 0 -0.22075493884011671 0.23936948420655149 0 -0.22262726019175141 0.22732492336095411 0 -0.21490162638859439 0.2479119197812811 0 -0.2419990777252152 0.25293648704472099 0 -0.22075493884011671 0.23936948420655149 0 -0.21490162638859439 0.2479119197812811 0 -0.22075493884011671 0.23936948420655149 0 -0.22262726019175141 0.22732492336095411 0 -0.21490162638859439 0.2479119197812811 0 -0.25825314838481339 0.2425458797231245 0 -0.2419990777252152 0.25293648704472099 0 -0.2408074769917862 0.23465833815203779 0 -0.2419990777252152 0.25293648704472099 0 -0.22075493884011671 0.23936948420655149 0 -0.2408074769917862 0.23465833815203779 0 -0.26474309448668609 0.22322285005153111 0 -0.2408074769917862 0.23465833815203779 0 -0.2417097275862935 0.21883514260066619 0 -0.2408074769917862 0.23465833815203779 0 -0.2417097275862935 0.21883514260066619 0 -0.22262726019175141 0.22732492336095411 0 -0.22075493884011671 0.23936948420655149 0 -0.2408074769917862 0.23465833815203779 0 -0.22262726019175141 0.22732492336095411 0 -0.22262726019175141 0.22732492336095411 0 -0.2303528939949081 0.20673792694062679 0 -0.2172976349730853 0.21361451564698869 0 -0.22262726019175141 0.22732492336095411 0 -0.2303528939949081 0.20673792694062679 0 -0.2417097275862935 0.21883514260066619 0 -0.22262726019175141 0.22732492336095411 0 -0.2303528939949081 0.20673792694062679 0 -0.2303528939949081 0.20673792694062679 0 -0.2168908574661382 0.19801621008371681 0 -0.2172976349730853 0.21361451564698869 0 -0.25001791226633591 0.20223167449818141 0 -0.2417097275862935 0.21883514260066619 0 -0.2303528939949081 0.20673792694062679 0 -0.25001791226633591 0.20223167449818141 0 -0.25771628892770448 0.1781885867772483 0 -0.23807852779806479 0.18615093052029949 0 -0.25001791226633591 0.20223167449818141 0 -0.23807852779806479 0.18615093052029949 0 -0.2303528939949081 0.20673792694062679 0 -0.23807852779806479 0.18615093052029949 0 -0.2122352646949715 0.17861803039921961 0 -0.2168908574661382 0.19801621008371681 0 -0.23807852779806479 0.18615093052029949 0 -0.2303528939949081 0.20673792694062679 0 -0.23807852779806479 0.18615093052029949 0 -0.2303528939949081 0.20673792694062679 0 -0.2168908574661382 0.19801621008371681 0 -0.2168908574661382 0.19801621008371681 0 -0.20109745657390221 0.19819464053519739 0 -0.20633716536348279 0.210271938072049 0 -0.2122352646949715 0.17861803039921961 0 -0.2168908574661382 0.19801621008371681 0 -0.20109745657390221 0.19819464053519739 0 -0.1939016413080776 0.184184334175128 0 -0.20109745657390221 0.19819464053519739 0 -0.18613787467600559 0.19822009325801199 0 -0.20109745657390221 0.19819464053519739 0 -0.1939603052279267 0.20882006281885979 0 -0.18613787467600559 0.19822009325801199 0 -0.20109745657390221 0.19819464053519739 0 -0.1939603052279267 0.20882006281885979 0 -0.20633716536348279 0.210271938072049 0 -0.1939603052279267 0.20882006281885979 0 -0.18847779311200399 0.21792875794108491 0 -0.19811422496977341 0.21947291992985701 0 -0.1939603052279267 0.20882006281885979 0 -0.18847779311200399 0.21792875794108491 0 -0.18222167222780239 0.21020269739657929 0 -0.1939603052279267 0.20882006281885979 0 -0.20633716536348279 0.210271938072049 0 -0.19811422496977341 0.21947291992985701 0 -0.20633716536348279 0.210271938072049 0 -0.20865288678017779 0.22409257537152411 0 -0.19811422496977341 0.21947291992985701 0 -0.20633716536348279 0.210271938072049 0 -0.2172976349730853 0.21361451564698869 0 -0.20865288678017779 0.22409257537152411 0 -0.2168908574661382 0.19801621008371681 0 -0.20633716536348279 0.210271938072049 0 -0.2172976349730853 0.21361451564698869 0 -0.22262726019175141 0.22732492336095411 0 -0.2172976349730853 0.21361451564698869 0 -0.20865288678017779 0.22409257537152411 0 -0.22262726019175141 0.22732492336095411 0 -0.2130663116774654 0.23367141518584331 0 -0.20865288678017779 0.22409257537152411 0 -0.20865288678017779 0.22409257537152411 0 -0.19917816863304411 0.2293848171664909 0 -0.20608347334933769 0.2353562422296161 0 -0.2130663116774654 0.23367141518584331 0 -0.20865288678017779 0.22409257537152411 0 -0.20608347334933769 0.2353562422296161 0 -0.19811422496977341 0.21947291992985701 0 -0.19207903070200519 0.226339368209133 0 -0.19917816863304411 0.2293848171664909 0 -0.20865288678017779 0.22409257537152411 0 -0.19811422496977341 0.21947291992985701 0 -0.19917816863304411 0.2293848171664909 0 -0.18847779311200399 0.21792875794108491 0 -0.19811422496977341 0.21947291992985701 0 -0.19207903070200519 0.226339368209133 0 -0.18847779311200399 0.21792875794108491 0 -0.19207903070200519 0.226339368209133 0 -0.18383749952494771 0.22732102123223061 0 -0.19207903070200519 0.226339368209133 0 -0.1903100476331743 0.23316716615974639 0 -0.19917816863304411 0.2293848171664909 0 -0.19207903070200519 0.226339368209133 0 -0.1903100476331743 0.23316716615974639 0 -0.18383749952494771 0.22732102123223061 0 -0.1903100476331743 0.23316716615974639 0 -0.19917816863304411 0.2293848171664909 0 -0.1978197221739024 0.2384599270529186 0 -0.18964531453629549 0.24322874732524691 0 -0.21490162638859439 0.2479119197812811 0 -0.18964531453629549 0.24322874732524691 0 -0.19422753500318671 0.24927008917741861 0 -0.21490162638859439 0.2479119197812811 0 -0.19917816863304411 0.2293848171664909 0 -0.1978197221739024 0.2384599270529186 0 -0.20608347334933769 0.2353562422296161 0 -0.1978197221739024 0.2384599270529186 0 -0.18964531453629549 0.24322874732524691 0 -0.21490162638859439 0.2479119197812811 0 -0.1978197221739024 0.2384599270529186 0 -0.1893173920268863 0.2382955116118049 0 -0.18964531453629549 0.24322874732524691 0 -0.1903100476331743 0.23316716615974639 0 -0.1978197221739024 0.2384599270529186 0 -0.1893173920268863 0.2382955116118049 0 -0.1893173920268863 0.2382955116118049 0 -0.18964531453629549 0.24322874732524691 0 -0.18481608155232521 0.24121676356881799 0 -0.1903100476331743 0.23316716615974639 0 -0.1893173920268863 0.2382955116118049 0 -0.1839957942387343 0.2354049539522946 0 -0.18964531453629549 0.24322874732524691 0 -0.19422753500318671 0.24927008917741861 0 -0.18523891074017471 0.24700351220784261 0 -0.18950928732507449 0.25308855862167973 0 -0.19422753500318671 0.24927008917741861 0 -0.18523891074017471 0.24700351220784261 0 -0.1978197221739024 0.2384599270529186 0 -0.20608347334933769 0.2353562422296161 0 -0.21490162638859439 0.2479119197812811 0 -0.22262726019175141 0.22732492336095411 0 -0.2130663116774654 0.23367141518584331 0 -0.21490162638859439 0.2479119197812811 0 -0.2130663116774654 0.23367141518584331 0 -0.20608347334933769 0.2353562422296161 0 -0.21490162638859439 0.2479119197812811 0 -0.15080605250994189 0.2509115815981382 0 -0.15930165715754269 0.23591263980146401 0 -0.168909596971867 0.23974411847412649 0 -0.15080605250994189 0.2509115815981382 0 -0.168909596971867 0.23974411847412649 0 -0.15020312497912239 0.2546436794913306 0 -0.17419466681155291 0.24533697914187419 0 -0.15080605250994189 0.2509115815981382 0 -0.168909596971867 0.23974411847412649 0 -0.17202190357501451 0.24282216012207219 0 -0.15080605250994189 0.2509115815981382 0 -0.17202190357501451 0.24282216012207219 0 -0.17419466681155291 0.24533697914187419 0 -0.15930165715754269 0.23591263980146401 0 -0.168909596971867 0.23974411847412649 0 -0.1660143559521027 0.23433630842767669 0 -0.168909596971867 0.23974411847412649 0 -0.16936268573043661 0.23351088203887591 0 -0.1660143559521027 0.23433630842767669 0 -0.168909596971867 0.23974411847412649 0 -0.17382324073125771 0.23767057170070849 0 -0.16936268573043661 0.23351088203887591 0 -0.168909596971867 0.23974411847412649 0 -0.17202190357501451 0.24282216012207219 0 -0.17382324073125771 0.23767057170070849 0 -0.17419466681155291 0.24533697914187419 0 -0.18481608155232521 0.24121676356881799 0 -0.17202190357501451 0.24282216012207219 0 -0.17419466681155291 0.24533697914187419 0 -0.17482613322758561 0.24138010050451131 0 -0.17202190357501451 0.24282216012207219 0 -0.17419466681155291 0.24533697914187419 0 -0.17419466681155291 0.24533697914187419 0 -0.18523891074017471 0.24700351220784261 0 -0.18481608155232521 0.24121676356881799 0 -0.18964531453629549 0.24322874732524691 0 -0.18523891074017471 0.24700351220784261 0 -0.18481608155232521 0.24121676356881799 0 -0.1893173920268863 0.2382955116118049 0 -0.1839957942387343 0.2354049539522946 0 -0.18481608155232521 0.24121676356881799 0 -0.1839957942387343 0.2354049539522946 0 -0.18481608155232521 0.24121676356881799 0 -0.17926472179251679 0.23969069105339089 0 -0.1839957942387343 0.2354049539522946 0 -0.17926472179251679 0.23969069105339089 0 -0.17830126745910169 0.23272013781420789 0 -0.17926472179251679 0.23969069105339089 0 -0.17382324073125771 0.23767057170070849 0 -0.17830126745910169 0.23272013781420789 0 -0.17419466681155291 0.24533697914187419 0 -0.18481608155232521 0.24121676356881799 0 -0.17926472179251679 0.23969069105339089 0 -0.17419466681155291 0.24533697914187419 0 -0.17926472179251679 0.23969069105339089 0 -0.17482613322758561 0.24138010050451131 0 -0.17926472179251679 0.23969069105339089 0 -0.17482613322758561 0.24138010050451131 0 -0.17382324073125771 0.23767057170070849 0 -0.17202190357501451 0.24282216012207219 0 -0.17482613322758561 0.24138010050451131 0 -0.17382324073125771 0.23767057170070849 0 -0.17830126745910169 0.23272013781420789 0 -0.18383749952494771 0.22732102123223061 0 -0.17554200255941491 0.2258592730727971 0 -0.17382324073125771 0.23767057170070849 0 -0.17318416260149039 0.23114371662499139 0 -0.17830126745910169 0.23272013781420789 0 -0.17382324073125771 0.23767057170070849 0 -0.17318416260149039 0.23114371662499139 0 -0.16936268573043661 0.23351088203887591 0 -0.17318416260149039 0.23114371662499139 0 -0.17830126745910169 0.23272013781420789 0 -0.17554200255941491 0.2258592730727971 0 -0.1903100476331743 0.23316716615974639 0 -0.1839957942387343 0.2354049539522946 0 -0.18383749952494771 0.22732102123223061 0 -0.1839957942387343 0.2354049539522946 0 -0.17830126745910169 0.23272013781420789 0 -0.18383749952494771 0.22732102123223061 0 -0.18847779311200399 0.21792875794108491 0 -0.18383749952494771 0.22732102123223061 0 -0.17871268680567601 0.21882546242884421 0 -0.18383749952494771 0.22732102123223061 0 -0.17871268680567601 0.21882546242884421 0 -0.17554200255941491 0.2258592730727971 0 -0.17871268680567601 0.21882546242884421 0 -0.17554200255941491 0.2258592730727971 0 -0.17144747170191799 0.22031686639816009 0 -0.17554200255941491 0.2258592730727971 0 -0.17144747170191799 0.22031686639816009 0 -0.1664834839485646 0.22817759339624061 0 -0.17144747170191799 0.22031686639816009 0 -0.1664834839485646 0.22817759339624061 0 -0.16448058214886341 0.21575549750331341 0 -0.17318416260149039 0.23114371662499139 0 -0.17554200255941491 0.2258592730727971 0 -0.1664834839485646 0.22817759339624061 0 -0.17318416260149039 0.23114371662499139 0 -0.16936268573043661 0.23351088203887591 0 -0.1664834839485646 0.22817759339624061 0 -0.16936268573043661 0.23351088203887591 0 -0.1660143559521027 0.23433630842767669 0 -0.1664834839485646 0.22817759339624061 0 -0.15930165715754269 0.23591263980146401 0 -0.1664834839485646 0.22817759339624061 0 -0.15472797694617119 0.2266350223476751 0 -0.15930165715754269 0.23591263980146401 0 -0.1660143559521027 0.23433630842767669 0 -0.1664834839485646 0.22817759339624061 0 -0.1664834839485646 0.22817759339624061 0 -0.16448058214886341 0.21575549750331341 0 -0.15472797694617119 0.2266350223476751 0 -0.16448058214886341 0.21575549750331341 0 -0.1586499013824004 0.20235846309721189 0 -0.15472797694617119 0.2266350223476751 0 -0.1586499013824004 0.20235846309721189 0 -0.15472797694617119 0.2266350223476751 0 -0.15625209502719051 0.20477406758042471 0 -0.1586499013824004 0.20235846309721189 0 -0.15671433240212579 0.20283502727580779 0 -0.15625209502719051 0.20477406758042471 0 -0.1586499013824004 0.20235846309721189 0 -0.16448058214886341 0.21575549750331341 0 -0.1726822853517519 0.2042186011297204 0 -0.1586499013824004 0.20235846309721189 0 -0.17144747170191799 0.22031686639816009 0 -0.16448058214886341 0.21575549750331341 0 -0.17335908819345039 0.21320320680295471 0 -0.16448058214886341 0.21575549750331341 0 -0.17335908819345039 0.21320320680295471 0 -0.1726822853517519 0.2042186011297204 0 -0.17871268680567601 0.21882546242884421 0 -0.17144747170191799 0.22031686639816009 0 -0.17335908819345039 0.21320320680295471 0 -0.17871268680567601 0.21882546242884421 0 -0.17335908819345039 0.21320320680295471 0 -0.18222167222780239 0.21020269739657929 0 -0.18847779311200399 0.21792875794108491 0 -0.17871268680567601 0.21882546242884421 0 -0.18222167222780239 0.21020269739657929 0 -0.1939603052279267 0.20882006281885979 0 -0.18222167222780239 0.21020269739657929 0 -0.18613787467600559 0.19822009325801199 0 -0.18222167222780239 0.21020269739657929 0 -0.1726822853517519 0.2042186011297204 0 -0.18613787467600559 0.19822009325801199 0 -0.17335908819345039 0.21320320680295471 0 -0.18222167222780239 0.21020269739657929 0 -0.1726822853517519 0.2042186011297204 0 -0.1939016413080776 0.184184334175128 0 -0.18613787467600559 0.19822009325801199 0 -0.1760463541148122 0.18483288221738681 0 -0.1726822853517519 0.2042186011297204 0 -0.18613787467600559 0.19822009325801199 0 -0.1760463541148122 0.18483288221738681 0 -0.1726822853517519 0.2042186011297204 0 -0.1586499013824004 0.20235846309721189 0 -0.1760463541148122 0.18483288221738681 0 -0.1586499013824004 0.20235846309721189 0 -0.1760463541148122 0.18483288221738681 0 -0.1586499013824004 0.20235846309721189 0 -0.15872483237309171 0.19258522385612789 0 -0.1760463541148122 0.18483288221738681 0 -0.1586499013824004 0.20235846309721189 0 -0.1566993159213764 0.19868883267045079 0 -0.15872483237309171 0.19258522385612789 0 -0.1586499013824004 0.20235846309721189 0 -0.1570333757816342 0.20109971380806679 0 -0.1566993159213764 0.19868883267045079 0 -0.1570333757816342 0.20109971380806679 0 -0.1566993159213764 0.19868883267045079 0 -0.15521841888297569 0.20054085502647021 0 -0.1570333757816342 0.20109971380806679 0 -0.15671433240212579 0.20283502727580779 0 -0.15521841888297569 0.20054085502647021 0 -0.1586499013824004 0.20235846309721189 0 -0.1570333757816342 0.20109971380806679 0 -0.15671433240212579 0.20283502727580779 0 -0.1566993159213764 0.19868883267045079 0 -0.15872483237309171 0.19258522385612789 0 -0.1537238295927088 0.19763880642858139 0 -0.15872483237309171 0.19258522385612789 0 -0.15102720710703721 0.18870604719475539 0 -0.1624985338649263 0.18351522854017871 0 -0.15222182225810399 0.19366855523670479 0 -0.15102720710703721 0.18870604719475539 0 -0.1469088543994384 0.19508168871727349 0 -0.15872483237309171 0.19258522385612789 0 -0.15222182225810399 0.19366855523670479 0 -0.1537238295927088 0.19763880642858139 0 -0.15872483237309171 0.19258522385612789 0 -0.15222182225810399 0.19366855523670479 0 -0.15102720710703721 0.18870604719475539 0 -0.1566993159213764 0.19868883267045079 0 -0.1537238295927088 0.19763880642858139 0 -0.15521841888297569 0.20054085502647021 0 -0.15439841449526701 0.20270277200284051 0 -0.15183164926568571 0.2005874979001443 0 -0.15197557689835731 0.2047764122313557 0 -0.15671433240212579 0.20283502727580779 0 -0.15439841449526701 0.20270277200284051 0 -0.15521841888297569 0.20054085502647021 0 -0.1537238295927088 0.19763880642858139 0 -0.15521841888297569 0.20054085502647021 0 -0.15183164926568571 0.2005874979001443 0 -0.15439841449526701 0.20270277200284051 0 -0.15521841888297569 0.20054085502647021 0 -0.15183164926568571 0.2005874979001443 0 -0.15183164926568571 0.2005874979001443 0 -0.1475730844213943 0.2012818992841762 0 -0.15197557689835731 0.2047764122313557 0 -0.15183164926568571 0.2005874979001443 0 -0.15024157900641241 0.1975023220007403 0 -0.1475730844213943 0.2012818992841762 0 -0.15222182225810399 0.19366855523670479 0 -0.1537238295927088 0.19763880642858139 0 -0.15024157900641241 0.1975023220007403 0 -0.15222182225810399 0.19366855523670479 0 -0.15024157900641241 0.1975023220007403 0 -0.1469088543994384 0.19508168871727349 0 -0.1537238295927088 0.19763880642858139 0 -0.15183164926568571 0.2005874979001443 0 -0.15024157900641241 0.1975023220007403 0 -0.1475730844213943 0.2012818992841762 0 -0.142459758460356 0.19861630251190041 0 -0.1469088543994384 0.19508168871727349 0 -0.15024157900641241 0.1975023220007403 0 -0.1475730844213943 0.2012818992841762 0 -0.1469088543994384 0.19508168871727349 0 -0.1475730844213943 0.2012818992841762 0 -0.142459758460356 0.19861630251190041 0 -0.1422524041805979 0.20557671918207521 0 -0.142459758460356 0.19861630251190041 0 -0.14277473457382139 0.19147263870309431 0 -0.1469088543994384 0.19508168871727349 0 -0.15102720710703721 0.18870604719475539 0 -0.14277473457382139 0.19147263870309431 0 -0.14510958151321579 0.18473702583469009 0 -0.15102720710703721 0.18870604719475539 0 -0.14277473457382139 0.19147263870309431 0 -0.1469088543994384 0.19508168871727349 0 -0.14277473457382139 0.19147263870309431 0 -0.14510958151321579 0.18473702583469009 0 -0.13738299589340741 0.18684063542023191 0 -0.14277473457382139 0.19147263870309431 0 -0.13663742332151391 0.19504812727950649 0 -0.13738299589340741 0.18684063542023191 0 -0.13663742332151391 0.19504812727950649 0 -0.13021038504640209 0.1899495558224244 0 -0.13738299589340741 0.18684063542023191 0 -0.142459758460356 0.19861630251190041 0 -0.14277473457382139 0.19147263870309431 0 -0.13663742332151391 0.19504812727950649 0 -0.13021038504640209 0.1899495558224244 0 -0.12628518295623711 0.1986577485311721 0 -0.1203201157405142 0.18832216793770121 0 -0.13663742332151391 0.19504812727950649 0 -0.13021038504640209 0.1899495558224244 0 -0.12628518295623711 0.1986577485311721 0 -0.13663742332151391 0.19504812727950649 0 -0.12628518295623711 0.1986577485311721 0 -0.13575416762199999 0.20338220950197691 0 -0.142459758460356 0.19861630251190041 0 -0.13663742332151391 0.19504812727950649 0 -0.13575416762199999 0.20338220950197691 0 -0.142459758460356 0.19861630251190041 0 -0.13575416762199999 0.20338220950197691 0 -0.1422524041805979 0.20557671918207521 0 -0.13575416762199999 0.20338220950197691 0 -0.13715251862486369 0.2142629011141817 0 -0.1422524041805979 0.20557671918207521 0 -0.13575416762199999 0.20338220950197691 0 -0.12720779712011451 0.2115545862877653 0 -0.13715251862486369 0.2142629011141817 0 -0.12628518295623711 0.1986577485311721 0 -0.13575416762199999 0.20338220950197691 0 -0.12720779712011451 0.2115545862877653 0 -0.12720779712011451 0.2115545862877653 0 -0.13715251862486369 0.2142629011141817 0 -0.1296598984145699 0.22322764612401089 0 -0.13715251862486369 0.2142629011141817 0 -0.14582200189910571 0.2157621105174789 0 -0.1422524041805979 0.20557671918207521 0 -0.1586499013824004 0.20235846309721189 0 -0.15312676923622531 0.21141248737819321 0 -0.15472797694617119 0.2266350223476751 0 -0.14582200189910571 0.2157621105174789 0 -0.1422524041805979 0.20557671918207521 0 -0.14855187711415421 0.20764050282341801 0 -0.1475730844213943 0.2012818992841762 0 -0.1422524041805979 0.20557671918207521 0 -0.14855187711415421 0.20764050282341801 0 -0.15625209502719051 0.20477406758042471 0 -0.1586499013824004 0.20235846309721189 0 -0.15312676923622531 0.21141248737819321 0 -0.14855187711415421 0.20764050282341801 0 -0.15197557689835731 0.2047764122313557 0 -0.15312676923622531 0.21141248737819321 0 -0.1475730844213943 0.2012818992841762 0 -0.14855187711415421 0.20764050282341801 0 -0.15197557689835731 0.2047764122313557 0 -0.15625209502719051 0.20477406758042471 0 -0.15197557689835731 0.2047764122313557 0 -0.15312676923622531 0.21141248737819321 0 -0.15625209502719051 0.20477406758042471 0 -0.15439841449526701 0.20270277200284051 0 -0.15197557689835731 0.2047764122313557 0 -0.15625209502719051 0.20477406758042471 0 -0.15671433240212579 0.20283502727580779 0 -0.15439841449526701 0.20270277200284051 0 -0.14582200189910571 0.2157621105174789 0 -0.14855187711415421 0.20764050282341801 0 -0.15312676923622531 0.21141248737819321 0 -0.14582200189910571 0.2157621105174789 0 -0.15312676923622531 0.21141248737819321 0 -0.15472797694617119 0.2266350223476751 0 -0.13715251862486369 0.2142629011141817 0 -0.14582200189910571 0.2157621105174789 0 -0.13948351795492009 0.22976039825060321 0 -0.14582200189910571 0.2157621105174789 0 -0.15472797694617119 0.2266350223476751 0 -0.13948351795492009 0.22976039825060321 0 -0.13715251862486369 0.2142629011141817 0 -0.1296598984145699 0.22322764612401089 0 -0.13948351795492009 0.22976039825060321 0 -0.1296598984145699 0.22322764612401089 0 -0.13948351795492009 0.22976039825060321 0 -0.12654932572426339 0.23876693159931081 0 -0.13948351795492009 0.22976039825060321 0 -0.12654932572426339 0.23876693159931081 0 -0.13753920806889611 0.24804208742008771 0 -0.1355266931395111 0.26033690063920339 0 -0.12654932572426339 0.23876693159931081 0 -0.1355266931395111 0.26033690063920339 0 -0.12654932572426339 0.23876693159931081 0 -0.13753920806889611 0.24804208742008771 0 -0.15080605250994189 0.2509115815981382 0 -0.15472797694617119 0.2266350223476751 0 -0.15080605250994189 0.2509115815981382 0 -0.15472797694617119 0.2266350223476751 0 -0.13948351795492009 0.22976039825060321 0 -0.15080605250994189 0.2509115815981382 0 -0.13948351795492009 0.22976039825060321 0 -0.13753920806889611 0.24804208742008771 0 -0.15080605250994189 0.2509115815981382 0 -0.15930165715754269 0.23591263980146401 0 -0.15472797694617119 0.2266350223476751 0 -0.17016966632502151 0.1425906406239692 0 -0.1727078759886217 0.1635159625805189 0 -0.15479480147704111 0.14877441537490779 0 -0.17016966632502151 0.1425906406239692 0 -0.156711790986029 0.1266486597490438 0 -0.15479480147704111 0.14877441537490779 0 -0.17016966632502151 0.1425906406239692 0 -0.156711790986029 0.1266486597490438 0 -0.1774270875202196 0.12794909696787951 0 -0.1897292010882938 0.1474887291484186 0 -0.17016966632502151 0.1425906406239692 0 -0.1774270875202196 0.12794909696787951 0 -0.1897292010882938 0.1474887291484186 0 -0.19434096616379359 0.1315084048054635 0 -0.1774270875202196 0.12794909696787951 0 -0.1897292010882938 0.1474887291484186 0 -0.17016966632502151 0.1425906406239692 0 -0.1727078759886217 0.1635159625805189 0 -0.19344280684722351 0.16730730133756089 0 -0.1897292010882938 0.1474887291484186 0 -0.1727078759886217 0.1635159625805189 0 -0.19344280684722351 0.16730730133756089 0 -0.1760463541148122 0.18483288221738681 0 -0.19344280684722351 0.16730730133756089 0 -0.1727078759886217 0.1635159625805189 0 -0.1760463541148122 0.18483288221738681 0 -0.1727078759886217 0.1635159625805189 0 -0.1760463541148122 0.18483288221738681 0 -0.1627814863248977 0.17229025068481149 0 -0.15872483237309171 0.19258522385612789 0 -0.1760463541148122 0.18483288221738681 0 -0.1624985338649263 0.18351522854017871 0 -0.1760463541148122 0.18483288221738681 0 -0.1627814863248977 0.17229025068481149 0 -0.1624985338649263 0.18351522854017871 0 -0.1627814863248977 0.17229025068481149 0 -0.1624985338649263 0.18351522854017871 0 -0.1510981177836104 0.17841622344843561 0 -0.1727078759886217 0.1635159625805189 0 -0.1627814863248977 0.17229025068481149 0 -0.1516852083633734 0.16505188354202269 0 -0.1727078759886217 0.1635159625805189 0 -0.1516852083633734 0.16505188354202269 0 -0.15479480147704111 0.14877441537490779 0 -0.1516852083633734 0.16505188354202269 0 -0.1436479678556514 0.15651666866212771 0 -0.15479480147704111 0.14877441537490779 0 -0.1516852083633734 0.16505188354202269 0 -0.1427650808483264 0.16988633757392221 0 -0.1510981177836104 0.17841622344843561 0 -0.1516852083633734 0.16505188354202269 0 -0.1427650808483264 0.16988633757392221 0 -0.1436479678556514 0.15651666866212771 0 -0.15102720710703721 0.18870604719475539 0 -0.1510981177836104 0.17841622344843561 0 -0.14510958151321579 0.18473702583469009 0 -0.15102720710703721 0.18870604719475539 0 -0.1624985338649263 0.18351522854017871 0 -0.1510981177836104 0.17841622344843561 0 -0.1627814863248977 0.17229025068481149 0 -0.1516852083633734 0.16505188354202269 0 -0.1510981177836104 0.17841622344843561 0 -0.1427650808483264 0.16988633757392221 0 -0.1510981177836104 0.17841622344843561 0 -0.14005406830228401 0.17897193226320099 0 -0.14510958151321579 0.18473702583469009 0 -0.13738299589340741 0.18684063542023191 0 -0.14005406830228401 0.17897193226320099 0 -0.1510981177836104 0.17841622344843561 0 -0.14510958151321579 0.18473702583469009 0 -0.14005406830228401 0.17897193226320099 0 -0.13738299589340741 0.18684063542023191 0 -0.14005406830228401 0.17897193226320099 0 -0.12951178260320709 0.1808645326184754 0 -0.1427650808483264 0.16988633757392221 0 -0.14005406830228401 0.17897193226320099 0 -0.1340479657066237 0.1729312702008465 0 -0.14005406830228401 0.17897193226320099 0 -0.1340479657066237 0.1729312702008465 0 -0.12951178260320709 0.1808645326184754 0 -0.1340479657066237 0.1729312702008465 0 -0.12951178260320709 0.1808645326184754 0 -0.1247956241436135 0.17006290188343631 0 -0.13021038504640209 0.1899495558224244 0 -0.12951178260320709 0.1808645326184754 0 -0.1203201157405142 0.18832216793770121 0 -0.13021038504640209 0.1899495558224244 0 -0.13738299589340741 0.18684063542023191 0 -0.12951178260320709 0.1808645326184754 0 -0.1436479678556514 0.15651666866212771 0 -0.13342151489906609 0.1626312772112001 0 -0.13294798084696621 0.15093404654434869 0 -0.1427650808483264 0.16988633757392221 0 -0.1436479678556514 0.15651666866212771 0 -0.13342151489906609 0.1626312772112001 0 -0.1427650808483264 0.16988633757392221 0 -0.1340479657066237 0.1729312702008465 0 -0.13342151489906609 0.1626312772112001 0 -0.1340479657066237 0.1729312702008465 0 -0.13342151489906609 0.1626312772112001 0 -0.1247956241436135 0.17006290188343631 0 -0.13342151489906609 0.1626312772112001 0 -0.1214987380049684 0.15644039856243491 0 -0.1247956241436135 0.17006290188343631 0 -0.13342151489906609 0.1626312772112001 0 -0.13294798084696621 0.15093404654434869 0 -0.1214987380049684 0.15644039856243491 0 -0.13294798084696621 0.15093404654434869 0 -0.14094508899050701 0.13963414602223739 0 -0.1252265944846383 0.13944774226374321 0 -0.1436479678556514 0.15651666866212771 0 -0.13294798084696621 0.15093404654434869 0 -0.14094508899050701 0.13963414602223739 0 -0.13294798084696621 0.15093404654434869 0 -0.1252265944846383 0.13944774226374321 0 -0.1214987380049684 0.15644039856243491 0 -0.1436479678556514 0.15651666866212771 0 -0.15479480147704111 0.14877441537490779 0 -0.14094508899050701 0.13963414602223739 0 -0.14056994565931541 0.1241699255409693 0 -0.156711790986029 0.1266486597490438 0 -0.14094508899050701 0.13963414602223739 0 -0.156711790986029 0.1266486597490438 0 -0.15479480147704111 0.14877441537490779 0 -0.14094508899050701 0.13963414602223739 0 -0.14056994565931541 0.1241699255409693 0 -0.12538013163551431 0.1235615211388761 0 -0.13290305712755529 0.13159023000872161 0 -0.12538013163551431 0.1235615211388761 0 -0.13290305712755529 0.13159023000872161 0 -0.1252265944846383 0.13944774226374321 0 -0.14056994565931541 0.1241699255409693 0 -0.14094508899050701 0.13963414602223739 0 -0.13290305712755529 0.13159023000872161 0 -0.14094508899050701 0.13963414602223739 0 -0.13290305712755529 0.13159023000872161 0 -0.1252265944846383 0.13944774226374321 0 -0.12538013163551431 0.1235615211388761 0 -0.1252265944846383 0.13944774226374321 0 -0.11181489964393899 0.13061983955501469 0 -0.1252265944846383 0.13944774226374321 0 -0.11181489964393899 0.13061983955501469 0 -0.1125643846587014 0.14499842961927459 0 -0.098675296712537372 0.14093847934672071 0 -0.088954900836533152 0.1277786171536919 0 -0.1048138180045957 0.11545051695230341 0 -0.098675296712537372 0.14093847934672071 0 -0.1048138180045957 0.11545051695230341 0 -0.11181489964393899 0.13061983955501469 0 -0.098675296712537372 0.14093847934672071 0 -0.1048138180045957 0.11545051695230341 0 -0.11181489964393899 0.13061983955501469 0 -0.098675296712537372 0.14093847934672071 0 -0.1125643846587014 0.14499842961927459 0 -0.098675296712537372 0.14093847934672071 0 -0.10692124939154329 0.15605533526566129 0 -0.092536775420480694 0.16642644174113849 0 -0.098675296712537372 0.14093847934672071 0 -0.092536775420480694 0.16642644174113849 0 -0.098675296712537372 0.14093847934672071 0 -0.10692124939154329 0.15605533526566129 0 -0.1125643846587014 0.14499842961927459 0 -0.1252265944846383 0.13944774226374321 0 -0.1125643846587014 0.14499842961927459 0 -0.1214987380049684 0.15644039856243491 0 -0.10692124939154329 0.15605533526566129 0 -0.1125643846587014 0.14499842961927459 0 -0.1214987380049684 0.15644039856243491 0 -0.1214987380049684 0.15644039856243491 0 -0.1247956241436135 0.17006290188343631 0 -0.1119607620492676 0.16849222085314161 0 -0.10692124939154329 0.15605533526566129 0 -0.1214987380049684 0.15644039856243491 0 -0.1119607620492676 0.16849222085314161 0 -0.12951178260320709 0.1808645326184754 0 -0.1188874919739711 0.17829513798277949 0 -0.1203201157405142 0.18832216793770121 0 -0.1247956241436135 0.17006290188343631 0 -0.1119607620492676 0.16849222085314161 0 -0.1188874919739711 0.17829513798277949 0 -0.12951178260320709 0.1808645326184754 0 -0.1247956241436135 0.17006290188343631 0 -0.1188874919739711 0.17829513798277949 0 -0.1119607620492676 0.16849222085314161 0 -0.1188874919739711 0.17829513798277949 0 -0.1089148061258528 0.18260394543368769 0 -0.1188874919739711 0.17829513798277949 0 -0.1089148061258528 0.18260394543368769 0 -0.1203201157405142 0.18832216793770121 0 -0.1089148061258528 0.18260394543368769 0 -0.092536775420480694 0.16642644174113849 0 -0.095233025263948209 0.18962245195312349 0 -0.1119607620492676 0.16849222085314161 0 -0.1089148061258528 0.18260394543368769 0 -0.092536775420480694 0.16642644174113849 0 -0.10692124939154329 0.15605533526566129 0 -0.1119607620492676 0.16849222085314161 0 -0.092536775420480694 0.16642644174113849 0 -0.092536775420480694 0.16642644174113849 0 -0.078689711957602437 0.16119924808953071 0 -0.082523425647492196 0.17920335578055269 0 -0.092536775420480694 0.16642644174113849 0 -0.078689711957602437 0.16119924808953071 0 -0.086283654562253106 0.1544634671161238 0 -0.092536775420480694 0.16642644174113849 0 -0.082523425647492196 0.17920335578055269 0 -0.095233025263948209 0.18962245195312349 0 -0.082523425647492196 0.17920335578055269 0 -0.095233025263948209 0.18962245195312349 0 -0.082652546369612043 0.19225848759055891 0 -0.082523425647492196 0.17920335578055269 0 -0.072652816779257348 0.18551595552690289 0 -0.082652546369612043 0.19225848759055891 0 -0.072652816779257348 0.18551595552690289 0 -0.06325286245422429 0.17640452023889161 0 -0.062892950309537093 0.1921629392189097 0 -0.082523425647492196 0.17920335578055269 0 -0.072652816779257348 0.18551595552690289 0 -0.071762506402018422 0.1739008197561655 0 -0.072652816779257348 0.18551595552690289 0 -0.071762506402018422 0.1739008197561655 0 -0.06325286245422429 0.17640452023889161 0 -0.078689711957602437 0.16119924808953071 0 -0.082523425647492196 0.17920335578055269 0 -0.071762506402018422 0.1739008197561655 0 -0.078689711957602437 0.16119924808953071 0 -0.068732386464718478 0.1642711893310555 0 -0.072170112182664517 0.15369097573594701 0 -0.078689711957602437 0.16119924808953071 0 -0.071762506402018422 0.1739008197561655 0 -0.068732386464718478 0.1642711893310555 0 -0.071762506402018422 0.1739008197561655 0 -0.06325286245422429 0.17640452023889161 0 -0.068732386464718478 0.1642711893310555 0 -0.06325286245422429 0.17640452023889161 0 -0.068732386464718478 0.1642711893310555 0 -0.060459637862541403 0.16318967354390851 0 -0.068732386464718478 0.1642711893310555 0 -0.066156987922566995 0.15804526239776689 0 -0.060459637862541403 0.16318967354390851 0 -0.066156987922566995 0.15804526239776689 0 -0.061596475178262222 0.15480559796366139 0 -0.060459637862541403 0.16318967354390851 0 -0.068732386464718478 0.1642711893310555 0 -0.066156987922566995 0.15804526239776689 0 -0.072170112182664517 0.15369097573594701 0 -0.066156987922566995 0.15804526239776689 0 -0.067393933209380918 0.15369557567401601 0 -0.061596475178262222 0.15480559796366139 0 -0.073095983668468742 0.14010671735507799 0 -0.057927073871760222 0.15189843288886329 0 -0.061596475178262222 0.15480559796366139 0 -0.067393933209380918 0.15369557567401601 0 -0.069562075321682654 0.1481210291528044 0 -0.061596475178262222 0.15480559796366139 0 -0.067393933209380918 0.15369557567401601 0 -0.072170112182664517 0.15369097573594701 0 -0.069562075321682654 0.1481210291528044 0 -0.066156987922566995 0.15804526239776689 0 -0.067393933209380918 0.15369557567401601 0 -0.072170112182664517 0.15369097573594701 0 -0.078689711957602437 0.16119924808953071 0 -0.072170112182664517 0.15369097573594701 0 -0.078708042233962799 0.1495635652378309 0 -0.072170112182664517 0.15369097573594701 0 -0.073954558753691585 0.14822108798279271 0 -0.069562075321682654 0.1481210291528044 0 -0.072170112182664517 0.15369097573594701 0 -0.073954558753691585 0.14822108798279271 0 -0.078708042233962799 0.1495635652378309 0 -0.072652622459931718 0.14533802261107659 0 -0.069562075321682654 0.1481210291528044 0 -0.073095983668468742 0.14010671735507799 0 -0.075096912384927661 0.14392977076255911 0 -0.073095983668468742 0.14010671735507799 0 -0.079291386284776735 0.1429169322817179 0 -0.073095983668468742 0.14010671735507799 0 -0.079291386284776735 0.1429169322817179 0 -0.075096912384927661 0.14392977076255911 0 -0.073954558753691585 0.14822108798279271 0 -0.078708042233962799 0.1495635652378309 0 -0.075096912384927661 0.14392977076255911 0 -0.078708042233962799 0.1495635652378309 0 -0.079291386284776735 0.1429169322817179 0 -0.075096912384927661 0.14392977076255911 0 -0.072652622459931718 0.14533802261107659 0 -0.073954558753691585 0.14822108798279271 0 -0.072652622459931718 0.14533802261107659 0 -0.073954558753691585 0.14822108798279271 0 -0.069562075321682654 0.1481210291528044 0 -0.075096912384927661 0.14392977076255911 0 -0.072652622459931718 0.14533802261107659 0 -0.073095983668468742 0.14010671735507799 0 -0.073095983668468742 0.14010671735507799 0 -0.057927073871760222 0.15189843288886329 0 -0.073095983668468742 0.14010671735507799 0 -0.061596475178262222 0.15480559796366139 0 -0.066013549276071365 0.14127858148192371 0 -0.063609121398287671 0.14396039451383719 0 -0.073095983668468742 0.14010671735507799 0 -0.069562075321682654 0.1481210291528044 0 -0.073095983668468742 0.14010671735507799 0 -0.061596475178262222 0.15480559796366139 0 -0.063609121398287671 0.14396039451383719 0 -0.073095983668468742 0.14010671735507799 0 -0.057927073871760222 0.15189843288886329 0 -0.066013549276071365 0.14127858148192371 0 -0.063318768110466758 0.14108651402025579 0 -0.065206669672699766 0.13958700273497759 0 -0.063609121398287671 0.14396039451383719 0 -0.063318768110466758 0.14108651402025579 0 -0.061398733784099171 0.1419338591134465 0 -0.066013549276071365 0.14127858148192371 0 -0.063609121398287671 0.14396039451383719 0 -0.063318768110466758 0.14108651402025579 0 -0.065206669672699766 0.13958700273497759 0 -0.073095983668468742 0.14010671735507799 0 -0.057285523882284708 0.1361478487512002 0 -0.066013549276071365 0.14127858148192371 0 -0.065206669672699766 0.13958700273497759 0 -0.073095983668468742 0.14010671735507799 0 -0.068613208653190552 0.12988713064543181 0 -0.073095983668468742 0.14010671735507799 0 -0.050142980039125443 0.12969530789466091 0 -0.063318768110466758 0.14108651402025579 0 -0.065206669672699766 0.13958700273497759 0 -0.060882603078859822 0.13920726406735609 0 -0.068613208653190552 0.12988713064543181 0 -0.076141641869118704 0.12724262890974189 0 -0.074446782334335812 0.1201945938608048 0 -0.068613208653190552 0.12988713064543181 0 -0.076141641869118704 0.12724262890974189 0 -0.073095983668468742 0.14010671735507799 0 -0.073095983668468742 0.14010671735507799 0 -0.085418019862415318 0.1229528176220613 0 -0.076141641869118704 0.12724262890974189 0 -0.073095983668468742 0.14010671735507799 0 -0.085418019862415318 0.1229528176220613 0 -0.073095983668468742 0.14010671735507799 0 -0.085367930406962805 0.1395975446511481 0 -0.088954900836533152 0.1277786171536919 0 -0.073095983668468742 0.14010671735507799 0 -0.088954900836533152 0.1277786171536919 0 -0.085418019862415318 0.1229528176220613 0 -0.073095983668468742 0.14010671735507799 0 -0.088954900836533152 0.1277786171536919 0 -0.098675296712537372 0.14093847934672071 0 -0.085367930406962805 0.1395975446511481 0 -0.088954900836533152 0.1277786171536919 0 -0.098675296712537372 0.14093847934672071 0 -0.092536775420480694 0.16642644174113849 0 -0.086283654562253106 0.1544634671161238 0 -0.098675296712537372 0.14093847934672071 0 -0.085367930406962805 0.1395975446511481 0 -0.085995782752212369 0.145710563267229 0 -0.098675296712537372 0.14093847934672071 0 -0.085995782752212369 0.145710563267229 0 -0.086283654562253106 0.1544634671161238 0 -0.078689711957602437 0.16119924808953071 0 -0.086283654562253106 0.1544634671161238 0 -0.078708042233962799 0.1495635652378309 0 -0.085995782752212369 0.145710563267229 0 -0.086283654562253106 0.1544634671161238 0 -0.078708042233962799 0.1495635652378309 0 -0.085995782752212369 0.145710563267229 0 -0.078708042233962799 0.1495635652378309 0 -0.079291386284776735 0.1429169322817179 0 -0.073095983668468742 0.14010671735507799 0 -0.085367930406962805 0.1395975446511481 0 -0.079291386284776735 0.1429169322817179 0 -0.085367930406962805 0.1395975446511481 0 -0.085995782752212369 0.145710563267229 0 -0.079291386284776735 0.1429169322817179 0 -0.1000966024206025 0.24603533827206769 0 -0.1059265219145431 0.2325567605954193 0 -0.089125644819594091 0.2374289880770758 0 -0.1000966024206025 0.24603533827206769 0 -0.1118507546894966 0.24845023294428681 0 -0.1059265219145431 0.2325567605954193 0 -0.1059782354104529 0.25511707414145401 0 -0.1000966024206025 0.24603533827206769 0 -0.1118507546894966 0.24845023294428681 0 -0.12654932572426339 0.23876693159931081 0 -0.1118507546894966 0.24845023294428681 0 -0.1059265219145431 0.2325567605954193 0 -0.1204693105274901 0.25832786696498372 0 -0.12654932572426339 0.23876693159931081 0 -0.1118507546894966 0.24845023294428681 0 -0.12654932572426339 0.23876693159931081 0 -0.11790633264868761 0.22179341336819339 0 -0.1059265219145431 0.2325567605954193 0 -0.1296598984145699 0.22322764612401089 0 -0.12654932572426339 0.23876693159931081 0 -0.11790633264868761 0.22179341336819339 0 -0.12720779712011451 0.2115545862877653 0 -0.1296598984145699 0.22322764612401089 0 -0.11790633264868761 0.22179341336819339 0 -0.11790633264868761 0.22179341336819339 0 -0.1059265219145431 0.2325567605954193 0 -0.1067122161343947 0.21778822184191951 0 -0.1059265219145431 0.2325567605954193 0 -0.1067122161343947 0.21778822184191951 0 -0.090685116858437734 0.22057533849017749 0 -0.1059265219145431 0.2325567605954193 0 -0.090685116858437734 0.22057533849017749 0 -0.089125644819594091 0.2374289880770758 0 -0.1010041363312659 0.20655127276092941 0 -0.1067122161343947 0.21778822184191951 0 -0.090685116858437734 0.22057533849017749 0 -0.1010041363312659 0.20655127276092941 0 -0.1151733327202607 0.20873360476419869 0 -0.11192433113086429 0.19605638579521281 0 -0.1010041363312659 0.20655127276092941 0 -0.1067122161343947 0.21778822184191951 0 -0.1151733327202607 0.20873360476419869 0 -0.11790633264868761 0.22179341336819339 0 -0.1067122161343947 0.21778822184191951 0 -0.1151733327202607 0.20873360476419869 0 -0.12720779712011451 0.2115545862877653 0 -0.11790633264868761 0.22179341336819339 0 -0.1151733327202607 0.20873360476419869 0 -0.12628518295623711 0.1986577485311721 0 -0.12720779712011451 0.2115545862877653 0 -0.1151733327202607 0.20873360476419869 0 -0.12628518295623711 0.1986577485311721 0 -0.1151733327202607 0.20873360476419869 0 -0.11192433113086429 0.19605638579521281 0 -0.12628518295623711 0.1986577485311721 0 -0.11192433113086429 0.19605638579521281 0 -0.1203201157405142 0.18832216793770121 0 -0.1089148061258528 0.18260394543368769 0 -0.11192433113086429 0.19605638579521281 0 -0.1203201157405142 0.18832216793770121 0 -0.1089148061258528 0.18260394543368769 0 -0.11192433113086429 0.19605638579521281 0 -0.095233025263948209 0.18962245195312349 0 -0.1010041363312659 0.20655127276092941 0 -0.095233025263948209 0.18962245195312349 0 -0.086819117877388552 0.20387273598036529 0 -0.1010041363312659 0.20655127276092941 0 -0.11192433113086429 0.19605638579521281 0 -0.095233025263948209 0.18962245195312349 0 -0.095233025263948209 0.18962245195312349 0 -0.082652546369612043 0.19225848759055891 0 -0.086819117877388552 0.20387273598036529 0 -0.082652546369612043 0.19225848759055891 0 -0.074155684386979698 0.19898303356642 0 -0.086819117877388552 0.20387273598036529 0 -0.072652816779257348 0.18551595552690289 0 -0.082652546369612043 0.19225848759055891 0 -0.074155684386979698 0.19898303356642 0 -0.072652816779257348 0.18551595552690289 0 -0.062892950309537093 0.1921629392189097 0 -0.074155684386979698 0.19898303356642 0 -0.062892950309537093 0.1921629392189097 0 -0.074155684386979698 0.19898303356642 0 -0.064116017013221421 0.20669599525243099 0 -0.074155684386979698 0.19898303356642 0 -0.064116017013221421 0.20669599525243099 0 -0.075800657972861701 0.2133920878293524 0 -0.064116017013221421 0.20669599525243099 0 -0.075800657972861701 0.2133920878293524 0 -0.065188024070148662 0.2189827111984082 0 -0.1010041363312659 0.20655127276092941 0 -0.086819117877388552 0.20387273598036529 0 -0.090685116858437734 0.22057533849017749 0 -0.075800657972861701 0.2133920878293524 0 -0.086819117877388552 0.20387273598036529 0 -0.090685116858437734 0.22057533849017749 0 -0.074155684386979698 0.19898303356642 0 -0.075800657972861701 0.2133920878293524 0 -0.086819117877388552 0.20387273598036529 0 -0.090685116858437734 0.22057533849017749 0 -0.074258404447879178 0.22959650565582951 0 -0.089125644819594091 0.2374289880770758 0 -0.075800657972861701 0.2133920878293524 0 -0.090685116858437734 0.22057533849017749 0 -0.074258404447879178 0.22959650565582951 0 -0.074258404447879178 0.22959650565582951 0 -0.065188024070148662 0.2189827111984082 0 -0.058529759729243423 0.22916273311840141 0 -0.074258404447879178 0.22959650565582951 0 -0.063122606478691751 0.2425446012462259 0 -0.058529759729243423 0.22916273311840141 0 -0.075800657972861701 0.2133920878293524 0 -0.074258404447879178 0.22959650565582951 0 -0.065188024070148662 0.2189827111984082 0 -0.074258404447879178 0.22959650565582951 0 -0.063122606478691751 0.2425446012462259 0 -0.077543192831836513 0.2490590682366626 0 -0.062235378715942993 0.2575407036156 0 -0.063122606478691751 0.2425446012462259 0 -0.077543192831836513 0.2490590682366626 0 -0.077543192831836513 0.2490590682366626 0 -0.089125644819594091 0.2374289880770758 0 -0.09001103415809375 0.24995591684023821 0 -0.074258404447879178 0.22959650565582951 0 -0.077543192831836513 0.2490590682366626 0 -0.089125644819594091 0.2374289880770758 0 -0.1000966024206025 0.24603533827206769 0 -0.089125644819594091 0.2374289880770758 0 -0.09001103415809375 0.24995591684023821 0 -0.047541637402478777 0.25235478858570443 0 -0.033158238182537131 0.25447225048241212 0 -0.033085366406212867 0.23876012578048469 0 -0.033085366406212867 0.23876012578048469 0 -0.048837352944825121 0.23811101009733529 0 -0.04234686416137521 0.2264640537768042 0 -0.047541637402478777 0.25235478858570443 0 -0.033085366406212867 0.23876012578048469 0 -0.048837352944825121 0.23811101009733529 0 -0.047541637402478777 0.25235478858570443 0 -0.063122606478691751 0.2425446012462259 0 -0.048837352944825121 0.23811101009733529 0 -0.063122606478691751 0.2425446012462259 0 -0.048837352944825121 0.23811101009733529 0 -0.058529759729243423 0.22916273311840141 0 -0.058529759729243423 0.22916273311840141 0 -0.04234686416137521 0.2264640537768042 0 -0.053235281187537647 0.21606623413602671 0 -0.048837352944825121 0.23811101009733529 0 -0.058529759729243423 0.22916273311840141 0 -0.04234686416137521 0.2264640537768042 0 -0.065188024070148662 0.2189827111984082 0 -0.058529759729243423 0.22916273311840141 0 -0.053235281187537647 0.21606623413602671 0 -0.04234686416137521 0.2264640537768042 0 -0.038435250742214572 0.21070572751982269 0 -0.027831305290541019 0.2239523232852631 0 -0.033085366406212867 0.23876012578048469 0 -0.04234686416137521 0.2264640537768042 0 -0.027831305290541019 0.2239523232852631 0 -0.04234686416137521 0.2264640537768042 0 -0.038435250742214572 0.21070572751982269 0 -0.053235281187537647 0.21606623413602671 0 -0.064116017013221421 0.20669599525243099 0 -0.065188024070148662 0.2189827111984082 0 -0.053235281187537647 0.21606623413602671 0 -0.064116017013221421 0.20669599525243099 0 -0.053235281187537647 0.21606623413602671 0 -0.05208351099898792 0.20063422860096039 0 -0.038435250742214572 0.21070572751982269 0 -0.053235281187537647 0.21606623413602671 0 -0.05208351099898792 0.20063422860096039 0 -0.062892950309537093 0.1921629392189097 0 -0.064116017013221421 0.20669599525243099 0 -0.05208351099898792 0.20063422860096039 0 -0.062892950309537093 0.1921629392189097 0 -0.05208351099898792 0.20063422860096039 0 -0.052267988714031578 0.1852279051183541 0 -0.05208351099898792 0.20063422860096039 0 -0.039872067672989578 0.19628936175125089 0 -0.052267988714031578 0.1852279051183541 0 -0.038435250742214572 0.21070572751982269 0 -0.039872067672989578 0.19628936175125089 0 -0.016939116554871191 0.1959990679102552 0 -0.038435250742214572 0.21070572751982269 0 -0.05208351099898792 0.20063422860096039 0 -0.039872067672989578 0.19628936175125089 0 -0.039872067672989578 0.19628936175125089 0 -0.016939116554871191 0.1959990679102552 0 -0.031471652138452051 0.18527326181809359 0 -0.016939116554871191 0.1959990679102552 0 0.00573739542641201 0.21085128121663901 0 0.0032606068272224781 0.1901318216684702 0 -0.016939116554871191 0.1959990679102552 0 -0.0099845809253535419 0.21944673001565129 0 0.00573739542641201 0.21085128121663901 0 -0.016939116554871191 0.1959990679102552 0 -0.027831305290541019 0.2239523232852631 0 -0.0099845809253535419 0.21944673001565129 0 -0.016939116554871191 0.1959990679102552 0 -0.027831305290541019 0.2239523232852631 0 -0.038435250742214572 0.21070572751982269 0 -0.016939116554871191 0.1959990679102552 0 -0.027831305290541019 0.2239523232852631 0 -0.033085366406212867 0.23876012578048469 0 -0.027831305290541019 0.2239523232852631 0 -0.013641234357142269 0.23583492549693799 0 -0.027831305290541019 0.2239523232852631 0 -0.0099845809253535419 0.21944673001565129 0 -0.013641234357142269 0.23583492549693799 0 -0.0099845809253535419 0.21944673001565129 0 -0.013641234357142269 0.23583492549693799 0 0.002751356149374766 0.2305960521691611 0 -0.0099845809253535419 0.21944673001565129 0 0.002751356149374766 0.2305960521691611 0 0.00573739542641201 0.21085128121663901 0 -0.016725929346704929 0.2556928351502844 0 -0.013641234357142269 0.23583492549693799 0 -0.0066167852236678039 0.24551400104462359 0 0.003791674785571924 0.24772290422529519 0 0.002751356149374766 0.2305960521691611 0 -0.013641234357142269 0.23583492549693799 0 -0.0066167852236678039 0.24551400104462359 0 0.002751356149374766 0.2305960521691611 0 -0.016725929346704929 0.2556928351502844 0 -0.013641234357142269 0.23583492549693799 0 -0.0066167852236678039 0.24551400104462359 0 -0.033158238182537131 0.25447225048241212 0 -0.016725929346704929 0.2556928351502844 0 -0.033085366406212867 0.23876012578048469 0 -0.016725929346704929 0.2556928351502844 0 -0.033085366406212867 0.23876012578048469 0 -0.013641234357142269 0.23583492549693799 0 -0.044337925263059637 0.14457543423579111 0 -0.041423394377863937 0.15084618800460309 0 -0.036443618539109428 0.14362502091179979 0 -0.044337925263059637 0.14457543423579111 0 -0.036443618539109428 0.14362502091179979 0 -0.04415317337721502 0.13790331021974439 0 -0.044337925263059637 0.14457543423579111 0 -0.04415317337721502 0.13790331021974439 0 -0.049720376744925111 0.14191225340005009 0 -0.044337925263059637 0.14457543423579111 0 -0.041423394377863937 0.15084618800460309 0 -0.048945289872966868 0.14782974822067441 0 -0.041423394377863937 0.15084618800460309 0 -0.050318961739572662 0.1540783556775161 0 -0.045554580821105917 0.15875852874296409 0 -0.041423394377863937 0.15084618800460309 0 -0.036443618539109428 0.14362502091179979 0 -0.028558016532013501 0.15427881982697761 0 -0.041423394377863937 0.15084618800460309 0 -0.037162976241824783 0.16324392053475739 0 -0.028558016532013501 0.15427881982697761 0 -0.03554102789105397 0.13487916664293129 0 -0.042660964834944352 0.12961760334818559 0 -0.020238980638423301 0.1293847395988435 0 -0.036443618539109428 0.14362502091179979 0 -0.03554102789105397 0.13487916664293129 0 -0.04415317337721502 0.13790331021974439 0 -0.042660964834944352 0.12961760334818559 0 -0.020238980638423301 0.1293847395988435 0 -0.042660964834944352 0.12961760334818559 0 -0.045441570218125227 0.12756276334937661 0 -0.027138786001938388 0.1192606786280228 0 -0.036443618539109428 0.14362502091179979 0 -0.03554102789105397 0.13487916664293129 0 -0.025038953161321251 0.14007216569520231 0 -0.03554102789105397 0.13487916664293129 0 -0.042660964834944352 0.12961760334818559 0 -0.042660964834944352 0.12961760334818559 0 -0.047810849383085573 0.13386011054201141 0 -0.050142980039125443 0.12969530789466091 0 -0.042660964834944352 0.12961760334818559 0 -0.045441570218125227 0.12756276334937661 0 -0.050142980039125443 0.12969530789466091 0 -0.042660964834944352 0.12961760334818559 0 -0.050142980039125443 0.12969530789466091 0 -0.042660964834944352 0.12961760334818559 0 -0.045441570218125227 0.12756276334937661 0 -0.03554102789105397 0.13487916664293129 0 -0.042660964834944352 0.12961760334818559 0 -0.04415317337721502 0.13790331021974439 0 -0.042660964834944352 0.12961760334818559 0 -0.04415317337721502 0.13790331021974439 0 -0.047810849383085573 0.13386011054201141 0 -0.068613208653190552 0.12988713064543181 0 -0.050142980039125443 0.12969530789466091 0 -0.073095983668468742 0.14010671735507799 0 -0.050142980039125443 0.12969530789466091 0 -0.04415317337721502 0.13790331021974439 0 -0.051004799636549782 0.1368223647585477 0 -0.049720376744925111 0.14191225340005009 0 -0.073095983668468742 0.14010671735507799 0 -0.050142980039125443 0.12969530789466091 0 -0.057285523882284708 0.1361478487512002 0 -0.04415317337721502 0.13790331021974439 0 -0.047810849383085573 0.13386011054201141 0 -0.051004799636549782 0.1368223647585477 0 -0.047810849383085573 0.13386011054201141 0 -0.051345151094591618 0.13383616934516801 0 -0.051004799636549782 0.1368223647585477 0 -0.051345151094591618 0.13383616934516801 0 -0.050142980039125443 0.12969530789466091 0 -0.057285523882284708 0.1361478487512002 0 -0.051345151094591618 0.13383616934516801 0 -0.051004799636549782 0.1368223647585477 0 -0.057285523882284708 0.1361478487512002 0 -0.051004799636549782 0.1368223647585477 0 -0.054961269516098199 0.1396039224943515 0 -0.049720376744925111 0.14191225340005009 0 -0.051004799636549782 0.1368223647585477 0 -0.054961269516098199 0.1396039224943515 0 -0.057285523882284708 0.1361478487512002 0 -0.045441570218125227 0.12756276334937661 0 -0.050142980039125443 0.12969530789466091 0 -0.047810849383085573 0.13386011054201141 0 -0.051345151094591618 0.13383616934516801 0 -0.050142980039125443 0.12969530789466091 0 -0.065206669672699766 0.13958700273497759 0 -0.057285523882284708 0.1361478487512002 0 -0.060882603078859822 0.13920726406735609 0 -0.054961269516098199 0.1396039224943515 0 -0.057285523882284708 0.1361478487512002 0 -0.058655173952209767 0.1395654074006473 0 -0.057285523882284708 0.1361478487512002 0 -0.058655173952209767 0.1395654074006473 0 -0.060882603078859822 0.13920726406735609 0 -0.058655173952209767 0.1395654074006473 0 -0.060882603078859822 0.13920726406735609 0 -0.061398733784099171 0.1419338591134465 0 -0.063318768110466758 0.14108651402025579 0 -0.060882603078859822 0.13920726406735609 0 -0.061398733784099171 0.1419338591134465 0 -0.063609121398287671 0.14396039451383719 0 -0.059688743362501941 0.1457995050088291 0 -0.057927073871760222 0.15189843288886329 0 -0.063609121398287671 0.14396039451383719 0 -0.061398733784099171 0.1419338591134465 0 -0.059688743362501941 0.1457995050088291 0 -0.061398733784099171 0.1419338591134465 0 -0.059688743362501941 0.1457995050088291 0 -0.057646774114007412 0.1432845138968189 0 -0.058655173952209767 0.1395654074006473 0 -0.061398733784099171 0.1419338591134465 0 -0.057646774114007412 0.1432845138968189 0 -0.056568916683532949 0.147325569141152 0 -0.054053686597514097 0.1450292408489913 0 -0.053817394514865752 0.15053701715709489 0 -0.059688743362501941 0.1457995050088291 0 -0.056568916683532949 0.147325569141152 0 -0.057927073871760222 0.15189843288886329 0 -0.059688743362501941 0.1457995050088291 0 -0.056568916683532949 0.147325569141152 0 -0.057646774114007412 0.1432845138968189 0 -0.056568916683532949 0.147325569141152 0 -0.057646774114007412 0.1432845138968189 0 -0.054053686597514097 0.1450292408489913 0 -0.054961269516098199 0.1396039224943515 0 -0.057646774114007412 0.1432845138968189 0 -0.054053686597514097 0.1450292408489913 0 -0.054961269516098199 0.1396039224943515 0 -0.058655173952209767 0.1395654074006473 0 -0.057646774114007412 0.1432845138968189 0 -0.054961269516098199 0.1396039224943515 0 -0.054053686597514097 0.1450292408489913 0 -0.049720376744925111 0.14191225340005009 0 -0.054053686597514097 0.1450292408489913 0 -0.048945289872966868 0.14782974822067441 0 -0.049720376744925111 0.14191225340005009 0 -0.054053686597514097 0.1450292408489913 0 -0.048945289872966868 0.14782974822067441 0 -0.053817394514865752 0.15053701715709489 0 -0.044337925263059637 0.14457543423579111 0 -0.048945289872966868 0.14782974822067441 0 -0.049720376744925111 0.14191225340005009 0 -0.041423394377863937 0.15084618800460309 0 -0.048945289872966868 0.14782974822067441 0 -0.050318961739572662 0.1540783556775161 0 -0.048945289872966868 0.14782974822067441 0 -0.050318961739572662 0.1540783556775161 0 -0.053817394514865752 0.15053701715709489 0 -0.050318961739572662 0.1540783556775161 0 -0.053817394514865752 0.15053701715709489 0 -0.056248158309316239 0.15592677857655091 0 -0.053817394514865752 0.15053701715709489 0 -0.056248158309316239 0.15592677857655091 0 -0.057927073871760222 0.15189843288886329 0 -0.056248158309316239 0.15592677857655091 0 -0.057927073871760222 0.15189843288886329 0 -0.061596475178262222 0.15480559796366139 0 -0.056568916683532949 0.147325569141152 0 -0.053817394514865752 0.15053701715709489 0 -0.057927073871760222 0.15189843288886329 0 -0.056248158309316239 0.15592677857655091 0 -0.061596475178262222 0.15480559796366139 0 -0.060459637862541403 0.16318967354390851 0 -0.056248158309316239 0.15592677857655091 0 -0.060459637862541403 0.16318967354390851 0 -0.053369406688895199 0.16105159422826101 0 -0.060459637862541403 0.16318967354390851 0 -0.054001750647465832 0.17056315917694501 0 -0.053369406688895199 0.16105159422826101 0 -0.06325286245422429 0.17640452023889161 0 -0.060459637862541403 0.16318967354390851 0 -0.054001750647465832 0.17056315917694501 0 -0.054001750647465832 0.17056315917694501 0 -0.042638001993217767 0.1749655088756388 0 -0.046545343278501898 0.16571654231171329 0 -0.054001750647465832 0.17056315917694501 0 -0.053369406688895199 0.16105159422826101 0 -0.046545343278501898 0.16571654231171329 0 -0.050318961739572662 0.1540783556775161 0 -0.053369406688895199 0.16105159422826101 0 -0.045554580821105917 0.15875852874296409 0 -0.053369406688895199 0.16105159422826101 0 -0.045554580821105917 0.15875852874296409 0 -0.046545343278501898 0.16571654231171329 0 -0.050318961739572662 0.1540783556775161 0 -0.056248158309316239 0.15592677857655091 0 -0.053369406688895199 0.16105159422826101 0 -0.06325286245422429 0.17640452023889161 0 -0.062892950309537093 0.1921629392189097 0 -0.052267988714031578 0.1852279051183541 0 -0.06325286245422429 0.17640452023889161 0 -0.054001750647465832 0.17056315917694501 0 -0.052267988714031578 0.1852279051183541 0 -0.054001750647465832 0.17056315917694501 0 -0.052267988714031578 0.1852279051183541 0 -0.042638001993217767 0.1749655088756388 0 -0.039872067672989578 0.19628936175125089 0 -0.031471652138452051 0.18527326181809359 0 -0.042638001993217767 0.1749655088756388 0 -0.031471652138452051 0.18527326181809359 0 -0.042638001993217767 0.1749655088756388 0 -0.024269456675860741 0.17189172527252669 0 -0.039872067672989578 0.19628936175125089 0 -0.052267988714031578 0.1852279051183541 0 -0.042638001993217767 0.1749655088756388 0 -0.042638001993217767 0.1749655088756388 0 -0.037162976241824783 0.16324392053475739 0 -0.024269456675860741 0.17189172527252669 0 -0.041423394377863937 0.15084618800460309 0 -0.045554580821105917 0.15875852874296409 0 -0.037162976241824783 0.16324392053475739 0 -0.045554580821105917 0.15875852874296409 0 -0.046545343278501898 0.16571654231171329 0 -0.037162976241824783 0.16324392053475739 0 -0.042638001993217767 0.1749655088756388 0 -0.046545343278501898 0.16571654231171329 0 -0.037162976241824783 0.16324392053475739 0 -0.024269456675860741 0.17189172527252669 0 -0.01439483312764874 0.15542621048378391 0 -0.028558016532013501 0.15427881982697761 0 -0.037162976241824783 0.16324392053475739 0 -0.024269456675860741 0.17189172527252669 0 -0.028558016532013501 0.15427881982697761 0 -0.016939116554871191 0.1959990679102552 0 -0.031471652138452051 0.18527326181809359 0 -0.024269456675860741 0.17189172527252669 0 -0.016939116554871191 0.1959990679102552 0 -0.024269456675860741 0.17189172527252669 0 -0.0060469278192012664 0.16804581253524711 0 -0.016939116554871191 0.1959990679102552 0 -0.0060469278192012664 0.16804581253524711 0 -0.016939116554871191 0.1959990679102552 0 -0.0060469278192012664 0.16804581253524711 0 0.0032606068272224781 0.1901318216684702 0 -0.024269456675860741 0.17189172527252669 0 -0.0060469278192012664 0.16804581253524711 0 -0.01439483312764874 0.15542621048378391 0 -0.0060469278192012664 0.16804581253524711 0 -0.01439483312764874 0.15542621048378391 0 0.0048452609164686524 0.140092557160239 0 -0.0060469278192012664 0.16804581253524711 0 0.0048452609164686524 0.140092557160239 0 -0.01137128241224456 0.14239628308200561 0 -0.01439483312764874 0.15542621048378391 0 0.0048452609164686524 0.140092557160239 0 -0.01439483312764874 0.15542621048378391 0 -0.028558016532013501 0.15427881982697761 0 -0.025038953161321251 0.14007216569520231 0 -0.01137128241224456 0.14239628308200561 0 -0.01439483312764874 0.15542621048378391 0 -0.025038953161321251 0.14007216569520231 0 -0.036443618539109428 0.14362502091179979 0 -0.028558016532013501 0.15427881982697761 0 -0.025038953161321251 0.14007216569520231 0 -0.042660964834944352 0.12961760334818559 0 -0.020238980638423301 0.1293847395988435 0 -0.027138786001938388 0.1192606786280228 0 -0.03554102789105397 0.13487916664293129 0 -0.025038953161321251 0.14007216569520231 0 -0.020238980638423301 0.1293847395988435 0 -0.01137128241224456 0.14239628308200561 0 -0.025038953161321251 0.14007216569520231 0 -0.020238980638423301 0.1293847395988435 0 -0.01137128241224456 0.14239628308200561 0 -0.020238980638423301 0.1293847395988435 0 -0.01137128241224456 0.14239628308200561 0 -0.0034601198776373419 0.12921048256644549 0 0.0048452609164686524 0.140092557160239 0 -0.01137128241224456 0.14239628308200561 0 -0.020238980638423301 0.1293847395988435 0 -0.0034601198776373419 0.12921048256644549 0 -0.020238980638423301 0.1293847395988435 0 -0.0034601198776373419 0.12921048256644549 0 -0.020238980638423301 0.1293847395988435 0 -0.0034601198776373419 0.12921048256644549 0 -0.010515535131794519 0.1117204248918658 0 -0.0034601198776373419 0.12921048256644549 0 -0.010515535131794519 0.1117204248918658 0 0.0013627004030162689 0.1185368260370173 0 -0.010515535131794519 0.1117204248918658 0 0.006107715738348357 0.1041801711557067 0 0.0013627004030162689 0.1185368260370173 0 -0.010515535131794519 0.1117204248918658 0 0.006107715738348357 0.1041801711557067 0 -0.0083279745294388089 0.097834444903363946 0 0.00037005245518714931 0.084402723746065167 0 0.006107715738348357 0.1041801711557067 0 -0.010515535131794519 0.1117204248918658 0 -0.0083279745294388089 0.097834444903363946 0 0.006107715738348357 0.1041801711557067 0 -0.010515535131794519 0.1117204248918658 0 -0.0083279745294388089 0.097834444903363946 0 -0.022413439261593809 0.1029774544450017 0 -0.022413439261593809 0.1029774544450017 0 -0.021341737843158421 0.088575661153132368 0 -0.042353274809232802 0.096936510885628491 0 -0.022413439261593809 0.1029774544450017 0 -0.027138786001938388 0.1192606786280228 0 -0.042353274809232802 0.096936510885628491 0 -0.0083279745294388089 0.097834444903363946 0 -0.022413439261593809 0.1029774544450017 0 -0.021341737843158421 0.088575661153132368 0 -0.010515535131794519 0.1117204248918658 0 -0.022413439261593809 0.1029774544450017 0 -0.027138786001938388 0.1192606786280228 0 -0.010515535131794519 0.1117204248918658 0 -0.027138786001938388 0.1192606786280228 0 -0.020238980638423301 0.1293847395988435 0 -0.010515535131794519 0.1117204248918658 0 -0.027138786001938388 0.1192606786280228 0 -0.020238980638423301 0.1293847395988435 0 -0.027138786001938388 0.1192606786280228 0 -0.0053676108279740262 0.064625276336423676 0 -0.01532891332521525 0.074951768036590316 0 -0.016265395509468841 0.05675055313603064 0 -0.0053676108279740262 0.064625276336423676 0 0.00037005245518714931 0.084402723746065167 0 -0.0053676108279740262 0.064625276336423676 0 -0.01532891332521525 0.074951768036590316 0 0.00037005245518714931 0.084402723746065167 0 -0.01532891332521525 0.074951768036590316 0 -0.021341737843158421 0.088575661153132368 0 0.00037005245518714931 0.084402723746065167 0 -0.0083279745294388089 0.097834444903363946 0 -0.021341737843158421 0.088575661153132368 0 0.00037005245518714931 0.084402723746065167 0 -0.01532891332521525 0.074951768036590316 0 -0.021341737843158421 0.088575661153132368 0 -0.036492494119237759 0.079220873351185328 0 -0.01532891332521525 0.074951768036590316 0 -0.026297438582637139 0.065702150101104945 0 -0.016265395509468841 0.05675055313603064 0 -0.01532891332521525 0.074951768036590316 0 -0.026297438582637139 0.065702150101104945 0 -0.036492494119237759 0.079220873351185328 0 -0.026297438582637139 0.065702150101104945 0 -0.047250261561067187 0.066145496669263351 0 -0.036962816676788267 0.056993149040489133 0 -0.026297438582637139 0.065702150101104945 0 -0.036492494119237759 0.079220873351185328 0 -0.047250261561067187 0.066145496669263351 0 -0.036492494119237759 0.079220873351185328 0 -0.057567763616527518 0.074612343143234339 0 -0.042353274809232802 0.096936510885628491 0 -0.021341737843158421 0.088575661153132368 0 -0.036492494119237759 0.079220873351185328 0 -0.042353274809232802 0.096936510885628491 0 -0.057567763616527518 0.074612343143234339 0 -0.042353274809232802 0.096936510885628491 0 -0.058195033979556977 0.098359774558933022 0 -0.057567763616527518 0.074612343143234339 0 -0.042353274809232802 0.096936510885628491 0 -0.057567763616527518 0.074612343143234339 0 -0.058195033979556977 0.098359774558933022 0 -0.069992063618862399 0.090801042719595493 0 -0.057567763616527518 0.074612343143234339 0 -0.047250261561067187 0.066145496669263351 0 -0.057532226660207159 0.05464003229954064 0 -0.036492494119237759 0.079220873351185328 0 -0.057567763616527518 0.074612343143234339 0 -0.047250261561067187 0.066145496669263351 0 -0.045441570218125227 0.12756276334937661 0 -0.027138786001938388 0.1192606786280228 0 -0.045441570218125227 0.12756276334937661 0 -0.027138786001938388 0.1192606786280228 0 -0.049562877740072057 0.11123703521795709 0 -0.027138786001938388 0.1192606786280228 0 -0.042353274809232802 0.096936510885628491 0 -0.027138786001938388 0.1192606786280228 0 -0.042353274809232802 0.096936510885628491 0 -0.049562877740072057 0.11123703521795709 0 -0.058195033979556977 0.098359774558933022 0 -0.049562877740072057 0.11123703521795709 0 -0.067741476357105201 0.1110833522897335 0 -0.042353274809232802 0.096936510885628491 0 -0.058195033979556977 0.098359774558933022 0 -0.049562877740072057 0.11123703521795709 0 -0.045441570218125227 0.12756276334937661 0 -0.067741476357105201 0.1110833522897335 0 -0.045441570218125227 0.12756276334937661 0 -0.050142980039125443 0.12969530789466091 0 -0.067741476357105201 0.1110833522897335 0 -0.045441570218125227 0.12756276334937661 0 -0.049562877740072057 0.11123703521795709 0 -0.067741476357105201 0.1110833522897335 0 -0.068613208653190552 0.12988713064543181 0 -0.050142980039125443 0.12969530789466091 0 -0.067741476357105201 0.1110833522897335 0 -0.068613208653190552 0.12988713064543181 0 -0.067741476357105201 0.1110833522897335 0 -0.074446782334335812 0.1201945938608048 0 -0.067741476357105201 0.1110833522897335 0 -0.081411571639234084 0.1155497484440247 0 -0.083590089728109412 0.1076213640038662 0 -0.067741476357105201 0.1110833522897335 0 -0.074446782334335812 0.1201945938608048 0 -0.081411571639234084 0.1155497484440247 0 -0.076141641869118704 0.12724262890974189 0 -0.074446782334335812 0.1201945938608048 0 -0.079354503926275979 0.1214849472091582 0 -0.081411571639234084 0.1155497484440247 0 -0.083590089728109412 0.1076213640038662 0 -0.09811844269531228 0.1059705528652832 0 -0.085418019862415318 0.1229528176220613 0 -0.095465393046778188 0.1166667054728838 0 -0.09811844269531228 0.1059705528652832 0 -0.085418019862415318 0.1229528176220613 0 -0.09811844269531228 0.1059705528652832 0 -0.085418019862415318 0.1229528176220613 0 -0.081411571639234084 0.1155497484440247 0 -0.09811844269531228 0.1059705528652832 0 -0.076141641869118704 0.12724262890974189 0 -0.079354503926275979 0.1214849472091582 0 -0.085418019862415318 0.1229528176220613 0 -0.079354503926275979 0.1214849472091582 0 -0.085418019862415318 0.1229528176220613 0 -0.081411571639234084 0.1155497484440247 0 -0.074446782334335812 0.1201945938608048 0 -0.079354503926275979 0.1214849472091582 0 -0.081411571639234084 0.1155497484440247 0 -0.088954900836533152 0.1277786171536919 0 -0.085418019862415318 0.1229528176220613 0 -0.095465393046778188 0.1166667054728838 0 -0.067741476357105201 0.1110833522897335 0 -0.090041382496085426 0.094603941230090513 0 -0.083590089728109412 0.1076213640038662 0 -0.067741476357105201 0.1110833522897335 0 -0.090041382496085426 0.094603941230090513 0 -0.090041382496085426 0.094603941230090513 0 -0.083590089728109412 0.1076213640038662 0 -0.09811844269531228 0.1059705528652832 0 -0.058195033979556977 0.098359774558933022 0 -0.067741476357105201 0.1110833522897335 0 -0.069992063618862399 0.090801042719595493 0 -0.067741476357105201 0.1110833522897335 0 -0.090041382496085426 0.094603941230090513 0 -0.069992063618862399 0.090801042719595493 0 -0.057567763616527518 0.074612343143234339 0 -0.069992063618862399 0.090801042719595493 0 -0.077531315938522416 0.078548610220147586 0 -0.057567763616527518 0.074612343143234339 0 -0.072782252423822316 0.052288175400840069 0 -0.057567763616527518 0.074612343143234339 0 -0.077531315938522416 0.078548610220147586 0 -0.072782252423822316 0.052288175400840069 0 -0.077531315938522416 0.078548610220147586 0 -0.089274923487953489 0.070238970672130377 0 -0.072782252423822316 0.052288175400840069 0 -0.089274923487953489 0.070238970672130377 0 -0.091372747124010709 0.07935852700424946 0 -0.099646588525249657 0.073603033747595997 0 -0.077531315938522416 0.078548610220147586 0 -0.089274923487953489 0.070238970672130377 0 -0.091372747124010709 0.07935852700424946 0 -0.090041382496085426 0.094603941230090513 0 -0.077531315938522416 0.078548610220147586 0 -0.091372747124010709 0.07935852700424946 0 -0.090041382496085426 0.094603941230090513 0 -0.069992063618862399 0.090801042719595493 0 -0.077531315938522416 0.078548610220147586 0 -0.090041382496085426 0.094603941230090513 0 -0.11234128863506559 0.078124530170447515 0 -0.11034587660406039 0.088900705289990195 0 -0.090041382496085426 0.094603941230090513 0 -0.1003695251722425 0.079798079151282841 0 -0.11234128863506559 0.078124530170447515 0 -0.090041382496085426 0.094603941230090513 0 -0.11234128863506559 0.078124530170447515 0 -0.090041382496085426 0.094603941230090513 0 -0.091372747124010709 0.07935852700424946 0 -0.1003695251722425 0.079798079151282841 0 -0.089274923487953489 0.070238970672130377 0 -0.09920452150476039 0.067048460864157791 0 -0.099646588525249657 0.073603033747595997 0 -0.089274923487953489 0.070238970672130377 0 -0.09920452150476039 0.067048460864157791 0 -0.094163924989242462 0.060669630188739908 0 -0.09920452150476039 0.067048460864157791 0 -0.1045204229746596 0.060438390130880558 0 -0.094163924989242462 0.060669630188739908 0 -0.091372747124010709 0.07935852700424946 0 -0.1003695251722425 0.079798079151282841 0 -0.099646588525249657 0.073603033747595997 0 -0.09920452150476039 0.067048460864157791 0 -0.099646588525249657 0.073603033747595997 0 -0.1084167475466967 0.070292279581442102 0 -0.1003695251722425 0.079798079151282841 0 -0.1084167475466967 0.070292279581442102 0 -0.11234128863506559 0.078124530170447515 0 -0.1003695251722425 0.079798079151282841 0 -0.099646588525249657 0.073603033747595997 0 -0.1084167475466967 0.070292279581442102 0 -0.09920452150476039 0.067048460864157791 0 -0.1084167475466967 0.070292279581442102 0 -0.1045204229746596 0.060438390130880558 0 -0.1084167475466967 0.070292279581442102 0 -0.11234128863506559 0.078124530170447515 0 -0.1197864358152651 0.053282202866922403 0 -0.11234128863506559 0.078124530170447515 0 -0.1226215052325052 0.073936349983915309 0 -0.1197864358152651 0.053282202866922403 0 -0.12987677580399101 0.066971745259348264 0 -0.1226215052325052 0.073936349983915309 0 -0.1197864358152651 0.053282202866922403 0 -0.11234128863506559 0.078124530170447515 0 -0.1197864358152651 0.053282202866922403 0 -0.11234128863506559 0.078124530170447515 0 -0.1226215052325052 0.073936349983915309 0 -0.1175470653554001 0.0788765013925143 0 -0.1226215052325052 0.073936349983915309 0 -0.1175470653554001 0.0788765013925143 0 -0.1202172161668984 0.07877946373430833 0 -0.1226215052325052 0.073936349983915309 0 -0.12263842300944321 0.079533008487134071 0 -0.12485635251832949 0.078351939813024546 0 -0.1226215052325052 0.073936349983915309 0 -0.1202172161668984 0.07877946373430833 0 -0.12263842300944321 0.079533008487134071 0 -0.12670438843014881 0.076799680774201962 0 -0.1226215052325052 0.073936349983915309 0 -0.12485635251832949 0.078351939813024546 0 -0.1132958581690087 0.089498212194009413 0 -0.111201319362597 0.092158650511771273 0 -0.1140227235076972 0.082704393195051767 0 -0.11234128863506559 0.078124530170447515 0 -0.11034587660406039 0.088900705289990195 0 -0.111201319362597 0.092158650511771273 0 -0.1132958581690087 0.089498212194009413 0 -0.11378085232143639 0.086441902608053053 0 -0.1132108403912115 0.084392763848658361 0 -0.1132958581690087 0.089498212194009413 0 -0.1162100372664229 0.088093727355605222 0 -0.1147576002707448 0.090098345760499604 0 -0.1132958581690087 0.089498212194009413 0 -0.11378085232143639 0.086441902608053053 0 -0.1162100372664229 0.088093727355605222 0 -0.11378085232143639 0.086441902608053053 0 -0.1162100372664229 0.088093727355605222 0 -0.1171147246949405 0.085298117077510796 0 -0.1162100372664229 0.088093727355605222 0 -0.11646971391085489 0.090265707578524743 0 -0.1185762933299014 0.090379701665158199 0 -0.1162100372664229 0.088093727355605222 0 -0.11646971391085489 0.090265707578524743 0 -0.1147576002707448 0.090098345760499604 0 -0.11646971391085489 0.090265707578524743 0 -0.1171006642709333 0.092221866620121273 0 -0.1149177106288306 0.091703158515746411 0 -0.11646971391085489 0.090265707578524743 0 -0.1147576002707448 0.090098345760499604 0 -0.1149177106288306 0.091703158515746411 0 -0.1171006642709333 0.092221866620121273 0 -0.113227287030465 0.093543737967718643 0 -0.11559188789181241 0.094006220936823787 0 -0.1149177106288306 0.091703158515746411 0 -0.1132429924652662 0.091266624887511222 0 -0.113227287030465 0.093543737967718643 0 -0.1171006642709333 0.092221866620121273 0 -0.1149177106288306 0.091703158515746411 0 -0.113227287030465 0.093543737967718643 0 -0.1147576002707448 0.090098345760499604 0 -0.1149177106288306 0.091703158515746411 0 -0.1132429924652662 0.091266624887511222 0 -0.1132958581690087 0.089498212194009413 0 -0.1147576002707448 0.090098345760499604 0 -0.1132429924652662 0.091266624887511222 0 -0.1132958581690087 0.089498212194009413 0 -0.1132429924652662 0.091266624887511222 0 -0.111201319362597 0.092158650511771273 0 -0.1132429924652662 0.091266624887511222 0 -0.113227287030465 0.093543737967718643 0 -0.111201319362597 0.092158650511771273 0 -0.113227287030465 0.093543737967718643 0 -0.111201319362597 0.092158650511771273 0 -0.1118040116283671 0.095408335197246341 0 -0.11234128863506559 0.078124530170447515 0 -0.11034587660406039 0.088900705289990195 0 -0.11234128863506559 0.078124530170447515 0 -0.111201319362597 0.092158650511771273 0 -0.1140227235076972 0.082704393195051767 0 -0.11234128863506559 0.078124530170447515 0 -0.1147547694703366 0.080514347215115772 0 -0.1175470653554001 0.0788765013925143 0 -0.11234128863506559 0.078124530170447515 0 -0.1147547694703366 0.080514347215115772 0 -0.1140227235076972 0.082704393195051767 0 -0.1147547694703366 0.080514347215115772 0 -0.1169613932321613 0.080605075161227752 0 -0.1140227235076972 0.082704393195051767 0 -0.1169613932321613 0.080605075161227752 0 -0.11592459920130049 0.082728136852895096 0 -0.11787252522746269 0.082612983941153934 0 -0.1169613932321613 0.080605075161227752 0 -0.1140227235076972 0.082704393195051767 0 -0.11592459920130049 0.082728136852895096 0 -0.1147547694703366 0.080514347215115772 0 -0.1169613932321613 0.080605075161227752 0 -0.1175470653554001 0.0788765013925143 0 -0.1132958581690087 0.089498212194009413 0 -0.1132108403912115 0.084392763848658361 0 -0.1140227235076972 0.082704393195051767 0 -0.11378085232143639 0.086441902608053053 0 -0.11522389832659891 0.085099225807041046 0 -0.1140227235076972 0.082704393195051767 0 -0.11378085232143639 0.086441902608053053 0 -0.1132108403912115 0.084392763848658361 0 -0.1140227235076972 0.082704393195051767 0 -0.1140227235076972 0.082704393195051767 0 -0.11592459920130049 0.082728136852895096 0 -0.1171147246949405 0.085298117077510796 0 -0.11592459920130049 0.082728136852895096 0 -0.1171147246949405 0.085298117077510796 0 -0.11787252522746269 0.082612983941153934 0 -0.11522389832659891 0.085099225807041046 0 -0.1140227235076972 0.082704393195051767 0 -0.1171147246949405 0.085298117077510796 0 -0.11378085232143639 0.086441902608053053 0 -0.11522389832659891 0.085099225807041046 0 -0.1171147246949405 0.085298117077510796 0 -0.1171147246949405 0.085298117077510796 0 -0.1200206832845218 0.082719624809560327 0 -0.1192038596807011 0.084802365787214229 0 -0.1171147246949405 0.085298117077510796 0 -0.1192038596807011 0.084802365787214229 0 -0.1203389290860734 0.08696472212682127 0 -0.1171147246949405 0.085298117077510796 0 -0.11787252522746269 0.082612983941153934 0 -0.1200206832845218 0.082719624809560327 0 -0.1192038596807011 0.084802365787214229 0 -0.1212926759793669 0.084742084687313451 0 -0.1203389290860734 0.08696472212682127 0 -0.1200206832845218 0.082719624809560327 0 -0.1192038596807011 0.084802365787214229 0 -0.1212926759793669 0.084742084687313451 0 -0.1169613932321613 0.080605075161227752 0 -0.1175470653554001 0.0788765013925143 0 -0.1202172161668984 0.07877946373430833 0 -0.1169613932321613 0.080605075161227752 0 -0.11787252522746269 0.082612983941153934 0 -0.1200206832845218 0.082719624809560327 0 -0.1169613932321613 0.080605075161227752 0 -0.1194641382938227 0.081020210509610238 0 -0.1202172161668984 0.07877946373430833 0 -0.1169613932321613 0.080605075161227752 0 -0.1200206832845218 0.082719624809560327 0 -0.1194641382938227 0.081020210509610238 0 -0.1210087889670472 0.081279234188838631 0 -0.1194641382938227 0.081020210509610238 0 -0.1202172161668984 0.07877946373430833 0 -0.1200206832845218 0.082719624809560327 0 -0.1210087889670472 0.081279234188838631 0 -0.1194641382938227 0.081020210509610238 0 -0.1210087889670472 0.081279234188838631 0 -0.1202172161668984 0.07877946373430833 0 -0.12263842300944321 0.079533008487134071 0 -0.1210087889670472 0.081279234188838631 0 -0.12263842300944321 0.079533008487134071 0 -0.1225639624650177 0.082212402110561023 0 -0.12263842300944321 0.079533008487134071 0 -0.12487663512593079 0.081391171732444381 0 -0.1225639624650177 0.082212402110561023 0 -0.12263842300944321 0.079533008487134071 0 -0.12487663512593079 0.081391171732444381 0 -0.12485635251832949 0.078351939813024546 0 -0.1212926759793669 0.084742084687313451 0 -0.1234240149047192 0.08464872897060495 0 -0.1226034513081532 0.086743946682511008 0 -0.1200206832845218 0.082719624809560327 0 -0.1212926759793669 0.084742084687313451 0 -0.1225639624650177 0.082212402110561023 0 -0.1212926759793669 0.084742084687313451 0 -0.1225639624650177 0.082212402110561023 0 -0.1234240149047192 0.08464872897060495 0 -0.1200206832845218 0.082719624809560327 0 -0.1210087889670472 0.081279234188838631 0 -0.1225639624650177 0.082212402110561023 0 -0.12487663512593079 0.081391171732444381 0 -0.1225639624650177 0.082212402110561023 0 -0.1234240149047192 0.08464872897060495 0 -0.12553973240708449 0.083487465722660095 0 -0.12487663512593079 0.081391171732444381 0 -0.1234240149047192 0.08464872897060495 0 -0.1257527236209417 0.085016396217428403 0 -0.1234240149047192 0.08464872897060495 0 -0.1226034513081532 0.086743946682511008 0 -0.12553973240708449 0.083487465722660095 0 -0.1257527236209417 0.085016396217428403 0 -0.1234240149047192 0.08464872897060495 0 -0.12819293178220359 0.086370742676851742 0 -0.1216068506933829 0.089672221297597041 0 -0.1189381939685949 0.091995365943585011 0 -0.12819293178220359 0.086370742676851742 0 -0.1189381939685949 0.091995365943585011 0 -0.1218107812678077 0.091921798454556253 0 -0.1257527236209417 0.085016396217428403 0 -0.1216068506933829 0.089672221297597041 0 -0.1226034513081532 0.086743946682511008 0 -0.1212926759793669 0.084742084687313451 0 -0.1226034513081532 0.086743946682511008 0 -0.1203389290860734 0.08696472212682127 0 -0.1216068506933829 0.089672221297597041 0 -0.1226034513081532 0.086743946682511008 0 -0.1203389290860734 0.08696472212682127 0 -0.1203389290860734 0.08696472212682127 0 -0.1200711894585632 0.088490938926863952 0 -0.1184596449732859 0.088111810974922933 0 -0.1216068506933829 0.089672221297597041 0 -0.1200711894585632 0.088490938926863952 0 -0.1185762933299014 0.090379701665158199 0 -0.1216068506933829 0.089672221297597041 0 -0.1203389290860734 0.08696472212682127 0 -0.1200711894585632 0.088490938926863952 0 -0.1162100372664229 0.088093727355605222 0 -0.1184596449732859 0.088111810974922933 0 -0.1185762933299014 0.090379701665158199 0 -0.1200711894585632 0.088490938926863952 0 -0.1184596449732859 0.088111810974922933 0 -0.1185762933299014 0.090379701665158199 0 -0.1162100372664229 0.088093727355605222 0 -0.1171147246949405 0.085298117077510796 0 -0.1184596449732859 0.088111810974922933 0 -0.1171147246949405 0.085298117077510796 0 -0.1203389290860734 0.08696472212682127 0 -0.1184596449732859 0.088111810974922933 0 -0.1171006642709333 0.092221866620121273 0 -0.1189381939685949 0.091995365943585011 0 -0.11559188789181241 0.094006220936823787 0 -0.11646971391085489 0.090265707578524743 0 -0.1171006642709333 0.092221866620121273 0 -0.1185762933299014 0.090379701665158199 0 -0.1171006642709333 0.092221866620121273 0 -0.1189381939685949 0.091995365943585011 0 -0.1185762933299014 0.090379701665158199 0 -0.1216068506933829 0.089672221297597041 0 -0.1189381939685949 0.091995365943585011 0 -0.1185762933299014 0.090379701665158199 0 -0.1218107812678077 0.091921798454556253 0 -0.12496365709254351 0.099786822345317605 0 -0.1149555794736646 0.10179266978620501 0 -0.12507013881000539 0.089626186415924514 0 -0.1218107812678077 0.091921798454556253 0 -0.12496365709254351 0.099786822345317605 0 -0.12496365709254351 0.099786822345317605 0 -0.1048138180045957 0.11545051695230341 0 -0.12496365709254351 0.099786822345317605 0 -0.1149555794736646 0.10179266978620501 0 -0.1048138180045957 0.11545051695230341 0 -0.1218107812678077 0.091921798454556253 0 -0.1149555794736646 0.10179266978620501 0 -0.1074781025270187 0.1043880508493526 0 -0.11034587660406039 0.088900705289990195 0 -0.111201319362597 0.092158650511771273 0 -0.1074781025270187 0.1043880508493526 0 -0.1189381939685949 0.091995365943585011 0 -0.1218107812678077 0.091921798454556253 0 -0.1074781025270187 0.1043880508493526 0 -0.111201319362597 0.092158650511771273 0 -0.1118040116283671 0.095408335197246341 0 -0.1074781025270187 0.1043880508493526 0 -0.11559188789181241 0.094006220936823787 0 -0.1118040116283671 0.095408335197246341 0 -0.1074781025270187 0.1043880508493526 0 -0.1189381939685949 0.091995365943585011 0 -0.11559188789181241 0.094006220936823787 0 -0.1074781025270187 0.1043880508493526 0 -0.1218107812678077 0.091921798454556253 0 -0.1074781025270187 0.1043880508493526 0 -0.113227287030465 0.093543737967718643 0 -0.11559188789181241 0.094006220936823787 0 -0.1118040116283671 0.095408335197246341 0 -0.12496365709254351 0.099786822345317605 0 -0.1203286734786395 0.1140085367330374 0 -0.1048138180045957 0.11545051695230341 0 -0.12538013163551431 0.1235615211388761 0 -0.1203286734786395 0.1140085367330374 0 -0.114054858854355 0.1207060156786082 0 -0.11181489964393899 0.13061983955501469 0 -0.114054858854355 0.1207060156786082 0 -0.1048138180045957 0.11545051695230341 0 -0.12538013163551431 0.1235615211388761 0 -0.11181489964393899 0.13061983955501469 0 -0.114054858854355 0.1207060156786082 0 -0.1203286734786395 0.1140085367330374 0 -0.114054858854355 0.1207060156786082 0 -0.1048138180045957 0.11545051695230341 0 -0.1048138180045957 0.11545051695230341 0 -0.10227800434990381 0.110137135992551 0 -0.1074781025270187 0.1043880508493526 0 -0.088954900836533152 0.1277786171536919 0 -0.1048138180045957 0.11545051695230341 0 -0.095465393046778188 0.1166667054728838 0 -0.1048138180045957 0.11545051695230341 0 -0.1074781025270187 0.1043880508493526 0 -0.088954900836533152 0.1277786171536919 0 -0.1048138180045957 0.11545051695230341 0 -0.1048138180045957 0.11545051695230341 0 -0.10227800434990381 0.110137135992551 0 -0.095465393046778188 0.1166667054728838 0 -0.10227800434990381 0.110137135992551 0 -0.095465393046778188 0.1166667054728838 0 -0.09811844269531228 0.1059705528652832 0 -0.11034587660406039 0.088900705289990195 0 -0.09811844269531228 0.1059705528652832 0 -0.11034587660406039 0.088900705289990195 0 -0.09811844269531228 0.1059705528652832 0 -0.1074781025270187 0.1043880508493526 0 -0.090041382496085426 0.094603941230090513 0 -0.11034587660406039 0.088900705289990195 0 -0.09811844269531228 0.1059705528652832 0 -0.11034587660406039 0.088900705289990195 0 -0.1074781025270187 0.1043880508493526 0 -0.10227800434990381 0.110137135992551 0 -0.09811844269531228 0.1059705528652832 0 -0.1074781025270187 0.1043880508493526 0 -0.1149555794736646 0.10179266978620501 0 -0.1048138180045957 0.11545051695230341 0 -0.1074781025270187 0.1043880508493526 0 -0.099696523322329381 0.012796957140885631 0 -0.1027340189904121 0.031457353993626119 0 -0.087996741231116365 0.029964007658445341 0 -0.099696523322329381 0.012796957140885631 0 -0.087996741231116365 0.029964007658445341 0 -0.099696523322329381 0.012796957140885631 0 -0.11596694612224891 0.016676389169406291 0 -0.1027340189904121 0.031457353993626119 0 -0.1027340189904121 0.031457353993626119 0 -0.087996741231116365 0.029964007658445341 0 -0.1113963054135417 -0.0043700933766745859 0 -0.099696523322329381 0.012796957140885631 0 -0.11596694612224891 0.016676389169406291 0 -0.1113963054135417 -0.0043700933766745859 0 -0.099696523322329381 0.012796957140885631 0 -0.1113963054135417 -0.0043700933766745859 0 -0.099696523322329381 0.012796957140885631 0 -0.095042178018154802 0.0009823759069313182 0 -0.1195315168135004 -0.0024303773624146621 0 -0.12688342370485001 0.01070171800265522 0 -0.11596694612224891 0.016676389169406291 0 -0.1195315168135004 -0.0024303773624146621 0 -0.11596694612224891 0.016676389169406291 0 -0.1113963054135417 -0.0043700933766745859 0 -0.1195315168135004 -0.0024303773624146621 0 -0.11596694612224891 0.016676389169406291 0 -0.12688342370485001 0.01070171800265522 0 -0.1242230929734665 0.023393682950198631 0 -0.11596694612224891 0.016676389169406291 0 -0.11596694612224891 0.016676389169406291 0 -0.1164988123418689 0.033847720949779107 0 -0.1027340189904121 0.031457353993626119 0 -0.1242230929734665 0.023393682950198631 0 -0.11596694612224891 0.016676389169406291 0 -0.1164988123418689 0.033847720949779107 0 -0.128895210172768 0.032880780971351282 0 -0.1242230929734665 0.023393682950198631 0 -0.1164988123418689 0.033847720949779107 0 -0.128895210172768 0.032880780971351282 0 -0.1164988123418689 0.033847720949779107 0 -0.1197864358152651 0.053282202866922403 0 -0.1164988123418689 0.033847720949779107 0 -0.1197864358152651 0.053282202866922403 0 -0.1053044231539355 0.044738838161835721 0 -0.1197864358152651 0.053282202866922403 0 -0.1045204229746596 0.060438390130880558 0 -0.1053044231539355 0.044738838161835721 0 -0.1084167475466967 0.070292279581442102 0 -0.1197864358152651 0.053282202866922403 0 -0.1045204229746596 0.060438390130880558 0 -0.1045204229746596 0.060438390130880558 0 -0.093753240721328956 0.050488232397772552 0 -0.1053044231539355 0.044738838161835721 0 -0.1045204229746596 0.060438390130880558 0 -0.093753240721328956 0.050488232397772552 0 -0.094163924989242462 0.060669630188739908 0 -0.1164988123418689 0.033847720949779107 0 -0.1027340189904121 0.031457353993626119 0 -0.1053044231539355 0.044738838161835721 0 -0.093753240721328956 0.050488232397772552 0 -0.1053044231539355 0.044738838161835721 0 -0.093797648613622608 0.03996438843176757 0 -0.1027340189904121 0.031457353993626119 0 -0.093797648613622608 0.03996438843176757 0 -0.087996741231116365 0.029964007658445341 0 -0.1027340189904121 0.031457353993626119 0 -0.1053044231539355 0.044738838161835721 0 -0.093797648613622608 0.03996438843176757 0 -0.093797648613622608 0.03996438843176757 0 -0.072782252423822316 0.052288175400840069 0 -0.087996741231116365 0.029964007658445341 0 -0.072782252423822316 0.052288175400840069 0 -0.087996741231116365 0.029964007658445341 0 -0.093753240721328956 0.050488232397772552 0 -0.093797648613622608 0.03996438843176757 0 -0.072782252423822316 0.052288175400840069 0 -0.093753240721328956 0.050488232397772552 0 -0.094163924989242462 0.060669630188739908 0 -0.072782252423822316 0.052288175400840069 0 -0.089274923487953489 0.070238970672130377 0 -0.094163924989242462 0.060669630188739908 0 -0.072782252423822316 0.052288175400840069 0 -0.057567763616527518 0.074612343143234339 0 -0.072782252423822316 0.052288175400840069 0 -0.057532226660207159 0.05464003229954064 0 -0.072782252423822316 0.052288175400840069 0 -0.065290729066978942 0.02766317974397078 0 -0.057532226660207159 0.05464003229954064 0 -0.072782252423822316 0.052288175400840069 0 -0.065290729066978942 0.02766317974397078 0 -0.087996741231116365 0.029964007658445341 0 -0.065290729066978942 0.02766317974397078 0 -0.067939656911554083 0.01055717571291113 0 -0.054547717246899663 0.016202824831207469 0 -0.065290729066978942 0.02766317974397078 0 -0.087996741231116365 0.029964007658445341 0 -0.065290729066978942 0.02766317974397078 0 -0.083574623097334794 0.01381806606100805 0 -0.067939656911554083 0.01055717571291113 0 -0.065290729066978942 0.02766317974397078 0 -0.087996741231116365 0.029964007658445341 0 -0.083574623097334794 0.01381806606100805 0 -0.099696523322329381 0.012796957140885631 0 -0.087996741231116365 0.029964007658445341 0 -0.083574623097334794 0.01381806606100805 0 -0.099696523322329381 0.012796957140885631 0 -0.095042178018154802 0.0009823759069313182 0 -0.083574623097334794 0.01381806606100805 0 -0.095042178018154802 0.0009823759069313182 0 -0.083574623097334794 0.01381806606100805 0 -0.082085834664370957 0.00072418305549578471 0 -0.083574623097334794 0.01381806606100805 0 -0.082085834664370957 0.00072418305549578471 0 -0.067939656911554083 0.01055717571291113 0 -0.070517512630694557 -0.002546413074365927 0 -0.082085834664370957 0.00072418305549578471 0 -0.067939656911554083 0.01055717571291113 0 -0.070517512630694557 -0.002546413074365927 0 -0.067939656911554083 0.01055717571291113 0 -0.055813665327939861 0.004961667931764239 0 -0.070517512630694557 -0.002546413074365927 0 -0.055813665327939861 0.004961667931764239 0 -0.055813665327939861 0.004961667931764239 0 -0.054547717246899663 0.016202824831207469 0 -0.041109818025184541 0.01246974893789313 0 -0.055813665327939861 0.004961667931764239 0 -0.041109818025184541 0.01246974893789313 0 -0.067939656911554083 0.01055717571291113 0 -0.055813665327939861 0.004961667931764239 0 -0.054547717246899663 0.016202824831207469 0 -0.065290729066978942 0.02766317974397078 0 -0.054547717246899663 0.016202824831207469 0 -0.042584716902841602 0.02536235182949604 0 -0.065290729066978942 0.02766317974397078 0 -0.042584716902841602 0.02536235182949604 0 -0.042584716902841602 0.02536235182949604 0 -0.041109818025184541 0.01246974893789313 0 -0.042584716902841602 0.02536235182949604 0 -0.031187306778866161 0.034255068436600089 0 -0.020286024172819061 0.023102798090223149 0 -0.042584716902841602 0.02536235182949604 0 -0.020286024172819061 0.023102798090223149 0 -0.042584716902841602 0.02536235182949604 0 -0.041109818025184541 0.01246974893789313 0 -0.020286024172819061 0.023102798090223149 0 -0.054547717246899663 0.016202824831207469 0 -0.042584716902841602 0.02536235182949604 0 -0.041109818025184541 0.01246974893789313 0 -0.038065540254775793 -0.01414133944257338 0 -0.041109818025184541 0.01246974893789313 0 -0.02332930609282181 0.002293464424054465 0 -0.038065540254775793 -0.01414133944257338 0 -0.055813665327939861 0.004961667931764239 0 -0.041109818025184541 0.01246974893789313 0 -0.047250261561067187 0.066145496669263351 0 -0.057532226660207159 0.05464003229954064 0 -0.044917489231954613 0.045753924249379671 0 -0.065290729066978942 0.02766317974397078 0 -0.057532226660207159 0.05464003229954064 0 -0.044917489231954613 0.045753924249379671 0 -0.065290729066978942 0.02766317974397078 0 -0.042584716902841602 0.02536235182949604 0 -0.044917489231954613 0.045753924249379671 0 -0.044917489231954613 0.045753924249379671 0 -0.025594665142677619 0.045775131773195393 0 -0.031187306778866161 0.034255068436600089 0 -0.042584716902841602 0.02536235182949604 0 -0.044917489231954613 0.045753924249379671 0 -0.031187306778866161 0.034255068436600089 0 -0.042584716902841602 0.02536235182949604 0 -0.044917489231954613 0.045753924249379671 0 -0.047250261561067187 0.066145496669263351 0 -0.044917489231954613 0.045753924249379671 0 -0.044917489231954613 0.045753924249379671 0 -0.036962816676788267 0.056993149040489133 0 -0.025594665142677619 0.045775131773195393 0 -0.047250261561067187 0.066145496669263351 0 -0.044917489231954613 0.045753924249379671 0 -0.036962816676788267 0.056993149040489133 0 -0.016265395509468841 0.05675055313603064 0 -0.025594665142677619 0.045775131773195393 0 -0.0079846579159902707 0.046004899858118183 0 -0.026297438582637139 0.065702150101104945 0 -0.036962816676788267 0.056993149040489133 0 -0.016265395509468841 0.05675055313603064 0 -0.036962816676788267 0.056993149040489133 0 -0.016265395509468841 0.05675055313603064 0 -0.025594665142677619 0.045775131773195393 0 -0.025594665142677619 0.045775131773195393 0 -0.01782538559736848 0.034998743738524393 0 -0.0079846579159902707 0.046004899858118183 0 -0.025594665142677619 0.045775131773195393 0 -0.031187306778866161 0.034255068436600089 0 -0.01782538559736848 0.034998743738524393 0 -0.0079846579159902707 0.046004899858118183 0 -0.0065963088486021594 0.03009304285329403 0 0.007093406475614579 0.037083287616365312 0 -0.01782538559736848 0.034998743738524393 0 -0.0079846579159902707 0.046004899858118183 0 -0.0065963088486021594 0.03009304285329403 0 -0.0053676108279740262 0.064625276336423676 0 -0.0079846579159902707 0.046004899858118183 0 0.0083359660868863178 0.053164177129333939 0 -0.0053676108279740262 0.064625276336423676 0 -0.016265395509468841 0.05675055313603064 0 -0.0079846579159902707 0.046004899858118183 0 -0.041109818025184541 0.01246974893789313 0 -0.02332930609282181 0.002293464424054465 0 -0.020286024172819061 0.023102798090223149 0 -0.02332930609282181 0.002293464424054465 0 -0.020286024172819061 0.023102798090223149 0 -0.0092612235771873889 0.0088429520238121149 0 -0.041109818025184541 0.01246974893789313 0 -0.020286024172819061 0.023102798090223149 0 -0.031187306778866161 0.034255068436600089 0 -0.01782538559736848 0.034998743738524393 0 -0.020286024172819061 0.023102798090223149 0 -0.020286024172819061 0.023102798090223149 0 -0.0003554366514492216 0.021083207340887321 0 -0.020286024172819061 0.023102798090223149 0 -0.0003554366514492216 0.021083207340887321 0 -0.0092612235771873889 0.0088429520238121149 0 -0.020286024172819061 0.023102798090223149 0 -0.0065963088486021594 0.03009304285329403 0 -0.0003554366514492216 0.021083207340887321 0 -0.01782538559736848 0.034998743738524393 0 -0.020286024172819061 0.023102798090223149 0 -0.0065963088486021594 0.03009304285329403 0 -0.020286024172819061 0.023102798090223149 0 -0.0065963088486021594 0.03009304285329403 0 -0.008081950935871246 -0.0078643453545879025 0 -0.02332930609282181 0.002293464424054465 0 -0.0092612235771873889 0.0088429520238121149 0 -0.0003554366514492216 0.021083207340887321 0 -0.0092612235771873889 0.0088429520238121149 0 0.0057465999670243432 0.0055996356184830438 0 -0.008081950935871246 -0.0078643453545879025 0 -0.0092612235771873889 0.0088429520238121149 0 0.0057465999670243432 0.0055996356184830438 0 -0.0003554366514492216 0.021083207340887321 0 0.0057465999670243432 0.0055996356184830438 0 0.019575150869920791 0.01906361659155301 0 0.0057465999670243432 0.0055996356184830438 0 0.019575150869920791 0.01906361659155301 0 -0.0065963088486021594 0.03009304285329403 0 -0.0003554366514492216 0.021083207340887321 0 0.007093406475614579 0.037083287616365312 0 -0.0003554366514492216 0.021083207340887321 0 0.019575150869920791 0.01906361659155301 0 -0.0003554366514492216 0.021083207340887321 0 0.019575150869920791 0.01906361659155301 0 0.007093406475614579 0.037083287616365312 0 0.019575150869920791 0.01906361659155301 0 0.038027581739484957 0.037029575561463732 0 0.0057465999670243432 0.0055996356184830438 0 0.019575150869920791 0.01906361659155301 0 0.0217108161930991 -0.001085578434556951 0 0.019575150869920791 0.01906361659155301 0 0.033346761524343363 0.0085600828216045571 0 0.0217108161930991 -0.001085578434556951 0 -0.0079846579159902707 0.046004899858118183 0 0.0083359660868863178 0.053164177129333939 0 0.007093406475614579 0.037083287616365312 0 0.0083359660868863178 0.053164177129333939 0 0.007093406475614579 0.037083287616365312 0 0.020675756113537169 0.042675366093126027 0 -0.0065963088486021594 0.03009304285329403 0 0.007093406475614579 0.037083287616365312 0 0.020675756113537169 0.042675366093126027 0 0.022601529255734991 0.060689645180655158 0 0.038027581739484957 0.037029575561463732 0 0.019575150869920791 0.01906361659155301 0 0.020675756113537169 0.042675366093126027 0 0.038027581739484957 0.037029575561463732 0 0.019575150869920791 0.01906361659155301 0 0.007093406475614579 0.037083287616365312 0 0.020675756113537169 0.042675366093126027 0 0.0083359660868863178 0.053164177129333939 0 0.020675756113537169 0.042675366093126027 0 0.022601529255734991 0.060689645180655158 0 0.038027581739484957 0.037029575561463732 0 0.056480012609050119 0.054995534531373597 0 0.041097184394933158 0.067102846782740977 0 0.022601529255734991 0.060689645180655158 0 0.038027581739484957 0.037029575561463732 0 0.041097184394933158 0.067102846782740977 0 0.038027581739484957 0.037029575561463732 0 0.056480012609050119 0.054995534531373597 0 0.038027581739484957 0.037029575561463732 0 0.06071961074176252 0.039633191280357111 0 0.058250974068895692 0.023888934693705351 0 0.038027581739484957 0.037029575561463732 0 0.06071961074176252 0.039633191280357111 0 0.056480012609050119 0.054995534531373597 0 0.033346761524343363 0.0085600828216045571 0 0.045430384837266212 0.01644367418963286 0 0.049251502315066371 -0.0027485426273138819 0 0.033346761524343363 0.0085600828216045571 0 0.0217108161930991 -0.001085578434556951 0 0.049251502315066371 -0.0027485426273138819 0 0.019575150869920791 0.01906361659155301 0 0.033346761524343363 0.0085600828216045571 0 0.045430384837266212 0.01644367418963286 0 0.019575150869920791 0.01906361659155301 0 0.045430384837266212 0.01644367418963286 0 0.019575150869920791 0.01906361659155301 0 0.038027581739484957 0.037029575561463732 0 0.045430384837266212 0.01644367418963286 0 0.045430384837266212 0.01644367418963286 0 0.058250974068895692 0.023888934693705351 0 0.071285618804611872 0.01382373178771471 0 0.038027581739484957 0.037029575561463732 0 0.045430384837266212 0.01644367418963286 0 0.058250974068895692 0.023888934693705351 0 0.045430384837266212 0.01644367418963286 0 0.071285618804611872 0.01382373178771471 0 0.045430384837266212 0.01644367418963286 0 0.061392891900666088 0.0054489801558786077 0 0.049251502315066371 -0.0027485426273138819 0 0.045430384837266212 0.01644367418963286 0 0.061392891900666088 0.0054489801558786077 0 0.071285618804611872 0.01382373178771471 0 0.061392891900666088 0.0054489801558786077 0 0.072484892700189124 0.0053911574084547194 0 0.076792188437033629 -0.0044115068200708124 0 0.061392891900666088 0.0054489801558786077 0 0.071285618804611872 0.01382373178771471 0 0.072484892700189124 0.0053911574084547194 0 0.071285618804611872 0.01382373178771471 0 0.072484892700189124 0.0053911574084547194 0 0.081418427574825286 0.0068471874872487338 0 0.072484892700189124 0.0053911574084547194 0 0.081418427574825286 0.0068471874872487338 0 0.076792188437033629 -0.0044115068200708124 0 0.071285618804611872 0.01382373178771471 0 0.081418427574825286 0.0068471874872487338 0 0.089324723077758031 0.016857771619795771 0 0.081418427574825286 0.0068471874872487338 0 0.095468603896129905 0.0032048388713090512 0 0.076792188437033629 -0.0044115068200708124 0 0.081418427574825286 0.0068471874872487338 0 0.089324723077758031 0.016857771619795771 0 0.095468603896129905 0.0032048388713090512 0 0.071285618804611872 0.01382373178771471 0 0.089324723077758031 0.016857771619795771 0 0.075894653646098487 0.034765557836833112 0 0.089324723077758031 0.016857771619795771 0 0.075894653646098487 0.034765557836833112 0 0.09711597722390361 0.031971018110036643 0 0.058250974068895692 0.023888934693705351 0 0.075894653646098487 0.034765557836833112 0 0.058250974068895692 0.023888934693705351 0 0.071285618804611872 0.01382373178771471 0 0.075894653646098487 0.034765557836833112 0 0.06071961074176252 0.039633191280357111 0 0.058250974068895692 0.023888934693705351 0 0.075894653646098487 0.034765557836833112 0 0.06071961074176252 0.039633191280357111 0 0.075894653646098487 0.034765557836833112 0 0.075770380306397822 0.052123017823665387 0 0.06071961074176252 0.039633191280357111 0 0.056480012609050119 0.054995534531373597 0 0.075770380306397822 0.052123017823665387 0 0.056480012609050119 0.054995534531373597 0 0.075770380306397822 0.052123017823665387 0 0.074932443478615982 0.072961493501282768 0 0.075770380306397822 0.052123017823665387 0 0.09353833322330124 0.045642180979960853 0 0.093057228139559356 0.064740148812184178 0 0.075894653646098487 0.034765557836833112 0 0.09353833322330124 0.045642180979960853 0 0.075894653646098487 0.034765557836833112 0 0.075770380306397822 0.052123017823665387 0 0.09353833322330124 0.045642180979960853 0 0.075894653646098487 0.034765557836833112 0 0.09353833322330124 0.045642180979960853 0 0.09711597722390361 0.031971018110036643 0 0.09353833322330124 0.045642180979960853 0 0.09711597722390361 0.031971018110036643 0 0.104163157296742 0.044052917207578958 0 0.104163157296742 0.044052917207578958 0 0.1116578811532748 0.048800742543271353 0 0.11192403100538539 0.040918745799924258 0 0.104163157296742 0.044052917207578958 0 0.1063181118891925 0.035164439489281551 0 0.11192403100538539 0.040918745799924258 0 0.09711597722390361 0.031971018110036643 0 0.1063181118891925 0.035164439489281551 0 0.1090227107347949 0.02685747211808313 0 0.09711597722390361 0.031971018110036643 0 0.104163157296742 0.044052917207578958 0 0.1063181118891925 0.035164439489281551 0 0.09353833322330124 0.045642180979960853 0 0.104163157296742 0.044052917207578958 0 0.1111820128005041 0.056518804123088393 0 0.09353833322330124 0.045642180979960853 0 0.1111820128005041 0.056518804123088393 0 0.093057228139559356 0.064740148812184178 0 0.1111820128005041 0.056518804123088393 0 0.093057228139559356 0.064740148812184178 0 0.09353833322330124 0.045642180979960853 0 0.1111820128005041 0.056518804123088393 0 0.104163157296742 0.044052917207578958 0 0.1111820128005041 0.056518804123088393 0 0.1116578811532748 0.048800742543271353 0 0.1111820128005041 0.056518804123088393 0 0.1261065257329215 0.049749092513842547 0 0.13254865804091981 0.063927211530657252 0 0.1111820128005041 0.056518804123088393 0 0.1116578811532748 0.048800742543271353 0 0.1261065257329215 0.049749092513842547 0 0.1116578811532748 0.048800742543271353 0 0.1261065257329215 0.049749092513842547 0 0.1111820128005041 0.056518804123088393 0 0.1261065257329215 0.049749092513842547 0 0.1116578811532748 0.048800742543271353 0 0.11786086695957811 0.044471261592249352 0 0.1261065257329215 0.049749092513842547 0 0.1063181118891925 0.035164439489281551 0 0.1146679654700743 0.03303800539707423 0 0.1090227107347949 0.02685747211808313 0 0.1146679654700743 0.03303800539707423 0 0.11192403100538539 0.040918745799924258 0 0.1190748011161495 0.038704259001877551 0 0.1063181118891925 0.035164439489281551 0 0.1146679654700743 0.03303800539707423 0 0.11192403100538539 0.040918745799924258 0 0.1116578811532748 0.048800742543271353 0 0.11192403100538539 0.040918745799924258 0 0.11786086695957811 0.044471261592249352 0 0.11192403100538539 0.040918745799924258 0 0.11786086695957811 0.044471261592249352 0 0.1190748011161495 0.038704259001877551 0 0.1243370536324033 0.043963734158083689 0 0.1190748011161495 0.038704259001877551 0 0.12728113781280981 0.039528802799818748 0 0.11786086695957811 0.044471261592249352 0 0.1243370536324033 0.043963734158083689 0 0.1190748011161495 0.038704259001877551 0 0.11786086695957811 0.044471261592249352 0 0.1243370536324033 0.043963734158083689 0 0.1261065257329215 0.049749092513842547 0 0.1146679654700743 0.03303800539707423 0 0.1231174754830366 0.032788360966042172 0 0.1190748011161495 0.038704259001877551 0 0.1231174754830366 0.032788360966042172 0 0.1190748011161495 0.038704259001877551 0 0.12728113781280981 0.039528802799818748 0 0.1185514890641938 0.026165687640265261 0 0.1237376642652656 0.01976859365491428 0 0.1276628884147202 0.026504186973196051 0 0.1231174754830366 0.032788360966042172 0 0.1185514890641938 0.026165687640265261 0 0.1276628884147202 0.026504186973196051 0 0.1146679654700743 0.03303800539707423 0 0.1231174754830366 0.032788360966042172 0 0.1185514890641938 0.026165687640265261 0 0.1185514890641938 0.026165687640265261 0 0.11449648569988199 0.019496935314629212 0 0.1090227107347949 0.02685747211808313 0 0.1146679654700743 0.03303800539707423 0 0.1185514890641938 0.026165687640265261 0 0.1090227107347949 0.02685747211808313 0 0.11449648569988199 0.019496935314629212 0 0.11167150213888349 0.01199423986095109 0 0.1027069290641726 0.0197997859143078 0 0.1185514890641938 0.026165687640265261 0 0.11449648569988199 0.019496935314629212 0 0.1237376642652656 0.01976859365491428 0 0.11449648569988199 0.019496935314629212 0 0.1237376642652656 0.01976859365491428 0 0.1203284510390845 0.013104948594594349 0 0.1203284510390845 0.013104948594594349 0 0.1184275669931147 0.005740314440356489 0 0.13132033129498641 0.0092488423746995806 0 0.1184275669931147 0.005740314440356489 0 0.13132033129498641 0.0092488423746995806 0 0.1241013306504634 -0.00126979730434574 0 0.1184275669931147 0.005740314440356489 0 0.11616446291822149 0.0009867659353553224 0 0.1241013306504634 -0.00126979730434574 0 0.11616446291822149 0.0009867659353553224 0 0.1110642626353554 0.0038342857635015049 0 0.11106469139395241 -0.0043577391580909642 0 0.1184275669931147 0.005740314440356489 0 0.1110642626353554 0.0038342857635015049 0 0.11167150213888349 0.01199423986095109 0 0.1184275669931147 0.005740314440356489 0 0.11616446291822149 0.0009867659353553224 0 0.1110642626353554 0.0038342857635015049 0 0.1203284510390845 0.013104948594594349 0 0.1184275669931147 0.005740314440356489 0 0.11167150213888349 0.01199423986095109 0 0.11449648569988199 0.019496935314629212 0 0.1203284510390845 0.013104948594594349 0 0.11167150213888349 0.01199423986095109 0 0.1110642626353554 0.0038342857635015049 0 0.11167150213888349 0.01199423986095109 0 0.10300531740169221 0.0099891691383171746 0 0.11167150213888349 0.01199423986095109 0 0.10300531740169221 0.0099891691383171746 0 0.1027069290641726 0.0197997859143078 0 0.1110642626353554 0.0038342857635015049 0 0.095468603896129905 0.0032048388713090512 0 0.11106469139395241 -0.0043577391580909642 0 0.1110642626353554 0.0038342857635015049 0 0.10300531740169221 0.0099891691383171746 0 0.095468603896129905 0.0032048388713090512 0 0.089324723077758031 0.016857771619795771 0 0.10300531740169221 0.0099891691383171746 0 0.095468603896129905 0.0032048388713090512 0 0.089324723077758031 0.016857771619795771 0 0.10300531740169221 0.0099891691383171746 0 0.1027069290641726 0.0197997859143078 0 0.089324723077758031 0.016857771619795771 0 0.09711597722390361 0.031971018110036643 0 0.1027069290641726 0.0197997859143078 0 0.09711597722390361 0.031971018110036643 0 0.1090227107347949 0.02685747211808313 0 0.1027069290641726 0.0197997859143078 0 0.11449648569988199 0.019496935314629212 0 0.1090227107347949 0.02685747211808313 0 0.1027069290641726 0.0197997859143078 0 0.1024990330499561 0.1037514056296809 0 0.10856667821163669 0.086897768267990574 0 0.089175291647175997 0.09228385866007352 0 0.1024990330499561 0.1037514056296809 0 0.099821751196421782 0.1191423519601547 0 0.1221416529332626 0.11202310548697909 0 0.1024990330499561 0.1037514056296809 0 0.099821751196421782 0.1191423519601547 0 0.08323109774477136 0.1082653446622857 0 0.099821751196421782 0.1191423519601547 0 0.1221416529332626 0.11202310548697909 0 0.1104396205736143 0.1275896196336693 0 0.1221416529332626 0.11202310548697909 0 0.1104396205736143 0.1275896196336693 0 0.1216198161367525 0.1284461376911499 0 0.1024990330499561 0.1037514056296809 0 0.1221416529332626 0.11202310548697909 0 0.10856667821163669 0.086897768267990574 0 0.1221416529332626 0.11202310548697909 0 0.10856667821163669 0.086897768267990574 0 0.1221416529332626 0.11202310548697909 0 0.10856667821163669 0.086897768267990574 0 0.12711182105801849 0.096271416258485329 0 0.1187519132559962 0.073330070717771242 0 0.10856667821163669 0.086897768267990574 0 0.13222229848423689 0.082740643567558239 0 0.10856667821163669 0.086897768267990574 0 0.13222229848423689 0.082740643567558239 0 0.12711182105801849 0.096271416258485329 0 0.1187519132559962 0.073330070717771242 0 0.10576148555758889 0.068658335854073577 0 0.10856667821163669 0.086897768267990574 0 0.1111820128005041 0.056518804123088393 0 0.13602709122601439 0.071834801776145749 0 0.1111820128005041 0.056518804123088393 0 0.1187519132559962 0.073330070717771242 0 0.13602709122601439 0.071834801776145749 0 0.1111820128005041 0.056518804123088393 0 0.1187519132559962 0.073330070717771242 0 0.10576148555758889 0.068658335854073577 0 0.10576148555758889 0.068658335854073577 0 0.10856667821163669 0.086897768267990574 0 0.090081714657470197 0.07753354160467707 0 0.10576148555758889 0.068658335854073577 0 0.093057228139559356 0.064740148812184178 0 0.090081714657470197 0.07753354160467707 0 0.1111820128005041 0.056518804123088393 0 0.10576148555758889 0.068658335854073577 0 0.093057228139559356 0.064740148812184178 0 0.10856667821163669 0.086897768267990574 0 0.089175291647175997 0.09228385866007352 0 0.090081714657470197 0.07753354160467707 0 0.089175291647175997 0.09228385866007352 0 0.078042380094003064 0.085281887196875086 0 0.069605977849525796 0.093056262500169198 0 0.089175291647175997 0.09228385866007352 0 0.090081714657470197 0.07753354160467707 0 0.078042380094003064 0.085281887196875086 0 0.090081714657470197 0.07753354160467707 0 0.074932443478615982 0.072961493501282768 0 0.078042380094003064 0.085281887196875086 0 0.093057228139559356 0.064740148812184178 0 0.074932443478615982 0.072961493501282768 0 0.075770380306397822 0.052123017823665387 0 0.093057228139559356 0.064740148812184178 0 0.074932443478615982 0.072961493501282768 0 0.093057228139559356 0.064740148812184178 0 0.090081714657470197 0.07753354160467707 0 0.074932443478615982 0.072961493501282768 0 0.056480012609050119 0.054995534531373597 0 0.074932443478615982 0.072961493501282768 0 0.074932443478615982 0.072961493501282768 0 0.078042380094003064 0.085281887196875086 0 0.069605977849525796 0.093056262500169198 0 0.074932443478615982 0.072961493501282768 0 0.051990867565192722 0.083367719386089167 0 0.074932443478615982 0.072961493501282768 0 0.069605977849525796 0.093056262500169198 0 0.051990867565192722 0.083367719386089167 0 0.069605977849525796 0.093056262500169198 0 0.067834897750723794 0.1071738645561903 0 0.052138827861517661 0.1061354753627997 0 0.069605977849525796 0.093056262500169198 0 0.067834897750723794 0.1071738645561903 0 0.08323109774477136 0.1082653446622857 0 0.1024990330499561 0.1037514056296809 0 0.089175291647175997 0.09228385866007352 0 0.08323109774477136 0.1082653446622857 0 0.089175291647175997 0.09228385866007352 0 0.069605977849525796 0.093056262500169198 0 0.08323109774477136 0.1082653446622857 0 0.099821751196421782 0.1191423519601547 0 0.08323109774477136 0.1082653446622857 0 0.084113506929892889 0.1243933264674657 0 0.067834897750723794 0.1071738645561903 0 0.08323109774477136 0.1082653446622857 0 0.066363687547080344 0.1212383756995067 0 0.08323109774477136 0.1082653446622857 0 0.084113506929892889 0.1243933264674657 0 0.066363687547080344 0.1212383756995067 0 0.066363687547080344 0.1212383756995067 0 0.052138827861517661 0.1061354753627997 0 0.049706882500586871 0.12865831611201059 0 0.067834897750723794 0.1071738645561903 0 0.066363687547080344 0.1212383756995067 0 0.052138827861517661 0.1061354753627997 0 0.069605977849525796 0.093056262500169198 0 0.052138827861517661 0.1061354753627997 0 0.051990867565192722 0.083367719386089167 0 0.052138827861517661 0.1061354753627997 0 0.051990867565192722 0.083367719386089167 0 0.02904929165177058 0.093773945270898038 0 0.052138827861517661 0.1061354753627997 0 0.036931545462674832 0.1140772340767347 0 0.02904929165177058 0.093773945270898038 0 0.036931545462674832 0.1140772340767347 0 0.049706882500586871 0.12865831611201059 0 0.031512811691867752 0.1288472708230308 0 0.052138827861517661 0.1061354753627997 0 0.036931545462674832 0.1140772340767347 0 0.049706882500586871 0.12865831611201059 0 0.056480012609050119 0.054995534531373597 0 0.051990867565192722 0.083367719386089167 0 0.041097184394933158 0.067102846782740977 0 0.056480012609050119 0.054995534531373597 0 0.074932443478615982 0.072961493501282768 0 0.051990867565192722 0.083367719386089167 0 0.051990867565192722 0.083367719386089167 0 0.02904929165177058 0.093773945270898038 0 0.051990867565192722 0.083367719386089167 0 0.041097184394933158 0.067102846782740977 0 0.02904929165177058 0.093773945270898038 0 0.0083359660868863178 0.053164177129333939 0 0.022601529255734991 0.060689645180655158 0 0.016818715523989929 0.077529432361723633 0 0.022601529255734991 0.060689645180655158 0 0.041097184394933158 0.067102846782740977 0 0.016818715523989929 0.077529432361723633 0 0.016818715523989929 0.077529432361723633 0 0.02904929165177058 0.093773945270898038 0 0.006107715738348357 0.1041801711557067 0 0.041097184394933158 0.067102846782740977 0 0.016818715523989929 0.077529432361723633 0 0.02904929165177058 0.093773945270898038 0 0.016818715523989929 0.077529432361723633 0 0.00037005245518714931 0.084402723746065167 0 0.006107715738348357 0.1041801711557067 0 -0.0053676108279740262 0.064625276336423676 0 0.016818715523989929 0.077529432361723633 0 0.00037005245518714931 0.084402723746065167 0 -0.0053676108279740262 0.064625276336423676 0 0.0083359660868863178 0.053164177129333939 0 0.016818715523989929 0.077529432361723633 0 0.022249913607631251 0.1129711628149344 0 0.01331874088314863 0.12903622553405161 0 0.031512811691867752 0.1288472708230308 0 0.036931545462674832 0.1140772340767347 0 0.022249913607631251 0.1129711628149344 0 0.031512811691867752 0.1288472708230308 0 0.022249913607631251 0.1129711628149344 0 0.02904929165177058 0.093773945270898038 0 0.006107715738348357 0.1041801711557067 0 0.02904929165177058 0.093773945270898038 0 0.006107715738348357 0.1041801711557067 0 0.036931545462674832 0.1140772340767347 0 0.022249913607631251 0.1129711628149344 0 0.02904929165177058 0.093773945270898038 0 0.00037005245518714931 0.084402723746065167 0 0.006107715738348357 0.1041801711557067 0 0.006107715738348357 0.1041801711557067 0 0.01331874088314863 0.12903622553405161 0 0.006107715738348357 0.1041801711557067 0 0.0013627004030162689 0.1185368260370173 0 0.01331874088314863 0.12903622553405161 0 0.022249913607631251 0.1129711628149344 0 0.006107715738348357 0.1041801711557067 0 0.01331874088314863 0.12903622553405161 0 -0.0034601198776373419 0.12921048256644549 0 0.01331874088314863 0.12903622553405161 0 -0.0034601198776373419 0.12921048256644549 0 0.0048452609164686524 0.140092557160239 0 0.01331874088314863 0.12903622553405161 0 -0.0034601198776373419 0.12921048256644549 0 0.0013627004030162689 0.1185368260370173 0 0.01331874088314863 0.12903622553405161 0 0.01331874088314863 0.12903622553405161 0 0.016141510526689249 0.13876617576283221 0 0.0048452609164686524 0.140092557160239 0 0.01331874088314863 0.12903622553405161 0 0.016141510526689249 0.13876617576283221 0 0.01331874088314863 0.12903622553405161 0 0.02683887859367624 0.13859203348933979 0 0.031512811691867752 0.1288472708230308 0 0.01331874088314863 0.12903622553405161 0 0.031512811691867752 0.1288472708230308 0 0.01331874088314863 0.12903622553405161 0 0.016141510526689249 0.13876617576283221 0 0.02683887859367624 0.13859203348933979 0 0.02683887859367624 0.13859203348933979 0 0.027064835881335531 0.150466310211611 0 0.039548018845340031 0.14080250919449169 0 0.016141510526689249 0.13876617576283221 0 0.02683887859367624 0.13859203348933979 0 0.027064835881335531 0.150466310211611 0 0.016141510526689249 0.13876617576283221 0 0.027064835881335531 0.150466310211611 0 0.011544650612731621 0.15196121243723551 0 0.027064835881335531 0.150466310211611 0 0.011544650612731621 0.15196121243723551 0 0.015718573558365909 0.16243520651624821 0 -0.0060469278192012664 0.16804581253524711 0 0.0048452609164686524 0.140092557160239 0 0.011544650612731621 0.15196121243723551 0 0.0048452609164686524 0.140092557160239 0 0.016141510526689249 0.13876617576283221 0 0.011544650612731621 0.15196121243723551 0 -0.0060469278192012664 0.16804581253524711 0 0.01530233219100406 0.17737751971440449 0 0.015718573558365909 0.16243520651624821 0 -0.0060469278192012664 0.16804581253524711 0 0.011544650612731621 0.15196121243723551 0 0.015718573558365909 0.16243520651624821 0 -0.0060469278192012664 0.16804581253524711 0 0.01530233219100406 0.17737751971440449 0 0.0032606068272224781 0.1901318216684702 0 0.01530233219100406 0.17737751971440449 0 0.037050872365878958 0.1841993245850265 0 0.01824935089276878 0.19838542696580491 0 0.01530233219100406 0.17737751971440449 0 0.0277282456794508 0.16611534543410539 0 0.037050872365878958 0.1841993245850265 0 0.027064835881335531 0.150466310211611 0 0.015718573558365909 0.16243520651624821 0 0.0277282456794508 0.16611534543410539 0 0.01530233219100406 0.17737751971440449 0 0.015718573558365909 0.16243520651624821 0 0.0277282456794508 0.16611534543410539 0 0.037050872365878958 0.1841993245850265 0 0.04350461440066955 0.15609836614323691 0 0.0277282456794508 0.16611534543410539 0 0.037050872365878958 0.1841993245850265 0 0.04350461440066955 0.15609836614323691 0 0.027064835881335531 0.150466310211611 0 0.0277282456794508 0.16611534543410539 0 0.04350461440066955 0.15609836614323691 0 0.037050872365878958 0.1841993245850265 0 0.057079125968549263 0.18134874893025979 0 0.04350461440066955 0.15609836614323691 0 0.057079125968549263 0.18134874893025979 0 0.04350461440066955 0.15609836614323691 0 0.072136521482715529 0.16129176688364191 0 0.058660090003904292 0.14215275838772121 0 0.04350461440066955 0.15609836614323691 0 0.039548018845340031 0.14080250919449169 0 0.058660090003904292 0.14215275838772121 0 0.04350461440066955 0.15609836614323691 0 0.072136521482715529 0.16129176688364191 0 0.066363687547080344 0.1212383756995067 0 0.058660090003904292 0.14215275838772121 0 0.049706882500586871 0.12865831611201059 0 0.058660090003904292 0.14215275838772121 0 0.049706882500586871 0.12865831611201059 0 0.039548018845340031 0.14080250919449169 0 0.049706882500586871 0.12865831611201059 0 0.031512811691867752 0.1288472708230308 0 0.039548018845340031 0.14080250919449169 0 0.049706882500586871 0.12865831611201059 0 0.031512811691867752 0.1288472708230308 0 0.02683887859367624 0.13859203348933979 0 0.031512811691867752 0.1288472708230308 0 0.039548018845340031 0.14080250919449169 0 0.027064835881335531 0.150466310211611 0 0.04350461440066955 0.15609836614323691 0 0.039548018845340031 0.14080250919449169 0 0.024143388296297971 0.24040124146860589 0 0.026404545020734992 0.25651996196379739 0 0.024143388296297971 0.24040124146860589 0 0.031434663195222673 0.2478948043304843 0 0.026404545020734992 0.25651996196379739 0 0.024143388296297971 0.24040124146860589 0 0.0351501728243485 0.23783453938710039 0 0.031434663195222673 0.2478948043304843 0 0.024143388296297971 0.24040124146860589 0 0.01164476986855471 0.23984946530394721 0 0.014286299040141229 0.23057735670592269 0 0.024143388296297971 0.24040124146860589 0 0.01325113107138765 0.24994977195075141 0 0.01164476986855471 0.23984946530394721 0 0.003791674785571924 0.24772290422529519 0 0.01164476986855471 0.23984946530394721 0 0.002751356149374766 0.2305960521691611 0 0.01325113107138765 0.24994977195075141 0 0.003791674785571924 0.24772290422529519 0 0.01164476986855471 0.23984946530394721 0 0.002751356149374766 0.2305960521691611 0 0.011444242233787771 0.2223592881155087 0 0.00573739542641201 0.21085128121663901 0 0.014286299040141229 0.23057735670592269 0 0.002751356149374766 0.2305960521691611 0 0.011444242233787771 0.2223592881155087 0 0.01164476986855471 0.23984946530394721 0 0.014286299040141229 0.23057735670592269 0 0.002751356149374766 0.2305960521691611 0 0.024143388296297971 0.24040124146860589 0 0.021196369594533498 0.21939333421720539 0 0.024143388296297971 0.24040124146860589 0 0.030597130331088369 0.21230028302681611 0 0.024143388296297971 0.24040124146860589 0 0.021196369594533498 0.21939333421720539 0 0.030597130331088369 0.21230028302681611 0 0.024143388296297971 0.24040124146860589 0 0.030597130331088369 0.21230028302681611 0 0.035796579344390657 0.22661575461677841 0 0.024143388296297971 0.24040124146860589 0 0.014286299040141229 0.23057735670592269 0 0.021196369594533498 0.21939333421720539 0 0.014286299040141229 0.23057735670592269 0 0.011444242233787771 0.2223592881155087 0 0.021196369594533498 0.21939333421720539 0 0.021196369594533498 0.21939333421720539 0 0.030597130331088369 0.21230028302681611 0 0.01824935089276878 0.19838542696580491 0 0.021196369594533498 0.21939333421720539 0 0.01824935089276878 0.19838542696580491 0 0.011444242233787771 0.2223592881155087 0 0.021196369594533498 0.21939333421720539 0 0.00573739542641201 0.21085128121663901 0 0.021196369594533498 0.21939333421720539 0 0.00573739542641201 0.21085128121663901 0 0.01824935089276878 0.19838542696580491 0 0.00573739542641201 0.21085128121663901 0 0.0032606068272224781 0.1901318216684702 0 0.01824935089276878 0.19838542696580491 0 0.01530233219100406 0.17737751971440449 0 0.0032606068272224781 0.1901318216684702 0 0.01824935089276878 0.19838542696580491 0 0.037050872365878958 0.1841993245850265 0 0.030597130331088369 0.21230028302681611 0 0.01824935089276878 0.19838542696580491 0 0.01530233219100406 0.17737751971440449 0 0.01824935089276878 0.19838542696580491 0 0.037050872365878958 0.1841993245850265 0 0.030597130331088369 0.21230028302681611 0 0.037050872365878958 0.1841993245850265 0 0.030597130331088369 0.21230028302681611 0 0.04648278701446109 0.20115705472162071 0 0.037050872365878958 0.1841993245850265 0 0.057079125968549263 0.18134874893025979 0 0.04648278701446109 0.20115705472162071 0 0.057079125968549263 0.18134874893025979 0 0.04648278701446109 0.20115705472162071 0 0.061464732193553889 0.1972920125660905 0 0.04648278701446109 0.20115705472162071 0 0.061464732193553889 0.1972920125660905 0 0.062626220323705656 0.2119234462393797 0 0.045048820496616487 0.21600762659644829 0 0.060819143908510759 0.22822043645282289 0 0.062626220323705656 0.2119234462393797 0 0.04648278701446109 0.20115705472162071 0 0.045048820496616487 0.21600762659644829 0 0.062626220323705656 0.2119234462393797 0 0.030597130331088369 0.21230028302681611 0 0.04648278701446109 0.20115705472162071 0 0.045048820496616487 0.21600762659644829 0 0.030597130331088369 0.21230028302681611 0 0.045048820496616487 0.21600762659644829 0 0.035796579344390657 0.22661575461677841 0 0.045048820496616487 0.21600762659644829 0 0.035796579344390657 0.22661575461677841 0 0.045751989415847211 0.23198431414296281 0 0.035796579344390657 0.22661575461677841 0 0.045751989415847211 0.23198431414296281 0 0.0351501728243485 0.23783453938710039 0 0.045048820496616487 0.21600762659644829 0 0.045751989415847211 0.23198431414296281 0 0.060819143908510759 0.22822043645282289 0 0.045751989415847211 0.23198431414296281 0 0.060819143908510759 0.22822043645282289 0 0.054054209473331151 0.24323771215732229 0 0.060819143908510759 0.22822043645282289 0 0.054054209473331151 0.24323771215732229 0 0.068418000694839998 0.24342677767991289 0 0.054054209473331151 0.24323771215732229 0 0.040285344304628143 0.24574221750912931 0 0.03971489177810212 0.2603825011339278 0 0.045751989415847211 0.23198431414296281 0 0.040285344304628143 0.24574221750912931 0 0.0351501728243485 0.23783453938710039 0 0.045751989415847211 0.23198431414296281 0 0.054054209473331151 0.24323771215732229 0 0.040285344304628143 0.24574221750912931 0 0.024143388296297971 0.24040124146860589 0 0.035796579344390657 0.22661575461677841 0 0.0351501728243485 0.23783453938710039 0 0.040285344304628143 0.24574221750912931 0 0.0351501728243485 0.23783453938710039 0 0.031434663195222673 0.2478948043304843 0 0.088558722698074119 0.2391029110657821 0 0.068418000694839998 0.24342677767991289 0 0.07727963203695061 0.22306119637167879 0 0.088558722698074119 0.2391029110657821 0 0.068418000694839998 0.24342677767991289 0 0.075266083395755037 0.25763888860009909 0 0.060819143908510759 0.22822043645282289 0 0.068418000694839998 0.24342677767991289 0 0.07727963203695061 0.22306119637167879 0 0.060819143908510759 0.22822043645282289 0 0.07727963203695061 0.22306119637167879 0 0.062626220323705656 0.2119234462393797 0 0.088558722698074119 0.2391029110657821 0 0.07727963203695061 0.22306119637167879 0 0.094515793453094604 0.20891350648169379 0 0.07727963203695061 0.22306119637167879 0 0.075710740814530358 0.20377392555457319 0 0.094515793453094604 0.20891350648169379 0 0.07727963203695061 0.22306119637167879 0 0.062626220323705656 0.2119234462393797 0 0.075710740814530358 0.20377392555457319 0 0.061464732193553889 0.1972920125660905 0 0.062626220323705656 0.2119234462393797 0 0.075710740814530358 0.20377392555457319 0 0.061464732193553889 0.1972920125660905 0 0.075710740814530358 0.20377392555457319 0 0.07971300976309062 0.1826484269891803 0 0.1052200831281638 0.19155831152114661 0 0.094515793453094604 0.20891350648169379 0 0.07971300976309062 0.1826484269891803 0 0.075710740814530358 0.20377392555457319 0 0.094515793453094604 0.20891350648169379 0 0.07971300976309062 0.1826484269891803 0 0.094515793453094604 0.20891350648169379 0 0.07971300976309062 0.1826484269891803 0 0.1052200831281638 0.19155831152114661 0 0.1184256887641624 0.18731790689384781 0 0.12765144586200919 0.1961643632105933 0 0.1052200831281638 0.19155831152114661 0 0.1232786919981925 0.21446069991376029 0 0.12765144586200919 0.1961643632105933 0 0.1052200831281638 0.19155831152114661 0 0.1232786919981925 0.21446069991376029 0 0.1052200831281638 0.19155831152114661 0 0.1232786919981925 0.21446069991376029 0 0.094515793453094604 0.20891350648169379 0 0.1232786919981925 0.21446069991376029 0 0.094515793453094604 0.20891350648169379 0 0.10931857714309789 0.23517858597420771 0 0.094515793453094604 0.20891350648169379 0 0.10931857714309789 0.23517858597420771 0 0.088558722698074119 0.2391029110657821 0 0.094515793453094604 0.20891350648169379 0 0.10931857714309789 0.23517858597420771 0 0.1232786919981925 0.21446069991376029 0 0.10931857714309789 0.23517858597420771 0 0.1232786919981925 0.21446069991376029 0 0.10931857714309789 0.23517858597420771 0 0.1362473755571138 0.23090791519734191 0 0.10931857714309789 0.23517858597420771 0 0.1265113843998063 0.24481906103984011 0 0.1233757836889447 0.26012076273645052 0 0.10931857714309789 0.23517858597420771 0 0.1233757836889447 0.26012076273645052 0 0.10931857714309789 0.23517858597420771 0 0.1265113843998063 0.24481906103984011 0 0.1362473755571138 0.23090791519734191 0 0.10931857714309789 0.23517858597420771 0 0.093382952469636155 0.25882828081653358 0 0.088558722698074119 0.2391029110657821 0 0.10931857714309789 0.23517858597420771 0 0.093382952469636155 0.25882828081653358 0 0.078985356358764247 0.13999032650239621 0 0.072136521482715529 0.16129176688364191 0 0.095286670639568499 0.15335985162574159 0 0.078985356358764247 0.13999032650239621 0 0.095286670639568499 0.15335985162574159 0 0.096475036301647846 0.1350993077839632 0 0.084113506929892889 0.1243933264674657 0 0.078985356358764247 0.13999032650239621 0 0.096475036301647846 0.1350993077839632 0 0.099821751196421782 0.1191423519601547 0 0.084113506929892889 0.1243933264674657 0 0.096475036301647846 0.1350993077839632 0 0.084113506929892889 0.1243933264674657 0 0.066363687547080344 0.1212383756995067 0 0.078985356358764247 0.13999032650239621 0 0.066363687547080344 0.1212383756995067 0 0.058660090003904292 0.14215275838772121 0 0.078985356358764247 0.13999032650239621 0 0.058660090003904292 0.14215275838772121 0 0.078985356358764247 0.13999032650239621 0 0.072136521482715529 0.16129176688364191 0 0.057079125968549263 0.18134874893025979 0 0.072136521482715529 0.16129176688364191 0 0.07971300976309062 0.1826484269891803 0 0.057079125968549263 0.18134874893025979 0 0.061464732193553889 0.1972920125660905 0 0.07971300976309062 0.1826484269891803 0 0.1052200831281638 0.19155831152114661 0 0.07971300976309062 0.1826484269891803 0 0.090193052896619497 0.16835374335447131 0 0.072136521482715529 0.16129176688364191 0 0.07971300976309062 0.1826484269891803 0 0.090193052896619497 0.16835374335447131 0 0.072136521482715529 0.16129176688364191 0 0.090193052896619497 0.16835374335447131 0 0.095286670639568499 0.15335985162574159 0 0.10980208042603 0.17240058203628039 0 0.11369432800444761 0.15780990029968919 0 0.095286670639568499 0.15335985162574159 0 0.090193052896619497 0.16835374335447131 0 0.10980208042603 0.17240058203628039 0 0.095286670639568499 0.15335985162574159 0 0.1052200831281638 0.19155831152114661 0 0.090193052896619497 0.16835374335447131 0 0.10980208042603 0.17240058203628039 0 0.1052200831281638 0.19155831152114661 0 0.10980208042603 0.17240058203628039 0 0.1184256887641624 0.18731790689384781 0 0.10980208042603 0.17240058203628039 0 0.12081008437017619 0.1775340045624943 0 0.1261731150163696 0.16842145928336619 0 0.10980208042603 0.17240058203628039 0 0.12081008437017619 0.1775340045624943 0 0.1184256887641624 0.18731790689384781 0 0.12081008437017619 0.1775340045624943 0 0.1184256887641624 0.18731790689384781 0 0.12883945327414301 0.1819960700364828 0 0.11369432800444761 0.15780990029968919 0 0.12506992764028299 0.15163041330695859 0 0.1261731150163696 0.16842145928336619 0 0.10980208042603 0.17240058203628039 0 0.11369432800444761 0.15780990029968919 0 0.1261731150163696 0.16842145928336619 0 0.1121398462999868 0.14323719524609929 0 0.1236365544329777 0.1401155472375438 0 0.12506992764028299 0.15163041330695859 0 0.11369432800444761 0.15780990029968919 0 0.1121398462999868 0.14323719524609929 0 0.12506992764028299 0.15163041330695859 0 0.1121398462999868 0.14323719524609929 0 0.095286670639568499 0.15335985162574159 0 0.096475036301647846 0.1350993077839632 0 0.11369432800444761 0.15780990029968919 0 0.1121398462999868 0.14323719524609929 0 0.095286670639568499 0.15335985162574159 0 0.099821751196421782 0.1191423519601547 0 0.096475036301647846 0.1350993077839632 0 0.1104396205736143 0.1275896196336693 0 0.1121398462999868 0.14323719524609929 0 0.096475036301647846 0.1350993077839632 0 0.1104396205736143 0.1275896196336693 0 0.1121398462999868 0.14323719524609929 0 0.1104396205736143 0.1275896196336693 0 0.1216198161367525 0.1284461376911499 0 0.1121398462999868 0.14323719524609929 0 0.1236365544329777 0.1401155472375438 0 0.1216198161367525 0.1284461376911499 0 0.1216198161367525 0.1284461376911499 0 0.13571662765488851 0.13714844270596749 0 0.1221416529332626 0.11202310548697909 0 0.1216198161367525 0.1284461376911499 0 0.13571662765488851 0.13714844270596749 0 0.13571662765488851 0.13714844270596749 0 0.13936926068676661 0.12870466425705479 0 0.13324057158529529 0.1194771381521421 0 0.1236365544329777 0.1401155472375438 0 0.1216198161367525 0.1284461376911499 0 0.13571662765488851 0.13714844270596749 0 0.13571662765488851 0.13714844270596749 0 0.13936926068676661 0.12870466425705479 0 0.14329411321795579 0.13345420913476319 0 0.13936926068676661 0.12870466425705479 0 0.14329411321795579 0.13345420913476319 0 0.14522573028892691 0.12473886703534651 0 0.14329411321795579 0.13345420913476319 0 0.14912036984857599 0.1302833519891736 0 0.14522573028892691 0.12473886703534651 0 0.14329411321795579 0.13345420913476319 0 0.14912036984857599 0.1302833519891736 0 0.14844774066403929 0.14068990259312991 0 0.13571662765488851 0.13714844270596749 0 0.14329411321795579 0.13345420913476319 0 0.14844774066403929 0.14068990259312991 0 0.1539606084885391 0.12851381335764001 0 0.14912036984857599 0.1302833519891736 0 0.14844774066403929 0.14068990259312991 0 0.1539606084885391 0.12851381335764001 0 0.14844774066403929 0.14068990259312991 0 0.16169096308237399 0.1256621397921292 0 0.1539606084885391 0.12851381335764001 0 0.14912036984857599 0.1302833519891736 0 0.15222669915792181 0.1232562258046947 0 0.14912036984857599 0.1302833519891736 0 0.14522573028892691 0.12473886703534651 0 0.15222669915792181 0.1232562258046947 0 0.13571662765488851 0.13714844270596749 0 0.14844774066403929 0.14068990259312991 0 0.153328808984387 0.14802087110641721 0 0.13571662765488851 0.13714844270596749 0 0.153328808984387 0.14802087110641721 0 0.14496195103571691 0.1542602143597189 0 0.13571662765488851 0.13714844270596749 0 0.153328808984387 0.14802087110641721 0 0.153328808984387 0.14802087110641721 0 0.14496195103571691 0.1542602143597189 0 0.15703432015980001 0.16171948332326139 0 0.14844774066403929 0.14068990259312991 0 0.153328808984387 0.14802087110641721 0 0.1592050758033843 0.14296664651929919 0 0.13571662765488851 0.13714844270596749 0 0.14496195103571691 0.1542602143597189 0 0.13571662765488851 0.13714844270596749 0 0.13440999773846049 0.15587644489449931 0 0.12506992764028299 0.15163041330695859 0 0.13571662765488851 0.13714844270596749 0 0.14496195103571691 0.1542602143597189 0 0.13440999773846049 0.15587644489449931 0 0.1236365544329777 0.1401155472375438 0 0.13571662765488851 0.13714844270596749 0 0.12506992764028299 0.15163041330695859 0 0.13440999773846049 0.15587644489449931 0 0.12506992764028299 0.15163041330695859 0 0.1261731150163696 0.16842145928336619 0 0.13440999773846049 0.15587644489449931 0 0.1261731150163696 0.16842145928336619 0 0.14012836734504441 0.16792169481648531 0 0.1261731150163696 0.16842145928336619 0 0.14012836734504441 0.16792169481648531 0 0.13603203421495541 0.17620373834506281 0 0.14496195103571691 0.1542602143597189 0 0.13440999773846049 0.15587644489449931 0 0.14012836734504441 0.16792169481648531 0 0.1184256887641624 0.18731790689384781 0 0.12883945327414301 0.1819960700364828 0 0.13127465110536179 0.19037537811081401 0 0.12081008437017619 0.1775340045624943 0 0.1261731150163696 0.16842145928336619 0 0.12883945327414301 0.1819960700364828 0 0.1261731150163696 0.16842145928336619 0 0.12883945327414301 0.1819960700364828 0 0.13603203421495541 0.17620373834506281 0 0.12883945327414301 0.1819960700364828 0 0.13603203421495541 0.17620373834506281 0 0.13834913459217391 0.185691071546431 0 0.12883945327414301 0.1819960700364828 0 0.13834913459217391 0.185691071546431 0 0.13127465110536179 0.19037537811081401 0 0.13603203421495541 0.17620373834506281 0 0.13834913459217391 0.185691071546431 0 0.1470562251153395 0.17906708874781019 0 0.1470562251153395 0.17906708874781019 0 0.16052914209303101 0.17735221748262139 0 0.15593531817651651 0.19651364110895339 0 0.13834913459217391 0.185691071546431 0 0.1470562251153395 0.17906708874781019 0 0.15593531817651651 0.19651364110895339 0 0.14012836734504441 0.16792169481648531 0 0.13603203421495541 0.17620373834506281 0 0.1470562251153395 0.17906708874781019 0 0.14012836734504441 0.16792169481648531 0 0.1470562251153395 0.17906708874781019 0 0.15102773004612141 0.17114078039402211 0 0.1470562251153395 0.17906708874781019 0 0.15102773004612141 0.17114078039402211 0 0.16052914209303101 0.17735221748262139 0 0.14496195103571691 0.1542602143597189 0 0.14012836734504441 0.16792169481648531 0 0.15102773004612141 0.17114078039402211 0 0.14496195103571691 0.1542602143597189 0 0.15102773004612141 0.17114078039402211 0 0.15703432015980001 0.16171948332326139 0 0.15102773004612141 0.17114078039402211 0 0.15703432015980001 0.16171948332326139 0 0.16052914209303101 0.17735221748262139 0 0.15703432015980001 0.16171948332326139 0 0.17094099031388549 0.1588932995068669 0 0.16052914209303101 0.17735221748262139 0 0.16052914209303101 0.17735221748262139 0 0.17321496971303901 0.18404201690737329 0 0.15593531817651651 0.19651364110895339 0 0.16052914209303101 0.17735221748262139 0 0.17321496971303901 0.18404201690737329 0 0.1885531716433835 0.16976572790731731 0 0.17321496971303901 0.18404201690737329 0 0.1859125568206797 0.18060543354925371 0 0.1763291694917426 0.19676548503780589 0 0.16052914209303101 0.17735221748262139 0 0.1885531716433835 0.16976572790731731 0 0.17321496971303901 0.18404201690737329 0 0.1859125568206797 0.18060543354925371 0 0.1885531716433835 0.16976572790731731 0 0.17094099031388549 0.1588932995068669 0 0.1885531716433835 0.16976572790731731 0 0.17094099031388549 0.1588932995068669 0 0.16052914209303101 0.17735221748262139 0 0.1885531716433835 0.16976572790731731 0 0.17094099031388549 0.1588932995068669 0 0.18519572333179959 0.15831698425018439 0 0.1885531716433835 0.16976572790731731 0 0.18519572333179959 0.15831698425018439 0 0.1843777300276882 0.14641416620376729 0 0.19097145069846799 0.15361741821736741 0 0.18519572333179959 0.15831698425018439 0 0.17552971693898661 0.15069266297704431 0 0.1843777300276882 0.14641416620376729 0 0.17094099031388549 0.1588932995068669 0 0.18519572333179959 0.15831698425018439 0 0.17552971693898661 0.15069266297704431 0 0.17552971693898661 0.15069266297704431 0 0.1723007799423848 0.14309376550397779 0 0.1843777300276882 0.14641416620376729 0 0.1723007799423848 0.14309376550397779 0 0.1843777300276882 0.14641416620376729 0 0.17305578062883931 0.1356414587100459 0 0.1843777300276882 0.14641416620376729 0 0.1682630287230793 0.12076731232177421 0 0.1843777300276882 0.14641416620376729 0 0.17305578062883931 0.1356414587100459 0 0.1682630287230793 0.12076731232177421 0 0.1843777300276882 0.14641416620376729 0 0.18259827505216891 0.13287814276120899 0 0.1682630287230793 0.12076731232177421 0 0.18259827505216891 0.13287814276120899 0 0.1682630287230793 0.12076731232177421 0 0.1723007799423848 0.14309376550397779 0 0.1686969596210493 0.13670611562830889 0 0.1656890076848597 0.1416352286451697 0 0.14844774066403929 0.14068990259312991 0 0.16339350925379581 0.13244122804202141 0 0.1654659697027335 0.1235795177593695 0 0.14844774066403929 0.14068990259312991 0 0.16169096308237399 0.1256621397921292 0 0.1654659697027335 0.1235795177593695 0 0.14844774066403929 0.14068990259312991 0 0.1654659697027335 0.1235795177593695 0 0.1723007799423848 0.14309376550397779 0 0.17305578062883931 0.1356414587100459 0 0.1686969596210493 0.13670611562830889 0 0.1686969596210493 0.13670611562830889 0 0.16923763542303891 0.1307764371333778 0 0.16714131138227731 0.13270909619394369 0 0.17305578062883931 0.1356414587100459 0 0.1686969596210493 0.13670611562830889 0 0.16923763542303891 0.1307764371333778 0 0.1686969596210493 0.13670611562830889 0 0.16714131138227731 0.13270909619394369 0 0.16318823561782539 0.1361658892598705 0 0.16714131138227731 0.13270909619394369 0 0.16339350925379581 0.13244122804202141 0 0.16318823561782539 0.1361658892598705 0 0.1686969596210493 0.13670611562830889 0 0.16318823561782539 0.1361658892598705 0 0.1656890076848597 0.1416352286451697 0 0.16339350925379581 0.13244122804202141 0 0.1682630287230793 0.12076731232177421 0 0.1654659697027335 0.1235795177593695 0 0.17305578062883931 0.1356414587100459 0 0.16923763542303891 0.1307764371333778 0 0.1682630287230793 0.12076731232177421 0 0.16923763542303891 0.1307764371333778 0 0.16339350925379581 0.13244122804202141 0 0.1682630287230793 0.12076731232177421 0 0.16923763542303891 0.1307764371333778 0 0.16714131138227731 0.13270909619394369 0 0.16339350925379581 0.13244122804202141 0 0.1539606084885391 0.12851381335764001 0 0.16169096308237399 0.1256621397921292 0 0.15831726968978449 0.1226774466090724 0 0.14844774066403929 0.14068990259312991 0 0.16318823561782539 0.1361658892598705 0 0.1592050758033843 0.14296664651929919 0 0.14844774066403929 0.14068990259312991 0 0.16339350925379581 0.13244122804202141 0 0.16318823561782539 0.1361658892598705 0 0.16318823561782539 0.1361658892598705 0 0.1592050758033843 0.14296664651929919 0 0.1656890076848597 0.1416352286451697 0 0.153328808984387 0.14802087110641721 0 0.1592050758033843 0.14296664651929919 0 0.1654551646516404 0.1480786080123081 0 0.153328808984387 0.14802087110641721 0 0.17094099031388549 0.1588932995068669 0 0.153328808984387 0.14802087110641721 0 0.15703432015980001 0.16171948332326139 0 0.17094099031388549 0.1588932995068669 0 0.153328808984387 0.14802087110641721 0 0.17094099031388549 0.1588932995068669 0 0.1654551646516404 0.1480786080123081 0 0.1592050758033843 0.14296664651929919 0 0.1656890076848597 0.1416352286451697 0 0.1654551646516404 0.1480786080123081 0 0.17094099031388549 0.1588932995068669 0 0.17552971693898661 0.15069266297704431 0 0.1654551646516404 0.1480786080123081 0 0.17552971693898661 0.15069266297704431 0 0.1723007799423848 0.14309376550397779 0 0.1654551646516404 0.1480786080123081 0 0.1723007799423848 0.14309376550397779 0 0.1656890076848597 0.1416352286451697 0 0.1654551646516404 0.1480786080123081 0 0.14921605911603561 0.24735513048092289 0 0.1362473755571138 0.23090791519734191 0 0.13710380121006871 0.25306898025136071 0 0.14921605911603561 0.24735513048092289 0 0.1543964987802772 0.22828698424891411 0 0.16032144212323371 0.23902245971375929 0 0.14921605911603561 0.24735513048092289 0 0.1362473755571138 0.23090791519734191 0 0.14921605911603561 0.24735513048092289 0 0.1362473755571138 0.23090791519734191 0 0.1543964987802772 0.22828698424891411 0 0.1265113843998063 0.24481906103984011 0 0.1362473755571138 0.23090791519734191 0 0.13710380121006871 0.25306898025136071 0 0.1232786919981925 0.21446069991376029 0 0.1362473755571138 0.23090791519734191 0 0.1232786919981925 0.21446069991376029 0 0.1362473755571138 0.23090791519734191 0 0.14480827197076471 0.2133525265797761 0 0.1362473755571138 0.23090791519734191 0 0.1543964987802772 0.22828698424891411 0 0.14480827197076471 0.2133525265797761 0 0.1543964987802772 0.22828698424891411 0 0.14480827197076471 0.2133525265797761 0 0.1634502804511985 0.21368412182958571 0 0.14480827197076471 0.2133525265797761 0 0.15593531817651651 0.19651364110895339 0 0.1634502804511985 0.21368412182958571 0 0.1232786919981925 0.21446069991376029 0 0.1355414668612904 0.1962617971801012 0 0.1232786919981925 0.21446069991376029 0 0.14480827197076471 0.2133525265797761 0 0.1355414668612904 0.1962617971801012 0 0.1232786919981925 0.21446069991376029 0 0.1355414668612904 0.1962617971801012 0 0.12765144586200919 0.1961643632105933 0 0.1355414668612904 0.1962617971801012 0 0.12765144586200919 0.1961643632105933 0 0.1355414668612904 0.1962617971801012 0 0.12765144586200919 0.1961643632105933 0 0.13127465110536179 0.19037537811081401 0 0.1184256887641624 0.18731790689384781 0 0.12765144586200919 0.1961643632105933 0 0.13127465110536179 0.19037537811081401 0 0.13834913459217391 0.185691071546431 0 0.13127465110536179 0.19037537811081401 0 0.13701784869560019 0.19407073278396811 0 0.1355414668612904 0.1962617971801012 0 0.13127465110536179 0.19037537811081401 0 0.13701784869560019 0.19407073278396811 0 0.1355414668612904 0.1962617971801012 0 0.13701784869560019 0.19407073278396811 0 0.13834913459217391 0.185691071546431 0 0.13701784869560019 0.19407073278396811 0 0.15593531817651651 0.19651364110895339 0 0.14480827197076471 0.2133525265797761 0 0.1355414668612904 0.1962617971801012 0 0.15593531817651651 0.19651364110895339 0 0.1355414668612904 0.1962617971801012 0 0.13701784869560019 0.19407073278396811 0 0.15593531817651651 0.19651364110895339 0 0.1355414668612904 0.1962617971801012 0 0.15593531817651651 0.19651364110895339 0 0.17321496971303901 0.18404201690737329 0 0.15593531817651651 0.19651364110895339 0 0.1763291694917426 0.19676548503780589 0 0.15593531817651651 0.19651364110895339 0 0.1763291694917426 0.19676548503780589 0 0.1634502804511985 0.21368412182958571 0 0.15593531817651651 0.19651364110895339 0 0.1763291694917426 0.19676548503780589 0 0.1763291694917426 0.19676548503780589 0 0.18482111569933921 0.21098956880982611 0 0.19672302080696871 0.19701732896665841 0 0.1763291694917426 0.19676548503780589 0 0.19672302080696871 0.19701732896665841 0 0.1859125568206797 0.18060543354925371 0 0.1763291694917426 0.19676548503780589 0 0.19152638988642701 0.1902468516687861 0 0.1763291694917426 0.19676548503780589 0 0.18482111569933921 0.21098956880982611 0 0.17607049303942271 0.2157004785803881 0 0.1763291694917426 0.19676548503780589 0 0.17607049303942271 0.2157004785803881 0 0.1634502804511985 0.21368412182958571 0 0.18482111569933921 0.21098956880982611 0 0.17607049303942271 0.2157004785803881 0 0.18406170550628209 0.22506132203916629 0 0.18482111569933921 0.21098956880982611 0 0.18406170550628209 0.22506132203916629 0 0.19068774872800001 0.21475480020647009 0 0.1543964987802772 0.22828698424891411 0 0.1634502804511985 0.21368412182958571 0 0.17169019404855099 0.23200189518555661 0 0.1543964987802772 0.22828698424891411 0 0.17169019404855099 0.23200189518555661 0 0.16032144212323371 0.23902245971375929 0 0.17607049303942271 0.2157004785803881 0 0.1634502804511985 0.21368412182958571 0 0.17169019404855099 0.23200189518555661 0 0.17607049303942271 0.2157004785803881 0 0.17169019404855099 0.23200189518555661 0 0.18406170550628209 0.22506132203916629 0 0.17169019404855099 0.23200189518555661 0 0.18406170550628209 0.22506132203916629 0 0.1847630310773084 0.23825071805973949 0 0.18406170550628209 0.22506132203916629 0 0.1847630310773084 0.23825071805973949 0 0.19279287320365179 0.23483990368842589 0 0.17169019404855099 0.23200189518555661 0 0.1847630310773084 0.23825071805973949 0 0.17793358433637771 0.24774911183132969 0 0.1847630310773084 0.23825071805973949 0 0.17793358433637771 0.24774911183132969 0 0.19675200613609869 0.25387006042305549 0 0.14921605911603561 0.24735513048092289 0 0.16032144212323371 0.23902245971375929 0 0.16598301654807079 0.24844582893964351 0 0.17169019404855099 0.23200189518555661 0 0.17793358433637771 0.24774911183132969 0 0.16598301654807079 0.24844582893964351 0 0.17169019404855099 0.23200189518555661 0 0.16032144212323371 0.23902245971375929 0 0.16598301654807079 0.24844582893964351 0 0.2154941529563075 0.2467231945984566 0 0.21201697739720379 0.23620202763772449 0 0.19675200613609869 0.25387006042305549 0 0.21201697739720379 0.23620202763772449 0 0.20124247039915971 0.23106643690993861 0 0.19675200613609869 0.25387006042305549 0 0.20124247039915971 0.23106643690993861 0 0.19675200613609869 0.25387006042305549 0 0.1847630310773084 0.23825071805973949 0 0.19279287320365179 0.23483990368842589 0 0.19675200613609869 0.25387006042305549 0 0.19279287320365179 0.23483990368842589 0 0.20124247039915971 0.23106643690993861 0 0.19675200613609869 0.25387006042305549 0 0.19279287320365179 0.23483990368842589 0 0.20124247039915971 0.23106643690993861 0 0.1971451528994102 0.22595098101022951 0 0.18406170550628209 0.22506132203916629 0 0.19279287320365179 0.23483990368842589 0 0.1971451528994102 0.22595098101022951 0 0.18406170550628209 0.22506132203916629 0 0.1971451528994102 0.22595098101022951 0 0.19068774872800001 0.21475480020647009 0 0.21201697739720379 0.23620202763772449 0 0.20124247039915971 0.23106643690993861 0 0.21713132459565171 0.22538753349480001 0 0.20124247039915971 0.23106643690993861 0 0.1971451528994102 0.22595098101022951 0 0.21713132459565171 0.22538753349480001 0 0.1971451528994102 0.22595098101022951 0 0.21713132459565171 0.22538753349480001 0 0.19946060819873609 0.21107206757127431 0 0.21713132459565171 0.22538753349480001 0 0.208815004938286 0.20639486478049979 0 0.21879821460266771 0.20327773643795011 0 0.21713132459565171 0.22538753349480001 0 0.19946060819873609 0.21107206757127431 0 0.21713132459565171 0.22538753349480001 0 0.208815004938286 0.20639486478049979 0 0.19946060819873609 0.21107206757127431 0 0.208815004938286 0.20639486478049979 0 0.19946060819873609 0.21107206757127431 0 0.20400651231687239 0.19710727289579991 0 0.1971451528994102 0.22595098101022951 0 0.19672302080696871 0.19701732896665841 0 0.1971451528994102 0.22595098101022951 0 0.19946060819873609 0.21107206757127431 0 0.19672302080696871 0.19701732896665841 0 0.1971451528994102 0.22595098101022951 0 0.19068774872800001 0.21475480020647009 0 0.19672302080696871 0.19701732896665841 0 0.18482111569933921 0.21098956880982611 0 0.19068774872800001 0.21475480020647009 0 0.19672302080696871 0.19701732896665841 0 0.19946060819873609 0.21107206757127431 0 0.19672302080696871 0.19701732896665841 0 0.20400651231687239 0.19710727289579991 0 0.1763291694917426 0.19676548503780589 0 0.19672302080696871 0.19701732896665841 0 0.19152638988642701 0.1902468516687861 0 0.19672302080696871 0.19701732896665841 0 0.20400651231687239 0.19710727289579991 0 0.19672302080696871 0.19701732896665841 0 0.20400651231687239 0.19710727289579991 0 0.2006047522002776 0.18317190715000359 0 0.2160579439519269 0.18824214617332191 0 0.21879821460266771 0.20327773643795011 0 0.2006047522002776 0.18317190715000359 0 0.21879821460266771 0.20327773643795011 0 0.2006047522002776 0.18317190715000359 0 0.20400651231687239 0.19710727289579991 0 0.21879821460266771 0.20327773643795011 0 0.2006047522002776 0.18317190715000359 0 0.208815004938286 0.20639486478049979 0 0.20400651231687239 0.19710727289579991 0 0.21879821460266771 0.20327773643795011 0 0.22985714386758441 0.19138063243626199 0 0.23778494038061621 0.2043813437981955 0 0.21879821460266771 0.20327773643795011 0 0.2160579439519269 0.18824214617332191 0 0.22985714386758441 0.19138063243626199 0 0.21879821460266771 0.20327773643795011 0 0.22985714386758441 0.19138063243626199 0 0.23778494038061621 0.2043813437981955 0 0.25059494158165901 0.19032369199564031 0 0.23778494038061621 0.2043813437981955 0 0.25254676704563311 0.20930692990743879 0 0.25059494158165901 0.19032369199564031 0 0.23778494038061621 0.2043813437981955 0 0.23699167700505769 0.22338356572589649 0 0.25254676704563311 0.20930692990743879 0 0.21713132459565171 0.22538753349480001 0 0.21879821460266771 0.20327773643795011 0 0.23699167700505769 0.22338356572589649 0 0.21879821460266771 0.20327773643795011 0 0.23699167700505769 0.22338356572589649 0 0.23778494038061621 0.2043813437981955 0 0.21879821460266771 0.20327773643795011 0 0.23699167700505769 0.22338356572589649 0 0.21713132459565171 0.22538753349480001 0 0.23699167700505769 0.22338356572589649 0 0.2348020409925673 0.2397029994183256 0 0.21713132459565171 0.22538753349480001 0 0.2348020409925673 0.2397029994183256 0 0.21201697739720379 0.23620202763772449 0 0.21713132459565171 0.22538753349480001 0 0.2348020409925673 0.2397029994183256 0 0.23699167700505769 0.22338356572589649 0 0.2551851394074478 0.2434893950138429 0 0.23699167700505769 0.22338356572589649 0 0.25538970474944028 0.22639472194977939 0 0.25254676704563311 0.20930692990743879 0 0.23699167700505769 0.22338356572589649 0 0.2551851394074478 0.2434893950138429 0 0.25538970474944028 0.22639472194977939 0 0.2348020409925673 0.2397029994183256 0 0.25247275738948288 0.25401846534185119 0 0.23699167700505769 0.22338356572589649 0 0.2348020409925673 0.2397029994183256 0 0.2551851394074478 0.2434893950138429 0 0.2348020409925673 0.2397029994183256 0 0.23738978373314901 0.25532225906031991 0 0.25247275738948288 0.25401846534185119 0 0.2348020409925673 0.2397029994183256 0 0.25247275738948288 0.25401846534185119 0 0.2551851394074478 0.2434893950138429 0 0.2154941529563075 0.2467231945984566 0 0.2348020409925673 0.2397029994183256 0 0.22589877104413841 0.25456972674656159 0 0.2154941529563075 0.2467231945984566 0 0.21201697739720379 0.23620202763772449 0 0.2348020409925673 0.2397029994183256 0 0.2348020409925673 0.2397029994183256 0 0.22589877104413841 0.25456972674656159 0 0.23738978373314901 0.25532225906031991 0 0.21532915256762819 0.13902016540993559 0 0.19899404249107791 0.14672976099075491 0 0.21711031990578089 0.16203491577682841 0 0.19899404249107791 0.14672976099075491 0 0.21711031990578089 0.16203491577682841 0 0.21532915256762819 0.13902016540993559 0 0.20168882168756139 0.1310261715418089 0 0.19899404249107791 0.14672976099075491 0 0.21532915256762819 0.13902016540993559 0 0.21431840299969121 0.12511043198613631 0 0.20168882168756139 0.1310261715418089 0 0.19595184496941109 0.14415962459390491 0 0.19553778957291831 0.1157795630361771 0 0.18259827505216891 0.13287814276120899 0 0.19595184496941109 0.14415962459390491 0 0.19553778957291831 0.1157795630361771 0 0.20168882168756139 0.1310261715418089 0 0.19595184496941109 0.14415962459390491 0 0.19553778957291831 0.1157795630361771 0 0.20168882168756139 0.1310261715418089 0 0.19899404249107791 0.14672976099075491 0 0.18259827505216891 0.13287814276120899 0 0.19595184496941109 0.14415962459390491 0 0.19899404249107791 0.14672976099075491 0 0.19622478456113779 0.1628673687274789 0 0.20168882168756139 0.1310261715418089 0 0.19595184496941109 0.14415962459390491 0 0.19899404249107791 0.14672976099075491 0 0.19595184496941109 0.14415962459390491 0 0.19899404249107791 0.14672976099075491 0 0.19622478456113779 0.1628673687274789 0 0.19595184496941109 0.14415962459390491 0 0.19097145069846799 0.15361741821736741 0 0.19622478456113779 0.1628673687274789 0 0.19595184496941109 0.14415962459390491 0 0.19622478456113779 0.1628673687274789 0 0.1843777300276882 0.14641416620376729 0 0.18259827505216891 0.13287814276120899 0 0.19595184496941109 0.14415962459390491 0 0.1843777300276882 0.14641416620376729 0 0.19595184496941109 0.14415962459390491 0 0.19097145069846799 0.15361741821736741 0 0.19595184496941109 0.14415962459390491 0 0.19899404249107791 0.14672976099075491 0 0.18519572333179959 0.15831698425018439 0 0.19097145069846799 0.15361741821736741 0 0.19096082316110141 0.16379417902111501 0 0.19097145069846799 0.15361741821736741 0 0.19096082316110141 0.16379417902111501 0 0.19622478456113779 0.1628673687274789 0 0.18519572333179959 0.15831698425018439 0 0.19096082316110141 0.16379417902111501 0 0.1885531716433835 0.16976572790731731 0 0.1885531716433835 0.16976572790731731 0 0.19629485255956111 0.16766994858834469 0 0.1885531716433835 0.16976572790731731 0 0.19629485255956111 0.16766994858834469 0 0.19441955445422579 0.17338718886591339 0 0.1885531716433835 0.16976572790731731 0 0.19441955445422579 0.17338718886591339 0 0.19096082316110141 0.16379417902111501 0 0.19629485255956111 0.16766994858834469 0 0.19622478456113779 0.1628673687274789 0 0.19096082316110141 0.16379417902111501 0 0.1885531716433835 0.16976572790731731 0 0.19629485255956111 0.16766994858834469 0 0.19629485255956111 0.16766994858834469 0 0.19622478456113779 0.1628673687274789 0 0.19629485255956111 0.16766994858834469 0 0.19441955445422579 0.17338718886591339 0 0.19629485255956111 0.16766994858834469 0 0.19639606669961279 0.17460733800409101 0 0.19672302080696871 0.19701732896665841 0 0.19152638988642701 0.1902468516687861 0 0.19639606669961279 0.17460733800409101 0 0.19152638988642701 0.1902468516687861 0 0.19441955445422579 0.17338718886591339 0 0.19672302080696871 0.19701732896665841 0 0.19639606669961279 0.17460733800409101 0 0.2006047522002776 0.18317190715000359 0 0.19672302080696871 0.19701732896665841 0 0.19639606669961279 0.17460733800409101 0 0.19152638988642701 0.1902468516687861 0 0.19441955445422579 0.17338718886591339 0 0.19639606669961279 0.17460733800409101 0 0.19152638988642701 0.1902468516687861 0 0.18928235039088259 0.17636595891238899 0 0.19441955445422579 0.17338718886591339 0 0.1859125568206797 0.18060543354925371 0 0.19152638988642701 0.1902468516687861 0 0.18928235039088259 0.17636595891238899 0 0.1859125568206797 0.18060543354925371 0 0.1885531716433835 0.16976572790731731 0 0.18928235039088259 0.17636595891238899 0 0.1885531716433835 0.16976572790731731 0 0.18928235039088259 0.17636595891238899 0 0.19441955445422579 0.17338718886591339 0 0.19639606669961279 0.17460733800409101 0 0.2007045122857867 0.1772670463773191 0 0.2006047522002776 0.18317190715000359 0 0.19629485255956111 0.16766994858834469 0 0.19639606669961279 0.17460733800409101 0 0.2007045122857867 0.1772670463773191 0 0.19629485255956111 0.16766994858834469 0 0.19441955445422579 0.17338718886591339 0 0.19639606669961279 0.17460733800409101 0 0.19441955445422579 0.17338718886591339 0 0.19639606669961279 0.17460733800409101 0 0.19639606669961279 0.17460733800409101 0 0.2007045122857867 0.1772670463773191 0 0.19629485255956111 0.16766994858834469 0 0.2007045122857867 0.1772670463773191 0 0.2131864215785759 0.17353917446638159 0 0.2007045122857867 0.1772670463773191 0 0.2006047522002776 0.18317190715000359 0 0.21053211479958861 0.18117858407591539 0 0.2160579439519269 0.18824214617332191 0 0.2006047522002776 0.18317190715000359 0 0.21053211479958861 0.18117858407591539 0 0.2007045122857867 0.1772670463773191 0 0.21053211479958861 0.18117858407591539 0 0.2131864215785759 0.17353917446638159 0 0.21053211479958861 0.18117858407591539 0 0.2131864215785759 0.17353917446638159 0 0.22049749428951629 0.18220187076647851 0 0.2160579439519269 0.18824214617332191 0 0.21053211479958861 0.18117858407591539 0 0.22049749428951629 0.18220187076647851 0 0.19629485255956111 0.16766994858834469 0 0.2131864215785759 0.17353917446638159 0 0.21711031990578089 0.16203491577682841 0 0.19629485255956111 0.16766994858834469 0 0.21711031990578089 0.16203491577682841 0 0.19899404249107791 0.14672976099075491 0 0.19622478456113779 0.1628673687274789 0 0.21711031990578089 0.16203491577682841 0 0.19629485255956111 0.16766994858834469 0 0.19622478456113779 0.1628673687274789 0 0.21711031990578089 0.16203491577682841 0 0.21711031990578089 0.16203491577682841 0 0.23385263074372009 0.17617930388623421 0 0.2131864215785759 0.17353917446638159 0 0.21711031990578089 0.16203491577682841 0 0.23385263074372009 0.17617930388623421 0 0.21711031990578089 0.16203491577682841 0 0.23385263074372009 0.17617930388623421 0 0.2366147484439379 0.15675479917150301 0 0.21711031990578089 0.16203491577682841 0 0.2366147484439379 0.15675479917150301 0 0.2131864215785759 0.17353917446638159 0 0.22049749428951629 0.18220187076647851 0 0.23385263074372009 0.17617930388623421 0 0.2160579439519269 0.18824214617332191 0 0.22985714386758441 0.19138063243626199 0 0.22049749428951629 0.18220187076647851 0 0.22985714386758441 0.19138063243626199 0 0.22049749428951629 0.18220187076647851 0 0.23385263074372009 0.17617930388623421 0 0.22985714386758441 0.19138063243626199 0 0.23385263074372009 0.17617930388623421 0 0.25059494158165901 0.19032369199564031 0 0.23385263074372009 0.17617930388623421 0 0.25059494158165901 0.19032369199564031 0 0.23385263074372009 0.17617930388623421 0 0.24908873164767151 0.1770288671046478 0 0.25059494158165901 0.19032369199564031 0 0.23385263074372009 0.17617930388623421 0 0.24908873164767151 0.1770288671046478 0 0.2434466942022622 0.16760513981834169 0 0.23385263074372009 0.17617930388623421 0 0.2366147484439379 0.15675479917150301 0 0.2434466942022622 0.16760513981834169 0 0.24908873164767151 0.1770288671046478 0 0.2434466942022622 0.16760513981834169 0 0.25108078632114311 0.16784635495939959 0 0.2434466942022622 0.16760513981834169 0 0.2480117625504723 0.15988161517611299 0 0.25108078632114311 0.16784635495939959 0 0.2366147484439379 0.15675479917150301 0 0.2434466942022622 0.16760513981834169 0 0.2480117625504723 0.15988161517611299 0 0.2366147484439379 0.15675479917150301 0 0.2480117625504723 0.15988161517611299 0 0.24723516224861489 0.14891452097535199 0 0.2480117625504723 0.15988161517611299 0 0.24723516224861489 0.14891452097535199 0 0.25438166837756182 0.15569588162337331 0 0.24723516224861489 0.14891452097535199 0 0.23741156149712281 0.14557233949426759 0 0.25092432003414827 0.13271121164369881 0 0.2366147484439379 0.15675479917150301 0 0.24723516224861489 0.14891452097535199 0 0.23741156149712281 0.14557233949426759 0 0.21532915256762819 0.13902016540993559 0 0.21711031990578089 0.16203491577682841 0 0.22695240112191109 0.14785753051487069 0 0.21532915256762819 0.13902016540993559 0 0.22695240112191109 0.14785753051487069 0 0.2331267363008884 0.13586568852681841 0 0.21711031990578089 0.16203491577682841 0 0.2366147484439379 0.15675479917150301 0 0.22695240112191109 0.14785753051487069 0 0.2366147484439379 0.15675479917150301 0 0.23741156149712281 0.14557233949426759 0 0.22695240112191109 0.14785753051487069 0 0.23741156149712281 0.14557233949426759 0 0.22695240112191109 0.14785753051487069 0 0.2331267363008884 0.13586568852681841 0 0.21532915256762819 0.13902016540993559 0 0.2331267363008884 0.13586568852681841 0 0.21431840299969121 0.12511043198613631 0 0.2331267363008884 0.13586568852681841 0 0.22617681327162201 0.11419672914343711 0 0.21532915256762819 0.13902016540993559 0 0.21431840299969121 0.12511043198613631 0 0.2331267363008884 0.13586568852681841 0 0.2331267363008884 0.13586568852681841 0 0.25092432003414827 0.13271121164369881 0 0.23741156149712281 0.14557233949426759 0 0.2331267363008884 0.13586568852681841 0 0.25092432003414827 0.13271121164369881 0 0.2331267363008884 0.13586568852681841 0 0.24025061707603931 0.1242743875512349 0 0.25092432003414827 0.13271121164369881 0 0.2479700256591971 0.1130708761940131 0 0.22617681327162201 0.11419672914343711 0 0.2479700256591971 0.1130708761940131 0 0.23608090964314951 0.1067670359926208 0 0.22617681327162201 0.11419672914343711 0 0.24025061707603931 0.1242743875512349 0 0.2479700256591971 0.1130708761940131 0 0.25092432003414827 0.13271121164369881 0 0.24025061707603931 0.1242743875512349 0 0.2479700256591971 0.1130708761940131 0 0.22617681327162201 0.11419672914343711 0 0.2479700256591971 0.1130708761940131 0 0.25092432003414827 0.13271121164369881 0 0.2479700256591971 0.1130708761940131 0 0.24508603879494281 0.093897949512535828 0 0.24428406228899291 0.10268919226356391 0 0.2479700256591971 0.1130708761940131 0 0.24508603879494281 0.093897949512535828 0 0.25226680708541338 0.1039611020870571 0 0.2479700256591971 0.1130708761940131 0 0.24508603879494281 0.093897949512535828 0 0.24508603879494281 0.093897949512535828 0 0.24428406228899291 0.10268919226356391 0 0.2402269910602404 0.087977302688239598 0 0.24428406228899291 0.10268919226356391 0 0.2402269910602404 0.087977302688239598 0 0.2479700256591971 0.1130708761940131 0 0.24428406228899291 0.10268919226356391 0 0.23608090964314951 0.1067670359926208 0 0.24428406228899291 0.10268919226356391 0 0.23608090964314951 0.1067670359926208 0 0.23200732431085841 0.098738769200690829 0 0.24428406228899291 0.10268919226356391 0 0.2370962774146316 0.094901034611979379 0 0.23200732431085841 0.098738769200690829 0 0.24428406228899291 0.10268919226356391 0 0.2370962774146316 0.094901034611979379 0 0.2402269910602404 0.087977302688239598 0 0.2370962774146316 0.094901034611979379 0 0.23200732431085841 0.098738769200690829 0 0.2318667319984348 0.09019887429542317 0 0.23200732431085841 0.098738769200690829 0 0.21978851026224011 0.094612666801969364 0 0.2318667319984348 0.09019887429542317 0 0.23200732431085841 0.098738769200690829 0 0.22996632268507741 0.1051396131613991 0 0.21978851026224011 0.094612666801969364 0 0.23608090964314951 0.1067670359926208 0 0.23200732431085841 0.098738769200690829 0 0.22996632268507741 0.1051396131613991 0 0.23608090964314951 0.1067670359926208 0 0.22996632268507741 0.1051396131613991 0 0.22617681327162201 0.11419672914343711 0 0.21978851026224011 0.094612666801969364 0 0.22479832933621799 0.1094324369164492 0 0.2146377234768897 0.1081380908155699 0 0.22996632268507741 0.1051396131613991 0 0.21978851026224011 0.094612666801969364 0 0.22479832933621799 0.1094324369164492 0 0.21978851026224011 0.094612666801969364 0 0.22479832933621799 0.1094324369164492 0 0.2331267363008884 0.13586568852681841 0 0.24025061707603931 0.1242743875512349 0 0.22617681327162201 0.11419672914343711 0 0.22996632268507741 0.1051396131613991 0 0.22617681327162201 0.11419672914343711 0 0.22479832933621799 0.1094324369164492 0 0.22617681327162201 0.11419672914343711 0 0.22479832933621799 0.1094324369164492 0 0.2146377234768897 0.1081380908155699 0 0.21431840299969121 0.12511043198613631 0 0.22617681327162201 0.11419672914343711 0 0.204383600884047 0.1153225820928631 0 0.21431840299969121 0.12511043198613631 0 0.20168882168756139 0.1310261715418089 0 0.204383600884047 0.1153225820928631 0 0.22617681327162201 0.11419672914343711 0 0.204383600884047 0.1153225820928631 0 0.22617681327162201 0.11419672914343711 0 0.204383600884047 0.1153225820928631 0 0.2146377234768897 0.1081380908155699 0 0.21978851026224011 0.094612666801969364 0 0.2146377234768897 0.1081380908155699 0 0.20703021023816939 0.099899698176039511 0 0.204383600884047 0.1153225820928631 0 0.2146377234768897 0.1081380908155699 0 0.20703021023816939 0.099899698176039511 0 0.204383600884047 0.1153225820928631 0 0.20703021023816939 0.099899698176039511 0 0.204383600884047 0.1153225820928631 0 0.20703021023816939 0.099899698176039511 0 0.19544036093106401 0.10910163810938769 0 0.20703021023816939 0.099899698176039511 0 0.1920338740150849 0.1006744196382556 0 0.20967681959229101 0.084476814259215743 0 0.20703021023816939 0.099899698176039511 0 0.19544036093106401 0.10910163810938769 0 0.1920338740150849 0.1006744196382556 0 0.20168882168756139 0.1310261715418089 0 0.204383600884047 0.1153225820928631 0 0.19544036093106401 0.10910163810938769 0 0.19553778957291831 0.1157795630361771 0 0.17439092843787959 0.11687202501729629 0 0.20168882168756139 0.1310261715418089 0 0.204383600884047 0.1153225820928631 0 0.19553778957291831 0.1157795630361771 0 0.204383600884047 0.1153225820928631 0 0.19553778957291831 0.1157795630361771 0 0.204383600884047 0.1153225820928631 0 0.19544036093106401 0.10910163810938769 0 0.19553778957291831 0.1157795630361771 0 0.19544036093106401 0.10910163810938769 0 0.19553778957291831 0.1157795630361771 0 0.20128521019502341 0.07379450533905671 0 0.1936621890328773 0.066397547560447079 0 0.1924488894800904 0.076623514339729831 0 0.20128521019502341 0.07379450533905671 0 0.2005594978377965 0.063648499810781536 0 0.1936621890328773 0.066397547560447079 0 0.2005594978377965 0.063648499810781536 0 0.1936621890328773 0.066397547560447079 0 0.19324326832570099 0.059632024961241099 0 0.1936621890328773 0.066397547560447079 0 0.19324326832570099 0.059632024961241099 0 0.18850806674705861 0.061753896183571369 0 0.1936621890328773 0.066397547560447079 0 0.18850806674705861 0.061753896183571369 0 0.18619802793009621 0.065635902333457161 0 0.1936621890328773 0.066397547560447079 0 0.18693067397280491 0.071538532439119618 0 0.18619802793009621 0.065635902333457161 0 0.1936621890328773 0.066397547560447079 0 0.1924488894800904 0.076623514339729831 0 0.18693067397280491 0.071538532439119618 0 0.1924488894800904 0.076623514339729831 0 0.18897382172743879 0.08598516360148141 0 0.19758754291227151 0.084060206596948364 0 0.1924488894800904 0.076623514339729831 0 0.18897382172743879 0.08598516360148141 0 0.1822567200742731 0.078338044409950694 0 0.1920338740150849 0.1006744196382556 0 0.19758754291227151 0.084060206596948364 0 0.20967681959229101 0.084476814259215743 0 0.1920338740150849 0.1006744196382556 0 0.20967681959229101 0.084476814259215743 0 0.1920338740150849 0.1006744196382556 0 0.18897382172743879 0.08598516360148141 0 0.19758754291227151 0.084060206596948364 0 0.20128521019502341 0.07379450533905671 0 0.1924488894800904 0.076623514339729831 0 0.19758754291227151 0.084060206596948364 0 0.20128521019502341 0.07379450533905671 0 0.19758754291227151 0.084060206596948364 0 0.20967681959229101 0.084476814259215743 0 0.20703021023816939 0.099899698176039511 0 0.20967681959229101 0.084476814259215743 0 0.21978851026224011 0.094612666801969364 0 0.20703021023816939 0.099899698176039511 0 0.20967681959229101 0.084476814259215743 0 0.21978851026224011 0.094612666801969364 0 0.21477869118826221 0.079792896687489526 0 0.21978851026224011 0.094612666801969364 0 0.20967681959229101 0.084476814259215743 0 0.21477869118826221 0.079792896687489526 0 0.20967681959229101 0.084476814259215743 0 0.21477869118826221 0.079792896687489526 0 0.21192778583088759 0.071359505902199999 0 0.20967681959229101 0.084476814259215743 0 0.21477869118826221 0.079792896687489526 0 0.21477869118826221 0.079792896687489526 0 0.21192778583088759 0.071359505902199999 0 0.21477869118826221 0.079792896687489526 0 0.21192778583088759 0.071359505902199999 0 0.2220602503957135 0.069935130224083417 0 0.20967681959229101 0.084476814259215743 0 0.21192778583088759 0.071359505902199999 0 0.20128521019502341 0.07379450533905671 0 0.20967681959229101 0.084476814259215743 0 0.21192778583088759 0.071359505902199999 0 0.2005594978377965 0.063648499810781536 0 0.21192778583088759 0.071359505902199999 0 0.20685228818292911 0.05634544905731214 0 0.20128521019502341 0.07379450533905671 0 0.2005594978377965 0.063648499810781536 0 0.21192778583088759 0.071359505902199999 0 0.21192778583088759 0.071359505902199999 0 0.20685228818292911 0.05634544905731214 0 0.21192778583088759 0.071359505902199999 0 0.2220602503957135 0.069935130224083417 0 0.22193250966700001 0.058055788201142357 0 0.22537901916776959 0.064827045533677713 0 0.2220602503957135 0.069935130224083417 0 0.22193250966700001 0.058055788201142357 0 0.22537901916776959 0.064827045533677713 0 0.2220602503957135 0.069935130224083417 0 0.2248093246253289 0.070583989852490814 0 0.2220602503957135 0.069935130224083417 0 0.2248093246253289 0.070583989852490814 0 0.21477869118826221 0.079792896687489526 0 0.22232536899360941 0.077945682062133093 0 0.2248093246253289 0.070583989852490814 0 0.21477869118826221 0.079792896687489526 0 0.2220602503957135 0.069935130224083417 0 0.2248093246253289 0.070583989852490814 0 0.21477869118826221 0.079792896687489526 0 0.2248093246253289 0.070583989852490814 0 0.22232536899360941 0.077945682062133093 0 0.2248093246253289 0.070583989852490814 0 0.22889539399467321 0.077371890329518786 0 0.2248093246253289 0.070583989852490814 0 0.22889539399467321 0.077371890329518786 0 0.23616991983148811 0.073265413112915193 0 0.22889539399467321 0.077371890329518786 0 0.2325709680091054 0.08245471698499561 0 0.23616991983148811 0.073265413112915193 0 0.2248093246253289 0.070583989852490814 0 0.23616991983148811 0.073265413112915193 0 0.22537901916776959 0.064827045533677713 0 0.2248093246253289 0.070583989852490814 0 0.23328470017271949 0.062802931527789041 0 0.2248093246253289 0.070583989852490814 0 0.23328470017271949 0.062802931527789041 0 0.2248093246253289 0.070583989852490814 0 0.23328470017271949 0.062802931527789041 0 0.23616991983148811 0.073265413112915193 0 0.21978851026224011 0.094612666801969364 0 0.22569580316069029 0.083460104498881665 0 0.2318667319984348 0.09019887429542317 0 0.21978851026224011 0.094612666801969364 0 0.21477869118826221 0.079792896687489526 0 0.22569580316069029 0.083460104498881665 0 0.21477869118826221 0.079792896687489526 0 0.22232536899360941 0.077945682062133093 0 0.22569580316069029 0.083460104498881665 0 0.22232536899360941 0.077945682062133093 0 0.22889539399467321 0.077371890329518786 0 0.22569580316069029 0.083460104498881665 0 0.22889539399467321 0.077371890329518786 0 0.22569580316069029 0.083460104498881665 0 0.2325709680091054 0.08245471698499561 0 0.22569580316069029 0.083460104498881665 0 0.2325709680091054 0.08245471698499561 0 0.2318667319984348 0.09019887429542317 0 0.24508603879494281 0.093897949512535828 0 0.2402269910602404 0.087977302688239598 0 0.2422020519306885 0.074725022831058613 0 0.24508603879494281 0.093897949512535828 0 0.2422020519306885 0.074725022831058613 0 0.25276512444811011 0.086159760048941617 0 0.24508603879494281 0.093897949512535828 0 0.2422020519306885 0.074725022831058613 0 0.2370962774146316 0.094901034611979379 0 0.2318667319984348 0.09019887429542317 0 0.2402269910602404 0.087977302688239598 0 0.2325709680091054 0.08245471698499561 0 0.2318667319984348 0.09019887429542317 0 0.2402269910602404 0.087977302688239598 0 0.2402269910602404 0.087977302688239598 0 0.23616991983148811 0.073265413112915193 0 0.2402269910602404 0.087977302688239598 0 0.23616991983148811 0.073265413112915193 0 0.2422020519306885 0.074725022831058613 0 0.2325709680091054 0.08245471698499561 0 0.2402269910602404 0.087977302688239598 0 0.23616991983148811 0.073265413112915193 0 0.23328470017271949 0.062802931527789041 0 0.23616991983148811 0.073265413112915193 0 0.23884430461559769 0.066898836148216345 0 0.24505343214577241 0.065757195551324824 0 0.23828530331132999 0.058211986328647193 0 0.23328470017271949 0.062802931527789041 0 0.23884430461559769 0.066898836148216345 0 0.23828530331132999 0.058211986328647193 0 0.23884430461559769 0.066898836148216345 0 0.2422020519306885 0.074725022831058613 0 0.24505343214577241 0.065757195551324824 0 0.23328470017271949 0.062802931527789041 0 0.23884430461559769 0.066898836148216345 0 0.23616991983148811 0.073265413112915193 0 0.23884430461559769 0.066898836148216345 0 0.23616991983148811 0.073265413112915193 0 0.2422020519306885 0.074725022831058613 0 0.23616991983148811 0.073265413112915193 0 0.2422020519306885 0.074725022831058613 0 0.2422020519306885 0.074725022831058613 0 0.24505343214577241 0.065757195551324824 0 0.25324795101967462 0.071649882576700283 0 0.24505343214577241 0.065757195551324824 0 0.25153334416912049 0.065266287609551596 0 0.25324795101967462 0.071649882576700283 0 0.24505343214577241 0.065757195551324824 0 0.24750813816218201 0.057765830816462041 0 0.25153334416912049 0.065266287609551596 0 0.24505343214577241 0.065757195551324824 0 0.24750813816218201 0.057765830816462041 0 0.23828530331132999 0.058211986328647193 0 0.24750813816218201 0.057765830816462041 0 0.23828530331132999 0.058211986328647193 0 0.24161013331070469 0.052520643980459088 0 0.23328470017271949 0.062802931527789041 0 0.23828530331132999 0.058211986328647193 0 0.2366518662350732 0.047206261638174332 0 0.23328470017271949 0.062802931527789041 0 0.23828530331132999 0.058211986328647193 0 0.23828530331132999 0.058211986328647193 0 0.2366518662350732 0.047206261638174332 0 0.24161013331070469 0.052520643980459088 0 0.2366518662350732 0.047206261638174332 0 0.24161013331070469 0.052520643980459088 0 0.24751805561965559 0.049597918156775722 0 0.24750813816218201 0.057765830816462041 0 0.24751805561965559 0.049597918156775722 0 0.25395058035011481 0.052534716696235842 0 0.24750813816218201 0.057765830816462041 0 0.24161013331070469 0.052520643980459088 0 0.24751805561965559 0.049597918156775722 0 0.2366518662350732 0.047206261638174332 0 0.24753356181782099 0.032752362629513393 0 0.25021864521095732 0.042714426536890518 0 0.24753356181782099 0.032752362629513393 0 0.2273149341790825 0.041155163190256708 0 0.23819930518764881 0.019934231074903431 0 0.2366518662350732 0.047206261638174332 0 0.24753356181782099 0.032752362629513393 0 0.2273149341790825 0.041155163190256708 0 0.2366518662350732 0.047206261638174332 0 0.24751805561965559 0.049597918156775722 0 0.25021864521095732 0.042714426536890518 0 0.2213451681854442 0.019507394852724711 0 0.21631530060087581 0.045791648343071353 0 0.2273149341790825 0.041155163190256708 0 0.2213451681854442 0.019507394852724711 0 0.21631530060087581 0.045791648343071353 0 0.2273149341790825 0.041155163190256708 0 0.22471186115491951 0.051951382815564932 0 0.21631530060087581 0.045791648343071353 0 0.23328470017271949 0.062802931527789041 0 0.2273149341790825 0.041155163190256708 0 0.23328470017271949 0.062802931527789041 0 0.2366518662350732 0.047206261638174332 0 0.2273149341790825 0.041155163190256708 0 0.23328470017271949 0.062802931527789041 0 0.2273149341790825 0.041155163190256708 0 0.22471186115491951 0.051951382815564932 0 0.22471186115491951 0.051951382815564932 0 0.22193250966700001 0.058055788201142357 0 0.21631530060087581 0.045791648343071353 0 0.23328470017271949 0.062802931527789041 0 0.22471186115491951 0.051951382815564932 0 0.22193250966700001 0.058055788201142357 0 0.22537901916776959 0.064827045533677713 0 0.23328470017271949 0.062802931527789041 0 0.22193250966700001 0.058055788201142357 0 0.23486169414593761 0.0044328377206448756 0 0.25380370120803358 0.017117199263192131 0 0.24837822010643121 -0.01064171941143479 0 0.23486169414593761 0.0044328377206448756 0 0.23819930518764881 0.019934231074903431 0 0.25380370120803358 0.017117199263192131 0 0.24753356181782099 0.032752362629513393 0 0.23819930518764881 0.019934231074903431 0 0.25380370120803358 0.017117199263192131 0 0.2273149341790825 0.041155163190256708 0 0.2213451681854442 0.019507394852724711 0 0.2273149341790825 0.041155163190256708 0 0.23819930518764881 0.019934231074903431 0 0.2213451681854442 0.019507394852724711 0 0.2213451681854442 0.019507394852724711 0 0.2201226506097064 0.015074260070491501 0 0.2213451681854442 0.019507394852724711 0 0.2218305993854004 0.013651728340205709 0 0.2213451681854442 0.019507394852724711 0 0.2201226506097064 0.015074260070491501 0 0.2153146619010459 0.01365383695144402 0 0.2213451681854442 0.019507394852724711 0 0.2218305993854004 0.013651728340205709 0 0.2201226506097064 0.015074260070491501 0 0.23486169414593761 0.0044328377206448756 0 0.23819930518764881 0.019934231074903431 0 0.2213451681854442 0.019507394852724711 0 0.23486169414593761 0.0044328377206448756 0 0.2213451681854442 0.019507394852724711 0 0.2218305993854004 0.013651728340205709 0 0.22338412304093311 0.0045358756082133408 0 0.218635476953562 0.01050456931136433 0 0.23486169414593761 0.0044328377206448756 0 0.2213451681854442 0.019507394852724711 0 0.2218305993854004 0.013651728340205709 0 0.2218305993854004 0.013651728340205709 0 0.2201226506097064 0.015074260070491501 0 0.218635476953562 0.01050456931136433 0 0.22338412304093311 0.0045358756082133408 0 0.2148085754180758 0.0052537978973309406 0 0.218635476953562 0.01050456931136433 0 0.22338412304093311 0.0045358756082133408 0 0.2148085754180758 0.0052537978973309406 0 0.2227394312342845 -0.0066353046367786921 0 0.23486169414593761 0.0044328377206448756 0 0.22338412304093311 0.0045358756082133408 0 0.2227394312342845 -0.0066353046367786921 0 0.23486169414593761 0.0044328377206448756 0 0.2218305993854004 0.013651728340205709 0 0.22338412304093311 0.0045358756082133408 0 0.2148085754180758 0.0052537978973309406 0 0.20436409518542389 0.0084756352553653977 0 0.20658404310945239 -0.0047970488307741092 0 0.2148085754180758 0.0052537978973309406 0 0.2153146619010459 0.01365383695144402 0 0.20436409518542389 0.0084756352553653977 0 0.2148085754180758 0.0052537978973309406 0 0.218635476953562 0.01050456931136433 0 0.2153146619010459 0.01365383695144402 0 0.2201226506097064 0.015074260070491501 0 0.218635476953562 0.01050456931136433 0 0.2153146619010459 0.01365383695144402 0 0.2153146619010459 0.01365383695144402 0 0.20436409518542389 0.0084756352553653977 0 0.2073351326176138 0.01741853016031511 0 0.2213451681854442 0.019507394852724711 0 0.2073351326176138 0.01741853016031511 0 0.2017767905349715 0.041331392212423948 0 0.2213451681854442 0.019507394852724711 0 0.2017767905349715 0.041331392212423948 0 0.2213451681854442 0.019507394852724711 0 0.2153146619010459 0.01365383695144402 0 0.2073351326176138 0.01741853016031511 0 0.2073351326176138 0.01741853016031511 0 0.1946396495337758 0.0202186958554334 0 0.2017767905349715 0.041331392212423948 0 0.1946396495337758 0.0202186958554334 0 0.2017767905349715 0.041331392212423948 0 0.20436409518542389 0.0084756352553653977 0 0.20658404310945239 -0.0047970488307741092 0 0.1875025085325798 -0.00089400050155696853 0 0.20436409518542389 0.0084756352553653977 0 0.1946396495337758 0.0202186958554334 0 0.1875025085325798 -0.00089400050155696853 0 0.1946396495337758 0.0202186958554334 0 0.1875025085325798 -0.00089400050155696853 0 0.20436409518542389 0.0084756352553653977 0 0.2073351326176138 0.01741853016031511 0 0.1946396495337758 0.0202186958554334 0 0.21192778583088759 0.071359505902199999 0 0.20685228818292911 0.05634544905731214 0 0.21631530060087581 0.045791648343071353 0 0.21192778583088759 0.071359505902199999 0 0.22193250966700001 0.058055788201142357 0 0.21631530060087581 0.045791648343071353 0 0.21192778583088759 0.071359505902199999 0 0.21631530060087581 0.045791648343071353 0 0.20685228818292911 0.05634544905731214 0 0.2017767905349715 0.041331392212423948 0 0.20685228818292911 0.05634544905731214 0 0.21631530060087581 0.045791648343071353 0 0.2017767905349715 0.041331392212423948 0 0.2213451681854442 0.019507394852724711 0 0.21631530060087581 0.045791648343071353 0 0.2017767905349715 0.041331392212423948 0 0.1946396495337758 0.0202186958554334 0 0.2017767905349715 0.041331392212423948 0 0.1850599233774822 0.038472908451804982 0 0.2017767905349715 0.041331392212423948 0 0.19044277757110281 0.05397186110649916 0 0.1850599233774822 0.038472908451804982 0 0.19044277757110281 0.05397186110649916 0 0.19638624545936201 0.054361966044431803 0 0.2017767905349715 0.041331392212423948 0 0.19044277757110281 0.05397186110649916 0 0.2017767905349715 0.041331392212423948 0 0.19044277757110281 0.05397186110649916 0 0.19638624545936201 0.054361966044431803 0 0.20685228818292911 0.05634544905731214 0 0.2017767905349715 0.041331392212423948 0 0.19638624545936201 0.054361966044431803 0 0.2005594978377965 0.063648499810781536 0 0.20685228818292911 0.05634544905731214 0 0.19638624545936201 0.054361966044431803 0 0.2005594978377965 0.063648499810781536 0 0.19638624545936201 0.054361966044431803 0 0.19324326832570099 0.059632024961241099 0 0.19044277757110281 0.05397186110649916 0 0.19638624545936201 0.054361966044431803 0 0.19324326832570099 0.059632024961241099 0 0.19044277757110281 0.05397186110649916 0 0.19324326832570099 0.059632024961241099 0 0.1876705439393212 0.057063646258089053 0 0.19044277757110281 0.05397186110649916 0 0.1876705439393212 0.057063646258089053 0 0.19324326832570099 0.059632024961241099 0 0.1876705439393212 0.057063646258089053 0 0.18850806674705861 0.061753896183571369 0 0.19044277757110281 0.05397186110649916 0 0.16899736029170889 0.052564271575615128 0 0.19044277757110281 0.05397186110649916 0 0.1850599233774822 0.038472908451804982 0 0.16899736029170889 0.052564271575615128 0 0.1876705439393212 0.057063646258089053 0 0.1802771677385204 0.061626561295648898 0 0.16899736029170889 0.052564271575615128 0 0.19044277757110281 0.05397186110649916 0 0.1876705439393212 0.057063646258089053 0 0.16899736029170889 0.052564271575615128 0 0.1876705439393212 0.057063646258089053 0 0.18850806674705861 0.061753896183571369 0 0.1802771677385204 0.061626561295648898 0 0.1802771677385204 0.061626561295648898 0 0.16899736029170889 0.052564271575615128 0 0.16944756491539131 0.065212986598974301 0 0.1850599233774822 0.038472908451804982 0 0.16899736029170889 0.052564271575615128 0 0.1709506488759952 0.027088280141575171 0 0.16899736029170889 0.052564271575615128 0 0.1709506488759952 0.027088280141575171 0 0.15549037628383749 0.036375420031438413 0 0.16899736029170889 0.052564271575615128 0 0.1475519430123152 0.051156682044728972 0 0.15549037628383749 0.036375420031438413 0 0.16899736029170889 0.052564271575615128 0 0.1475519430123152 0.051156682044728972 0 0.16899736029170889 0.052564271575615128 0 0.1475519430123152 0.051156682044728972 0 0.1552543716581426 0.064225174814300401 0 0.16899736029170889 0.052564271575615128 0 0.1552543716581426 0.064225174814300401 0 0.16944756491539131 0.065212986598974301 0 0.1946396495337758 0.0202186958554334 0 0.1778804953238837 0.01201039303616982 0 0.1875025085325798 -0.00089400050155696853 0 0.1778804953238837 0.01201039303616982 0 0.17522714050184721 -0.0049488647019317131 0 0.1875025085325798 -0.00089400050155696853 0 0.1946396495337758 0.0202186958554334 0 0.1778804953238837 0.01201039303616982 0 0.1709506488759952 0.027088280141575171 0 0.1946396495337758 0.0202186958554334 0 0.1850599233774822 0.038472908451804982 0 0.1709506488759952 0.027088280141575171 0 0.1709506488759952 0.027088280141575171 0 0.15966997586013809 0.019495045236748741 0 0.15549037628383749 0.036375420031438413 0 0.1778804953238837 0.01201039303616982 0 0.1709506488759952 0.027088280141575171 0 0.15966997586013809 0.019495045236748741 0 0.1778804953238837 0.01201039303616982 0 0.15966997586013809 0.019495045236748741 0 0.1601032952255865 0.003960831588106911 0 0.1778804953238837 0.01201039303616982 0 0.1601032952255865 0.003960831588106911 0 0.17522714050184721 -0.0049488647019317131 0 0.14692995984517801 0.011745136005002651 0 0.13132033129498641 0.0092488423746995806 0 0.1454712798881049 -0.003730971849526866 0 0.1601032952255865 0.003960831588106911 0 0.14692995984517801 0.011745136005002651 0 0.1454712798881049 -0.003730971849526866 0 0.15966997586013809 0.019495045236748741 0 0.1601032952255865 0.003960831588106911 0 0.14692995984517801 0.011745136005002651 0 0.15966997586013809 0.019495045236748741 0 0.1466650796063477 0.025790210618199489 0 0.15549037628383749 0.036375420031438413 0 0.14692995984517801 0.011745136005002651 0 0.1466650796063477 0.025790210618199489 0 0.13929842407154591 0.018229141148497718 0 0.15966997586013809 0.019495045236748741 0 0.14692995984517801 0.011745136005002651 0 0.1466650796063477 0.025790210618199489 0 0.1466650796063477 0.025790210618199489 0 0.13676489184814311 0.026489974163780541 0 0.13929842407154591 0.018229141148497718 0 0.1466650796063477 0.025790210618199489 0 0.13676489184814311 0.026489974163780541 0 0.1414130029808221 0.040908262586919632 0 0.13676489184814311 0.026489974163780541 0 0.1276628884147202 0.026504186973196051 0 0.1320687024438848 0.033890144439081622 0 0.13676489184814311 0.026489974163780541 0 0.1276628884147202 0.026504186973196051 0 0.13173710738379721 0.019922360975092462 0 0.1231174754830366 0.032788360966042172 0 0.1276628884147202 0.026504186973196051 0 0.1320687024438848 0.033890144439081622 0 0.1237376642652656 0.01976859365491428 0 0.13173710738379721 0.019922360975092462 0 0.13132033129498641 0.0092488423746995806 0 0.1237376642652656 0.01976859365491428 0 0.1276628884147202 0.026504186973196051 0 0.13173710738379721 0.019922360975092462 0 0.13173710738379721 0.019922360975092462 0 0.13929842407154591 0.018229141148497718 0 0.13132033129498641 0.0092488423746995806 0 0.13676489184814311 0.026489974163780541 0 0.13173710738379721 0.019922360975092462 0 0.13929842407154591 0.018229141148497718 0 0.14692995984517801 0.011745136005002651 0 0.13929842407154591 0.018229141148497718 0 0.13132033129498641 0.0092488423746995806 0 0.1237376642652656 0.01976859365491428 0 0.1203284510390845 0.013104948594594349 0 0.13132033129498641 0.0092488423746995806 0 0.13132033129498641 0.0092488423746995806 0 0.1241013306504634 -0.00126979730434574 0 0.13373112663479869 -0.0028115886610750019 0 0.13132033129498641 0.0092488423746995806 0 0.1454712798881049 -0.003730971849526866 0 0.13373112663479869 -0.0028115886610750019 0 0.1475519430123152 0.051156682044728972 0 0.14131291853074829 0.05964926751543153 0 0.1552543716581426 0.064225174814300401 0 0.1466650796063477 0.025790210618199489 0 0.15549037628383749 0.036375420031438413 0 0.1414130029808221 0.040908262586919632 0 0.1475519430123152 0.051156682044728972 0 0.15549037628383749 0.036375420031438413 0 0.1414130029808221 0.040908262586919632 0 0.1475519430123152 0.051156682044728972 0 0.1414130029808221 0.040908262586919632 0 0.13136193654055769 0.047365254882629958 0 0.1414130029808221 0.040908262586919632 0 0.13341023791294371 0.040581485861968657 0 0.13136193654055769 0.047365254882629958 0 0.1414130029808221 0.040908262586919632 0 0.13341023791294371 0.040581485861968657 0 0.1320687024438848 0.033890144439081622 0 0.13676489184814311 0.026489974163780541 0 0.1414130029808221 0.040908262586919632 0 0.1320687024438848 0.033890144439081622 0 0.1231174754830366 0.032788360966042172 0 0.1320687024438848 0.033890144439081622 0 0.12728113781280981 0.039528802799818748 0 0.13341023791294371 0.040581485861968657 0 0.1320687024438848 0.033890144439081622 0 0.12728113781280981 0.039528802799818748 0 0.13341023791294371 0.040581485861968657 0 0.12728113781280981 0.039528802799818748 0 0.13136193654055769 0.047365254882629958 0 0.1243370536324033 0.043963734158083689 0 0.12728113781280981 0.039528802799818748 0 0.13136193654055769 0.047365254882629958 0 0.1261065257329215 0.049749092513842547 0 0.13136193654055769 0.047365254882629958 0 0.1475519430123152 0.051156682044728972 0 0.1261065257329215 0.049749092513842547 0 0.1475519430123152 0.051156682044728972 0 0.14131291853074829 0.05964926751543153 0 0.1261065257329215 0.049749092513842547 0 0.1243370536324033 0.043963734158083689 0 0.1261065257329215 0.049749092513842547 0 0.13136193654055769 0.047365254882629958 0 0.1475519430123152 0.051156682044728972 0 0.1261065257329215 0.049749092513842547 0 0.13136193654055769 0.047365254882629958 0 0.14131291853074829 0.05964926751543153 0 0.1261065257329215 0.049749092513842547 0 0.13254865804091981 0.063927211530657252 0 0.13254865804091981 0.063927211530657252 0 0.14372747461544541 0.081718510906368919 0 0.13254865804091981 0.063927211530657252 0 0.13602709122601439 0.071834801776145749 0 0.14372747461544541 0.081718510906368919 0 0.1187519132559962 0.073330070717771242 0 0.13602709122601439 0.071834801776145749 0 0.13222229848423689 0.082740643567558239 0 0.13254865804091981 0.063927211530657252 0 0.14510309420944251 0.069188176673628199 0 0.14372747461544541 0.081718510906368919 0 0.1111820128005041 0.056518804123088393 0 0.13254865804091981 0.063927211530657252 0 0.13602709122601439 0.071834801776145749 0 0.14131291853074829 0.05964926751543153 0 0.13254865804091981 0.063927211530657252 0 0.14510309420944251 0.069188176673628199 0 0.14131291853074829 0.05964926751543153 0 0.14510309420944251 0.069188176673628199 0 0.1552543716581426 0.064225174814300401 0 0.14510309420944251 0.069188176673628199 0 0.1527879353780339 0.076129433935451976 0 0.14372747461544541 0.081718510906368919 0 0.14510309420944251 0.069188176673628199 0 0.1527879353780339 0.076129433935451976 0 0.1552543716581426 0.064225174814300401 0 0.14372747461544541 0.081718510906368919 0 0.1415899664807789 0.095619888859691943 0 0.15490629118997101 0.099509810282080557 0 0.14372747461544541 0.081718510906368919 0 0.15490629118997101 0.099509810282080557 0 0.15719042717434659 0.086014544169863996 0 0.14372747461544541 0.081718510906368919 0 0.15490629118997101 0.099509810282080557 0 0.1527879353780339 0.076129433935451976 0 0.14372747461544541 0.081718510906368919 0 0.15719042717434659 0.086014544169863996 0 0.14372747461544541 0.081718510906368919 0 0.13222229848423689 0.082740643567558239 0 0.1415899664807789 0.095619888859691943 0 0.13222229848423689 0.082740643567558239 0 0.12711182105801849 0.096271416258485329 0 0.1415899664807789 0.095619888859691943 0 0.13602709122601439 0.071834801776145749 0 0.14372747461544541 0.081718510906368919 0 0.13222229848423689 0.082740643567558239 0 0.1221416529332626 0.11202310548697909 0 0.12711182105801849 0.096271416258485329 0 0.13174476597186691 0.10547100609616469 0 0.13174476597186691 0.10547100609616469 0 0.1415899664807789 0.095619888859691943 0 0.14084677671012061 0.10816788995310871 0 0.12711182105801849 0.096271416258485329 0 0.13174476597186691 0.10547100609616469 0 0.1415899664807789 0.095619888859691943 0 0.1221416529332626 0.11202310548697909 0 0.13571662765488851 0.13714844270596749 0 0.13324057158529529 0.1194771381521421 0 0.1221416529332626 0.11202310548697909 0 0.13571662765488851 0.13714844270596749 0 0.1221416529332626 0.11202310548697909 0 0.13174476597186691 0.10547100609616469 0 0.13324057158529529 0.1194771381521421 0 0.13174476597186691 0.10547100609616469 0 0.13324057158529529 0.1194771381521421 0 0.14084677671012061 0.10816788995310871 0 0.13936926068676661 0.12870466425705479 0 0.13324057158529529 0.1194771381521421 0 0.14522573028892691 0.12473886703534651 0 0.13324057158529529 0.1194771381521421 0 0.14522573028892691 0.12473886703534651 0 0.14817472514985039 0.1149991443037693 0 0.14817472514985039 0.1149991443037693 0 0.14084677671012061 0.10816788995310871 0 0.14902522424222869 0.1061598970378705 0 0.13324057158529529 0.1194771381521421 0 0.14817472514985039 0.1149991443037693 0 0.14084677671012061 0.10816788995310871 0 0.14817472514985039 0.1149991443037693 0 0.15490857156609569 0.1176502363253572 0 0.15727858785587759 0.1114873391869758 0 0.14817472514985039 0.1149991443037693 0 0.14902522424222869 0.1061598970378705 0 0.15727858785587759 0.1114873391869758 0 0.14522573028892691 0.12473886703534651 0 0.14817472514985039 0.1149991443037693 0 0.15222669915792181 0.1232562258046947 0 0.14817472514985039 0.1149991443037693 0 0.15490857156609569 0.1176502363253572 0 0.15222669915792181 0.1232562258046947 0 0.15490857156609569 0.1176502363253572 0 0.15222669915792181 0.1232562258046947 0 0.15831726968978449 0.1226774466090724 0 0.1539606084885391 0.12851381335764001 0 0.15222669915792181 0.1232562258046947 0 0.15831726968978449 0.1226774466090724 0 0.1415899664807789 0.095619888859691943 0 0.14084677671012061 0.10816788995310871 0 0.14902522424222869 0.1061598970378705 0 0.14902522424222869 0.1061598970378705 0 0.15490629118997101 0.099509810282080557 0 0.15727858785587759 0.1114873391869758 0 0.1415899664807789 0.095619888859691943 0 0.14902522424222869 0.1061598970378705 0 0.15490629118997101 0.099509810282080557 0 0.15490629118997101 0.099509810282080557 0 0.16608510776449789 0.11730110965779141 0 0.15490629118997101 0.099509810282080557 0 0.16163051669624701 0.093754237438085281 0 0.16949735219027701 0.1027494467456245 0 0.15490629118997101 0.099509810282080557 0 0.16949735219027701 0.1027494467456245 0 0.16608510776449789 0.11730110965779141 0 0.16163051669624701 0.093754237438085281 0 0.16949735219027701 0.1027494467456245 0 0.1682860742632015 0.088971475782037679 0 0.15490629118997101 0.099509810282080557 0 0.15727858785587759 0.1114873391869758 0 0.16608510776449789 0.11730110965779141 0 0.1625989365485889 0.1231856797113153 0 0.15831726968978449 0.1226774466090724 0 0.16202304580935031 0.12090959406874929 0 0.16169096308237399 0.1256621397921292 0 0.1625989365485889 0.1231856797113153 0 0.15831726968978449 0.1226774466090724 0 0.16169096308237399 0.1256621397921292 0 0.1625989365485889 0.1231856797113153 0 0.1654659697027335 0.1235795177593695 0 0.1625989365485889 0.1231856797113153 0 0.16202304580935031 0.12090959406874929 0 0.16428922190805931 0.1213828280971832 0 0.15490857156609569 0.1176502363253572 0 0.15831726968978449 0.1226774466090724 0 0.16019390297771921 0.1176054535134327 0 0.15831726968978449 0.1226774466090724 0 0.16019390297771921 0.1176054535134327 0 0.16202304580935031 0.12090959406874929 0 0.16019390297771921 0.1176054535134327 0 0.1642711078549732 0.117394822191404 0 0.16019390297771921 0.1176054535134327 0 0.163400692794298 0.11942726786590591 0 0.1642711078549732 0.117394822191404 0 0.16019390297771921 0.1176054535134327 0 0.16202304580935031 0.12090959406874929 0 0.163400692794298 0.11942726786590591 0 0.16202304580935031 0.12090959406874929 0 0.163400692794298 0.11942726786590591 0 0.16428922190805931 0.1213828280971832 0 0.15727858785587759 0.1114873391869758 0 0.1642711078549732 0.117394822191404 0 0.16608510776449789 0.11730110965779141 0 0.15727858785587759 0.1114873391869758 0 0.1642711078549732 0.117394822191404 0 0.16019390297771921 0.1176054535134327 0 0.15727858785587759 0.1114873391869758 0 0.1642711078549732 0.117394822191404 0 0.15490857156609569 0.1176502363253572 0 0.16019390297771921 0.1176054535134327 0 0.15727858785587759 0.1114873391869758 0 0.16949735219027701 0.1027494467456245 0 0.16608510776449789 0.11730110965779141 0 0.17439092843787959 0.11687202501729629 0 0.16608510776449789 0.11730110965779141 0 0.17439092843787959 0.11687202501729629 0 0.16608510776449789 0.11730110965779141 0 0.1682630287230793 0.12076731232177421 0 0.17439092843787959 0.11687202501729629 0 0.163400692794298 0.11942726786590591 0 0.1642711078549732 0.117394822191404 0 0.16664150975385739 0.1214978305503798 0 0.1642711078549732 0.117394822191404 0 0.1682630287230793 0.12076731232177421 0 0.1642711078549732 0.117394822191404 0 0.16608510776449789 0.11730110965779141 0 0.1682630287230793 0.12076731232177421 0 0.1642711078549732 0.117394822191404 0 0.1682630287230793 0.12076731232177421 0 0.16664150975385739 0.1214978305503798 0 0.1642711078549732 0.117394822191404 0 0.16608510776449789 0.11730110965779141 0 0.163400692794298 0.11942726786590591 0 0.16664150975385739 0.1214978305503798 0 0.16428922190805931 0.1213828280971832 0 0.16608510776449789 0.11730110965779141 0 0.1682630287230793 0.12076731232177421 0 0.1682630287230793 0.12076731232177421 0 0.17439092843787959 0.11687202501729629 0 0.1682630287230793 0.12076731232177421 0 0.16664150975385739 0.1214978305503798 0 0.1654659697027335 0.1235795177593695 0 0.1682630287230793 0.12076731232177421 0 0.1654659697027335 0.1235795177593695 0 0.1625989365485889 0.1231856797113153 0 0.16428922190805931 0.1213828280971832 0 0.1654659697027335 0.1235795177593695 0 0.16664150975385739 0.1214978305503798 0 0.16428922190805931 0.1213828280971832 0 0.1654659697027335 0.1235795177593695 0 0.18259827505216891 0.13287814276120899 0 0.1682630287230793 0.12076731232177421 0 0.17439092843787959 0.11687202501729629 0 0.18259827505216891 0.13287814276120899 0 0.19553778957291831 0.1157795630361771 0 0.17439092843787959 0.11687202501729629 0 0.19553778957291831 0.1157795630361771 0 0.17439092843787959 0.11687202501729629 0 0.1920338740150849 0.1006744196382556 0 0.17439092843787959 0.11687202501729629 0 0.1920338740150849 0.1006744196382556 0 0.16949735219027701 0.1027494467456245 0 0.17878253237975991 0.090856325119021183 0 0.19544036093106401 0.10910163810938769 0 0.1920338740150849 0.1006744196382556 0 0.17439092843787959 0.11687202501729629 0 0.1920338740150849 0.1006744196382556 0 0.16949735219027701 0.1027494467456245 0 0.17439092843787959 0.11687202501729629 0 0.16949735219027701 0.1027494467456245 0 0.17878253237975991 0.090856325119021183 0 0.1682860742632015 0.088971475782037679 0 0.1920338740150849 0.1006744196382556 0 0.18897382172743879 0.08598516360148141 0 0.17878253237975991 0.090856325119021183 0 0.17878253237975991 0.090856325119021183 0 0.17291220633134199 0.080700119901877754 0 0.1682860742632015 0.088971475782037679 0 0.17878253237975991 0.090856325119021183 0 0.17291220633134199 0.080700119901877754 0 0.1822567200742731 0.078338044409950694 0 0.18897382172743879 0.08598516360148141 0 0.17878253237975991 0.090856325119021183 0 0.1822567200742731 0.078338044409950694 0 0.1822567200742731 0.078338044409950694 0 0.18693067397280491 0.071538532439119618 0 0.18055744970368279 0.068612557687756967 0 0.1924488894800904 0.076623514339729831 0 0.1822567200742731 0.078338044409950694 0 0.18693067397280491 0.071538532439119618 0 0.18850806674705861 0.061753896183571369 0 0.1802771677385204 0.061626561295648898 0 0.18619802793009621 0.065635902333457161 0 0.18693067397280491 0.071538532439119618 0 0.18619802793009621 0.065635902333457161 0 0.18055744970368279 0.068612557687756967 0 0.1802771677385204 0.061626561295648898 0 0.18619802793009621 0.065635902333457161 0 0.18055744970368279 0.068612557687756967 0 0.18055744970368279 0.068612557687756967 0 0.17374005379295421 0.07312147285618599 0 0.16944756491539131 0.065212986598974301 0 0.1802771677385204 0.061626561295648898 0 0.18055744970368279 0.068612557687756967 0 0.16944756491539131 0.065212986598974301 0 0.1822567200742731 0.078338044409950694 0 0.18055744970368279 0.068612557687756967 0 0.17374005379295421 0.07312147285618599 0 0.17291220633134199 0.080700119901877754 0 0.1822567200742731 0.078338044409950694 0 0.17374005379295421 0.07312147285618599 0 0.17374005379295421 0.07312147285618599 0 0.1641431604636045 0.076191527984662388 0 0.16944756491539131 0.065212986598974301 0 0.17291220633134199 0.080700119901877754 0 0.17374005379295421 0.07312147285618599 0 0.1641431604636045 0.076191527984662388 0 0.1552543716581426 0.064225174814300401 0 0.1641431604636045 0.076191527984662388 0 0.16944756491539131 0.065212986598974301 0 0.1527879353780339 0.076129433935451976 0 0.1552543716581426 0.064225174814300401 0 0.1641431604636045 0.076191527984662388 0 0.1641431604636045 0.076191527984662388 0 0.15719042717434659 0.086014544169863996 0 0.1682860742632015 0.088971475782037679 0 0.1527879353780339 0.076129433935451976 0 0.1641431604636045 0.076191527984662388 0 0.15719042717434659 0.086014544169863996 0 0.16163051669624701 0.093754237438085281 0 0.15719042717434659 0.086014544169863996 0 0.1682860742632015 0.088971475782037679 0 0.15490629118997101 0.099509810282080557 0 0.16163051669624701 0.093754237438085281 0 0.15719042717434659 0.086014544169863996 0 0.17291220633134199 0.080700119901877754 0 0.1641431604636045 0.076191527984662388 0 0.1682860742632015 0.088971475782037679 0 0.10731540006457251 0.48236950590895772 0 0.1238956110980738 0.46838162262076383 0 0.094529155156288069 0.46204114376849448 0 0.10731540006457251 0.48236950590895772 0 0.1195654229107193 0.5 0 0.090846474537490673 0.5 0 0.10731540006457251 0.48236950590895772 0 0.1195654229107193 0.5 0 0.13580201835749661 0.48441293847055811 0 0.10731540006457251 0.48236950590895772 0 0.1238956110980738 0.46838162262076383 0 0.13580201835749661 0.48441293847055811 0 0.1238956110980738 0.46838162262076383 0 0.12125214206241119 0.44582005051402618 0 0.094529155156288069 0.46204114376849448 0 0.12125214206241119 0.44582005051402618 0 0.094529155156288069 0.46204114376849448 0 0.095775154673509083 0.43523483693817772 0 0.1238956110980738 0.46838162262076383 0 0.094529155156288069 0.46204114376849448 0 0.094529155156288069 0.46204114376849448 0 0.07413213581707985 0.45917209454787578 0 0.079253718327366607 0.47938133059393018 0 0.094529155156288069 0.46204114376849448 0 0.07413213581707985 0.45917209454787578 0 0.095775154673509083 0.43523483693817772 0 0.069478468254658587 0.43910687041324842 0 0.07413213581707985 0.45917209454787578 0 0.095775154673509083 0.43523483693817772 0 0.069478468254658587 0.43910687041324842 0 0.07413213581707985 0.45917209454787578 0 0.052688003006837403 0.45351301623094309 0 0.07413213581707985 0.45917209454787578 0 0.079253718327366607 0.47938133059393018 0 0.056672262029243393 0.47010016156209061 0 0.079253718327366607 0.47938133059393018 0 0.062127526164262148 0.5 0 0.056672262029243393 0.47010016156209061 0 0.10731540006457251 0.48236950590895772 0 0.094529155156288069 0.46204114376849448 0 0.079253718327366607 0.47938133059393018 0 0.10731540006457251 0.48236950590895772 0 0.079253718327366607 0.47938133059393018 0 0.090846474537490673 0.5 0 0.079253718327366607 0.47938133059393018 0 0.090846474537490673 0.5 0 0.062127526164262148 0.5 0 0.062127526164262148 0.5 0 0.056672262029243393 0.47010016156209061 0 0.038951528059004668 0.48087356550278099 0 0.038951528059004668 0.48087356550278099 0 0.025438453352630171 0.4693518981789524 0 0.037487523677357221 0.4627105832370656 0 0.056672262029243393 0.47010016156209061 0 0.038951528059004668 0.48087356550278099 0 0.037487523677357221 0.4627105832370656 0 0.062127526164262148 0.5 0 0.038951528059004668 0.48087356550278099 0 0.033408577791033622 0.5 0 0.033408577791033622 0.5 0 0.015562134544051949 0.48246729820795181 0 0.0046896294178049858 0.5 0 0.038951528059004668 0.48087356550278099 0 0.033408577791033622 0.5 0 0.015562134544051949 0.48246729820795181 0 0.025438453352630171 0.4693518981789524 0 0.015562134544051949 0.48246729820795181 0 0.013263139689584509 0.46495135629202961 0 0.038951528059004668 0.48087356550278099 0 0.025438453352630171 0.4693518981789524 0 0.015562134544051949 0.48246729820795181 0 0.015562134544051949 0.48246729820795181 0 0.002334760443109415 0.47154344293807721 0 0.013263139689584509 0.46495135629202961 0 -0.0064975003056543766 0.48465894610548932 0 0.015562134544051949 0.48246729820795181 0 0.002334760443109415 0.47154344293807721 0 -0.0064975003056543766 0.48465894610548932 0 0.015562134544051949 0.48246729820795181 0 0.0046896294178049858 0.5 0 -0.003662180686688134 0.44777646677072458 0 0.0077625963234152062 0.4398748531999524 0 0.020718035627094081 0.44488660131823249 0 -0.003662180686688134 0.44777646677072458 0 0.01213077728864808 0.4504960359456302 0 0.020718035627094081 0.44488660131823249 0 -0.003662180686688134 0.44777646677072458 0 0.020718035627094081 0.44488660131823249 0 -0.01068910546206637 0.45215060860514888 0 0.01213077728864808 0.4504960359456302 0 0.0077625963234152062 0.4398748531999524 0 0.020718035627094081 0.44488660131823249 0 0.0157202877687217 0.43718228454496511 0 -0.003662180686688134 0.44777646677072458 0 -0.00033789435619270938 0.43757237590417902 0 0.0077625963234152062 0.4398748531999524 0 -0.01068910546206637 0.45215060860514888 0 0.01213077728864808 0.4504960359456302 0 0.0014539775662769251 0.46057763459147982 0 0.002334760443109415 0.47154344293807721 0 0.0014539775662769251 0.46057763459147982 0 0.013263139689584509 0.46495135629202961 0 0.01213077728864808 0.4504960359456302 0 0.0014539775662769251 0.46057763459147982 0 0.013263139689584509 0.46495135629202961 0 0.01213077728864808 0.4504960359456302 0 0.013263139689584509 0.46495135629202961 0 0.024315854066005799 0.45910030508266308 0 0.025438453352630171 0.4693518981789524 0 0.013263139689584509 0.46495135629202961 0 0.024315854066005799 0.45910030508266308 0 0.025438453352630171 0.4693518981789524 0 0.024315854066005799 0.45910030508266308 0 0.037487523677357221 0.4627105832370656 0 0.01213077728864808 0.4504960359456302 0 0.034950660039362577 0.44884146328611152 0 0.01213077728864808 0.4504960359456302 0 0.024315854066005799 0.45910030508266308 0 0.034950660039362577 0.44884146328611152 0 0.01213077728864808 0.4504960359456302 0 0.020718035627094081 0.44488660131823249 0 0.034950660039362577 0.44884146328611152 0 0.020718035627094081 0.44488660131823249 0 0.023398750843442308 0.43733685118356902 0 0.0157202877687217 0.43718228454496511 0 0.020718035627094081 0.44488660131823249 0 0.032053640216607303 0.43623268874290277 0 0.023398750843442308 0.43733685118356902 0 0.034950660039362577 0.44884146328611152 0 0.045098251940876369 0.44199673586574051 0 0.052688003006837403 0.45351301623094309 0 0.020718035627094081 0.44488660131823249 0 0.034950660039362577 0.44884146328611152 0 0.045098251940876369 0.44199673586574051 0 0.020718035627094081 0.44488660131823249 0 0.045098251940876369 0.44199673586574051 0 0.032053640216607303 0.43623268874290277 0 0.020718035627094081 0.44488660131823249 0 0.045098251940876369 0.44199673586574051 0 0.034950660039362577 0.44884146328611152 0 0.037487523677357221 0.4627105832370656 0 0.052688003006837403 0.45351301623094309 0 0.024315854066005799 0.45910030508266308 0 0.034950660039362577 0.44884146328611152 0 0.037487523677357221 0.4627105832370656 0 0.07413213581707985 0.45917209454787578 0 0.056672262029243393 0.47010016156209061 0 0.052688003006837403 0.45351301623094309 0 0.056672262029243393 0.47010016156209061 0 0.037487523677357221 0.4627105832370656 0 0.052688003006837403 0.45351301623094309 0 0.069478468254658587 0.43910687041324842 0 0.045098251940876369 0.44199673586574051 0 0.052688003006837403 0.45351301623094309 0 0.069478468254658587 0.43910687041324842 0 0.045098251940876369 0.44199673586574051 0 0.069478468254658587 0.43910687041324842 0 0.045098251940876369 0.44199673586574051 0 0.044609877271669728 0.42718665510689963 0 0.069478468254658587 0.43910687041324842 0 0.05690153667620769 0.4180080119249352 0 0.044609877271669728 0.42718665510689963 0 0.05690153667620769 0.4180080119249352 0 0.039688255053039738 0.40906392068859199 0 0.044609877271669728 0.42718665510689963 0 0.05690153667620769 0.4180080119249352 0 0.039688255053039738 0.40906392068859199 0 0.05809601590797759 0.39990522439332649 0 0.039688255053039738 0.40906392068859199 0 0.044609877271669728 0.42718665510689963 0 0.029316000412602732 0.42166156659220128 0 0.045098251940876369 0.44199673586574051 0 0.044609877271669728 0.42718665510689963 0 0.032053640216607303 0.43623268874290277 0 0.044609877271669728 0.42718665510689963 0 0.032053640216607303 0.43623268874290277 0 0.029316000412602732 0.42166156659220128 0 0.032053640216607303 0.43623268874290277 0 0.023398750843442308 0.43733685118356902 0 0.01879028956571439 0.43061898159802442 0 0.023398750843442308 0.43733685118356902 0 0.01879028956571439 0.43061898159802442 0 0.0157202877687217 0.43718228454496511 0 0.01879028956571439 0.43061898159802442 0 0.029316000412602732 0.42166156659220128 0 0.016044590409517692 0.4176273127722378 0 0.032053640216607303 0.43623268874290277 0 0.01879028956571439 0.43061898159802442 0 0.029316000412602732 0.42166156659220128 0 0.039688255053039738 0.40906392068859199 0 0.029316000412602732 0.42166156659220128 0 0.0203027742049346 0.40410186661272529 0 0.029316000412602732 0.42166156659220128 0 0.016044590409517692 0.4176273127722378 0 0.0203027742049346 0.40410186661272529 0 0.016044590409517692 0.4176273127722378 0 0.0062110592726292973 0.41010007649745189 0 0.0056028285917074346 0.42165407256078619 0 0.016044590409517692 0.4176273127722378 0 0.0062110592726292973 0.41010007649745189 0 0.0203027742049346 0.40410186661272529 0 -0.00096918350646317563 0.41465633725833412 0 0.0062110592726292973 0.41010007649745189 0 0.0056028285917074346 0.42165407256078619 0 -0.0033847971853434139 0.43093556859388288 0 0.0056028285917074346 0.42165407256078619 0 0.0073763795368324298 0.43315658188741379 0 -0.00033789435619270938 0.43757237590417902 0 0.0077625963234152062 0.4398748531999524 0 0.0073763795368324298 0.43315658188741379 0 -0.0033847971853434139 0.43093556859388288 0 -0.00033789435619270938 0.43757237590417902 0 0.0073763795368324298 0.43315658188741379 0 0.0077625963234152062 0.4398748531999524 0 0.0157202877687217 0.43718228454496511 0 0.0073763795368324298 0.43315658188741379 0 0.01879028956571439 0.43061898159802442 0 0.0157202877687217 0.43718228454496511 0 0.0073763795368324298 0.43315658188741379 0 0.01879028956571439 0.43061898159802442 0 0.0056028285917074346 0.42165407256078619 0 0.0073763795368324298 0.43315658188741379 0 0.01879028956571439 0.43061898159802442 0 0.016044590409517692 0.4176273127722378 0 0.0056028285917074346 0.42165407256078619 0 0.012481803343984891 0.38724628073840472 0 0.019157163765866809 0.36978970136449979 0 0.0030432833389739309 0.3686872213646244 0 -0.0076686872235991448 0.37344720763265937 0 0.012481803343984891 0.38724628073840472 0 0.0030432833389739309 0.3686872213646244 0 0.012481803343984891 0.38724628073840472 0 0.0019362671598315191 0.39720683037777738 0 0.0203027742049346 0.40410186661272529 0 0.0062110592726292973 0.41010007649745189 0 0.0019362671598315191 0.39720683037777738 0 0.0203027742049346 0.40410186661272529 0 -0.0103240943211206 0.38834871657323011 0 0.012481803343984891 0.38724628073840472 0 0.0019362671598315191 0.39720683037777738 0 -0.0062698827988422884 0.40687083329545848 0 0.0062110592726292973 0.41010007649745189 0 0.0019362671598315191 0.39720683037777738 0 0.012481803343984891 0.38724628073840472 0 0.0203027742049346 0.40410186661272529 0 0.040607859262383729 0.39059987210839853 0 0.012481803343984891 0.38724628073840472 0 0.027825777676813199 0.37872031866053829 0 0.019157163765866809 0.36978970136449979 0 0.012481803343984891 0.38724628073840472 0 0.040607859262383729 0.39059987210839853 0 0.012481803343984891 0.38724628073840472 0 0.027825777676813199 0.37872031866053829 0 0.040607859262383729 0.39059987210839853 0 0.040607859262383729 0.39059987210839853 0 0.060571385649761757 0.38025076564603738 0 0.039056284335017358 0.36724542043085029 0 0.027825777676813199 0.37872031866053829 0 0.040607859262383729 0.39059987210839853 0 0.039056284335017358 0.36724542043085029 0 0.039688255053039738 0.40906392068859199 0 0.0203027742049346 0.40410186661272529 0 0.040607859262383729 0.39059987210839853 0 0.039688255053039738 0.40906392068859199 0 0.040607859262383729 0.39059987210839853 0 0.05809601590797759 0.39990522439332649 0 0.040607859262383729 0.39059987210839853 0 0.05809601590797759 0.39990522439332649 0 0.060571385649761757 0.38025076564603738 0 0.060571385649761757 0.38025076564603738 0 0.082086486964506128 0.39325611086122442 0 0.060571385649761757 0.38025076564603738 0 0.076832886183890059 0.37616790642294301 0 0.082086486964506128 0.39325611086122442 0 0.076832886183890059 0.37616790642294301 0 0.082086486964506128 0.39325611086122442 0 0.093549450503817536 0.36927502029612319 0 0.082086486964506128 0.39325611086122442 0 0.10360158827925051 0.4062614560764114 0 0.082086486964506128 0.39325611086122442 0 0.077656541792684913 0.41529541843455392 0 0.10360158827925051 0.4062614560764114 0 0.05809601590797759 0.39990522439332649 0 0.082086486964506128 0.39325611086122442 0 0.077656541792684913 0.41529541843455392 0 0.05809601590797759 0.39990522439332649 0 0.060571385649761757 0.38025076564603738 0 0.082086486964506128 0.39325611086122442 0 0.05690153667620769 0.4180080119249352 0 0.05809601590797759 0.39990522439332649 0 0.077656541792684913 0.41529541843455392 0 0.069478468254658587 0.43910687041324842 0 0.05690153667620769 0.4180080119249352 0 0.077656541792684913 0.41529541843455392 0 0.069478468254658587 0.43910687041324842 0 0.077656541792684913 0.41529541843455392 0 0.095775154673509083 0.43523483693817772 0 0.077656541792684913 0.41529541843455392 0 0.10360158827925051 0.4062614560764114 0 0.095775154673509083 0.43523483693817772 0 0.10360158827925051 0.4062614560764114 0 0.095775154673509083 0.43523483693817772 0 0.12511668959399491 0.41926680129159849 0 0.12125214206241119 0.44582005051402618 0 0.095775154673509083 0.43523483693817772 0 0.12511668959399491 0.41926680129159849 0 0.10360158827925051 0.4062614560764114 0 0.1218273948895322 0.40036723235672672 0 0.12511668959399491 0.41926680129159849 0 0.10360158827925051 0.4062614560764114 0 0.12511668959399491 0.41926680129159849 0 0.10360158827925051 0.4062614560764114 0 0.1218273948895322 0.40036723235672672 0 0.10651191053106671 0.38603983404744369 0 0.10651191053106671 0.38603983404744369 0 0.11764373659217529 0.36702659591577241 0 0.1309133037688035 0.38422249999567948 0 0.1218273948895322 0.40036723235672672 0 0.10651191053106671 0.38603983404744369 0 0.1309133037688035 0.38422249999567948 0 0.082086486964506128 0.39325611086122442 0 0.10651191053106671 0.38603983404744369 0 0.093549450503817536 0.36927502029612319 0 0.082086486964506128 0.39325611086122442 0 0.10360158827925051 0.4062614560764114 0 0.10651191053106671 0.38603983404744369 0 0.1078075760736345 0.34684294297300161 0 0.083880356293113606 0.34451616622450448 0 0.093549450503817536 0.36927502029612319 0 0.1078075760736345 0.34684294297300161 0 0.083880356293113606 0.34451616622450448 0 0.10651191053106671 0.38603983404744369 0 0.11764373659217529 0.36702659591577241 0 0.093549450503817536 0.36927502029612319 0 0.1078075760736345 0.34684294297300161 0 0.11764373659217529 0.36702659591577241 0 0.093549450503817536 0.36927502029612319 0 0.1078075760736345 0.34684294297300161 0 0.11764373659217529 0.36702659591577241 0 0.13173479585415551 0.34916971972149857 0 0.1078075760736345 0.34684294297300161 0 0.13173479585415551 0.34916971972149857 0 0.1078075760736345 0.34684294297300161 0 0.1238771491773053 0.32546176342320021 0 0.099751257265178278 0.33132707033492681 0 0.1078075760736345 0.34684294297300161 0 0.1238771491773053 0.32546176342320021 0 0.13173479585415551 0.34916971972149857 0 0.1238771491773053 0.32546176342320021 0 0.099751257265178278 0.33132707033492681 0 0.10214309101702811 0.31247985621061702 0 0.099751257265178278 0.33132707033492681 0 0.08104811376480997 0.32733462284331061 0 0.10214309101702811 0.31247985621061702 0 0.1078075760736345 0.34684294297300161 0 0.099751257265178278 0.33132707033492681 0 0.083880356293113606 0.34451616622450448 0 0.099751257265178278 0.33132707033492681 0 0.08104811376480997 0.32733462284331061 0 0.083880356293113606 0.34451616622450448 0 0.08104811376480997 0.32733462284331061 0 0.075085340888369115 0.3014655720845959 0 0.10214309101702811 0.31247985621061702 0 0.08104811376480997 0.32733462284331061 0 0.10214309101702811 0.31247985621061702 0 0.08104811376480997 0.32733462284331061 0 0.065868552664081217 0.32189340626390728 0 0.075085340888369115 0.3014655720845959 0 0.08104811376480997 0.32733462284331061 0 0.065868552664081217 0.32189340626390728 0 0.05995313651259291 0.34218938947600541 0 0.08104811376480997 0.32733462284331061 0 0.083880356293113606 0.34451616622450448 0 0.05995313651259291 0.34218938947600541 0 0.083880356293113606 0.34451616622450448 0 0.05995313651259291 0.34218938947600541 0 0.08104811376480997 0.32733462284331061 0 0.05995313651259291 0.34218938947600541 0 0.083880356293113606 0.34451616622450448 0 0.070194949534519838 0.36105873615185718 0 0.05995313651259291 0.34218938947600541 0 0.083880356293113606 0.34451616622450448 0 0.093549450503817536 0.36927502029612319 0 0.070194949534519838 0.36105873615185718 0 0.076832886183890059 0.37616790642294301 0 0.093549450503817536 0.36927502029612319 0 0.070194949534519838 0.36105873615185718 0 0.060571385649761757 0.38025076564603738 0 0.076832886183890059 0.37616790642294301 0 0.070194949534519838 0.36105873615185718 0 0.060571385649761757 0.38025076564603738 0 0.070194949534519838 0.36105873615185718 0 0.054843747896439803 0.36524996961388229 0 0.060571385649761757 0.38025076564603738 0 0.054843747896439803 0.36524996961388229 0 0.039056284335017358 0.36724542043085029 0 0.060571385649761757 0.38025076564603738 0 0.039056284335017358 0.36724542043085029 0 0.070194949534519838 0.36105873615185718 0 0.054843747896439803 0.36524996961388229 0 0.056371253755297362 0.3551117174409163 0 0.054843747896439803 0.36524996961388229 0 0.056371253755297362 0.3551117174409163 0 0.046350897272920542 0.36150762986046919 0 0.04566292170363135 0.35225234444296649 0 0.038688860391977178 0.34012156781912839 0 0.05995313651259291 0.34218938947600541 0 0.070194949534519838 0.36105873615185718 0 0.056371253755297362 0.3551117174409163 0 0.05995313651259291 0.34218938947600541 0 0.056371253755297362 0.3551117174409163 0 0.04566292170363135 0.35225234444296649 0 0.046350897272920542 0.36150762986046919 0 0.04566292170363135 0.35225234444296649 0 0.05995313651259291 0.34218938947600541 0 0.056371253755297362 0.3551117174409163 0 0.04566292170363135 0.35225234444296649 0 0.05995313651259291 0.34218938947600541 0 0.04566292170363135 0.35225234444296649 0 0.034369588132518357 0.35207668325644192 0 0.038688860391977178 0.34012156781912839 0 0.04566292170363135 0.35225234444296649 0 0.046350897272920542 0.36150762986046919 0 0.03124627310558525 0.36252446231462498 0 0.04566292170363135 0.35225234444296649 0 0.03124627310558525 0.36252446231462498 0 0.04566292170363135 0.35225234444296649 0 0.034369588132518357 0.35207668325644192 0 0.03124627310558525 0.36252446231462498 0 0.034369588132518357 0.35207668325644192 0 0.027447240930944559 0.34535520949081522 0 0.038688860391977178 0.34012156781912839 0 0.054843747896439803 0.36524996961388229 0 0.046350897272920542 0.36150762986046919 0 0.039056284335017358 0.36724542043085029 0 0.046350897272920542 0.36150762986046919 0 0.039056284335017358 0.36724542043085029 0 0.03124627310558525 0.36252446231462498 0 0.039056284335017358 0.36724542043085029 0 0.03124627310558525 0.36252446231462498 0 0.027825777676813199 0.37872031866053829 0 0.039056284335017358 0.36724542043085029 0 0.019157163765866809 0.36978970136449979 0 0.039056284335017358 0.36724542043085029 0 0.019157163765866809 0.36978970136449979 0 0.03124627310558525 0.36252446231462498 0 0.019157163765866809 0.36978970136449979 0 0.03124627310558525 0.36252446231462498 0 0.017541183020272948 0.35424007521566331 0 0.03124627310558525 0.36252446231462498 0 0.017541183020272948 0.35424007521566331 0 0.034369588132518357 0.35207668325644192 0 0.027447240930944559 0.34535520949081522 0 0.017541183020272948 0.35424007521566331 0 0.034369588132518357 0.35207668325644192 0 0.03124627310558525 0.36252446231462498 0 0.017541183020272948 0.35424007521566331 0 0.020181638430483081 0.34479880498984489 0 0.017541183020272948 0.35424007521566331 0 0.01469176946330009 0.34677113837143642 0 0.027447240930944559 0.34535520949081522 0 0.020181638430483081 0.34479880498984489 0 0.017541183020272948 0.35424007521566331 0 0.020181638430483081 0.34479880498984489 0 0.01469176946330009 0.34677113837143642 0 0.01583734796427199 0.34099913344043598 0 0.017541183020272948 0.35424007521566331 0 0.0066219711490996831 0.34891505666914191 0 0.0096018045195795654 0.36048318949589442 0 0.01469176946330009 0.34677113837143642 0 0.0066219711490996831 0.34891505666914191 0 0.010699658557479281 0.34306912524352662 0 0.017541183020272948 0.35424007521566331 0 0.01469176946330009 0.34677113837143642 0 0.0066219711490996831 0.34891505666914191 0 0.0066219711490996831 0.34891505666914191 0 0.0053443430940815504 0.34023460775490488 0 0.010699658557479281 0.34306912524352662 0 -0.0062651488388395593 0.35121833234929339 0 0.0066219711490996831 0.34891505666914191 0 0.001025247234433042 0.35787708659393203 0 0.0066219711490996831 0.34891505666914191 0 0.001025247234433042 0.35787708659393203 0 0.0096018045195795654 0.36048318949589442 0 0.019157163765866809 0.36978970136449979 0 0.0030432833389739309 0.3686872213646244 0 0.0096018045195795654 0.36048318949589442 0 0.001025247234433042 0.35787708659393203 0 0.0030432833389739309 0.3686872213646244 0 0.0096018045195795654 0.36048318949589442 0 0.019157163765866809 0.36978970136449979 0 0.017541183020272948 0.35424007521566331 0 0.0096018045195795654 0.36048318949589442 0 0.0065208847956155381 0.31713335066096943 0 0.01850215767167453 0.33605412520447409 0 0.018455623266933448 0.31524599435471129 0 0.0065208847956155381 0.31713335066096943 0 0.01850215767167453 0.33605412520447409 0 0.0065208847956155381 0.31713335066096943 0 0.018455623266933448 0.31524599435471129 0 0.009119139147131132 0.30582000141964111 0 0.0065208847956155381 0.31713335066096943 0 0.0032683553199878181 0.33129555223838958 0 -0.00096930810877692583 0.32313220051569053 0 0.0065208847956155381 0.31713335066096943 0 0.0032683553199878181 0.33129555223838958 0 0.0065208847956155381 0.31713335066096943 0 0.0032683553199878181 0.33129555223838958 0 0.01850215767167453 0.33605412520447409 0 0.0032683553199878181 0.33129555223838958 0 0.0053443430940815504 0.34023460775490488 0 0.010407171309817441 0.33737134538759611 0 -0.0022169591028925739 0.34003475710261488 0 0.0032683553199878181 0.33129555223838958 0 0.0053443430940815504 0.34023460775490488 0 -0.0022169591028925739 0.34003475710261488 0 0.0066219711490996831 0.34891505666914191 0 0.0053443430940815504 0.34023460775490488 0 0.010407171309817441 0.33737134538759611 0 0.017424584271361579 0.33805374616224931 0 0.01850215767167453 0.33605412520447409 0 0.0053443430940815504 0.34023460775490488 0 0.010699658557479281 0.34306912524352662 0 0.010407171309817441 0.33737134538759611 0 0.010407171309817441 0.33737134538759611 0 0.01583734796427199 0.34099913344043598 0 0.017424584271361579 0.33805374616224931 0 0.010407171309817441 0.33737134538759611 0 0.017424584271361579 0.33805374616224931 0 0.01469176946330009 0.34677113837143642 0 0.010699658557479281 0.34306912524352662 0 0.01583734796427199 0.34099913344043598 0 0.010699658557479281 0.34306912524352662 0 0.010407171309817441 0.33737134538759611 0 0.01583734796427199 0.34099913344043598 0 0.0032683553199878181 0.33129555223838958 0 0.010407171309817441 0.33737134538759611 0 0.01850215767167453 0.33605412520447409 0 0.01850215767167453 0.33605412520447409 0 0.027033276070973309 0.3202231821434065 0 0.017424584271361579 0.33805374616224931 0 0.038688860391977178 0.34012156781912839 0 0.017424584271361579 0.33805374616224931 0 0.01850215767167453 0.33605412520447409 0 0.038688860391977178 0.34012156781912839 0 0.01850215767167453 0.33605412520447409 0 0.02866744461598188 0.33208081621155722 0 0.027033276070973309 0.3202231821434065 0 0.027447240930944559 0.34535520949081522 0 0.017424584271361579 0.33805374616224931 0 0.038688860391977178 0.34012156781912839 0 0.01850215767167453 0.33605412520447409 0 0.02866744461598188 0.33208081621155722 0 0.038688860391977178 0.34012156781912839 0 0.027447240930944559 0.34535520949081522 0 0.020181638430483081 0.34479880498984489 0 0.017424584271361579 0.33805374616224931 0 0.020181638430483081 0.34479880498984489 0 0.01583734796427199 0.34099913344043598 0 0.017424584271361579 0.33805374616224931 0 0.01583734796427199 0.34099913344043598 0 0.017424584271361579 0.33805374616224931 0 0.017424584271361579 0.33805374616224931 0 0.01850215767167453 0.33605412520447409 0 0.02866744461598188 0.33208081621155722 0 0.027033276070973309 0.3202231821434065 0 0.037308569004190349 0.32646082708761798 0 0.01850215767167453 0.33605412520447409 0 0.018455623266933448 0.31524599435471129 0 0.027033276070973309 0.3202231821434065 0 0.018455623266933448 0.31524599435471129 0 0.027033276070973309 0.3202231821434065 0 0.035564394470269947 0.30439223908233792 0 0.027033276070973309 0.3202231821434065 0 0.041293008878478837 0.3155154432667856 0 0.035564394470269947 0.30439223908233792 0 0.027033276070973309 0.3202231821434065 0 0.037308569004190349 0.32646082708761798 0 0.041293008878478837 0.3155154432667856 0 0.037308569004190349 0.32646082708761798 0 0.041293008878478837 0.3155154432667856 0 0.050860255063540541 0.32436312599721201 0 0.037308569004190349 0.32646082708761798 0 0.038688860391977178 0.34012156781912839 0 0.050860255063540541 0.32436312599721201 0 0.02866744461598188 0.33208081621155722 0 0.037308569004190349 0.32646082708761798 0 0.038688860391977178 0.34012156781912839 0 0.038688860391977178 0.34012156781912839 0 0.05995313651259291 0.34218938947600541 0 0.038688860391977178 0.34012156781912839 0 0.05995313651259291 0.34218938947600541 0 0.050860255063540541 0.32436312599721201 0 0.065868552664081217 0.32189340626390728 0 0.05995313651259291 0.34218938947600541 0 0.050860255063540541 0.32436312599721201 0 0.050860255063540541 0.32436312599721201 0 0.059954497986296068 0.30949354843242732 0 0.050111918014468612 0.31238563307780792 0 0.041293008878478837 0.3155154432667856 0 0.050860255063540541 0.32436312599721201 0 0.050111918014468612 0.31238563307780792 0 0.065868552664081217 0.32189340626390728 0 0.050860255063540541 0.32436312599721201 0 0.059954497986296068 0.30949354843242732 0 0.059954497986296068 0.30949354843242732 0 0.055732913270128102 0.29712421580132081 0 0.050111918014468612 0.31238563307780792 0 0.055732913270128102 0.29712421580132081 0 0.050111918014468612 0.31238563307780792 0 0.043689012616484807 0.30395359617069029 0 0.055732913270128102 0.29712421580132081 0 0.062416315869152819 0.28435900105419742 0 0.046515596545127297 0.28407041861486332 0 0.055732913270128102 0.29712421580132081 0 0.046515596545127297 0.28407041861486332 0 0.043689012616484807 0.30395359617069029 0 0.046515596545127297 0.28407041861486332 0 0.035564394470269947 0.30439223908233792 0 0.02952273791696719 0.28915636566702702 0 0.046515596545127297 0.28407041861486332 0 0.035564394470269947 0.30439223908233792 0 0.046515596545127297 0.28407041861486332 0 0.02952273791696719 0.28915636566702702 0 0.03180747953168428 0.27655680028492591 0 0.046515596545127297 0.28407041861486332 0 0.043689012616484807 0.30395359617069029 0 0.035564394470269947 0.30439223908233792 0 0.027033276070973309 0.3202231821434065 0 0.035564394470269947 0.30439223908233792 0 0.041293008878478837 0.3155154432667856 0 0.043689012616484807 0.30395359617069029 0 0.035564394470269947 0.30439223908233792 0 0.041293008878478837 0.3155154432667856 0 0.050111918014468612 0.31238563307780792 0 0.043689012616484807 0.30395359617069029 0 0.043689012616484807 0.30395359617069029 0 0.035564394470269947 0.30439223908233792 0 0.035564394470269947 0.30439223908233792 0 0.009119139147131132 0.30582000141964111 0 0.018455623266933448 0.31524599435471129 0 0.035564394470269947 0.30439223908233792 0 0.009119139147131132 0.30582000141964111 0 0.035564394470269947 0.30439223908233792 0 0.022083373432805201 0.2958455885679101 0 0.009119139147131132 0.30582000141964111 0 0.02952273791696719 0.28915636566702702 0 0.014127222196852271 0.28401374810262903 0 0.03180747953168428 0.27655680028492591 0 0.035564394470269947 0.30439223908233792 0 0.02952273791696719 0.28915636566702702 0 0.022083373432805201 0.2958455885679101 0 0.02952273791696719 0.28915636566702702 0 0.022083373432805201 0.2958455885679101 0 0.014127222196852271 0.28401374810262903 0 0.022083373432805201 0.2958455885679101 0 0.014127222196852271 0.28401374810262903 0 0.009119139147131132 0.30582000141964111 0 -0.002429867640735646 0.27818434943237969 0 0.014127222196852271 0.28401374810262903 0 0.002272398575433739 0.29367378081891471 0 0.014127222196852271 0.28401374810262903 0 0.009119139147131132 0.30582000141964111 0 0.014127222196852271 0.28401374810262903 0 0.002272398575433739 0.29367378081891471 0 0.009119139147131132 0.30582000141964111 0 -0.00032039209777558631 0.30632963564433752 0 0.002272398575433739 0.29367378081891471 0 0.009119139147131132 0.30582000141964111 0 -0.00032039209777558631 0.30632963564433752 0 0.0065208847956155381 0.31713335066096943 0 0.009119139147131132 0.30582000141964111 0 -0.00032039209777558631 0.30632963564433752 0 0.009119139147131132 0.30582000141964111 0 -0.00032039209777558631 0.30632963564433752 0 0.0065208847956155381 0.31713335066096943 0 0.0065208847956155381 0.31713335066096943 0 0.009119139147131132 0.30582000141964111 0 0.0075479710267653899 0.25899639646182387 0 0.0078892148500726705 0.27063368354733558 0 0.019135305246574998 0.26220749478561739 0 0.01325113107138765 0.24994977195075141 0 0.0075479710267653899 0.25899639646182387 0 0.019135305246574998 0.26220749478561739 0 0.01325113107138765 0.24994977195075141 0 0.003791674785571924 0.24772290422529519 0 0.0075479710267653899 0.25899639646182387 0 -0.004564386456106905 0.25685639806929428 0 0.003791674785571924 0.24772290422529519 0 0.0075479710267653899 0.25899639646182387 0 -0.004564386456106905 0.25685639806929428 0 0.0075479710267653899 0.25899639646182387 0 0.00013404393218866101 0.26668544968263141 0 0.0075479710267653899 0.25899639646182387 0 0.00013404393218866101 0.26668544968263141 0 0.0078892148500726705 0.27063368354733558 0 0.014127222196852271 0.28401374810262903 0 0.0078892148500726705 0.27063368354733558 0 0.019135305246574998 0.26220749478561739 0 -0.002429867640735646 0.27818434943237969 0 0.00013404393218866101 0.26668544968263141 0 0.0078892148500726705 0.27063368354733558 0 -0.002429867640735646 0.27818434943237969 0 0.014127222196852271 0.28401374810262903 0 0.0078892148500726705 0.27063368354733558 0 0.014127222196852271 0.28401374810262903 0 0.019135305246574998 0.26220749478561739 0 0.014127222196852271 0.28401374810262903 0 0.026237888754789732 0.26793610125417949 0 0.019135305246574998 0.26220749478561739 0 0.014127222196852271 0.28401374810262903 0 0.026237888754789732 0.26793610125417949 0 0.03180747953168428 0.27655680028492591 0 0.024143388296297971 0.24040124146860589 0 0.01325113107138765 0.24994977195075141 0 0.019135305246574998 0.26220749478561739 0 0.026237888754789732 0.26793610125417949 0 0.026404545020734992 0.25651996196379739 0 0.03971489177810212 0.2603825011339278 0 0.026237888754789732 0.26793610125417949 0 0.019135305246574998 0.26220749478561739 0 0.026404545020734992 0.25651996196379739 0 0.024143388296297971 0.24040124146860589 0 0.019135305246574998 0.26220749478561739 0 0.024143388296297971 0.24040124146860589 0 0.019135305246574998 0.26220749478561739 0 0.026404545020734992 0.25651996196379739 0 0.031434663195222673 0.2478948043304843 0 0.026404545020734992 0.25651996196379739 0 0.03971489177810212 0.2603825011339278 0 0.040285344304628143 0.24574221750912931 0 0.031434663195222673 0.2478948043304843 0 0.03971489177810212 0.2603825011339278 0 0.026237888754789732 0.26793610125417949 0 0.03971489177810212 0.2603825011339278 0 0.03180747953168428 0.27655680028492591 0 0.046515596545127297 0.28407041861486332 0 0.03971489177810212 0.2603825011339278 0 0.03180747953168428 0.27655680028492591 0 0.046515596545127297 0.28407041861486332 0 0.03971489177810212 0.2603825011339278 0 0.057466798619983633 0.26374859814738821 0 0.062416315869152819 0.28435900105419742 0 0.046515596545127297 0.28407041861486332 0 0.057466798619983633 0.26374859814738821 0 0.046515596545127297 0.28407041861486332 0 0.057466798619983633 0.26374859814738821 0 0.054054209473331151 0.24323771215732229 0 0.068418000694839998 0.24342677767991289 0 0.057466798619983633 0.26374859814738821 0 0.054054209473331151 0.24323771215732229 0 0.03971489177810212 0.2603825011339278 0 0.057466798619983633 0.26374859814738821 0 0.057466798619983633 0.26374859814738821 0 0.075266083395755037 0.25763888860009909 0 0.077280930022155955 0.2753862006228191 0 0.068418000694839998 0.24342677767991289 0 0.057466798619983633 0.26374859814738821 0 0.068418000694839998 0.24342677767991289 0 0.057466798619983633 0.26374859814738821 0 0.075266083395755037 0.25763888860009909 0 0.075266083395755037 0.25763888860009909 0 0.093382952469636155 0.25882828081653358 0 0.077280930022155955 0.2753862006228191 0 0.088558722698074119 0.2391029110657821 0 0.075266083395755037 0.25763888860009909 0 0.093382952469636155 0.25882828081653358 0 0.093382952469636155 0.25882828081653358 0 0.077280930022155955 0.2753862006228191 0 0.094430493013301045 0.28420642560368797 0 0.062416315869152819 0.28435900105419742 0 0.057466798619983633 0.26374859814738821 0 0.077280930022155955 0.2753862006228191 0 0.062416315869152819 0.28435900105419742 0 0.077280930022155955 0.2753862006228191 0 0.075085340888369115 0.3014655720845959 0 0.055732913270128102 0.29712421580132081 0 0.062416315869152819 0.28435900105419742 0 0.075085340888369115 0.3014655720845959 0 0.059954497986296068 0.30949354843242732 0 0.055732913270128102 0.29712421580132081 0 0.075085340888369115 0.3014655720845959 0 0.065868552664081217 0.32189340626390728 0 0.059954497986296068 0.30949354843242732 0 0.075085340888369115 0.3014655720845959 0 0.075085340888369115 0.3014655720845959 0 0.094430493013301045 0.28420642560368797 0 0.10214309101702811 0.31247985621061702 0 0.077280930022155955 0.2753862006228191 0 0.075085340888369115 0.3014655720845959 0 0.094430493013301045 0.28420642560368797 0 0.094430493013301045 0.28420642560368797 0 0.10214309101702811 0.31247985621061702 0 0.11061813971756961 0.29048315318769219 0 0.1238771491773053 0.32546176342320021 0 0.10214309101702811 0.31247985621061702 0 0.1232380682692462 0.29762508957792361 0 0.10214309101702811 0.31247985621061702 0 0.1232380682692462 0.29762508957792361 0 0.11061813971756961 0.29048315318769219 0 0.10214309101702811 0.31247985621061702 0 0.1232380682692462 0.29762508957792361 0 0.1232380682692462 0.29762508957792361 0 0.11061813971756961 0.29048315318769219 0 0.1231270655975823 0.28776182930812289 0 0.11061813971756961 0.29048315318769219 0 0.1231270655975823 0.28776182930812289 0 0.1212190641687222 0.27787613496818209 0 0.10931857714309789 0.23517858597420771 0 0.1233757836889447 0.26012076273645052 0 0.10807250396504731 0.26659549069987071 0 0.10931857714309789 0.23517858597420771 0 0.093382952469636155 0.25882828081653358 0 0.10807250396504731 0.26659549069987071 0 0.11061813971756961 0.29048315318769219 0 0.1212190641687222 0.27787613496818209 0 0.10807250396504731 0.26659549069987071 0 0.1212190641687222 0.27787613496818209 0 0.1233757836889447 0.26012076273645052 0 0.10807250396504731 0.26659549069987071 0 0.093382952469636155 0.25882828081653358 0 0.094430493013301045 0.28420642560368797 0 0.10807250396504731 0.26659549069987071 0 0.094430493013301045 0.28420642560368797 0 0.11061813971756961 0.29048315318769219 0 0.10807250396504731 0.26659549069987071 0 0.14433304552146431 0.28277032294523008 0 0.16542802277368249 0.26791555631253672 0 0.1471288700404963 0.2674731602258798 0 0.14433304552146431 0.28277032294523008 0 0.16542802277368249 0.26791555631253672 0 0.1471288700404963 0.2674731602258798 0 0.13769344486114521 0.27177852977781047 0 0.14433304552146431 0.28277032294523008 0 0.14921605911603561 0.24735513048092289 0 0.16218474267495711 0.26380234576450418 0 0.1471288700404963 0.2674731602258798 0 0.13710380121006871 0.25306898025136071 0 0.16218474267495711 0.26380234576450418 0 0.14921605911603561 0.24735513048092289 0 0.13710380121006871 0.25306898025136071 0 0.16218474267495711 0.26380234576450418 0 0.13710380121006871 0.25306898025136071 0 0.16218474267495711 0.26380234576450418 0 0.1471288700404963 0.2674731602258798 0 0.1363254749501637 0.26311035824787538 0 0.13710380121006871 0.25306898025136071 0 0.1265113843998063 0.24481906103984011 0 0.1233757836889447 0.26012076273645052 0 0.13710380121006871 0.25306898025136071 0 0.1233757836889447 0.26012076273645052 0 0.1363254749501637 0.26311035824787538 0 0.13769344486114521 0.27177852977781047 0 0.1233757836889447 0.26012076273645052 0 0.1363254749501637 0.26311035824787538 0 0.13710380121006871 0.25306898025136071 0 0.1233757836889447 0.26012076273645052 0 0.13769344486114521 0.27177852977781047 0 0.13743299023479091 0.28506293949869371 0 0.1212190641687222 0.27787613496818209 0 0.1233757836889447 0.26012076273645052 0 0.13743299023479091 0.28506293949869371 0 0.1233757836889447 0.26012076273645052 0 0.13743299023479091 0.28506293949869371 0 0.1471288700404963 0.2674731602258798 0 0.1363254749501637 0.26311035824787538 0 0.13769344486114521 0.27177852977781047 0 0.13769344486114521 0.27177852977781047 0 0.13743299023479091 0.28506293949869371 0 0.14433304552146431 0.28277032294523008 0 0.1232380682692462 0.29762508957792361 0 0.14433304552146431 0.28277032294523008 0 0.1231270655975823 0.28776182930812289 0 0.1212190641687222 0.27787613496818209 0 0.13743299023479091 0.28506293949869371 0 0.1232380682692462 0.29762508957792361 0 0.1440792012729625 0.30159206800191207 0 0.14433304552146431 0.28277032294523008 0 0.1232380682692462 0.29762508957792361 0 0.13743299023479091 0.28506293949869371 0 0.14433304552146431 0.28277032294523008 0 0.1232380682692462 0.29762508957792361 0 0.1231270655975823 0.28776182930812289 0 0.13743299023479091 0.28506293949869371 0 0.1238771491773053 0.32546176342320021 0 0.1232380682692462 0.29762508957792361 0 0.1440792012729625 0.30159206800191207 0 0.1440792012729625 0.30159206800191207 0 0.16287147327872761 0.30267513620963232 0 0.14662452085081851 0.32024264097240868 0 0.1440792012729625 0.30159206800191207 0 0.16144170052573339 0.28466032972444277 0 0.16287147327872761 0.30267513620963232 0 0.1440792012729625 0.30159206800191207 0 0.14433304552146431 0.28277032294523008 0 0.16144170052573339 0.28466032972444277 0 0.16144170052573339 0.28466032972444277 0 0.16287147327872761 0.30267513620963232 0 0.17865440935087529 0.28468959713716058 0 0.16287147327872761 0.30267513620963232 0 0.1866901883254409 0.30496631501286681 0 0.1629828702520893 0.32505095056684802 0 0.16287147327872761 0.30267513620963232 0 0.1866901883254409 0.30496631501286681 0 0.17865440935087529 0.28468959713716058 0 0.1866901883254409 0.30496631501286681 0 0.17865440935087529 0.28468959713716058 0 0.19226154187303729 0.27667368393617231 0 0.16783520397543991 0.26622045540926631 0 0.19226154187303729 0.27667368393617231 0 0.17865440935087529 0.28468959713716058 0 0.16783520397543991 0.26622045540926631 0 0.19226154187303729 0.27667368393617231 0 0.16783520397543991 0.26622045540926631 0 0.17711380878448499 0.25968660104823021 0 0.19226154187303729 0.27667368393617231 0 0.17865440935087529 0.28468959713716058 0 0.16542802277368249 0.26791555631253672 0 0.17865440935087529 0.28468959713716058 0 0.16783520397543991 0.26622045540926631 0 0.16542802277368249 0.26791555631253672 0 0.16144170052573339 0.28466032972444277 0 0.17865440935087529 0.28468959713716058 0 0.16542802277368249 0.26791555631253672 0 0.14433304552146431 0.28277032294523008 0 0.16144170052573339 0.28466032972444277 0 0.16542802277368249 0.26791555631253672 0 0.1471288700404963 0.2674731602258798 0 0.16542802277368249 0.26791555631253672 0 0.16218474267495711 0.26380234576450418 0 0.16783520397543991 0.26622045540926631 0 0.16542802277368249 0.26791555631253672 0 0.16218474267495711 0.26380234576450418 0 0.16783520397543991 0.26622045540926631 0 0.16542802277368249 0.26791555631253672 0 0.16542802277368249 0.26791555631253672 0 0.16218474267495711 0.26380234576450418 0 0.14921605911603561 0.24735513048092289 0 0.16598301654807079 0.24844582893964351 0 0.16218474267495711 0.26380234576450418 0 0.16783520397543991 0.26622045540926631 0 0.16218474267495711 0.26380234576450418 0 0.1702100712638662 0.25718086859859468 0 0.16783520397543991 0.26622045540926631 0 0.1702100712638662 0.25718086859859468 0 0.17711380878448499 0.25968660104823021 0 0.16783520397543991 0.26622045540926631 0 0.16218474267495711 0.26380234576450418 0 0.17793358433637771 0.24774911183132969 0 0.16598301654807079 0.24844582893964351 0 0.1702100712638662 0.25718086859859468 0 0.16598301654807079 0.24844582893964351 0 0.16218474267495711 0.26380234576450418 0 0.1702100712638662 0.25718086859859468 0 0.17793358433637771 0.24774911183132969 0 0.17711380878448499 0.25968660104823021 0 0.19675200613609869 0.25387006042305549 0 0.17793358433637771 0.24774911183132969 0 0.1702100712638662 0.25718086859859468 0 0.17711380878448499 0.25968660104823021 0 0.16783520397543991 0.26622045540926631 0 0.17711380878448499 0.25968660104823021 0 0.17711380878448499 0.25968660104823021 0 0.19675200613609869 0.25387006042305549 0 0.19226154187303729 0.27667368393617231 0 0.19675200613609869 0.25387006042305549 0 0.19226154187303729 0.27667368393617231 0 0.2128966058519341 0.26411652948167719 0 0.19675200613609869 0.25387006042305549 0 0.19226154187303729 0.27667368393617231 0 0.19226154187303729 0.27667368393617231 0 0.2128966058519341 0.26411652948167719 0 0.2182396251644298 0.28779098045742979 0 0.2154941529563075 0.2467231945984566 0 0.19675200613609869 0.25387006042305549 0 0.2128966058519341 0.26411652948167719 0 0.2154941529563075 0.2467231945984566 0 0.2128966058519341 0.26411652948167719 0 0.22589877104413841 0.25456972674656159 0 0.2128966058519341 0.26411652948167719 0 0.22589877104413841 0.25456972674656159 0 0.228911271686734 0.26698365117402828 0 0.22589877104413841 0.25456972674656159 0 0.228911271686734 0.26698365117402828 0 0.23738978373314901 0.25532225906031991 0 0.2128966058519341 0.26411652948167719 0 0.228911271686734 0.26698365117402828 0 0.2182396251644298 0.28779098045742979 0 0.228911271686734 0.26698365117402828 0 0.2387574003333352 0.28032945865684222 0 0.2182396251644298 0.28779098045742979 0 0.228911271686734 0.26698365117402828 0 0.24184104520420929 0.26594443411324242 0 0.2387574003333352 0.28032945865684222 0 0.24184104520420929 0.26594443411324242 0 0.2387574003333352 0.28032945865684222 0 0.25167401287834568 0.27306833633317068 0 0.24184104520420929 0.26594443411324242 0 0.23738978373314901 0.25532225906031991 0 0.25247275738948288 0.25401846534185119 0 0.24184104520420929 0.26594443411324242 0 0.25247275738948288 0.25401846534185119 0 0.25167401287834568 0.27306833633317068 0 0.228911271686734 0.26698365117402828 0 0.24184104520420929 0.26594443411324242 0 0.23738978373314901 0.25532225906031991 0 0.23783836536509301 0.31565336997886329 0 0.25399091957574521 0.29199365062212068 0 0.23391164259365649 0.29689295453871722 0 0.23783836536509301 0.31565336997886329 0 0.25399091957574521 0.29199365062212068 0 0.2387574003333352 0.28032945865684222 0 0.23391164259365649 0.29689295453871722 0 0.25399091957574521 0.29199365062212068 0 0.2387574003333352 0.28032945865684222 0 0.25399091957574521 0.29199365062212068 0 0.25167401287834568 0.27306833633317068 0 0.2387574003333352 0.28032945865684222 0 0.23391164259365649 0.29689295453871722 0 0.2182396251644298 0.28779098045742979 0 0.23391164259365649 0.29689295453871722 0 0.22073190252967981 0.30869731297832981 0 0.23783836536509301 0.31565336997886329 0 0.23391164259365649 0.29689295453871722 0 0.22073190252967981 0.30869731297832981 0 0.2182396251644298 0.28779098045742979 0 0.22073190252967981 0.30869731297832981 0 0.23783836536509301 0.31565336997886329 0 0.22073190252967981 0.30869731297832981 0 0.20362543969426669 0.301741255977796 0 0.20812820978631891 0.31530604188866102 0 0.22073190252967981 0.30869731297832981 0 0.20362543969426669 0.301741255977796 0 0.2182396251644298 0.28779098045742979 0 0.22073190252967981 0.30869731297832981 0 0.20362543969426669 0.301741255977796 0 0.19226154187303729 0.27667368393617231 0 0.20362543969426669 0.301741255977796 0 0.2182396251644298 0.28779098045742979 0 0.19226154187303729 0.27667368393617231 0 0.2182396251644298 0.28779098045742979 0 0.1866901883254409 0.30496631501286681 0 0.19226154187303729 0.27667368393617231 0 0.1866901883254409 0.30496631501286681 0 0.19226154187303729 0.27667368393617231 0 0.20362543969426669 0.301741255977796 0 0.1866901883254409 0.30496631501286681 0 0.20362543969426669 0.301741255977796 0 0.19654718516013209 0.31619051217593003 0 0.20362543969426669 0.301741255977796 0 0.19654718516013209 0.31619051217593003 0 0.20812820978631891 0.31530604188866102 0 0.2019477994411594 0.3276882284035606 0 0.19654718516013209 0.31619051217593003 0 0.1811188347778441 0.33325894608956103 0 0.1866901883254409 0.30496631501286681 0 0.19654718516013209 0.31619051217593003 0 0.1811188347778441 0.33325894608956103 0 0.2019477994411594 0.3276882284035606 0 0.19654718516013209 0.31619051217593003 0 0.20812820978631891 0.31530604188866102 0 0.2019477994411594 0.3276882284035606 0 0.1971819838395156 0.34637301943713 0 0.1811188347778441 0.33325894608956103 0 0.21152792943483401 0.33731399399142842 0 0.22553773703802321 0.33367091756512318 0 0.2132371087109535 0.35168846515138302 0 0.2019477994411594 0.3276882284035606 0 0.21152792943483401 0.33731399399142842 0 0.21778872210635641 0.3222128999076887 0 0.2019477994411594 0.3276882284035606 0 0.21152792943483401 0.33731399399142842 0 0.1971819838395156 0.34637301943713 0 0.21152792943483401 0.33731399399142842 0 0.21778872210635641 0.3222128999076887 0 0.22553773703802321 0.33367091756512318 0 0.2019477994411594 0.3276882284035606 0 0.20812820978631891 0.31530604188866102 0 0.21778872210635641 0.3222128999076887 0 0.22073190252967981 0.30869731297832981 0 0.20812820978631891 0.31530604188866102 0 0.21778872210635641 0.3222128999076887 0 0.21778872210635641 0.3222128999076887 0 0.22553773703802321 0.33367091756512318 0 0.23783836536509301 0.31565336997886329 0 0.22073190252967981 0.30869731297832981 0 0.21778872210635641 0.3222128999076887 0 0.23783836536509301 0.31565336997886329 0 0.22553773703802321 0.33367091756512318 0 0.23783836536509301 0.31565336997886329 0 0.22553773703802321 0.33367091756512318 0 0.23807268446027011 0.3290209501158689 0 0.23783836536509301 0.31565336997886329 0 0.22553773703802321 0.33367091756512318 0 0.2132371087109535 0.35168846515138302 0 0.22553773703802321 0.33367091756512318 0 0.23239977974845591 0.34112736396507681 0 0.2132371087109535 0.35168846515138302 0 0.22553773703802321 0.33367091756512318 0 0.23285392761407789 0.33596409665688493 0 0.23239977974845591 0.34112736396507681 0 0.23285392761407789 0.33596409665688493 0 0.23239977974845591 0.34112736396507681 0 0.23556005924178169 0.34331958444117239 0 0.22553773703802321 0.33367091756512318 0 0.23285392761407789 0.33596409665688493 0 0.23807268446027011 0.3290209501158689 0 0.23556005924178169 0.34331958444117239 0 0.24852544892751241 0.3439900518832546 0 0.25313896538212899 0.33510740846486831 0 0.23556005924178169 0.34331958444117239 0 0.2525696818628661 0.32164361344634662 0 0.23556005924178169 0.34331958444117239 0 0.2525696818628661 0.32164361344634662 0 0.25313896538212899 0.33510740846486831 0 0.23807268446027011 0.3290209501158689 0 0.23556005924178169 0.34331958444117239 0 0.2525696818628661 0.32164361344634662 0 0.23285392761407789 0.33596409665688493 0 0.23807268446027011 0.3290209501158689 0 0.23556005924178169 0.34331958444117239 0 0.23807268446027011 0.3290209501158689 0 0.23783836536509301 0.31565336997886329 0 0.2525696818628661 0.32164361344634662 0 0.23783836536509301 0.31565336997886329 0 0.2525696818628661 0.32164361344634662 0 0.23764968210229789 0.36670579930701891 0 0.2475106897272043 0.35428289295658161 0 0.25905411186804261 0.37251649796013742 0 0.23239977974845591 0.34112736396507681 0 0.23764968210229789 0.36670579930701891 0 0.23556005924178169 0.34331958444117239 0 0.23764968210229789 0.36670579930701891 0 0.2475106897272043 0.35428289295658161 0 0.23239977974845591 0.34112736396507681 0 0.23556005924178169 0.34331958444117239 0 0.23764968210229789 0.36670579930701891 0 0.23556005924178169 0.34331958444117239 0 0.2475106897272043 0.35428289295658161 0 0.24852544892751241 0.3439900518832546 0 0.23239977974845591 0.34112736396507681 0 0.22493180096185039 0.3572446659043747 0 0.2132371087109535 0.35168846515138302 0 0.23239977974845591 0.34112736396507681 0 0.23764968210229789 0.36670579930701891 0 0.22493180096185039 0.3572446659043747 0 0.23764968210229789 0.36670579930701891 0 0.22493180096185039 0.3572446659043747 0 0.21644063328569449 0.36945703519402012 0 0.23764968210229789 0.36670579930701891 0 0.21644063328569449 0.36945703519402012 0 0.22653643082129629 0.38322242578528432 0 0.21644063328569449 0.36945703519402012 0 0.1997127494420553 0.36673690582059182 0 0.20900978630487571 0.38591203942400232 0 0.22493180096185039 0.3572446659043747 0 0.21644063328569449 0.36945703519402012 0 0.2132371087109535 0.35168846515138302 0 0.21644063328569449 0.36945703519402012 0 0.2132371087109535 0.35168846515138302 0 0.1997127494420553 0.36673690582059182 0 0.2132371087109535 0.35168846515138302 0 0.1971819838395156 0.34637301943713 0 0.1997127494420553 0.36673690582059182 0 0.21152792943483401 0.33731399399142842 0 0.2132371087109535 0.35168846515138302 0 0.1971819838395156 0.34637301943713 0 0.1971819838395156 0.34637301943713 0 0.1997127494420553 0.36673690582059182 0 0.17554748123024741 0.3615515771662553 0 0.1997127494420553 0.36673690582059182 0 0.17554748123024741 0.3615515771662553 0 0.1892688801019565 0.38282716124551192 0 0.17554748123024741 0.3615515771662553 0 0.152460770489831 0.37453681209298029 0 0.15566201563467649 0.35149649646999559 0 0.17554748123024741 0.3615515771662553 0 0.1811188347778441 0.33325894608956103 0 0.15566201563467649 0.35149649646999559 0 0.17554748123024741 0.3615515771662553 0 0.1811188347778441 0.33325894608956103 0 0.1971819838395156 0.34637301943713 0 0.17554748123024741 0.3615515771662553 0 0.1811188347778441 0.33325894608956103 0 0.1866901883254409 0.30496631501286681 0 0.1811188347778441 0.33325894608956103 0 0.1629828702520893 0.32505095056684802 0 0.1866901883254409 0.30496631501286681 0 0.1811188347778441 0.33325894608956103 0 0.16287147327872761 0.30267513620963232 0 0.1629828702520893 0.32505095056684802 0 0.14662452085081851 0.32024264097240868 0 0.1811188347778441 0.33325894608956103 0 0.1629828702520893 0.32505095056684802 0 0.15566201563467649 0.35149649646999559 0 0.1629828702520893 0.32505095056684802 0 0.14473393752798869 0.3367858441943552 0 0.15566201563467649 0.35149649646999559 0 0.1629828702520893 0.32505095056684802 0 0.14473393752798869 0.3367858441943552 0 0.14662452085081851 0.32024264097240868 0 0.1238771491773053 0.32546176342320021 0 0.1440792012729625 0.30159206800191207 0 0.14662452085081851 0.32024264097240868 0 0.1238771491773053 0.32546176342320021 0 0.14473393752798869 0.3367858441943552 0 0.14662452085081851 0.32024264097240868 0 0.1238771491773053 0.32546176342320021 0 0.14473393752798869 0.3367858441943552 0 0.13173479585415551 0.34916971972149857 0 0.11764373659217529 0.36702659591577241 0 0.13173479585415551 0.34916971972149857 0 0.13595455730561901 0.36687253818421672 0 0.11764373659217529 0.36702659591577241 0 0.13595455730561901 0.36687253818421672 0 0.1309133037688035 0.38422249999567948 0 0.13595455730561901 0.36687253818421672 0 0.152460770489831 0.37453681209298029 0 0.15566201563467649 0.35149649646999559 0 0.14473393752798869 0.3367858441943552 0 0.13173479585415551 0.34916971972149857 0 0.15566201563467649 0.35149649646999559 0 0.13173479585415551 0.34916971972149857 0 0.13595455730561901 0.36687253818421672 0 0.15566201563467649 0.35149649646999559 0 0.13173479585415551 0.34916971972149857 0 0.15566201563467649 0.35149649646999559 0 0.152460770489831 0.37453681209298029 0 0.14442632240316841 0.40330934011473979 0 0.16997612768265061 0.38984420824294957 0 0.152460770489831 0.37453681209298029 0 0.14442632240316841 0.40330934011473979 0 0.1309133037688035 0.38422249999567948 0 0.13595455730561901 0.36687253818421672 0 0.152460770489831 0.37453681209298029 0 0.1309133037688035 0.38422249999567948 0 0.1218273948895322 0.40036723235672672 0 0.14442632240316841 0.40330934011473979 0 0.1309133037688035 0.38422249999567948 0 0.1218273948895322 0.40036723235672672 0 0.14442632240316841 0.40330934011473979 0 0.12511668959399491 0.41926680129159849 0 0.14442632240316841 0.40330934011473979 0 0.12511668959399491 0.41926680129159849 0 0.1466317909087396 0.43227214650678558 0 0.12511668959399491 0.41926680129159849 0 0.1466317909087396 0.43227214650678558 0 0.12125214206241119 0.44582005051402618 0 0.12511668959399491 0.41926680129159849 0 0.1466317909087396 0.43227214650678558 0 0.14442632240316841 0.40330934011473979 0 0.1466317909087396 0.43227214650678558 0 0.16440477413505369 0.41813683931964413 0 0.16440477413505369 0.41813683931964413 0 0.17930377286164301 0.44263542325199873 0 0.15883342058745689 0.44642947039633868 0 0.1466317909087396 0.43227214650678558 0 0.16440477413505369 0.41813683931964413 0 0.15883342058745689 0.44642947039633868 0 0.16440477413505369 0.41813683931964413 0 0.15883342058745689 0.44642947039633868 0 0.16440477413505369 0.41813683931964413 0 0.18428623518519391 0.42416036323376538 0 0.17930377286164301 0.44263542325199873 0 0.18428623518519391 0.42416036323376538 0 0.197487180205795 0.43532139468973591 0 0.17930377286164301 0.44263542325199873 0 0.16440477413505369 0.41813683931964413 0 0.18428623518519391 0.42416036323376538 0 0.192185172145865 0.40530065755451722 0 0.16440477413505369 0.41813683931964413 0 0.16997612768265061 0.38984420824294957 0 0.192185172145865 0.40530065755451722 0 0.16997612768265061 0.38984420824294957 0 0.1892688801019565 0.38282716124551192 0 0.192185172145865 0.40530065755451722 0 0.16440477413505369 0.41813683931964413 0 0.16997612768265061 0.38984420824294957 0 0.14442632240316841 0.40330934011473979 0 0.16440477413505369 0.41813683931964413 0 0.16997612768265061 0.38984420824294957 0 0.17554748123024741 0.3615515771662553 0 0.152460770489831 0.37453681209298029 0 0.16997612768265061 0.38984420824294957 0 0.17554748123024741 0.3615515771662553 0 0.16997612768265061 0.38984420824294957 0 0.17554748123024741 0.3615515771662553 0 0.16997612768265061 0.38984420824294957 0 0.1892688801019565 0.38282716124551192 0 0.1997127494420553 0.36673690582059182 0 0.1892688801019565 0.38282716124551192 0 0.20900978630487571 0.38591203942400232 0 0.1892688801019565 0.38282716124551192 0 0.192185172145865 0.40530065755451722 0 0.20900978630487571 0.38591203942400232 0 0.192185172145865 0.40530065755451722 0 0.20900978630487571 0.38591203942400232 0 0.22209447601515811 0.40451005518479 0 0.21644063328569449 0.36945703519402012 0 0.20900978630487571 0.38591203942400232 0 0.22653643082129629 0.38322242578528432 0 0.22653643082129629 0.38322242578528432 0 0.22209447601515811 0.40451005518479 0 0.24289958445613999 0.39228423464896078 0 0.20900978630487571 0.38591203942400232 0 0.22653643082129629 0.38322242578528432 0 0.22209447601515811 0.40451005518479 0 0.22209447601515811 0.40451005518479 0 0.24289958445613999 0.39228423464896078 0 0.248149486809982 0.41786266999090282 0 0.24289958445613999 0.39228423464896078 0 0.248149486809982 0.41786266999090282 0 0.23764968210229789 0.36670579930701891 0 0.24289958445613999 0.39228423464896078 0 0.25905411186804261 0.37251649796013742 0 0.23764968210229789 0.36670579930701891 0 0.22653643082129629 0.38322242578528432 0 0.24289958445613999 0.39228423464896078 0 0.23764968210229789 0.36670579930701891 0 0.24289958445613999 0.39228423464896078 0 0.248149486809982 0.41786266999090282 0 0.22457727883856141 0.42833392401771381 0 0.2514771125966242 0.44468408866335679 0 0.22209447601515811 0.40451005518479 0 0.248149486809982 0.41786266999090282 0 0.22457727883856141 0.42833392401771381 0 0.22457727883856141 0.42833392401771381 0 0.20766649557928371 0.4198989997770281 0 0.197487180205795 0.43532139468973591 0 0.22457727883856141 0.42833392401771381 0 0.197487180205795 0.43532139468973591 0 0.21919225692183791 0.44524221998813102 0 0.22209447601515811 0.40451005518479 0 0.22457727883856141 0.42833392401771381 0 0.20766649557928371 0.4198989997770281 0 0.192185172145865 0.40530065755451722 0 0.22209447601515811 0.40451005518479 0 0.20766649557928371 0.4198989997770281 0 0.18428623518519391 0.42416036323376538 0 0.192185172145865 0.40530065755451722 0 0.20766649557928371 0.4198989997770281 0 0.18428623518519391 0.42416036323376538 0 0.20766649557928371 0.4198989997770281 0 0.197487180205795 0.43532139468973591 0 0.197487180205795 0.43532139468973591 0 0.19586887323961311 0.4528921109972231 0 0.20540799761982859 0.44747605151346109 0 0.197487180205795 0.43532139468973591 0 0.19586887323961311 0.4528921109972231 0 0.17930377286164301 0.44263542325199873 0 0.1937497245465355 0.4639731428600099 0 0.1852056723129063 0.47160722432229091 0 0.1846911349116683 0.45891097993903551 0 0.19586887323961311 0.4528921109972231 0 0.1937497245465355 0.4639731428600099 0 0.1846911349116683 0.45891097993903551 0 0.19586887323961311 0.4528921109972231 0 0.2004407325095027 0.46186482075408047 0 0.21027240179254009 0.45825198482741181 0 0.19586887323961311 0.4528921109972231 0 0.1937497245465355 0.4639731428600099 0 0.2004407325095027 0.46186482075408047 0 0.1937497245465355 0.4639731428600099 0 0.2004407325095027 0.46186482075408047 0 0.20187193045932189 0.47234204433167709 0 0.21027240179254009 0.45825198482741181 0 0.21919225692183791 0.44524221998813102 0 0.2266745215279731 0.458513066497517 0 0.2266745215279731 0.458513066497517 0 0.20187193045932189 0.47234204433167709 0 0.21027240179254009 0.45825198482741181 0 0.2266745215279731 0.458513066497517 0 0.20187193045932189 0.47234204433167709 0 0.2004407325095027 0.46186482075408047 0 0.21027240179254009 0.45825198482741181 0 0.20187193045932189 0.47234204433167709 0 0.197487180205795 0.43532139468973591 0 0.20540799761982859 0.44747605151346109 0 0.21919225692183791 0.44524221998813102 0 0.19586887323961311 0.4528921109972231 0 0.21027240179254009 0.45825198482741181 0 0.20540799761982859 0.44747605151346109 0 0.21027240179254009 0.45825198482741181 0 0.20540799761982859 0.44747605151346109 0 0.21919225692183791 0.44524221998813102 0 0.22457727883856141 0.42833392401771381 0 0.21919225692183791 0.44524221998813102 0 0.2514771125966242 0.44468408866335679 0 0.21919225692183791 0.44524221998813102 0 0.2266745215279731 0.458513066497517 0 0.2514771125966242 0.44468408866335679 0 0.2266745215279731 0.458513066497517 0 0.25399835616134792 0.47101049487231039 0 0.2514771125966242 0.44468408866335679 0 0.2266745215279731 0.458513066497517 0 0.22910606494826871 0.47524071912062582 0 0.25399835616134792 0.47101049487231039 0 0.2266745215279731 0.458513066497517 0 0.2514771125966242 0.44468408866335679 0 0.22910606494826871 0.47524071912062582 0 0.2234932216753345 0.5 0 0.25155527489472151 0.5 0 0.22910606494826871 0.47524071912062582 0 0.25399835616134792 0.47101049487231039 0 0.22910606494826871 0.47524071912062582 0 0.25399835616134792 0.47101049487231039 0 0.25155527489472151 0.5 0 0.2266745215279731 0.458513066497517 0 0.22910606494826871 0.47524071912062582 0 0.20857615931250451 0.47648906452896339 0 0.22910606494826871 0.47524071912062582 0 0.2234932216753345 0.5 0 0.21212052770695919 0.48980544636855822 0 0.2234932216753345 0.5 0 0.21212052770695919 0.48980544636855822 0 0.1954311684559476 0.5 0 0.21212052770695919 0.48980544636855822 0 0.20400161557608831 0.47909909892983188 0 0.19910186547104239 0.48942718695049808 0 0.22910606494826871 0.47524071912062582 0 0.21212052770695919 0.48980544636855822 0 0.20400161557608831 0.47909909892983188 0 0.22910606494826871 0.47524071912062582 0 0.20400161557608831 0.47909909892983188 0 0.20857615931250451 0.47648906452896339 0 0.22910606494826871 0.47524071912062582 0 0.20400161557608831 0.47909909892983188 0 0.2266745215279731 0.458513066497517 0 0.20857615931250451 0.47648906452896339 0 0.20187193045932189 0.47234204433167709 0 0.20400161557608831 0.47909909892983188 0 0.20857615931250451 0.47648906452896339 0 0.20400161557608831 0.47909909892983188 0 0.20857615931250451 0.47648906452896339 0 0.20187193045932189 0.47234204433167709 0 0.20187193045932189 0.47234204433167709 0 0.18797263727453259 0.48824453226448189 0 0.17706933939067071 0.48617102216583741 0 0.1937497245465355 0.4639731428600099 0 0.20187193045932189 0.47234204433167709 0 0.1852056723129063 0.47160722432229091 0 0.20400161557608831 0.47909909892983188 0 0.18797263727453259 0.48824453226448189 0 0.20187193045932189 0.47234204433167709 0 0.17706933939067071 0.48617102216583741 0 0.20400161557608831 0.47909909892983188 0 0.20187193045932189 0.47234204433167709 0 0.18797263727453259 0.48824453226448189 0 0.20187193045932189 0.47234204433167709 0 0.17706933939067071 0.48617102216583741 0 0.1852056723129063 0.47160722432229091 0 0.21212052770695919 0.48980544636855822 0 0.1954311684559476 0.5 0 0.19910186547104239 0.48942718695049808 0 0.20400161557608831 0.47909909892983188 0 0.19910186547104239 0.48942718695049808 0 0.18797263727453259 0.48824453226448189 0 0.1954311684559476 0.5 0 0.19910186547104239 0.48942718695049808 0 0.18797263727453259 0.48824453226448189 0 0.18797263727453259 0.48824453226448189 0 0.17706933939067071 0.48617102216583741 0 0.1673691152365607 0.50000000000000022 0 0.18797263727453259 0.48824453226448189 0 0.1673691152365607 0.50000000000000022 0 0.1954311684559476 0.5 0 0.18797263727453259 0.48824453226448189 0 0.1673691152365607 0.50000000000000022 0 0.17706933939067071 0.48617102216583741 0 0.15920311022256359 0.48761457502183042 0 0.15226674832201989 0.49999999999999872 0 0.17706933939067071 0.48617102216583741 0 0.1673691152365607 0.50000000000000022 0 0.15226674832201989 0.49999999999999872 0 0.17706933939067071 0.48617102216583741 0 0.15226674832201989 0.49999999999999872 0 0.16993415577312379 0.47832175361512241 0 0.15326206703985959 0.47472210147303312 0 0.17706933939067071 0.48617102216583741 0 0.15920311022256359 0.48761457502183042 0 0.16993415577312379 0.47832175361512241 0 0.16993415577312379 0.47832175361512241 0 0.16364322185635921 0.46532228043734403 0 0.15326206703985959 0.47472210147303312 0 0.15920311022256359 0.48761457502183042 0 0.16993415577312379 0.47832175361512241 0 0.15326206703985959 0.47472210147303312 0 0.17741631043932779 0.47597087273502298 0 0.1852056723129063 0.47160722432229091 0 0.17254324402499599 0.46181579626488167 0 0.16993415577312379 0.47832175361512241 0 0.17741631043932779 0.47597087273502298 0 0.17254324402499599 0.46181579626488167 0 0.17706933939067071 0.48617102216583741 0 0.16993415577312379 0.47832175361512241 0 0.17741631043932779 0.47597087273502298 0 0.17706933939067071 0.48617102216583741 0 0.17741631043932779 0.47597087273502298 0 0.1852056723129063 0.47160722432229091 0 0.1852056723129063 0.47160722432229091 0 0.1846911349116683 0.45891097993903551 0 0.17254324402499599 0.46181579626488167 0 0.1846911349116683 0.45891097993903551 0 0.17254324402499599 0.46181579626488167 0 0.17930377286164301 0.44263542325199873 0 0.19586887323961311 0.4528921109972231 0 0.1846911349116683 0.45891097993903551 0 0.17930377286164301 0.44263542325199873 0 0.17254324402499599 0.46181579626488167 0 0.17930377286164301 0.44263542325199873 0 0.15883342058745689 0.44642947039633868 0 0.16993415577312379 0.47832175361512241 0 0.17254324402499599 0.46181579626488167 0 0.16364322185635921 0.46532228043734403 0 0.17254324402499599 0.46181579626488167 0 0.15883342058745689 0.44642947039633868 0 0.16364322185635921 0.46532228043734403 0 0.15883342058745689 0.44642947039633868 0 0.16364322185635921 0.46532228043734403 0 0.15326206703985959 0.47472210147303312 0 0.15883342058745689 0.44642947039633868 0 0.14135895203597099 0.4566308027558833 0 0.15326206703985959 0.47472210147303312 0 0.15883342058745689 0.44642947039633868 0 0.15326206703985959 0.47472210147303312 0 0.1466317909087396 0.43227214650678558 0 0.15883342058745689 0.44642947039633868 0 0.14135895203597099 0.4566308027558833 0 0.12125214206241119 0.44582005051402618 0 0.1466317909087396 0.43227214650678558 0 0.14135895203597099 0.4566308027558833 0 0.1238956110980738 0.46838162262076383 0 0.14135895203597099 0.4566308027558833 0 0.15326206703985959 0.47472210147303312 0 0.1238956110980738 0.46838162262076383 0 0.12125214206241119 0.44582005051402618 0 0.14135895203597099 0.4566308027558833 0 0.1238956110980738 0.46838162262076383 0 0.15326206703985959 0.47472210147303312 0 0.1238956110980738 0.46838162262076383 0 0.13580201835749661 0.48441293847055811 0 0.15326206703985959 0.47472210147303312 0 0.1195654229107193 0.5 0 0.13580201835749661 0.48441293847055811 0 0.14828437128394781 0.50000000000000411 0 0.14828437128394781 0.50000000000000411 0 0.15326206703985959 0.47472210147303312 0 0.15920311022256359 0.48761457502183042 0 0.14828437128394781 0.50000000000000411 0 0.15326206703985959 0.47472210147303312 0 0.13580201835749661 0.48441293847055811 0 0.14828437128394781 0.50000000000000411 0 0.15326206703985959 0.47472210147303312 0 0.15920311022256359 0.48761457502183042 0 0.14828437128394781 0.50000000000000411 0 0.15226674832201989 0.49999999999999872 0 0.35897895391100232 0.47247904603639462 0 0.35075604580227249 0.48717150086172428 0 0.33382474641669552 0.47620695741050267 0 0.35075604580227249 0.48717150086172428 0 0.36899109412900072 0.5 0 0.34122938875239162 0.50000000000000011 0 0.35897895391100232 0.47247904603639462 0 0.35075604580227249 0.48717150086172428 0 0.36899109412900072 0.5 0 0.35897895391100232 0.47247904603639462 0 0.36899109412900072 0.5 0 0.38276019481452661 0.47852410794061612 0 0.35897895391100232 0.47247904603639462 0 0.37078211607963019 0.44995535094209621 0 0.38276019481452661 0.47852410794061612 0 0.37078211607963019 0.44995535094209621 0 0.36517828598789159 0.42600130542859338 0 0.37078211607963019 0.44995535094209621 0 0.36517828598789159 0.42600130542859338 0 0.38279498211221491 0.4368780777270232 0 0.37078211607963019 0.44995535094209621 0 0.34650058029397091 0.45708343411305707 0 0.34249698098152681 0.43436190135528657 0 0.35897895391100232 0.47247904603639462 0 0.34650058029397091 0.45708343411305707 0 0.33382474641669552 0.47620695741050267 0 0.35897895391100232 0.47247904603639462 0 0.37078211607963019 0.44995535094209621 0 0.34650058029397091 0.45708343411305707 0 0.34650058029397091 0.45708343411305707 0 0.32642010408099931 0.45241391482100529 0 0.33382474641669552 0.47620695741050267 0 0.32642010408099931 0.45241391482100529 0 0.33382474641669552 0.47620695741050267 0 0.32642010408099931 0.45241391482100529 0 0.31901546174530321 0.42862087223150802 0 0.34249698098152681 0.43436190135528657 0 0.34650058029397091 0.45708343411305707 0 0.32642010408099931 0.45241391482100529 0 0.34249698098152681 0.43436190135528657 0 0.32642010408099931 0.45241391482100529 0 0.31901546174530321 0.42862087223150802 0 0.32642010408099931 0.45241391482100529 0 0.31342829403553252 0.4463440051027121 0 0.31901546174530321 0.42862087223150802 0 0.32642010408099931 0.45241391482100529 0 0.31342829403553252 0.4463440051027121 0 0.31516364255118923 0.46298001215891638 0 0.32642010408099931 0.45241391482100529 0 0.31516364255118923 0.46298001215891638 0 0.33382474641669552 0.47620695741050267 0 0.31516364255118923 0.46298001215891638 0 0.33382474641669552 0.47620695741050267 0 0.30845320760280498 0.4809816119505938 0 0.33382474641669552 0.47620695741050267 0 0.34122938875239162 0.50000000000000011 0 0.32069203520629719 0.5 0 0.33382474641669552 0.47620695741050267 0 0.34122938875239162 0.50000000000000011 0 0.35075604580227249 0.48717150086172428 0 0.33382474641669552 0.47620695741050267 0 0.34122938875239162 0.50000000000000011 0 0.33382474641669552 0.47620695741050267 0 0.32069203520629719 0.5 0 0.30845320760280498 0.4809816119505938 0 0.30015468166020282 0.5 0 0.30845320760280498 0.4809816119505938 0 0.29235092987739719 0.48746237699400569 0 0.32069203520629719 0.5 0 0.30015468166020282 0.5 0 0.30845320760280498 0.4809816119505938 0 0.31516364255118923 0.46298001215891638 0 0.30845320760280498 0.4809816119505938 0 0.30127520659360019 0.46297621319970123 0 0.30845320760280498 0.4809816119505938 0 0.29335292472767971 0.47378359591252012 0 0.29235092987739719 0.48746237699400569 0 0.30845320760280498 0.4809816119505938 0 0.29335292472767971 0.47378359591252012 0 0.30127520659360019 0.46297621319970123 0 0.29335292472767971 0.47378359591252012 0 0.28640219091271901 0.47952524031075772 0 0.29235092987739719 0.48746237699400569 0 0.28640219091271901 0.47952524031075772 0 0.29235092987739719 0.48746237699400569 0 0.27925398774426841 0.48339013531199909 0 0.28640219091271901 0.47952524031075772 0 0.27925398774426841 0.48339013531199909 0 0.28121354897652001 0.47945789123763211 0 0.28640219091271901 0.47952524031075772 0 0.28583956323773002 0.47353220209763158 0 0.28121354897652001 0.47945789123763211 0 0.28583956323773002 0.47353220209763158 0 0.28121354897652001 0.47945789123763211 0 0.28230525701822218 0.46619998798186918 0 0.29335292472767971 0.47378359591252012 0 0.28583956323773002 0.47353220209763158 0 0.28230525701822218 0.46619998798186918 0 0.28121354897652001 0.47945789123763211 0 0.28230525701822218 0.46619998798186918 0 0.29335292472767971 0.47378359591252012 0 0.28640219091271901 0.47952524031075772 0 0.28583956323773002 0.47353220209763158 0 0.30015468166020282 0.5 0 0.29235092987739719 0.48746237699400569 0 0.27961732811410839 0.50000000000000311 0 0.29235092987739719 0.48746237699400569 0 0.27961732811410839 0.50000000000000311 0 0.27925398774426841 0.48339013531199909 0 0.27961732811410839 0.50000000000000311 0 0.27925398774426841 0.48339013531199909 0 0.25155527489472151 0.5 0 0.27961732811410839 0.50000000000000311 0 0.27925398774426841 0.48339013531199909 0 0.27925398774426841 0.48339013531199909 0 0.25399835616134792 0.47101049487231039 0 0.27889064737442698 0.46678027062399519 0 0.27925398774426841 0.48339013531199909 0 0.28121354897652001 0.47945789123763211 0 0.27889064737442698 0.46678027062399519 0 0.25399835616134792 0.47101049487231039 0 0.27889064737442698 0.46678027062399519 0 0.27925398774426841 0.48339013531199909 0 0.27889064737442698 0.46678027062399519 0 0.28121354897652001 0.47945789123763211 0 0.27889064737442698 0.46678027062399519 0 0.28230525701822218 0.46619998798186918 0 0.27925398774426841 0.48339013531199909 0 0.25399835616134792 0.47101049487231039 0 0.25155527489472151 0.5 0 0.2514771125966242 0.44468408866335679 0 0.26471289253607577 0.45641998751741109 0 0.27829722214636837 0.43965222882432708 0 0.25399835616134792 0.47101049487231039 0 0.2514771125966242 0.44468408866335679 0 0.26471289253607577 0.45641998751741109 0 0.27889064737442698 0.46678027062399519 0 0.27829722214636837 0.43965222882432708 0 0.28230525701822218 0.46619998798186918 0 0.27889064737442698 0.46678027062399519 0 0.27829722214636837 0.43965222882432708 0 0.26471289253607577 0.45641998751741109 0 0.27889064737442698 0.46678027062399519 0 0.27829722214636837 0.43965222882432708 0 0.25399835616134792 0.47101049487231039 0 0.26471289253607577 0.45641998751741109 0 0.27889064737442698 0.46678027062399519 0 0.27889064737442698 0.46678027062399519 0 0.28230525701822218 0.46619998798186918 0 0.27829722214636837 0.43965222882432708 0 0.28230525701822218 0.46619998798186918 0 0.28474366596995898 0.43658750117661232 0 0.29243130353484093 0.45154594664436831 0 0.28230525701822218 0.46619998798186918 0 0.28474366596995898 0.43658750117661232 0 0.28230525701822218 0.46619998798186918 0 0.28474366596995898 0.43658750117661232 0 0.29243130353484093 0.45154594664436831 0 0.29599472853730102 0.44121886677586619 0 0.28474366596995898 0.43658750117661232 0 0.29335292472767971 0.47378359591252012 0 0.28230525701822218 0.46619998798186918 0 0.30127520659360019 0.46297621319970123 0 0.28230525701822218 0.46619998798186918 0 0.30127520659360019 0.46297621319970123 0 0.29243130353484093 0.45154594664436831 0 0.28230525701822218 0.46619998798186918 0 0.30127520659360019 0.46297621319970123 0 0.31342829403553252 0.4463440051027121 0 0.31516364255118923 0.46298001215891638 0 0.3022956072558835 0.45072342020198469 0 0.29243130353484093 0.45154594664436831 0 0.30127520659360019 0.46297621319970123 0 0.3022956072558835 0.45072342020198469 0 0.31516364255118923 0.46298001215891638 0 0.30127520659360019 0.46297621319970123 0 0.3022956072558835 0.45072342020198469 0 0.29599472853730102 0.44121886677586619 0 0.3022956072558835 0.45072342020198469 0 0.30424665454428729 0.43698180610014592 0 0.29243130353484093 0.45154594664436831 0 0.29599472853730102 0.44121886677586619 0 0.3022956072558835 0.45072342020198469 0 0.31342829403553252 0.4463440051027121 0 0.3022956072558835 0.45072342020198469 0 0.30424665454428729 0.43698180610014592 0 0.31342829403553252 0.4463440051027121 0 0.30424665454428729 0.43698180610014592 0 0.31901546174530321 0.42862087223150802 0 0.3043171244620777 0.42370228367744478 0 0.30424665454428729 0.43698180610014592 0 0.31901546174530321 0.42862087223150802 0 0.3043171244620777 0.42370228367744478 0 0.2972187274602478 0.41767342017279768 0 0.29625641138153419 0.43025565975621999 0 0.3043171244620777 0.42370228367744478 0 0.30424665454428729 0.43698180610014592 0 0.29625641138153419 0.43025565975621999 0 0.29599472853730102 0.44121886677586619 0 0.30424665454428729 0.43698180610014592 0 0.29625641138153419 0.43025565975621999 0 0.3043171244620777 0.42370228367744478 0 0.31161081940960689 0.40482782964201058 0 0.31901546174530321 0.42862087223150802 0 0.3043171244620777 0.42370228367744478 0 0.2972187274602478 0.41767342017279768 0 0.31161081940960689 0.40482782964201058 0 0.2972187274602478 0.41767342017279768 0 0.29920226861661359 0.40369223241314378 0 0.31161081940960689 0.40482782964201058 0 0.28718207492169551 0.4069750143713553 0 0.28474366596995898 0.43658750117661232 0 0.2972187274602478 0.41767342017279768 0 0.28718207492169551 0.4069750143713553 0 0.28474366596995898 0.43658750117661232 0 0.28718207492169551 0.4069750143713553 0 0.28474366596995898 0.43658750117661232 0 0.27770379691830849 0.41252418702465898 0 0.2972187274602478 0.41767342017279768 0 0.28718207492169551 0.4069750143713553 0 0.29920226861661359 0.40369223241314378 0 0.2972187274602478 0.41767342017279768 0 0.29625641138153419 0.43025565975621999 0 0.28474366596995898 0.43658750117661232 0 0.29599472853730102 0.44121886677586619 0 0.29625641138153419 0.43025565975621999 0 0.28474366596995898 0.43658750117661232 0 0.248149486809982 0.41786266999090282 0 0.27829722214636837 0.43965222882432708 0 0.27770379691830849 0.41252418702465898 0 0.27829722214636837 0.43965222882432708 0 0.27770379691830849 0.41252418702465898 0 0.27829722214636837 0.43965222882432708 0 0.28474366596995898 0.43658750117661232 0 0.27770379691830849 0.41252418702465898 0 0.248149486809982 0.41786266999090282 0 0.27770379691830849 0.41252418702465898 0 0.26169941567564098 0.39813661161474112 0 0.248149486809982 0.41786266999090282 0 0.2514771125966242 0.44468408866335679 0 0.27829722214636837 0.43965222882432708 0 0.24289958445613999 0.39228423464896078 0 0.26169941567564098 0.39813661161474112 0 0.25905411186804261 0.37251649796013742 0 0.24289958445613999 0.39228423464896078 0 0.248149486809982 0.41786266999090282 0 0.26169941567564098 0.39813661161474112 0 0.27770379691830849 0.41252418702465898 0 0.27711037169024838 0.38539614522499099 0 0.27770379691830849 0.41252418702465898 0 0.26169941567564098 0.39813661161474112 0 0.27711037169024838 0.38539614522499099 0 0.28718207492169551 0.4069750143713553 0 0.27770379691830849 0.41252418702465898 0 0.27711037169024838 0.38539614522499099 0 0.26169941567564098 0.39813661161474112 0 0.27711037169024838 0.38539614522499099 0 0.25905411186804261 0.37251649796013742 0 0.27711037169024838 0.38539614522499099 0 0.28962048387343198 0.37736252756609823 0 0.28634329609767839 0.36556813624566697 0 0.28718207492169551 0.4069750143713553 0 0.27711037169024838 0.38539614522499099 0 0.28962048387343198 0.37736252756609823 0 0.28962048387343198 0.37736252756609823 0 0.29505275112141288 0.39226614035077761 0 0.30420617707391079 0.38103478705251331 0 0.28718207492169551 0.4069750143713553 0 0.28962048387343198 0.37736252756609823 0 0.29505275112141288 0.39226614035077761 0 0.28718207492169551 0.4069750143713553 0 0.28962048387343198 0.37736252756609823 0 0.28718207492169551 0.4069750143713553 0 0.29505275112141288 0.39226614035077761 0 0.29920226861661359 0.40369223241314378 0 0.31161081940960689 0.40482782964201058 0 0.30420617707391079 0.38103478705251331 0 0.29920226861661359 0.40369223241314378 0 0.31161081940960689 0.40482782964201058 0 0.30420617707391079 0.38103478705251331 0 0.29505275112141288 0.39226614035077761 0 0.29920226861661359 0.40369223241314378 0 0.30420617707391079 0.38103478705251331 0 0.31161081940960689 0.40482782964201058 0 0.30420617707391079 0.38103478705251331 0 0.31657105778918931 0.37949051986369181 0 0.31657105778918931 0.37949051986369181 0 0.33524284342772498 0.39745110156998431 0 0.31657105778918931 0.37949051986369181 0 0.33482195986006752 0.37525568319408231 0 0.33524284342772498 0.39745110156998431 0 0.33482195986006752 0.37525568319408231 0 0.33524284342772498 0.39745110156998431 0 0.35397062580441457 0.37809321440158788 0 0.31161081940960689 0.40482782964201058 0 0.31657105778918931 0.37949051986369181 0 0.33524284342772498 0.39745110156998431 0 0.31161081940960689 0.40482782964201058 0 0.33524284342772498 0.39745110156998431 0 0.32979195982475812 0.41511690074889579 0 0.31161081940960689 0.40482782964201058 0 0.31901546174530321 0.42862087223150802 0 0.31161081940960689 0.40482782964201058 0 0.31901546174530321 0.42862087223150802 0 0.32979195982475812 0.41511690074889579 0 0.31901546174530321 0.42862087223150802 0 0.34249698098152681 0.43436190135528657 0 0.32979195982475812 0.41511690074889579 0 0.33524284342772498 0.39745110156998431 0 0.32979195982475812 0.41511690074889579 0 0.3459238859814307 0.41457088518012652 0 0.34249698098152681 0.43436190135528657 0 0.32979195982475812 0.41511690074889579 0 0.3459238859814307 0.41457088518012652 0 0.3459238859814307 0.41457088518012652 0 0.36517828598789159 0.42600130542859338 0 0.35957445589615311 0.4020472599150906 0 0.34249698098152681 0.43436190135528657 0 0.3459238859814307 0.41457088518012652 0 0.36517828598789159 0.42600130542859338 0 0.37078211607963019 0.44995535094209621 0 0.34249698098152681 0.43436190135528657 0 0.36517828598789159 0.42600130542859338 0 0.36517828598789159 0.42600130542859338 0 0.35957445589615311 0.4020472599150906 0 0.3771709686793116 0.41324975171031297 0 0.36517828598789159 0.42600130542859338 0 0.35957445589615311 0.4020472599150906 0 0.35957445589615311 0.4020472599150906 0 0.37250528002566369 0.39451893199837468 0 0.35397062580441457 0.37809321440158788 0 0.35957445589615311 0.4020472599150906 0 0.37250528002566369 0.39451893199837468 0 0.3771709686793116 0.41324975171031297 0 0.35397062580441457 0.37809321440158788 0 0.36777589667942212 0.36738284016723782 0 0.37539288703884721 0.38017114684249331 0 0.37250528002566369 0.39451893199837468 0 0.35397062580441457 0.37809321440158788 0 0.37539288703884721 0.38017114684249331 0 0.35957445589615311 0.4020472599150906 0 0.35397062580441457 0.37809321440158788 0 0.33524284342772498 0.39745110156998431 0 0.35957445589615311 0.4020472599150906 0 0.35397062580441457 0.37809321440158788 0 0.33524284342772498 0.39745110156998431 0 0.3459238859814307 0.41457088518012652 0 0.35957445589615311 0.4020472599150906 0 0.35622462066451838 0.35195764345930303 0 0.34836679571267598 0.35413916888808522 0 0.35802587552449211 0.36084879357005778 0 0.35622462066451838 0.35195764345930303 0 0.34836679571267598 0.35413916888808522 0 0.35585183487231908 0.34257122303738752 0 0.35622462066451838 0.35195764345930303 0 0.36398177715045887 0.35307265926613568 0 0.35585183487231908 0.34257122303738752 0 0.35397062580441457 0.37809321440158788 0 0.34836679571267598 0.35413916888808522 0 0.35802587552449211 0.36084879357005778 0 0.35397062580441457 0.37809321440158788 0 0.34836679571267598 0.35413916888808522 0 0.3411974593755871 0.35768261684175978 0 0.35397062580441457 0.37809321440158788 0 0.34836679571267598 0.35413916888808522 0 0.35802587552449211 0.36084879357005778 0 0.36777589667942212 0.36738284016723782 0 0.36398177715045887 0.35307265926613568 0 0.35397062580441457 0.37809321440158788 0 0.35802587552449211 0.36084879357005778 0 0.36777589667942212 0.36738284016723782 0 0.36777589667942212 0.36738284016723782 0 0.3808591980642354 0.36935705893597359 0 0.37539288703884721 0.38017114684249331 0 0.36777589667942212 0.36738284016723782 0 0.36398177715045887 0.35307265926613568 0 0.37810677920759522 0.35981427665085353 0 0.36398177715045887 0.35307265926613568 0 0.37417197045165879 0.34885544311155597 0 0.37810677920759522 0.35981427665085353 0 0.35622462066451838 0.35195764345930303 0 0.35802587552449211 0.36084879357005778 0 0.36398177715045887 0.35307265926613568 0 0.36398177715045887 0.35307265926613568 0 0.36781057592505167 0.33833319135141071 0 0.35585183487231908 0.34257122303738752 0 0.36398177715045887 0.35307265926613568 0 0.37417197045165879 0.34885544311155597 0 0.36781057592505167 0.33833319135141071 0 0.36781057592505167 0.33833319135141071 0 0.358842304332599 0.32371848894677829 0 0.35585183487231908 0.34257122303738752 0 0.36781057592505167 0.33833319135141071 0 0.358842304332599 0.32371848894677829 0 0.37660830276601931 0.32775769020394202 0 0.37269506830413179 0.31359601771975171 0 0.358842304332599 0.32371848894677829 0 0.35857424703706159 0.30663585435998991 0 0.37269506830413179 0.31359601771975171 0 0.358842304332599 0.32371848894677829 0 0.37660830276601931 0.32775769020394202 0 0.358842304332599 0.32371848894677829 0 0.3427629656209375 0.3301851233745825 0 0.3371677965176445 0.3068269800088812 0 0.358842304332599 0.32371848894677829 0 0.35585183487231908 0.34257122303738752 0 0.3427629656209375 0.3301851233745825 0 0.34836679571267598 0.35413916888808522 0 0.3427629656209375 0.3301851233745825 0 0.34836679571267598 0.35413916888808522 0 0.35585183487231908 0.34257122303738752 0 0.3427629656209375 0.3301851233745825 0 0.3280875506797532 0.33336827266133329 0 0.31943947999510208 0.34883509843638988 0 0.33775130515959428 0.34414876122639543 0 0.34836679571267598 0.35413916888808522 0 0.3427629656209375 0.3301851233745825 0 0.33775130515959428 0.34414876122639543 0 0.3427629656209375 0.3301851233745825 0 0.3280875506797532 0.33336827266133329 0 0.33775130515959428 0.34414876122639543 0 0.3427629656209375 0.3301851233745825 0 0.3280875506797532 0.33336827266133329 0 0.3371677965176445 0.3068269800088812 0 0.31815942059527941 0.32225972019142468 0 0.3280875506797532 0.33336827266133329 0 0.3371677965176445 0.3068269800088812 0 0.31815942059527941 0.32225972019142468 0 0.3371677965176445 0.3068269800088812 0 0.31815942059527941 0.32225972019142468 0 0.30520110137159029 0.31520345581550679 0 0.31810320462676722 0.30772017370427102 0 0.31815942059527941 0.32225972019142468 0 0.3280875506797532 0.33336827266133329 0 0.31250379931153321 0.3364286263388272 0 0.3280875506797532 0.33336827266133329 0 0.31250379931153321 0.3364286263388272 0 0.31943947999510208 0.34883509843638988 0 0.31943947999510208 0.34883509843638988 0 0.31321630403874501 0.36139133729867062 0 0.30654993971069361 0.35302688824158618 0 0.31943947999510208 0.34883509843638988 0 0.32562177054808639 0.36407424179428538 0 0.31321630403874501 0.36139133729867062 0 0.31943947999510208 0.34883509843638988 0 0.3411974593755871 0.35768261684175978 0 0.33775130515959428 0.34414876122639543 0 0.31943947999510208 0.34883509843638988 0 0.3411974593755871 0.35768261684175978 0 0.32562177054808639 0.36407424179428538 0 0.31943947999510208 0.34883509843638988 0 0.3411974593755871 0.35768261684175978 0 0.34836679571267598 0.35413916888808522 0 0.3411974593755871 0.35768261684175978 0 0.33775130515959428 0.34414876122639543 0 0.33482195986006752 0.37525568319408231 0 0.3411974593755871 0.35768261684175978 0 0.32562177054808639 0.36407424179428538 0 0.33482195986006752 0.37525568319408231 0 0.35397062580441457 0.37809321440158788 0 0.3411974593755871 0.35768261684175978 0 0.31657105778918931 0.37949051986369181 0 0.32562177054808639 0.36407424179428538 0 0.31321630403874501 0.36139133729867062 0 0.31657105778918931 0.37949051986369181 0 0.33482195986006752 0.37525568319408231 0 0.32562177054808639 0.36407424179428538 0 0.28962048387343198 0.37736252756609823 0 0.30420617707391079 0.38103478705251331 0 0.29789927215065343 0.36152993815739931 0 0.31657105778918931 0.37949051986369181 0 0.29789927215065343 0.36152993815739931 0 0.30420617707391079 0.38103478705251331 0 0.31657105778918931 0.37949051986369181 0 0.29789927215065343 0.36152993815739931 0 0.31657105778918931 0.37949051986369181 0 0.31321630403874501 0.36139133729867062 0 0.29789927215065343 0.36152993815739931 0 0.31943947999510208 0.34883509843638988 0 0.30654993971069361 0.35302688824158618 0 0.29768150061461718 0.33998758003101998 0 0.31943947999510208 0.34883509843638988 0 0.29768150061461718 0.33998758003101998 0 0.29789927215065343 0.36152993815739931 0 0.30654993971069361 0.35302688824158618 0 0.29768150061461718 0.33998758003101998 0 0.31321630403874501 0.36139133729867062 0 0.29789927215065343 0.36152993815739931 0 0.30654993971069361 0.35302688824158618 0 0.29789927215065343 0.36152993815739931 0 0.27922748651211771 0.34356935645110681 0 0.29789927215065343 0.36152993815739931 0 0.28634329609767839 0.36556813624566697 0 0.27922748651211771 0.34356935645110681 0 0.29789927215065343 0.36152993815739931 0 0.27922748651211771 0.34356935645110681 0 0.29768150061461718 0.33998758003101998 0 0.28962048387343198 0.37736252756609823 0 0.29789927215065343 0.36152993815739931 0 0.28634329609767839 0.36556813624566697 0 0.27711037169024838 0.38539614522499099 0 0.28634329609767839 0.36556813624566697 0 0.27651694646218838 0.35826810342532289 0 0.27711037169024838 0.38539614522499099 0 0.27651694646218838 0.35826810342532289 0 0.27711037169024838 0.38539614522499099 0 0.27651694646218838 0.35826810342532289 0 0.25905411186804261 0.37251649796013742 0 0.28634329609767839 0.36556813624566697 0 0.27651694646218838 0.35826810342532289 0 0.27922748651211771 0.34356935645110681 0 0.27651694646218838 0.35826810342532289 0 0.27922748651211771 0.34356935645110681 0 0.27592352123413028 0.33114006162565468 0 0.27651694646218838 0.35826810342532289 0 0.25914891444172011 0.34530468765525679 0 0.27592352123413028 0.33114006162565468 0 0.27651694646218838 0.35826810342532289 0 0.27592352123413028 0.33114006162565468 0 0.27651694646218838 0.35826810342532289 0 0.26055766562478883 0.35759304549932458 0 0.25914891444172011 0.34530468765525679 0 0.2475106897272043 0.35428289295658161 0 0.24852544892751241 0.3439900518832546 0 0.25914891444172011 0.34530468765525679 0 0.2475106897272043 0.35428289295658161 0 0.26055766562478883 0.35759304549932458 0 0.25914891444172011 0.34530468765525679 0 0.2475106897272043 0.35428289295658161 0 0.26055766562478883 0.35759304549932458 0 0.25905411186804261 0.37251649796013742 0 0.27651694646218838 0.35826810342532289 0 0.26055766562478883 0.35759304549932458 0 0.25905411186804261 0.37251649796013742 0 0.23783836536509301 0.31565336997886329 0 0.2525696818628661 0.32164361344634662 0 0.26382887235950991 0.3072956239543374 0 0.2525696818628661 0.32164361344634662 0 0.27550579204514142 0.31204384804399121 0 0.26382887235950991 0.3072956239543374 0 0.2525696818628661 0.32164361344634662 0 0.27592352123413028 0.33114006162565468 0 0.2525696818628661 0.32164361344634662 0 0.26382887235950991 0.3072956239543374 0 0.2525696818628661 0.32164361344634662 0 0.25313896538212899 0.33510740846486831 0 0.27592352123413028 0.33114006162565468 0 0.25914891444172011 0.34530468765525679 0 0.25313896538212899 0.33510740846486831 0 0.27592352123413028 0.33114006162565468 0 0.24852544892751241 0.3439900518832546 0 0.25914891444172011 0.34530468765525679 0 0.25313896538212899 0.33510740846486831 0 0.2525696818628661 0.32164361344634662 0 0.27592352123413028 0.33114006162565468 0 0.27550579204514142 0.31204384804399121 0 0.27592352123413028 0.33114006162565468 0 0.2840493790515366 0.32405274590569982 0 0.27550579204514142 0.31204384804399121 0 0.27592352123413028 0.33114006162565468 0 0.27550579204514142 0.31204384804399121 0 0.28675334147524828 0.31290843621564413 0 0.2840493790515366 0.32405274590569982 0 0.27550579204514142 0.31204384804399121 0 0.28675334147524828 0.31290843621564413 0 0.2840493790515366 0.32405274590569982 0 0.28988389077070909 0.32153164888335573 0 0.2840493790515366 0.32405274590569982 0 0.29187220942922909 0.32749254548337942 0 0.28814465430817138 0.33226319722605829 0 0.2840493790515366 0.32405274590569982 0 0.28988389077070909 0.32153164888335573 0 0.29187220942922909 0.32749254548337942 0 0.28988389077070909 0.32153164888335573 0 0.29187220942922909 0.32749254548337942 0 0.29475884481398318 0.32217255647029591 0 0.29187220942922909 0.32749254548337942 0 0.29475884481398318 0.32217255647029591 0 0.30065057573995557 0.32637966237734989 0 0.28988389077070909 0.32153164888335573 0 0.29475884481398318 0.32217255647029591 0 0.29512442866507688 0.31493215827085158 0 0.28675334147524828 0.31290843621564413 0 0.28988389077070909 0.32153164888335573 0 0.29512442866507688 0.31493215827085158 0 0.27592352123413028 0.33114006162565468 0 0.29768150061461718 0.33998758003101998 0 0.27922748651211771 0.34356935645110681 0 0.27592352123413028 0.33114006162565468 0 0.29768150061461718 0.33998758003101998 0 0.27592352123413028 0.33114006162565468 0 0.28814465430817138 0.33226319722605829 0 0.29768150061461718 0.33998758003101998 0 0.27592352123413028 0.33114006162565468 0 0.2840493790515366 0.32405274590569982 0 0.28814465430817138 0.33226319722605829 0 0.28814465430817138 0.33226319722605829 0 0.29500454595267628 0.33555021188685308 0 0.29768150061461718 0.33998758003101998 0 0.29187220942922909 0.32749254548337942 0 0.29504098421500241 0.33225760991636599 0 0.30065057573995557 0.32637966237734989 0 0.29187220942922909 0.32749254548337942 0 0.28814465430817138 0.33226319722605829 0 0.29504098421500241 0.33225760991636599 0 0.29500454595267628 0.33555021188685308 0 0.29504098421500241 0.33225760991636599 0 0.29915104467291431 0.33769246037396811 0 0.28814465430817138 0.33226319722605829 0 0.29500454595267628 0.33555021188685308 0 0.29504098421500241 0.33225760991636599 0 0.31815942059527941 0.32225972019142468 0 0.29915104467291431 0.33769246037396811 0 0.31250379931153321 0.3364286263388272 0 0.31943947999510208 0.34883509843638988 0 0.29768150061461718 0.33998758003101998 0 0.31815942059527941 0.32225972019142468 0 0.31250379931153321 0.3364286263388272 0 0.29915104467291431 0.33769246037396811 0 0.31815942059527941 0.32225972019142468 0 0.29915104467291431 0.33769246037396811 0 0.30065057573995557 0.32637966237734989 0 0.31250379931153321 0.3364286263388272 0 0.29768150061461718 0.33998758003101998 0 0.29915104467291431 0.33769246037396811 0 0.29500454595267628 0.33555021188685308 0 0.29768150061461718 0.33998758003101998 0 0.29915104467291431 0.33769246037396811 0 0.29504098421500241 0.33225760991636599 0 0.29915104467291431 0.33769246037396811 0 0.30065057573995557 0.32637966237734989 0 0.31815942059527941 0.32225972019142468 0 0.30065057573995557 0.32637966237734989 0 0.30520110137159029 0.31520345581550679 0 0.29475884481398318 0.32217255647029591 0 0.29512442866507688 0.31493215827085158 0 0.30520110137159029 0.31520345581550679 0 0.29512442866507688 0.31493215827085158 0 0.30520110137159029 0.31520345581550679 0 0.30053989096607042 0.30771842755444739 0 0.29475884481398318 0.32217255647029591 0 0.30065057573995557 0.32637966237734989 0 0.30520110137159029 0.31520345581550679 0 0.30520110137159029 0.31520345581550679 0 0.30820811893807909 0.30534331252419311 0 0.31810320462676722 0.30772017370427102 0 0.30820811893807909 0.30534331252419311 0 0.30770884304192081 0.29876652671894632 0 0.31473550435619752 0.30010574377660421 0 0.30770884304192081 0.29876652671894632 0 0.30330878169165659 0.30190916427688502 0 0.30318440913936229 0.29653400531568352 0 0.30820811893807909 0.30534331252419311 0 0.30770884304192081 0.29876652671894632 0 0.30330878169165659 0.30190916427688502 0 0.30330878169165659 0.30190916427688502 0 0.30318440913936229 0.29653400531568352 0 0.2963310130069271 0.2999656034261251 0 0.30330878169165659 0.30190916427688502 0 0.30053989096607042 0.30771842755444739 0 0.2963310130069271 0.2999656034261251 0 0.30520110137159029 0.31520345581550679 0 0.30820811893807909 0.30534331252419311 0 0.30053989096607042 0.30771842755444739 0 0.30820811893807909 0.30534331252419311 0 0.30330878169165659 0.30190916427688502 0 0.30053989096607042 0.30771842755444739 0 0.30712914786831319 0.28893837931773431 0 0.30089464768156748 0.27871015228239021 0 0.31327452521932347 0.28219084843773462 0 0.30712914786831319 0.28893837931773431 0 0.31327452521932347 0.28219084843773462 0 0.31513073797751229 0.29248097102740611 0 0.30770884304192081 0.29876652671894632 0 0.30712914786831319 0.28893837931773431 0 0.31513073797751229 0.29248097102740611 0 0.30770884304192081 0.29876652671894632 0 0.30712914786831319 0.28893837931773431 0 0.29832718114697437 0.29116622019223459 0 0.30770884304192081 0.29876652671894632 0 0.30318440913936229 0.29653400531568352 0 0.29832718114697437 0.29116622019223459 0 0.30770884304192081 0.29876652671894632 0 0.29832718114697437 0.29116622019223459 0 0.30318440913936229 0.29653400531568352 0 0.29832718114697437 0.29116622019223459 0 0.2963310130069271 0.2999656034261251 0 0.30318440913936229 0.29653400531568352 0 0.29832718114697437 0.29116622019223459 0 0.30712914786831319 0.28893837931773431 0 0.29832718114697437 0.29116622019223459 0 0.30089464768156748 0.27871015228239021 0 0.29832718114697437 0.29116622019223459 0 0.28662992264078208 0.27823942937799928 0 0.30089464768156748 0.27871015228239021 0 0.29832718114697437 0.29116622019223459 0 0.28662992264078208 0.27823942937799928 0 0.28497454643931169 0.28034893452857729 0 0.29832718114697437 0.29116622019223459 0 0.28814274265779022 0.29355716912655649 0 0.28497454643931169 0.28034893452857729 0 0.29832718114697437 0.29116622019223459 0 0.28497454643931169 0.28034893452857729 0 0.29832718114697437 0.29116622019223459 0 0.28662992264078208 0.27823942937799928 0 0.29832718114697437 0.29116622019223459 0 0.28814274265779022 0.29355716912655649 0 0.2963310130069271 0.2999656034261251 0 0.28814274265779022 0.29355716912655649 0 0.28599290983958892 0.30335745302351558 0 0.27508806285615273 0.29294763446232758 0 0.28814274265779022 0.29355716912655649 0 0.27508806285615273 0.29294763446232758 0 0.28497454643931169 0.28034893452857729 0 0.30053989096607042 0.30771842755444739 0 0.29325047522820141 0.3083137791763283 0 0.2963310130069271 0.2999656034261251 0 0.28675334147524828 0.31290843621564413 0 0.29512442866507688 0.31493215827085158 0 0.29325047522820141 0.3083137791763283 0 0.29512442866507688 0.31493215827085158 0 0.30053989096607042 0.30771842755444739 0 0.29325047522820141 0.3083137791763283 0 0.28814274265779022 0.29355716912655649 0 0.2963310130069271 0.2999656034261251 0 0.28599290983958892 0.30335745302351558 0 0.29325047522820141 0.3083137791763283 0 0.2963310130069271 0.2999656034261251 0 0.28599290983958892 0.30335745302351558 0 0.28675334147524828 0.31290843621564413 0 0.29325047522820141 0.3083137791763283 0 0.28599290983958892 0.30335745302351558 0 0.28675334147524828 0.31290843621564413 0 0.28599290983958892 0.30335745302351558 0 0.27550579204514142 0.31204384804399121 0 0.27550579204514142 0.31204384804399121 0 0.27508806285615273 0.29294763446232758 0 0.27550579204514142 0.31204384804399121 0 0.27508806285615273 0.29294763446232758 0 0.26382887235950991 0.3072956239543374 0 0.28599290983958892 0.30335745302351558 0 0.27550579204514142 0.31204384804399121 0 0.27508806285615273 0.29294763446232758 0 0.27508806285615273 0.29294763446232758 0 0.26382887235950991 0.3072956239543374 0 0.27508806285615273 0.29294763446232758 0 0.25399091957574521 0.29199365062212068 0 0.27462913100498731 0.27196786843097581 0 0.27508806285615273 0.29294763446232758 0 0.27462913100498731 0.27196786843097581 0 0.27508806285615273 0.29294763446232758 0 0.27462913100498731 0.27196786843097581 0 0.28497454643931169 0.28034893452857729 0 0.27508806285615273 0.29294763446232758 0 0.28497454643931169 0.28034893452857729 0 0.23783836536509301 0.31565336997886329 0 0.25399091957574521 0.29199365062212068 0 0.26382887235950991 0.3072956239543374 0 0.27508806285615273 0.29294763446232758 0 0.25399091957574521 0.29199365062212068 0 0.26382887235950991 0.3072956239543374 0 0.27447242198079752 0.26480401904038969 0 0.2551851394074478 0.2434893950138429 0 0.25247275738948288 0.25401846534185119 0 0.25167401287834568 0.27306833633317068 0 0.27014347378639753 0.26833393126537808 0 0.25247275738948288 0.25401846534185119 0 0.27447242198079752 0.26480401904038969 0 0.2551851394074478 0.2434893950138429 0 0.25247275738948288 0.25401846534185119 0 0.27014347378639753 0.26833393126537808 0 0.25399091957574521 0.29199365062212068 0 0.25167401287834568 0.27306833633317068 0 0.27014347378639753 0.26833393126537808 0 0.25399091957574521 0.29199365062212068 0 0.27014347378639753 0.26833393126537808 0 0.25399091957574521 0.29199365062212068 0 0.27014347378639753 0.26833393126537808 0 0.27462913100498731 0.27196786843097581 0 0.27014347378639753 0.26833393126537808 0 0.27462913100498731 0.27196786843097581 0 0.27014347378639753 0.26833393126537808 0 0.27447242198079752 0.26480401904038969 0 0.27014347378639753 0.26833393126537808 0 0.27462913100498731 0.27196786843097581 0 0.27447242198079752 0.26480401904038969 0 0.27462913100498731 0.27196786843097581 0 0.28497454643931169 0.28034893452857729 0 0.27447242198079752 0.26480401904038969 0 0.28662992264078208 0.27823942937799928 0 0.27462913100498731 0.27196786843097581 0 0.27447242198079752 0.26480401904038969 0 0.28662992264078208 0.27823942937799928 0 0.27462913100498731 0.27196786843097581 0 0.27447242198079752 0.26480401904038969 0 0.27441284082051898 0.26208030570617857 0 0.27422647013237161 0.25356049296603311 0 0.29054302336085919 0.2384533556213457 0 0.25247275738948288 0.25401846534185119 0 0.27014347378639753 0.26833393126537808 0 0.27447242198079752 0.26480401904038969 0 0.27441284082051898 0.26208030570617857 0 0.27447242198079752 0.26480401904038969 0 0.28529465150197619 0.26084993190309452 0 0.27447242198079752 0.26480401904038969 0 0.2675309988367966 0.24592861094083041 0 0.2551851394074478 0.2434893950138429 0 0.27441284082051898 0.26208030570617857 0 0.27422647013237161 0.25356049296603311 0 0.27441284082051898 0.26208030570617857 0 0.27447242198079752 0.26480401904038969 0 0.2675309988367966 0.24592861094083041 0 0.27441284082051898 0.26208030570617857 0 0.27422647013237161 0.25356049296603311 0 0.2675309988367966 0.24592861094083041 0 0.27441284082051898 0.26208030570617857 0 0.27447242198079752 0.26480401904038969 0 0.27441284082051898 0.26208030570617857 0 0.28529465150197619 0.26084993190309452 0 0.29054302336085919 0.2384533556213457 0 0.28529465150197619 0.26084993190309452 0 0.30041504870691937 0.26067254976955972 0 0.29054302336085919 0.2384533556213457 0 0.27441284082051898 0.26208030570617857 0 0.29054302336085919 0.2384533556213457 0 0.28662992264078208 0.27823942937799928 0 0.30089464768156748 0.27871015228239021 0 0.30041504870691937 0.26067254976955972 0 0.28662992264078208 0.27823942937799928 0 0.30041504870691937 0.26067254976955972 0 0.28529465150197619 0.26084993190309452 0 0.28662992264078208 0.27823942937799928 0 0.30041504870691937 0.26067254976955972 0 0.27447242198079752 0.26480401904038969 0 0.28529465150197619 0.26084993190309452 0 0.28662992264078208 0.27823942937799928 0 0.27462913100498731 0.27196786843097581 0 0.28662992264078208 0.27823942937799928 0 0.28497454643931169 0.28034893452857729 0 0.28662992264078208 0.27823942937799928 0 0.28497454643931169 0.28034893452857729 0 0.30089464768156748 0.27871015228239021 0 0.30958868033141562 0.27119550140247639 0 0.30041504870691937 0.26067254976955972 0 0.30089464768156748 0.27871015228239021 0 0.30958868033141562 0.27119550140247639 0 0.31327452521932347 0.28219084843773462 0 0.30041504870691937 0.26067254976955972 0 0.31560987909873173 0.26189653626922149 0 0.31420017477305739 0.2431056701611205 0 0.30041504870691937 0.26067254976955972 0 0.31420017477305739 0.2431056701611205 0 0.30958868033141562 0.27119550140247639 0 0.30041504870691937 0.26067254976955972 0 0.31560987909873173 0.26189653626922149 0 0.31560987909873173 0.26189653626922149 0 0.32640088188025451 0.25485336633590389 0 0.31420017477305739 0.2431056701611205 0 0.31560987909873173 0.26189653626922149 0 0.32640088188025451 0.25485336633590389 0 0.32654563066655762 0.26567126039402472 0 0.32640088188025451 0.25485336633590389 0 0.33567128914585981 0.25335502600040072 0 0.32999523924895019 0.24481848980579379 0 0.32640088188025451 0.25485336633590389 0 0.33567128914585981 0.25335502600040072 0 0.33511633019422887 0.26099006842700267 0 0.32640088188025451 0.25485336633590389 0 0.33511633019422887 0.26099006842700267 0 0.32654563066655762 0.26567126039402472 0 0.33511633019422887 0.26099006842700267 0 0.34227510882408518 0.26388037280595011 0 0.33716369924465228 0.27138356787502987 0 0.33511633019422887 0.26099006842700267 0 0.34227510882408518 0.26388037280595011 0 0.34143956452662771 0.25756182202630462 0 0.33567128914585981 0.25335502600040072 0 0.34143956452662771 0.25756182202630462 0 0.34532353849112551 0.24899713256093869 0 0.33567128914585981 0.25335502600040072 0 0.33511633019422887 0.26099006842700267 0 0.34143956452662771 0.25756182202630462 0 0.33716369924465228 0.27138356787502987 0 0.34324048198635693 0.28231817667836773 0 0.34827198935151332 0.26964721830679078 0 0.33716369924465228 0.27138356787502987 0 0.33244740824808899 0.28314628250585511 0 0.34324048198635693 0.28231817667836773 0 0.34227510882408518 0.26388037280595011 0 0.33716369924465228 0.27138356787502987 0 0.34827198935151332 0.26964721830679078 0 0.33716369924465228 0.27138356787502987 0 0.32814029471333872 0.27510929435738252 0 0.32654563066655762 0.26567126039402472 0 0.33511633019422887 0.26099006842700267 0 0.33716369924465228 0.27138356787502987 0 0.32654563066655762 0.26567126039402472 0 0.33716369924465228 0.27138356787502987 0 0.32814029471333872 0.27510929435738252 0 0.33244740824808899 0.28314628250585511 0 0.32814029471333872 0.27510929435738252 0 0.32301487235009763 0.28472498267481322 0 0.33244740824808899 0.28314628250585511 0 0.32814029471333872 0.27510929435738252 0 0.32125956870258537 0.27816633986760819 0 0.31774930095053622 0.27250742025347618 0 0.32814029471333872 0.27510929435738252 0 0.32125956870258537 0.27816633986760819 0 0.32301487235009763 0.28472498267481322 0 0.32814029471333872 0.27510929435738252 0 0.32654563066655762 0.26567126039402472 0 0.31774930095053622 0.27250742025347618 0 0.30958868033141562 0.27119550140247639 0 0.31560987909873173 0.26189653626922149 0 0.31774930095053622 0.27250742025347618 0 0.31560987909873173 0.26189653626922149 0 0.32654563066655762 0.26567126039402472 0 0.31774930095053622 0.27250742025347618 0 0.30958868033141562 0.27119550140247639 0 0.31774930095053622 0.27250742025347618 0 0.31327452521932347 0.28219084843773462 0 0.32125956870258537 0.27816633986760819 0 0.31774930095053622 0.27250742025347618 0 0.31327452521932347 0.28219084843773462 0 0.32125956870258537 0.27816633986760819 0 0.31327452521932347 0.28219084843773462 0 0.32301487235009763 0.28472498267481322 0 0.31327452521932347 0.28219084843773462 0 0.31513073797751229 0.29248097102740611 0 0.32301487235009763 0.28472498267481322 0 0.31513073797751229 0.29248097102740611 0 0.32452661719670778 0.29621773490820408 0 0.31473550435619752 0.30010574377660421 0 0.31513073797751229 0.29248097102740611 0 0.32452661719670778 0.29621773490820408 0 0.32301487235009763 0.28472498267481322 0 0.32452661719670778 0.29621773490820408 0 0.32301487235009763 0.28472498267481322 0 0.33244740824808899 0.28314628250585511 0 0.32452661719670778 0.29621773490820408 0 0.31810320462676722 0.30772017370427102 0 0.3371677965176445 0.3068269800088812 0 0.31815942059527941 0.32225972019142468 0 0.31810320462676722 0.30772017370427102 0 0.3371677965176445 0.3068269800088812 0 0.32452661719670778 0.29621773490820408 0 0.31810320462676722 0.30772017370427102 0 0.31473550435619752 0.30010574377660421 0 0.30820811893807909 0.30534331252419311 0 0.31810320462676722 0.30772017370427102 0 0.31473550435619752 0.30010574377660421 0 0.30770884304192081 0.29876652671894632 0 0.31513073797751229 0.29248097102740611 0 0.31473550435619752 0.30010574377660421 0 0.32452661719670778 0.29621773490820408 0 0.3371677965176445 0.3068269800088812 0 0.33871169527776163 0.29198068278552908 0 0.32452661719670778 0.29621773490820408 0 0.33244740824808899 0.28314628250585511 0 0.33871169527776163 0.29198068278552908 0 0.33244740824808899 0.28314628250585511 0 0.33871169527776163 0.29198068278552908 0 0.34324048198635693 0.28231817667836773 0 0.34324048198635693 0.28231817667836773 0 0.35617617244000982 0.29139423982633761 0 0.35338435227663539 0.2796618805047803 0 0.33871169527776163 0.29198068278552908 0 0.34324048198635693 0.28231817667836773 0 0.35617617244000982 0.29139423982633761 0 0.3371677965176445 0.3068269800088812 0 0.33871169527776163 0.29198068278552908 0 0.35617617244000982 0.29139423982633761 0 0.35617617244000982 0.29139423982633761 0 0.36272998231573778 0.27614849386931112 0 0.35338435227663539 0.2796618805047803 0 0.358842304332599 0.32371848894677829 0 0.3371677965176445 0.3068269800088812 0 0.35857424703706159 0.30663585435998991 0 0.3371677965176445 0.3068269800088812 0 0.35617617244000982 0.29139423982633761 0 0.3371677965176445 0.3068269800088812 0 0.35617617244000982 0.29139423982633761 0 0.35857424703706159 0.30663585435998991 0 0.37269506830413179 0.31359601771975171 0 0.35857424703706159 0.30663585435998991 0 0.37203420274818311 0.29150384376524258 0 0.35617617244000982 0.29139423982633761 0 0.35857424703706159 0.30663585435998991 0 0.37203420274818311 0.29150384376524258 0 0.35617617244000982 0.29139423982633761 0 0.37203420274818311 0.29150384376524258 0 0.37518454836237503 0.27596149964379407 0 0.35617617244000982 0.29139423982633761 0 0.37518454836237503 0.27596149964379407 0 0.36272998231573778 0.27614849386931112 0 0.36950828965322308 0.27234168192356689 0 0.37518454836237503 0.27596149964379407 0 0.35617617244000982 0.29139423982633761 0 0.36272998231573778 0.27614849386931112 0 0.37518454836237503 0.27596149964379407 0 0.36272998231573778 0.27614849386931112 0 0.36488473365173157 0.26992388639412002 0 0.3567239203370785 0.26918607771553182 0 0.36488473365173157 0.26992388639412002 0 0.37450343330610869 0.26968011321283319 0 0.36095804264650988 0.26226306524935722 0 0.36488473365173157 0.26992388639412002 0 0.36095804264650988 0.26226306524935722 0 0.3567239203370785 0.26918607771553182 0 0.36272998231573778 0.27614849386931112 0 0.36488473365173157 0.26992388639412002 0 0.36950828965322308 0.27234168192356689 0 0.36488473365173157 0.26992388639412002 0 0.36950828965322308 0.27234168192356689 0 0.37450343330610869 0.26968011321283319 0 0.36950828965322308 0.27234168192356689 0 0.37450343330610869 0.26968011321283319 0 0.37518454836237503 0.27596149964379407 0 0.37450343330610869 0.26968011321283319 0 0.36554718467112712 0.25398456366339739 0 0.35307730466155363 0.24934873687200709 0 0.37450343330610869 0.26968011321283319 0 0.35307730466155363 0.24934873687200709 0 0.37450343330610869 0.26968011321283319 0 0.36095804264650988 0.26226306524935722 0 0.35307730466155363 0.24934873687200709 0 0.37450343330610869 0.26968011321283319 0 0.37165401412278792 0.25676858897620308 0 0.37809610805639471 0.26009187514795279 0 0.37450343330610869 0.26968011321283319 0 0.37165401412278792 0.25676858897620308 0 0.36554718467112712 0.25398456366339739 0 0.37165401412278792 0.25676858897620308 0 0.36935999944055858 0.25035342442963759 0 0.37693108616487392 0.25112149136587758 0 0.37165401412278792 0.25676858897620308 0 0.36935999944055858 0.25035342442963759 0 0.36554718467112712 0.25398456366339739 0 0.36935999944055858 0.25035342442963759 0 0.36554718467112712 0.25398456366339739 0 0.36312229485699982 0.24630684093376251 0 0.36095804264650988 0.26226306524935722 0 0.34938396080340361 0.25981918739462251 0 0.3567239203370785 0.26918607771553182 0 0.36095804264650988 0.26226306524935722 0 0.34938396080340361 0.25981918739462251 0 0.35307730466155363 0.24934873687200709 0 0.34143956452662771 0.25756182202630462 0 0.34938396080340361 0.25981918739462251 0 0.34532353849112551 0.24899713256093869 0 0.34938396080340361 0.25981918739462251 0 0.35307730466155363 0.24934873687200709 0 0.34532353849112551 0.24899713256093869 0 0.34227510882408518 0.26388037280595011 0 0.34938396080340361 0.25981918739462251 0 0.34827198935151332 0.26964721830679078 0 0.34227510882408518 0.26388037280595011 0 0.34143956452662771 0.25756182202630462 0 0.34938396080340361 0.25981918739462251 0 0.34938396080340361 0.25981918739462251 0 0.34827198935151332 0.26964721830679078 0 0.3567239203370785 0.26918607771553182 0 0.34324048198635693 0.28231817667836773 0 0.34827198935151332 0.26964721830679078 0 0.35338435227663539 0.2796618805047803 0 0.36272998231573778 0.27614849386931112 0 0.35338435227663539 0.2796618805047803 0 0.3567239203370785 0.26918607771553182 0 0.34827198935151332 0.26964721830679078 0 0.35338435227663539 0.2796618805047803 0 0.3567239203370785 0.26918607771553182 0 0.39705613616356772 0.26049928830228081 0 0.3902612304969964 0.2718294864107822 0 0.41024715033577219 0.27622005377076342 0 0.3902612304969964 0.2718294864107822 0 0.3962271982206832 0.28215443287103059 0 0.41024715033577219 0.27622005377076342 0 0.39705613616356772 0.26049928830228081 0 0.40936178095289738 0.25240399705514732 0 0.39365908746925121 0.2498125304894577 0 0.39705613616356772 0.26049928830228081 0 0.41024715033577219 0.27622005377076342 0 0.40936178095289738 0.25240399705514732 0 0.39705613616356772 0.26049928830228081 0 0.38475193633257748 0.25617205851349262 0 0.39365908746925121 0.2498125304894577 0 0.39705613616356772 0.26049928830228081 0 0.3836819489706409 0.2653200328779155 0 0.38475193633257748 0.25617205851349262 0 0.38475193633257748 0.25617205851349262 0 0.39365908746925121 0.2498125304894577 0 0.38475748107919799 0.247937755230528 0 0.38475193633257748 0.25617205851349262 0 0.37693108616487392 0.25112149136587758 0 0.38475748107919799 0.247937755230528 0 0.38475193633257748 0.25617205851349262 0 0.37693108616487392 0.25112149136587758 0 0.37809610805639471 0.26009187514795279 0 0.37165401412278792 0.25676858897620308 0 0.37693108616487392 0.25112149136587758 0 0.37809610805639471 0.26009187514795279 0 0.37450343330610869 0.26968011321283319 0 0.3836819489706409 0.2653200328779155 0 0.37809610805639471 0.26009187514795279 0 0.3836819489706409 0.2653200328779155 0 0.38475193633257748 0.25617205851349262 0 0.37809610805639471 0.26009187514795279 0 0.37450343330610869 0.26968011321283319 0 0.3836819489706409 0.2653200328779155 0 0.38158659433236858 0.27246955003463152 0 0.37450343330610869 0.26968011321283319 0 0.38158659433236858 0.27246955003463152 0 0.37518454836237503 0.27596149964379407 0 0.3836819489706409 0.2653200328779155 0 0.38158659433236858 0.27246955003463152 0 0.3902612304969964 0.2718294864107822 0 0.39705613616356772 0.26049928830228081 0 0.3836819489706409 0.2653200328779155 0 0.3902612304969964 0.2718294864107822 0 0.3902612304969964 0.2718294864107822 0 0.38430181052572188 0.27955661802783272 0 0.3962271982206832 0.28215443287103059 0 0.38158659433236858 0.27246955003463152 0 0.3902612304969964 0.2718294864107822 0 0.38430181052572188 0.27955661802783272 0 0.38158659433236858 0.27246955003463152 0 0.38430181052572188 0.27955661802783272 0 0.37518454836237503 0.27596149964379407 0 0.38430181052572188 0.27955661802783272 0 0.37518454836237503 0.27596149964379407 0 0.37956272795761331 0.2844551960469433 0 0.37203420274818311 0.29150384376524258 0 0.37518454836237503 0.27596149964379407 0 0.37956272795761331 0.2844551960469433 0 0.37203420274818311 0.29150384376524258 0 0.37956272795761331 0.2844551960469433 0 0.38673035019417301 0.29079882275090368 0 0.37203420274818311 0.29150384376524258 0 0.38673035019417301 0.29079882275090368 0 0.38456916255995699 0.3048330440725 0 0.38430181052572188 0.27955661802783272 0 0.37956272795761331 0.2844551960469433 0 0.38673035019417301 0.29079882275090368 0 0.38430181052572188 0.27955661802783272 0 0.38673035019417301 0.29079882275090368 0 0.3962271982206832 0.28215443287103059 0 0.37269506830413179 0.31359601771975171 0 0.37203420274818311 0.29150384376524258 0 0.38456916255995699 0.3048330440725 0 0.38673035019417301 0.29079882275090368 0 0.38456916255995699 0.3048330440725 0 0.39260572260290638 0.29858222563873721 0 0.38456916255995699 0.3048330440725 0 0.39928566715577007 0.30593227745083229 0 0.39071370797808991 0.32163173327551231 0 0.39260572260290638 0.29858222563873721 0 0.39928566715577007 0.30593227745083229 0 0.39983771050172562 0.2927647582807128 0 0.38456916255995699 0.3048330440725 0 0.39260572260290638 0.29858222563873721 0 0.39928566715577007 0.30593227745083229 0 0.39928566715577007 0.30593227745083229 0 0.39983771050172562 0.2927647582807128 0 0.41113251971864678 0.30003611048637963 0 0.3962271982206832 0.28215443287103059 0 0.39983771050172562 0.2927647582807128 0 0.41024715033577219 0.27622005377076342 0 0.38673035019417301 0.29079882275090368 0 0.3962271982206832 0.28215443287103059 0 0.39983771050172562 0.2927647582807128 0 0.38673035019417301 0.29079882275090368 0 0.39260572260290638 0.29858222563873721 0 0.39983771050172562 0.2927647582807128 0 0.41113251971864678 0.30003611048637963 0 0.42915198713048791 0.29928938767105417 0 0.42477304827116519 0.28608227672526487 0 0.41113251971864678 0.30003611048637963 0 0.42477304827116519 0.28608227672526487 0 0.41024715033577219 0.27622005377076342 0 0.41113251971864678 0.30003611048637963 0 0.41024715033577219 0.27622005377076342 0 0.39983771050172562 0.2927647582807128 0 0.41113251971864678 0.30003611048637963 0 0.41024715033577219 0.27622005377076342 0 0.42136197396174502 0.30826541372809818 0 0.41113251971864678 0.30003611048637963 0 0.41391887797310511 0.31706761406649719 0 0.42136197396174502 0.30826541372809818 0 0.41113251971864678 0.30003611048637963 0 0.42915198713048791 0.29928938767105417 0 0.39928566715577007 0.30593227745083229 0 0.41113251971864678 0.30003611048637963 0 0.41391887797310511 0.31706761406649719 0 0.42915198713048791 0.29928938767105417 0 0.44469569897523198 0.30507367697079468 0 0.43124451102474037 0.31666854268846212 0 0.42136197396174502 0.30826541372809818 0 0.42915198713048791 0.29928938767105417 0 0.43124451102474037 0.31666854268846212 0 0.42915198713048791 0.29928938767105417 0 0.42477304827116519 0.28608227672526487 0 0.44225776140102402 0.28410073860180768 0 0.42477304827116519 0.28608227672526487 0 0.43107582276989492 0.27076509309631941 0 0.41024715033577219 0.27622005377076342 0 0.42477304827116519 0.28608227672526487 0 0.43107582276989492 0.27076509309631941 0 0.44225776140102402 0.28410073860180768 0 0.43107582276989492 0.27076509309631941 0 0.41024715033577219 0.27622005377076342 0 0.42337495438113032 0.25825232539008242 0 0.40936178095289738 0.25240399705514732 0 0.42337495438113032 0.25825232539008242 0 0.42478978643733262 0.2415555153052843 0 0.41024715033577219 0.27622005377076342 0 0.40936178095289738 0.25240399705514732 0 0.41024715033577219 0.27622005377076342 0 0.40936178095289738 0.25240399705514732 0 0.42337495438113032 0.25825232539008242 0 0.43107582276989492 0.27076509309631941 0 0.42337495438113032 0.25825232539008242 0 0.44110316130464111 0.25452309027103831 0 0.42337495438113032 0.25825232539008242 0 0.44110316130464111 0.25452309027103831 0 0.42478978643733262 0.2415555153052843 0 0.43107582276989492 0.27076509309631941 0 0.44110316130464111 0.25452309027103831 0 0.45649527658784839 0.26675835185486307 0 0.44110316130464111 0.25452309027103831 0 0.45649527658784839 0.26675835185486307 0 0.45439012142468871 0.24678647365181461 0 0.44110316130464111 0.25452309027103831 0 0.45649527658784839 0.26675835185486307 0 0.45649527658784839 0.26675835185486307 0 0.44225776140102402 0.28410073860180768 0 0.45649527658784839 0.26675835185486307 0 0.45689864209029901 0.29214778015432769 0 0.44225776140102402 0.28410073860180768 0 0.43107582276989492 0.27076509309631941 0 0.45649527658784839 0.26675835185486307 0 0.44225776140102402 0.28410073860180768 0 0.45649527658784839 0.26675835185486307 0 0.47027739279820008 0.28214181720209691 0 0.45689864209029901 0.29214778015432769 0 0.45649527658784839 0.26675835185486307 0 0.4639266926722645 0.27266561788413168 0 0.45649527658784839 0.26675835185486307 0 0.4639266926722645 0.27266561788413168 0 0.47027739279820008 0.28214181720209691 0 0.45649527658784839 0.26675835185486307 0 0.47027739279820008 0.28214181720209691 0 0.45649527658784839 0.26675835185486307 0 0.4639266926722645 0.27266561788413168 0 0.47099685105856659 0.24909432062393899 0 0.45649527658784839 0.26675835185486307 0 0.45439012142468871 0.24678647365181461 0 0.47099685105856659 0.24909432062393899 0 0.45649527658784839 0.26675835185486307 0 0.47099685105856659 0.24909432062393899 0 0.48332510613244078 0.26263993867580659 0 0.48796407654405838 0.24861642653093519 0 0.47099685105856659 0.24909432062393899 0 0.4639266926722645 0.27266561788413168 0 0.47472879472773472 0.26916864035384208 0 0.47099685105856659 0.24909432062393899 0 0.48332510613244078 0.26263993867580659 0 0.47472879472773472 0.26916864035384208 0 0.47099685105856659 0.24909432062393899 0 0.48332510613244078 0.26263993867580659 0 0.47472879472773472 0.26916864035384208 0 0.48511793097720157 0.27930150738323628 0 0.4639266926722645 0.27266561788413168 0 0.47472879472773472 0.26916864035384208 0 0.47027739279820008 0.28214181720209691 0 0.47472879472773472 0.26916864035384208 0 0.48511793097720157 0.27930150738323628 0 0.47027739279820008 0.28214181720209691 0 0.48332510613244078 0.26263993867580659 0 0.48511793097720157 0.27930150738323628 0 0.5 0.26202296992058038 0 0.48511793097720157 0.27930150738323628 0 0.5 0.26202296992058038 0 0.5 0.28615132579982561 0 0.48332510613244078 0.26263993867580659 0 0.5 0.26202296992058038 0 0.48796407654405838 0.24861642653093519 0 0.5 0.31027968167907072 0 0.48513869639910012 0.29621074944058379 0 0.48014786409732041 0.31580072554911109 0 0.5 0.31027968167907072 0 0.5 0.28615132579982561 0 0.48513869639910012 0.29621074944058379 0 0.5 0.31027968167907072 0 0.48513869639910012 0.29621074944058379 0 0.48511793097720157 0.27930150738323628 0 0.5 0.28615132579982561 0 0.48513869639910012 0.29621074944058379 0 0.48513869639910012 0.29621074944058379 0 0.47027739279820008 0.28214181720209691 0 0.48511793097720157 0.27930150738323628 0 0.48513869639910012 0.29621074944058379 0 0.47027739279820008 0.28214181720209691 0 0.48513869639910012 0.29621074944058379 0 0.47027739279820008 0.28214181720209691 0 0.47290731302890199 0.29692613969344789 0 0.47290731302890199 0.29692613969344789 0 0.46010508874384148 0.31843942354758542 0 0.48014786409732041 0.31580072554911109 0 0.48513869639910012 0.29621074944058379 0 0.47290731302890199 0.29692613969344789 0 0.48014786409732041 0.31580072554911109 0 0.45689864209029901 0.29214778015432769 0 0.44469569897523198 0.30507367697079468 0 0.46010508874384148 0.31843942354758542 0 0.47290731302890199 0.29692613969344789 0 0.45689864209029901 0.29214778015432769 0 0.46010508874384148 0.31843942354758542 0 0.47290731302890199 0.29692613969344789 0 0.46010508874384148 0.31843942354758542 0 0.47027739279820008 0.28214181720209691 0 0.47290731302890199 0.29692613969344789 0 0.45689864209029901 0.29214778015432769 0 0.45689864209029901 0.29214778015432769 0 0.44225776140102402 0.28410073860180768 0 0.44469569897523198 0.30507367697079468 0 0.42915198713048791 0.29928938767105417 0 0.44225776140102402 0.28410073860180768 0 0.44469569897523198 0.30507367697079468 0 0.44470397357642028 0.32128765073749371 0 0.44730286445878098 0.3399527074017229 0 0.46010508874384148 0.31843942354758542 0 0.44469569897523198 0.30507367697079468 0 0.44470397357642028 0.32128765073749371 0 0.46010508874384148 0.31843942354758542 0 0.44469569897523198 0.30507367697079468 0 0.44470397357642028 0.32128765073749371 0 0.43124451102474037 0.31666854268846212 0 0.44470397357642028 0.32128765073749371 0 0.43691589271420828 0.32986554473293189 0 0.43124451102474037 0.31666854268846212 0 0.44470397357642028 0.32128765073749371 0 0.44730286445878098 0.3399527074017229 0 0.43691589271420828 0.32986554473293189 0 0.44730286445878098 0.3399527074017229 0 0.43265384881474422 0.34256724188644422 0 0.43691589271420828 0.32986554473293189 0 0.46090134613873712 0.33332270228030941 0 0.47512241224205709 0.33623688617795727 0 0.45654661427372062 0.34612786982151539 0 0.44730286445878098 0.3399527074017229 0 0.46090134613873712 0.33332270228030941 0 0.46010508874384148 0.31843942354758542 0 0.46090134613873712 0.33332270228030941 0 0.46010508874384148 0.31843942354758542 0 0.47512241224205709 0.33623688617795727 0 0.44730286445878098 0.3399527074017229 0 0.46010508874384148 0.31843942354758542 0 0.44730286445878098 0.3399527074017229 0 0.46090134613873712 0.33332270228030941 0 0.45654661427372062 0.34612786982151539 0 0.46010508874384148 0.31843942354758542 0 0.48014786409732041 0.31580072554911109 0 0.47512241224205709 0.33623688617795727 0 0.48014786409732041 0.31580072554911109 0 0.47512241224205709 0.33623688617795727 0 0.5 0.33912057163650389 0 0.5 0.31027968167907072 0 0.48014786409732041 0.31580072554911109 0 0.5 0.33912057163650389 0 0.50000000000000089 0.36796146159393711 0 0.47827330713686089 0.35704466570772608 0 0.50000000000000089 0.36796146159393711 0 0.47827330713686089 0.35704466570772608 0 0.47901029300138559 0.37718938986322148 0 0.47512241224205709 0.33623688617795727 0 0.5 0.33912057163650389 0 0.47827330713686089 0.35704466570772608 0 0.5 0.33912057163650389 0 0.50000000000000089 0.36796146159393711 0 0.47827330713686089 0.35704466570772608 0 0.47512241224205709 0.33623688617795727 0 0.47827330713686089 0.35704466570772608 0 0.45654661427372062 0.34612786982151539 0 0.47827330713686089 0.35704466570772608 0 0.46351068266460821 0.36336061304530498 0 0.47901029300138559 0.37718938986322148 0 0.46351068266460821 0.36336061304530498 0 0.4589480855614646 0.37952376083574141 0 0.47901029300138559 0.37718938986322148 0 0.46351068266460821 0.36336061304530498 0 0.44877833754571772 0.35891712010380372 0 0.4589480855614646 0.37952376083574141 0 0.47827330713686089 0.35704466570772608 0 0.46351068266460821 0.36336061304530498 0 0.45654661427372062 0.34612786982151539 0 0.46351068266460821 0.36336061304530498 0 0.45654661427372062 0.34612786982151539 0 0.44877833754571772 0.35891712010380372 0 0.47827330713686089 0.35704466570772608 0 0.45654661427372062 0.34612786982151539 0 0.44730286445878098 0.3399527074017229 0 0.45654661427372062 0.34612786982151539 0 0.44877833754571772 0.35891712010380372 0 0.44730286445878098 0.3399527074017229 0 0.43450064017372048 0.36146599125586049 0 0.43265384881474422 0.34256724188644422 0 0.44730286445878098 0.3399527074017229 0 0.43450064017372048 0.36146599125586049 0 0.44730286445878098 0.3399527074017229 0 0.44877833754571772 0.35891712010380372 0 0.43450064017372048 0.36146599125586049 0 0.44877833754571772 0.35891712010380372 0 0.43930744269236272 0.38131204811245978 0 0.4589480855614646 0.37952376083574141 0 0.44877833754571772 0.35891712010380372 0 0.43450064017372048 0.36146599125586049 0 0.43930744269236272 0.38131204811245978 0 0.43450064017372048 0.36146599125586049 0 0.42169841588866003 0.38297927510999807 0 0.43450064017372048 0.36146599125586049 0 0.4193749022335686 0.36727603989734892 0 0.4209507715624351 0.34957863471427408 0 0.43450064017372048 0.36146599125586049 0 0.4193749022335686 0.36727603989734892 0 0.42169841588866003 0.38297927510999807 0 0.4193749022335686 0.36727603989734892 0 0.40832402990732453 0.36170932982868242 0 0.41121357935606079 0.37832888934782949 0 0.4193749022335686 0.36727603989734892 0 0.40832402990732453 0.36170932982868242 0 0.4209507715624351 0.34957863471427408 0 0.40832402990732453 0.36170932982868242 0 0.40054506364770592 0.38424856797896012 0 0.41121357935606079 0.37832888934782949 0 0.40832402990732453 0.36170932982868242 0 0.41121357935606079 0.37832888934782949 0 0.40832402990732453 0.36170932982868242 0 0.4209507715624351 0.34957863471427408 0 0.4038048485315473 0.33382080363975741 0 0.43450064017372048 0.36146599125586049 0 0.4209507715624351 0.34957863471427408 0 0.43265384881474422 0.34256724188644422 0 0.4209507715624351 0.34957863471427408 0 0.43265384881474422 0.34256724188644422 0 0.42359907516457612 0.3319733313274314 0 0.43265384881474422 0.34256724188644422 0 0.43691589271420828 0.32986554473293189 0 0.42359907516457612 0.3319733313274314 0 0.42136197396174502 0.30826541372809818 0 0.43124451102474037 0.31666854268846212 0 0.41391887797310511 0.31706761406649719 0 0.42359907516457612 0.3319733313274314 0 0.43124451102474037 0.31666854268846212 0 0.41391887797310511 0.31706761406649719 0 0.43691589271420828 0.32986554473293189 0 0.42359907516457612 0.3319733313274314 0 0.43124451102474037 0.31666854268846212 0 0.42359907516457612 0.3319733313274314 0 0.41391887797310511 0.31706761406649719 0 0.4038048485315473 0.33382080363975741 0 0.4209507715624351 0.34957863471427408 0 0.42359907516457612 0.3319733313274314 0 0.4038048485315473 0.33382080363975741 0 0.4038048485315473 0.33382080363975741 0 0.39071370797808991 0.32163173327551231 0 0.38678874952352971 0.34420164517782442 0 0.39928566715577007 0.30593227745083229 0 0.41391887797310511 0.31706761406649719 0 0.4038048485315473 0.33382080363975741 0 0.39928566715577007 0.30593227745083229 0 0.4038048485315473 0.33382080363975741 0 0.39071370797808991 0.32163173327551231 0 0.39928566715577007 0.30593227745083229 0 0.4038048485315473 0.33382080363975741 0 0.37269506830413179 0.31359601771975171 0 0.39071370797808991 0.32163173327551231 0 0.37660830276601931 0.32775769020394202 0 0.37269506830413179 0.31359601771975171 0 0.38456916255995699 0.3048330440725 0 0.39071370797808991 0.32163173327551231 0 0.36781057592505167 0.33833319135141071 0 0.37660830276601931 0.32775769020394202 0 0.38678874952352971 0.34420164517782442 0 0.39071370797808991 0.32163173327551231 0 0.37660830276601931 0.32775769020394202 0 0.38678874952352971 0.34420164517782442 0 0.38678874952352971 0.34420164517782442 0 0.37810677920759522 0.35981427665085353 0 0.39073411173907152 0.3628013869794906 0 0.37417197045165879 0.34885544311155597 0 0.36781057592505167 0.33833319135141071 0 0.38678874952352971 0.34420164517782442 0 0.37417197045165879 0.34885544311155597 0 0.38678874952352971 0.34420164517782442 0 0.37810677920759522 0.35981427665085353 0 0.36777589667942212 0.36738284016723782 0 0.37810677920759522 0.35981427665085353 0 0.3808591980642354 0.36935705893597359 0 0.3808591980642354 0.36935705893597359 0 0.39073411173907152 0.3628013869794906 0 0.39228631565624089 0.37661564403979297 0 0.37810677920759522 0.35981427665085353 0 0.3808591980642354 0.36935705893597359 0 0.39073411173907152 0.3628013869794906 0 0.40832402990732453 0.36170932982868242 0 0.39073411173907152 0.3628013869794906 0 0.39228631565624089 0.37661564403979297 0 0.40832402990732453 0.36170932982868242 0 0.40054506364770592 0.38424856797896012 0 0.39228631565624089 0.37661564403979297 0 0.40832402990732453 0.36170932982868242 0 0.4038048485315473 0.33382080363975741 0 0.40832402990732453 0.36170932982868242 0 0.4038048485315473 0.33382080363975741 0 0.38678874952352971 0.34420164517782442 0 0.40832402990732453 0.36170932982868242 0 0.38678874952352971 0.34420164517782442 0 0.39073411173907152 0.3628013869794906 0 0.40184535627318257 0.39910654668166579 0 0.40054506364770592 0.38424856797896012 0 0.38742640511867998 0.39421346332705159 0 0.40184535627318257 0.39910654668166579 0 0.38742640511867998 0.39421346332705159 0 0.39221529461803328 0.40861845728242452 0 0.40184535627318257 0.39910654668166579 0 0.40054506364770592 0.38424856797896012 0 0.41316706566488809 0.38956457939410732 0 0.40054506364770592 0.38424856797896012 0 0.39228631565624089 0.37661564403979297 0 0.38742640511867998 0.39421346332705159 0 0.3808591980642354 0.36935705893597359 0 0.39228631565624089 0.37661564403979297 0 0.37539288703884721 0.38017114684249331 0 0.39228631565624089 0.37661564403979297 0 0.37539288703884721 0.38017114684249331 0 0.38742640511867998 0.39421346332705159 0 0.37250528002566369 0.39451893199837468 0 0.37539288703884721 0.38017114684249331 0 0.38742640511867998 0.39421346332705159 0 0.37250528002566369 0.39451893199837468 0 0.38742640511867998 0.39421346332705159 0 0.3771709686793116 0.41324975171031297 0 0.38742640511867998 0.39421346332705159 0 0.3771709686793116 0.41324975171031297 0 0.39221529461803328 0.40861845728242452 0 0.3771709686793116 0.41324975171031297 0 0.39119594375118871 0.42335027926176277 0 0.39221529461803328 0.40861845728242452 0 0.3771709686793116 0.41324975171031297 0 0.38279498211221491 0.4368780777270232 0 0.39119594375118871 0.42335027926176277 0 0.36517828598789159 0.42600130542859338 0 0.3771709686793116 0.41324975171031297 0 0.38279498211221491 0.4368780777270232 0 0.38279498211221491 0.4368780777270232 0 0.40298786693631061 0.43505017683546943 0 0.39119594375118871 0.42335027926176277 0 0.40298786693631061 0.43505017683546943 0 0.39119594375118871 0.42335027926176277 0 0.40343779926780332 0.41317224543132919 0 0.39119594375118871 0.42335027926176277 0 0.39221529461803328 0.40861845728242452 0 0.40343779926780332 0.41317224543132919 0 0.40184535627318257 0.39910654668166579 0 0.39221529461803328 0.40861845728242452 0 0.40343779926780332 0.41317224543132919 0 0.41662516911347242 0.42321949496834782 0 0.41431186190671188 0.40070595253147279 0 0.40343779926780332 0.41317224543132919 0 0.41662516911347242 0.42321949496834782 0 0.41431186190671188 0.40070595253147279 0 0.41662516911347242 0.42321949496834782 0 0.42695628441532663 0.40675967524157192 0 0.41431186190671188 0.40070595253147279 0 0.40298786693631061 0.43505017683546943 0 0.41662516911347242 0.42321949496834782 0 0.41893847632023279 0.44573303740522269 0 0.41662516911347242 0.42321949496834782 0 0.41893847632023279 0.44573303740522269 0 0.40298786693631061 0.43505017683546943 0 0.40343779926780332 0.41317224543132919 0 0.41662516911347242 0.42321949496834782 0 0.41662516911347242 0.42321949496834782 0 0.43913415372385989 0.43367083913401061 0 0.41893847632023279 0.44573303740522269 0 0.41662516911347242 0.42321949496834782 0 0.43872898477714628 0.41629725174610988 0 0.43913415372385989 0.43367083913401061 0 0.42695628441532663 0.40675967524157192 0 0.43726780355359107 0.39977502392165681 0 0.43872898477714628 0.41629725174610988 0 0.41662516911347242 0.42321949496834782 0 0.42695628441532663 0.40675967524157192 0 0.43872898477714628 0.41629725174610988 0 0.42695628441532663 0.40675967524157192 0 0.43726780355359107 0.39977502392165681 0 0.42560231621486122 0.39469232416070371 0 0.43726780355359107 0.39977502392165681 0 0.42560231621486122 0.39469232416070371 0 0.43930744269236272 0.38131204811245978 0 0.42695628441532663 0.40675967524157192 0 0.42560231621486122 0.39469232416070371 0 0.41431186190671188 0.40070595253147279 0 0.42560231621486122 0.39469232416070371 0 0.41431186190671188 0.40070595253147279 0 0.42169841588866003 0.38297927510999807 0 0.41431186190671188 0.40070595253147279 0 0.41316706566488809 0.38956457939410732 0 0.42169841588866003 0.38297927510999807 0 0.40184535627318257 0.39910654668166579 0 0.41431186190671188 0.40070595253147279 0 0.41316706566488809 0.38956457939410732 0 0.41431186190671188 0.40070595253147279 0 0.41316706566488809 0.38956457939410732 0 0.40184535627318257 0.39910654668166579 0 0.40343779926780332 0.41317224543132919 0 0.41431186190671188 0.40070595253147279 0 0.4193749022335686 0.36727603989734892 0 0.41121357935606079 0.37832888934782949 0 0.42169841588866003 0.38297927510999807 0 0.41121357935606079 0.37832888934782949 0 0.41316706566488809 0.38956457939410732 0 0.40054506364770592 0.38424856797896012 0 0.41121357935606079 0.37832888934782949 0 0.41316706566488809 0.38956457939410732 0 0.41121357935606079 0.37832888934782949 0 0.41316706566488809 0.38956457939410732 0 0.42169841588866003 0.38297927510999807 0 0.42560231621486122 0.39469232416070371 0 0.42169841588866003 0.38297927510999807 0 0.43930744269236272 0.38131204811245978 0 0.43450064017372048 0.36146599125586049 0 0.42169841588866003 0.38297927510999807 0 0.43930744269236272 0.38131204811245978 0 0.43930744269236272 0.38131204811245978 0 0.45299961115724269 0.39389462757998239 0 0.4589480855614646 0.37952376083574141 0 0.43726780355359107 0.39977502392165681 0 0.45299961115724269 0.39389462757998239 0 0.45576439787096068 0.4090203820957089 0 0.43726780355359107 0.39977502392165681 0 0.43930744269236272 0.38131204811245978 0 0.45299961115724269 0.39389462757998239 0 0.45299961115724269 0.39389462757998239 0 0.4589480855614646 0.37952376083574141 0 0.47371032610783459 0.39984192293434478 0 0.45299961115724269 0.39389462757998239 0 0.47371032610783459 0.39984192293434478 0 0.45576439787096068 0.4090203820957089 0 0.4589480855614646 0.37952376083574141 0 0.47901029300138559 0.37718938986322148 0 0.47371032610783459 0.39984192293434478 0 0.47901029300138559 0.37718938986322148 0 0.47371032610783459 0.39984192293434478 0 0.5 0.39526192888817779 0 0.47371032610783459 0.39984192293434478 0 0.5 0.39526192888817779 0 0.5 0.42256239618241842 0 0.50000000000000089 0.36796146159393711 0 0.47901029300138559 0.37718938986322148 0 0.5 0.39526192888817779 0 0.4855098544672572 0.43706352866914688 0 0.5 0.42256239618241842 0 0.5 0.44986286347665921 0 0.4855098544672572 0.43706352866914688 0 0.5 0.42256239618241842 0 0.47273196076548812 0.42244908330867442 0 0.47371032610783459 0.39984192293434478 0 0.5 0.42256239618241842 0 0.47273196076548812 0.42244908330867442 0 0.4855098544672572 0.43706352866914688 0 0.47273196076548812 0.42244908330867442 0 0.46252334248610638 0.4406261600767381 0 0.47273196076548812 0.42244908330867442 0 0.45459071994212807 0.42467712951313852 0 0.46252334248610638 0.4406261600767381 0 0.47371032610783459 0.39984192293434478 0 0.47273196076548812 0.42244908330867442 0 0.45576439787096068 0.4090203820957089 0 0.47273196076548812 0.42244908330867442 0 0.45459071994212807 0.42467712951313852 0 0.45576439787096068 0.4090203820957089 0 0.45459071994212807 0.42467712951313852 0 0.45576439787096068 0.4090203820957089 0 0.43872898477714628 0.41629725174610988 0 0.43726780355359107 0.39977502392165681 0 0.45576439787096068 0.4090203820957089 0 0.43872898477714628 0.41629725174610988 0 0.45459071994212807 0.42467712951313852 0 0.43913415372385989 0.43367083913401061 0 0.46252334248610638 0.4406261600767381 0 0.45459071994212807 0.42467712951313852 0 0.43872898477714628 0.41629725174610988 0 0.43913415372385989 0.43367083913401061 0 0.43913415372385989 0.43367083913401061 0 0.44021609021005692 0.45381012286699463 0 0.46252334248610638 0.4406261600767381 0 0.44021609021005692 0.45381012286699463 0 0.46205546153402122 0.45965735948073189 0 0.44750118901799529 0.47121883015169957 0 0.46205546153402122 0.45965735948073189 0 0.47375059450899759 0.47419108046129982 0 0.44750118901799529 0.47121883015169957 0 0.44021609021005692 0.45381012286699463 0 0.46205546153402122 0.45965735948073189 0 0.46252334248610638 0.4406261600767381 0 0.46205546153402122 0.45965735948073189 0 0.46252334248610638 0.4406261600767381 0 0.48014404242747388 0.45500198226831662 0 0.4855098544672572 0.43706352866914688 0 0.46252334248610638 0.4406261600767381 0 0.48014404242747388 0.45500198226831662 0 0.46205546153402122 0.45965735948073189 0 0.48014404242747388 0.45500198226831662 0 0.47375059450899759 0.47419108046129982 0 0.48014404242747388 0.45500198226831662 0 0.5 0.44986286347665921 0 0.49999999999999989 0.4771633307708999 0 0.4855098544672572 0.43706352866914688 0 0.48014404242747388 0.45500198226831662 0 0.5 0.44986286347665921 0 0.5 0.5 0 0.48255019692198847 0.48783860280804991 0 0.4564501931789563 0.5 0 0.5 0.5 0 0.49999999999999989 0.4771633307708999 0 0.48255019692198847 0.48783860280804991 0 0.49999999999999989 0.4771633307708999 0 0.47375059450899759 0.47419108046129982 0 0.49999999999999989 0.4771633307708999 0 0.47375059450899759 0.47419108046129982 0 0.48255019692198847 0.48783860280804991 0 0.48014404242747388 0.45500198226831662 0 0.49999999999999989 0.4771633307708999 0 0.47375059450899759 0.47419108046129982 0 0.47375059450899759 0.47419108046129982 0 0.48255019692198847 0.48783860280804991 0 0.4564501931789563 0.5 0 0.4564501931789563 0.5 0 0.44048234903058731 0.49033710746226628 0 0.42451450488221859 0.49999999999999878 0 0.47375059450899759 0.47419108046129982 0 0.4564501931789563 0.5 0 0.44750118901799529 0.47121883015169957 0 0.47375059450899759 0.47419108046129982 0 0.44750118901799529 0.47121883015169957 0 0.4564501931789563 0.5 0 0.44750118901799529 0.47121883015169957 0 0.44048234903058731 0.49033710746226628 0 0.42451450488221859 0.49999999999999878 0 0.4228831442046061 0.48412328992104831 0 0.44048234903058731 0.49033710746226628 0 0.42451450488221859 0.49999999999999878 0 0.4228831442046061 0.48412328992104831 0 0.42451450488221859 0.49999999999999878 0 0.40648166079482939 0.48228603773955919 0 0.39675279950560971 0.5 0 0.42451450488221859 0.49999999999999878 0 0.40648166079482939 0.48228603773955919 0 0.4228831442046061 0.48412328992104831 0 0.40648166079482939 0.48228603773955919 0 0.4153765113217554 0.47650582609521419 0 0.4228831442046061 0.48412328992104831 0 0.4153765113217554 0.47650582609521419 0 0.4228831442046061 0.48412328992104831 0 0.421251783526993 0.46824657984209789 0 0.40648166079482939 0.48228603773955919 0 0.4153765113217554 0.47650582609521419 0 0.411477688833223 0.46713984788241469 0 0.4153765113217554 0.47650582609521419 0 0.421251783526993 0.46824657984209789 0 0.411477688833223 0.46713984788241469 0 0.44750118901799529 0.47121883015169957 0 0.421251783526993 0.46824657984209789 0 0.4228831442046061 0.48412328992104831 0 0.421251783526993 0.46824657984209789 0 0.44750118901799529 0.47121883015169957 0 0.4228831442046061 0.48412328992104831 0 0.421251783526993 0.46824657984209789 0 0.44750118901799529 0.47121883015169957 0 0.44048234903058731 0.49033710746226628 0 0.4228831442046061 0.48412328992104831 0 0.44021609021005692 0.45381012286699463 0 0.44750118901799529 0.47121883015169957 0 0.421251783526993 0.46824657984209789 0 0.44021609021005692 0.45381012286699463 0 0.41893847632023279 0.44573303740522269 0 0.421251783526993 0.46824657984209789 0 0.43913415372385989 0.43367083913401061 0 0.44021609021005692 0.45381012286699463 0 0.41893847632023279 0.44573303740522269 0 0.40298786693631061 0.43505017683546943 0 0.41893847632023279 0.44573303740522269 0 0.40793606815755939 0.4539019709979058 0 0.41893847632023279 0.44573303740522269 0 0.421251783526993 0.46824657984209789 0 0.41893847632023279 0.44573303740522269 0 0.421251783526993 0.46824657984209789 0 0.40793606815755939 0.4539019709979058 0 0.421251783526993 0.46824657984209789 0 0.411477688833223 0.46713984788241469 0 0.421251783526993 0.46824657984209789 0 0.40793606815755939 0.4539019709979058 0 0.411477688833223 0.46713984788241469 0 0.40793606815755939 0.4539019709979058 0 0.39619455037201817 0.46480585428416621 0 0.39233796657963987 0.4483915732074632 0 0.40793606815755939 0.4539019709979058 0 0.411477688833223 0.46713984788241469 0 0.39619455037201817 0.46480585428416621 0 0.40298786693631061 0.43505017683546943 0 0.40793606815755939 0.4539019709979058 0 0.39233796657963987 0.4483915732074632 0 0.38279498211221491 0.4368780777270232 0 0.40298786693631061 0.43505017683546943 0 0.39233796657963987 0.4483915732074632 0 0.37078211607963019 0.44995535094209621 0 0.38279498211221491 0.4368780777270232 0 0.39233796657963987 0.4483915732074632 0 0.37078211607963019 0.44995535094209621 0 0.39619455037201817 0.46480585428416621 0 0.39233796657963987 0.4483915732074632 0 0.37078211607963019 0.44995535094209621 0 0.39619455037201817 0.46480585428416621 0 0.38276019481452661 0.47852410794061612 0 0.36899109412900072 0.5 0 0.38276019481452661 0.47852410794061612 0 0.39675279950560971 0.5 0 0.40648166079482939 0.48228603773955919 0 0.38276019481452661 0.47852410794061612 0 0.39675279950560971 0.5 0 0.40648166079482939 0.48228603773955919 0 0.39619455037201817 0.46480585428416621 0 0.38276019481452661 0.47852410794061612 0 0.40648166079482939 0.48228603773955919 0 0.411477688833223 0.46713984788241469 0 0.39619455037201817 0.46480585428416621 0 0.34017164993508342 0.079705387757931151 0 0.32126526078305312 0.085809954538699065 0 0.32562996225930979 0.099259616069516221 0 0.34017164993508342 0.079705387757931151 0 0.32562996225930979 0.099259616069516221 0 0.34608747018480668 0.099231547871760195 0 0.34017164993508342 0.079705387757931151 0 0.32052370830466043 0.071689256461331619 0 0.33372025595855898 0.053317969165790673 0 0.32052370830466043 0.071689256461331619 0 0.33372025595855898 0.053317969165790673 0 0.34017164993508342 0.079705387757931151 0 0.32052370830466043 0.071689256461331619 0 0.32126526078305312 0.085809954538699065 0 0.32052370830466043 0.071689256461331619 0 0.32126526078305312 0.085809954538699065 0 0.30732716065076099 0.09006054375687203 0 0.32052370830466043 0.071689256461331619 0 0.30732716065076099 0.09006054375687203 0 0.32126526078305312 0.085809954538699065 0 0.32562996225930979 0.099259616069516221 0 0.30732716065076099 0.09006054375687203 0 0.32562996225930979 0.099259616069516221 0 0.33102798148580748 0.1185134895208889 0 0.30860309687300819 0.10661927594420639 0 0.32562996225930979 0.099259616069516221 0 0.30732716065076099 0.09006054375687203 0 0.30860309687300819 0.10661927594420639 0 0.33102798148580748 0.1185134895208889 0 0.30273124653245381 0.1235288555175215 0 0.33102798148580748 0.1185134895208889 0 0.30273124653245381 0.1235288555175215 0 0.30860309687300819 0.10661927594420639 0 0.32562996225930979 0.099259616069516221 0 0.33102798148580748 0.1185134895208889 0 0.34608747018480668 0.099231547871760195 0 0.33102798148580748 0.1185134895208889 0 0.35932471643916081 0.1134981235242544 0 0.34990433144588828 0.13766573298981241 0 0.33102798148580748 0.1185134895208889 0 0.34608747018480668 0.099231547871760195 0 0.35932471643916081 0.1134981235242544 0 0.33102798148580748 0.1185134895208889 0 0.35932471643916081 0.1134981235242544 0 0.35932471643916081 0.1134981235242544 0 0.38762145139251158 0.108482757527606 0 0.35932471643916081 0.1134981235242544 0 0.37116644873757482 0.1272731574952862 0 0.38762145139251158 0.108482757527606 0 0.34608747018480668 0.099231547871760195 0 0.35932471643916081 0.1134981235242544 0 0.37428304080467212 0.085181122486210264 0 0.35932471643916081 0.1134981235242544 0 0.37428304080467212 0.085181122486210264 0 0.38762145139251158 0.108482757527606 0 0.34017164993508342 0.079705387757931151 0 0.37428304080467212 0.085181122486210264 0 0.36094463021682849 0.061879487444816861 0 0.34017164993508342 0.079705387757931151 0 0.34608747018480668 0.099231547871760195 0 0.37428304080467212 0.085181122486210264 0 0.34017164993508342 0.079705387757931151 0 0.36094463021682849 0.061879487444816861 0 0.33372025595855898 0.053317969165790673 0 0.37428304080467212 0.085181122486210264 0 0.36094463021682849 0.061879487444816861 0 0.36094463021682849 0.061879487444816861 0 0.37210288993999918 0.04768584512514757 0 0.34760621962898502 0.03857785240342345 0 0.36094463021682849 0.061879487444816861 0 0.37210288993999918 0.04768584512514757 0 0.3904366715797733 0.068618152357034126 0 0.37210288993999918 0.04768584512514757 0 0.34760621962898502 0.03857785240342345 0 0.36864859530982658 0.02996483807260069 0 0.36094463021682849 0.061879487444816861 0 0.34760621962898502 0.03857785240342345 0 0.33372025595855898 0.053317969165790673 0 0.36094463021682849 0.061879487444816861 0 0.34760621962898502 0.03857785240342345 0 0.36255471396815681 0.0080598112442611617 0 0.37232238509817878 -0.001610374512647025 0 0.3634290091795348 -0.00084253970199437951 0 0.36255471396815681 0.0080598112442611617 0 0.3634290091795348 -0.00084253970199437951 0 0.35649244884947728 -0.0003015438520561878 0 0.37480090979353559 0.012117275161245869 0 0.36255471396815681 0.0080598112442611617 0 0.37232238509817878 -0.001610374512647025 0 0.37480090979353559 0.012117275161245869 0 0.36255471396815681 0.0080598112442611617 0 0.36308935153047339 0.016933093311811639 0 0.36255471396815681 0.0080598112442611617 0 0.36308935153047339 0.016933093311811639 0 0.35502931094323009 0.012734618525939051 0 0.37480090979353559 0.012117275161245869 0 0.36308935153047339 0.016933093311811639 0 0.36864859530982658 0.02996483807260069 0 0.36308935153047339 0.016933093311811639 0 0.36864859530982658 0.02996483807260069 0 0.35441322763761812 0.021788923555011431 0 0.34760621962898502 0.03857785240342345 0 0.36864859530982658 0.02996483807260069 0 0.35441322763761812 0.021788923555011431 0 0.34760621962898502 0.03857785240342345 0 0.35441322763761812 0.021788923555011431 0 0.34326304420036408 0.0194921870122132 0 0.35441322763761812 0.021788923555011431 0 0.34851986820630709 0.014827616525162809 0 0.34326304420036408 0.0194921870122132 0 0.36308935153047339 0.016933093311811639 0 0.35441322763761812 0.021788923555011431 0 0.35502931094323009 0.012734618525939051 0 0.35441322763761812 0.021788923555011431 0 0.35502931094323009 0.012734618525939051 0 0.34851986820630709 0.014827616525162809 0 0.36255471396815681 0.0080598112442611617 0 0.35502931094323009 0.012734618525939051 0 0.35381985866206389 0.006352084917229028 0 0.35502931094323009 0.012734618525939051 0 0.34784750874900022 0.0084025314897217367 0 0.35381985866206389 0.006352084917229028 0 0.35502931094323009 0.012734618525939051 0 0.34851986820630709 0.014827616525162809 0 0.34784750874900022 0.0084025314897217367 0 0.34851986820630709 0.014827616525162809 0 0.34784750874900022 0.0084025314897217367 0 0.34177519209492668 0.0119638390803698 0 0.34851986820630709 0.014827616525162809 0 0.34177519209492668 0.0119638390803698 0 0.34326304420036408 0.0194921870122132 0 0.34784750874900022 0.0084025314897217367 0 0.34355263904323102 0.0064054792533849566 0 0.34177519209492668 0.0119638390803698 0 0.34784750874900022 0.0084025314897217367 0 0.34729495446360309 0.00099039251516278774 0 0.35381985866206389 0.006352084917229028 0 0.34784750874900022 0.0084025314897217367 0 0.34729495446360309 0.00099039251516278774 0 0.34355263904323102 0.0064054792533849566 0 0.36255471396815681 0.0080598112442611617 0 0.35381985866206389 0.006352084917229028 0 0.35649244884947728 -0.0003015438520561878 0 0.34729495446360309 0.00099039251516278774 0 0.35381985866206389 0.006352084917229028 0 0.35649244884947728 -0.0003015438520561878 0 0.33729290086539399 0.0042651539282855082 0 0.33426780904114151 0.01527621736203 0 0.31974752342260487 -0.010090103006627301 0 0.34729495446360309 0.00099039251516278774 0 0.34355263904323102 0.0064054792533849566 0 0.33729290086539399 0.0042651539282855082 0 0.34355263904323102 0.0064054792533849566 0 0.33729290086539399 0.0042651539282855082 0 0.34177519209492668 0.0119638390803698 0 0.33729290086539399 0.0042651539282855082 0 0.34177519209492668 0.0119638390803698 0 0.33426780904114151 0.01527621736203 0 0.34177519209492668 0.0119638390803698 0 0.33426780904114151 0.01527621736203 0 0.34326304420036408 0.0194921870122132 0 0.34760621962898502 0.03857785240342345 0 0.33426780904114151 0.01527621736203 0 0.34760621962898502 0.03857785240342345 0 0.33426780904114151 0.01527621736203 0 0.32521065086986672 0.035326696326929898 0 0.34760621962898502 0.03857785240342345 0 0.33426780904114151 0.01527621736203 0 0.34326304420036408 0.0194921870122132 0 0.31471320055579222 0.020160732042238508 0 0.32521065086986672 0.035326696326929898 0 0.30784501542109038 0.034940578045190858 0 0.33426780904114151 0.01527621736203 0 0.31471320055579222 0.020160732042238508 0 0.32521065086986672 0.035326696326929898 0 0.33426780904114151 0.01527621736203 0 0.31471320055579222 0.020160732042238508 0 0.33426780904114151 0.01527621736203 0 0.31471320055579222 0.020160732042238508 0 0.31486552590033517 0.0051080489061896828 0 0.33426780904114151 0.01527621736203 0 0.31974752342260487 -0.010090103006627301 0 0.33426780904114151 0.01527621736203 0 0.31486552590033517 0.0051080489061896828 0 0.31974752342260487 -0.010090103006627301 0 0.34760621962898502 0.03857785240342345 0 0.33372025595855898 0.053317969165790673 0 0.32521065086986672 0.035326696326929898 0 0.32521065086986672 0.035326696326929898 0 0.31331264685214189 0.051183735270734318 0 0.30784501542109038 0.034940578045190858 0 0.33372025595855898 0.053317969165790673 0 0.32521065086986672 0.035326696326929898 0 0.31331264685214189 0.051183735270734318 0 0.32052370830466043 0.071689256461331619 0 0.33372025595855898 0.053317969165790673 0 0.31331264685214189 0.051183735270734318 0 0.31331264685214189 0.051183735270734318 0 0.29123247123422741 0.04598029251926114 0 0.29980557654052081 0.068038008879200862 0 0.30784501542109038 0.034940578045190858 0 0.29123247123422741 0.04598029251926114 0 0.29515859207044293 0.025045246722447172 0 0.31331264685214189 0.051183735270734318 0 0.30784501542109038 0.034940578045190858 0 0.29123247123422741 0.04598029251926114 0 0.29123247123422741 0.04598029251926114 0 0.29515859207044293 0.025045246722447172 0 0.2756039835850938 0.029929761402655922 0 0.29123247123422741 0.04598029251926114 0 0.28279016652277528 0.067180270467253889 0 0.29980557654052081 0.068038008879200862 0 0.31486552590033517 0.0051080489061896828 0 0.30002338408281909 0.007883867274738967 0 0.30557571239931841 -0.0076904691414317571 0 0.31471320055579222 0.020160732042238508 0 0.31486552590033517 0.0051080489061896828 0 0.30002338408281909 0.007883867274738967 0 0.31471320055579222 0.020160732042238508 0 0.30002338408281909 0.007883867274738967 0 0.29515859207044293 0.025045246722447172 0 0.31471320055579222 0.020160732042238508 0 0.29515859207044293 0.025045246722447172 0 0.31471320055579222 0.020160732042238508 0 0.30784501542109038 0.034940578045190858 0 0.29515859207044293 0.025045246722447172 0 0.29515859207044293 0.025045246722447172 0 0.27689807354711288 0.02445084942121532 0 0.2756039835850938 0.029929761402655922 0 0.29515859207044293 0.025045246722447172 0 0.2756039835850938 0.029929761402655922 0 0.29515859207044293 0.025045246722447172 0 0.28636387491019488 0.01443983714020838 0 0.27689807354711288 0.02445084942121532 0 0.30002338408281909 0.007883867274738967 0 0.29515859207044293 0.025045246722447172 0 0.28636387491019488 0.01443983714020838 0 0.30002338408281909 0.007883867274738967 0 0.28636387491019488 0.01443983714020838 0 0.28768181064917658 0.0036370595610417918 0 0.28768181064917658 0.0036370595610417918 0 0.2761515963063163 0.0051915330766209898 0 0.28418256802486591 -0.0074972637063911319 0 0.28636387491019488 0.01443983714020838 0 0.28768181064917658 0.0036370595610417918 0 0.2761515963063163 0.0051915330766209898 0 0.30002338408281909 0.007883867274738967 0 0.28768181064917658 0.0036370595610417918 0 0.29470023381152188 -0.0033291965836443949 0 0.26563335961907458 0.0061016133698848663 0 0.2761515963063163 0.0051915330766209898 0 0.2718345607453051 -0.0026332906206296752 0 0.2761515963063163 0.0051915330766209898 0 0.27692463917797883 0.014823644242334051 0 0.26828501194829141 0.0152123573312915 0 0.28636387491019488 0.01443983714020838 0 0.2761515963063163 0.0051915330766209898 0 0.27692463917797883 0.014823644242334051 0 0.26563335961907458 0.0061016133698848663 0 0.2761515963063163 0.0051915330766209898 0 0.26828501194829141 0.0152123573312915 0 0.26828501194829141 0.0152123573312915 0 0.27689807354711288 0.02445084942121532 0 0.26707662471942401 0.025023359864039939 0 0.27692463917797883 0.014823644242334051 0 0.26828501194829141 0.0152123573312915 0 0.27689807354711288 0.02445084942121532 0 0.28636387491019488 0.01443983714020838 0 0.27692463917797883 0.014823644242334051 0 0.27689807354711288 0.02445084942121532 0 0.27689807354711288 0.02445084942121532 0 0.2756039835850938 0.029929761402655922 0 0.2756039835850938 0.029929761402655922 0 0.26707662471942401 0.025023359864039939 0 0.26070846342232051 0.033650489790489402 0 0.27689807354711288 0.02445084942121532 0 0.2756039835850938 0.029929761402655922 0 0.26707662471942401 0.025023359864039939 0 0.26707662471942401 0.025023359864039939 0 0.25380370120803358 0.017117199263192131 0 0.26070846342232051 0.033650489790489402 0 0.25380370120803358 0.017117199263192131 0 0.25922918230963737 0.044876117937818788 0 0.26828501194829141 0.0152123573312915 0 0.26707662471942401 0.025023359864039939 0 0.25380370120803358 0.017117199263192131 0 0.25380370120803358 0.017117199263192131 0 0.24837822010643121 -0.01064171941143479 0 0.25380370120803358 0.017117199263192131 0 0.25868130099832759 -0.002948938419788077 0 0.24837822010643121 -0.01064171941143479 0 0.26563335961907458 0.0061016133698848663 0 0.25380370120803358 0.017117199263192131 0 0.25868130099832759 -0.002948938419788077 0 0.26563335961907458 0.0061016133698848663 0 0.26828501194829141 0.0152123573312915 0 0.25380370120803358 0.017117199263192131 0 0.26563335961907458 0.0061016133698848663 0 0.25868130099832759 -0.002948938419788077 0 0.2718345607453051 -0.0026332906206296752 0 0.29123247123422741 0.04598029251926114 0 0.2697152489566611 0.054861458315682538 0 0.28279016652277528 0.067180270467253889 0 0.2756039835850938 0.029929761402655922 0 0.2697152489566611 0.054861458315682538 0 0.25922918230963737 0.044876117937818788 0 0.2756039835850938 0.029929761402655922 0 0.2697152489566611 0.054861458315682538 0 0.29123247123422741 0.04598029251926114 0 0.2756039835850938 0.029929761402655922 0 0.2697152489566611 0.054861458315682538 0 0.2756039835850938 0.029929761402655922 0 0.26070846342232051 0.033650489790489402 0 0.24753356181782099 0.032752362629513393 0 0.25380370120803358 0.017117199263192131 0 0.25922918230963737 0.044876117937818788 0 0.2756039835850938 0.029929761402655922 0 0.25922918230963737 0.044876117937818788 0 0.26070846342232051 0.033650489790489402 0 0.25380370120803358 0.017117199263192131 0 0.25922918230963737 0.044876117937818788 0 0.26070846342232051 0.033650489790489402 0 0.24753356181782099 0.032752362629513393 0 0.25922918230963737 0.044876117937818788 0 0.25021864521095732 0.042714426536890518 0 0.25922918230963737 0.044876117937818788 0 0.25021864521095732 0.042714426536890518 0 0.25395058035011481 0.052534716696235842 0 0.25922918230963737 0.044876117937818788 0 0.25740867756010311 0.063850328533624073 0 0.26465466341124111 0.072635036612445678 0 0.2697152489566611 0.054861458315682538 0 0.25922918230963737 0.044876117937818788 0 0.26465466341124111 0.072635036612445678 0 0.25922918230963737 0.044876117937818788 0 0.26465466341124111 0.072635036612445678 0 0.24751805561965559 0.049597918156775722 0 0.25021864521095732 0.042714426536890518 0 0.25395058035011481 0.052534716696235842 0 0.25922918230963737 0.044876117937818788 0 0.25395058035011481 0.052534716696235842 0 0.25740867756010311 0.063850328533624073 0 0.24750813816218201 0.057765830816462041 0 0.25395058035011481 0.052534716696235842 0 0.25312753719151332 0.06041714424879692 0 0.25395058035011481 0.052534716696235842 0 0.25312753719151332 0.06041714424879692 0 0.25740867756010311 0.063850328533624073 0 0.24750813816218201 0.057765830816462041 0 0.25312753719151332 0.06041714424879692 0 0.25153334416912049 0.065266287609551596 0 0.2422020519306885 0.074725022831058613 0 0.26382651432822979 0.079793155228709528 0 0.25740867756010311 0.063850328533624073 0 0.25324795101967462 0.071649882576700283 0 0.25954558279063938 0.072037499340963485 0 0.2422020519306885 0.074725022831058613 0 0.25324795101967462 0.071649882576700283 0 0.26382651432822979 0.079793155228709528 0 0.25312753719151332 0.06041714424879692 0 0.25153334416912049 0.065266287609551596 0 0.25740867756010311 0.063850328533624073 0 0.25153334416912049 0.065266287609551596 0 0.25740867756010311 0.063850328533624073 0 0.25324795101967462 0.071649882576700283 0 0.25324795101967462 0.071649882576700283 0 0.25954558279063938 0.072037499340963485 0 0.26382651432822979 0.079793155228709528 0 0.25954558279063938 0.072037499340963485 0 0.26465466341124111 0.072635036612445678 0 0.26382651432822979 0.079793155228709528 0 0.25740867756010311 0.063850328533624073 0 0.25954558279063938 0.072037499340963485 0 0.26465466341124111 0.072635036612445678 0 0.2422020519306885 0.074725022831058613 0 0.25276512444811011 0.086159760048941617 0 0.26382651432822979 0.079793155228709528 0 0.25276512444811011 0.086159760048941617 0 0.26382651432822979 0.079793155228709528 0 0.25994589273858071 0.0962229126234629 0 0.26382651432822979 0.079793155228709528 0 0.25994589273858071 0.0962229126234629 0 0.26382651432822979 0.079793155228709528 0 0.26694418261616942 0.089649877550733809 0 0.25994589273858071 0.0962229126234629 0 0.24508603879494281 0.093897949512535828 0 0.25276512444811011 0.086159760048941617 0 0.25994589273858071 0.0962229126234629 0 0.26694418261616942 0.089649877550733809 0 0.28557683748949542 0.084926849492790585 0 0.27905053999642121 0.1011107511195475 0 0.26382651432822979 0.079793155228709528 0 0.28557683748949542 0.084926849492790585 0 0.26382651432822979 0.079793155228709528 0 0.26694418261616942 0.089649877550733809 0 0.28557683748949542 0.084926849492790585 0 0.2697152489566611 0.054861458315682538 0 0.26382651432822979 0.079793155228709528 0 0.2697152489566611 0.054861458315682538 0 0.26382651432822979 0.079793155228709528 0 0.28279016652277528 0.067180270467253889 0 0.26382651432822979 0.079793155228709528 0 0.28279016652277528 0.067180270467253889 0 0.28557683748949542 0.084926849492790585 0 0.2697152489566611 0.054861458315682538 0 0.26465466341124111 0.072635036612445678 0 0.26382651432822979 0.079793155228709528 0 0.28279016652277528 0.067180270467253889 0 0.28557683748949542 0.084926849492790585 0 0.29980557654052081 0.068038008879200862 0 0.28557683748949542 0.084926849492790585 0 0.30732716065076099 0.09006054375687203 0 0.28557683748949542 0.084926849492790585 0 0.30732716065076099 0.09006054375687203 0 0.29980557654052081 0.068038008879200862 0 0.32052370830466043 0.071689256461331619 0 0.31331264685214189 0.051183735270734318 0 0.29980557654052081 0.068038008879200862 0 0.32052370830466043 0.071689256461331619 0 0.30732716065076099 0.09006054375687203 0 0.29980557654052081 0.068038008879200862 0 0.30273124653245381 0.1235288555175215 0 0.30860309687300819 0.10661927594420639 0 0.29115689737667172 0.1125716246883626 0 0.30273124653245381 0.1235288555175215 0 0.29115689737667172 0.1125716246883626 0 0.30732716065076099 0.09006054375687203 0 0.29115689737667172 0.1125716246883626 0 0.30732716065076099 0.09006054375687203 0 0.30860309687300819 0.10661927594420639 0 0.29115689737667172 0.1125716246883626 0 0.28557683748949542 0.084926849492790585 0 0.29115689737667172 0.1125716246883626 0 0.27905053999642121 0.1011107511195475 0 0.28557683748949542 0.084926849492790585 0 0.30732716065076099 0.09006054375687203 0 0.29115689737667172 0.1125716246883626 0 0.29115689737667172 0.1125716246883626 0 0.27905053999642121 0.1011107511195475 0 0.27630529918790442 0.1091343496790408 0 0.29115689737667172 0.1125716246883626 0 0.27905053999642121 0.1011107511195475 0 0.29115689737667172 0.1125716246883626 0 0.27534876990147872 0.1165892447264149 0 0.28044915569120132 0.1274781747914005 0 0.30273124653245381 0.1235288555175215 0 0.29115689737667172 0.1125716246883626 0 0.28044915569120132 0.1274781747914005 0 0.29115689737667172 0.1125716246883626 0 0.28044915569120132 0.1274781747914005 0 0.27534876990147872 0.1165892447264149 0 0.26324706178475782 0.1196652788325321 0 0.28044915569120132 0.1274781747914005 0 0.29115689737667172 0.1125716246883626 0 0.27534876990147872 0.1165892447264149 0 0.27630529918790442 0.1091343496790408 0 0.27534876990147872 0.1165892447264149 0 0.26743723343524672 0.1115586479522421 0 0.27630529918790442 0.1091343496790408 0 0.27534876990147872 0.1165892447264149 0 0.26743723343524672 0.1115586479522421 0 0.26324706178475782 0.1196652788325321 0 0.27905053999642121 0.1011107511195475 0 0.27630529918790442 0.1091343496790408 0 0.2685330552297156 0.1038414799086453 0 0.26743723343524672 0.1115586479522421 0 0.27630529918790442 0.1091343496790408 0 0.2685330552297156 0.1038414799086453 0 0.26743723343524672 0.1115586479522421 0 0.2685330552297156 0.1038414799086453 0 0.26231462034924419 0.1073492410614291 0 0.26694418261616942 0.089649877550733809 0 0.27905053999642121 0.1011107511195475 0 0.26694418261616942 0.089649877550733809 0 0.27905053999642121 0.1011107511195475 0 0.26861841764522171 0.097706255300597372 0 0.27905053999642121 0.1011107511195475 0 0.2685330552297156 0.1038414799086453 0 0.26861841764522171 0.097706255300597372 0 0.2685330552297156 0.1038414799086453 0 0.26861841764522171 0.097706255300597372 0 0.25994589273858071 0.0962229126234629 0 0.25994589273858071 0.0962229126234629 0 0.25606527114893129 0.11265267001821611 0 0.25994589273858071 0.0962229126234629 0 0.26231462034924419 0.1073492410614291 0 0.25606527114893129 0.11265267001821611 0 0.25994589273858071 0.0962229126234629 0 0.25226680708541338 0.1039611020870571 0 0.25606527114893129 0.11265267001821611 0 0.26694418261616942 0.089649877550733809 0 0.26861841764522171 0.097706255300597372 0 0.25994589273858071 0.0962229126234629 0 0.2685330552297156 0.1038414799086453 0 0.25994589273858071 0.0962229126234629 0 0.26231462034924419 0.1073492410614291 0 0.24508603879494281 0.093897949512535828 0 0.25994589273858071 0.0962229126234629 0 0.25226680708541338 0.1039611020870571 0 0.2479700256591971 0.1130708761940131 0 0.25340356115058688 0.12392180526311759 0 0.25092432003414827 0.13271121164369881 0 0.26743723343524672 0.1115586479522421 0 0.26231462034924419 0.1073492410614291 0 0.25959164919374478 0.1124704948045788 0 0.26743723343524672 0.1115586479522421 0 0.26324706178475782 0.1196652788325321 0 0.25959164919374478 0.1124704948045788 0 0.26231462034924419 0.1073492410614291 0 0.25959164919374478 0.1124704948045788 0 0.25606527114893129 0.11265267001821611 0 0.25959164919374478 0.1124704948045788 0 0.25606527114893129 0.11265267001821611 0 0.26324706178475782 0.1196652788325321 0 0.25959164919374478 0.1124704948045788 0 0.25606527114893129 0.11265267001821611 0 0.2479700256591971 0.1130708761940131 0 0.25226680708541338 0.1039611020870571 0 0.25606527114893129 0.11265267001821611 0 0.2479700256591971 0.1130708761940131 0 0.25606527114893129 0.11265267001821611 0 0.2479700256591971 0.1130708761940131 0 0.25606527114893129 0.11265267001821611 0 0.25340356115058688 0.12392180526311759 0 0.26324706178475782 0.1196652788325321 0 0.25606527114893129 0.11265267001821611 0 0.25340356115058688 0.12392180526311759 0 0.25606527114893129 0.11265267001821611 0 0.25340356115058688 0.12392180526311759 0 0.26324706178475782 0.1196652788325321 0 0.25340356115058688 0.12392180526311759 0 0.25092432003414827 0.13271121164369881 0 0.26324706178475782 0.1196652788325321 0 0.25092432003414827 0.13271121164369881 0 0.28044915569120132 0.1274781747914005 0 0.25092432003414827 0.13271121164369881 0 0.25799278592244679 0.1361950733940786 0 0.28044915569120132 0.1274781747914005 0 0.25799278592244679 0.1361950733940786 0 0.27146832688289158 0.1399806406269069 0 0.25799278592244679 0.1361950733940786 0 0.27146832688289158 0.1399806406269069 0 0.28044915569120132 0.1274781747914005 0 0.25092432003414827 0.13271121164369881 0 0.28044915569120132 0.1274781747914005 0 0.27146832688289158 0.1399806406269069 0 0.28044915569120132 0.1274781747914005 0 0.27146832688289158 0.1399806406269069 0 0.25782953781517348 0.15896758470483191 0 0.28269506906519393 0.15921748153542181 0 0.24723516224861489 0.14891452097535199 0 0.25092432003414827 0.13271121164369881 0 0.25438166837756182 0.15569588162337331 0 0.27146832688289158 0.1399806406269069 0 0.25782953781517348 0.15896758470483191 0 0.25092432003414827 0.13271121164369881 0 0.25438166837756182 0.15569588162337331 0 0.25092432003414827 0.13271121164369881 0 0.25799278592244679 0.1361950733940786 0 0.25438166837756182 0.15569588162337331 0 0.27146832688289158 0.1399806406269069 0 0.25438166837756182 0.15569588162337331 0 0.25782953781517348 0.15896758470483191 0 0.25799278592244679 0.1361950733940786 0 0.27146832688289158 0.1399806406269069 0 0.25438166837756182 0.15569588162337331 0 0.24723516224861489 0.14891452097535199 0 0.25438166837756182 0.15569588162337331 0 0.25677835218432538 0.1716291868250383 0 0.25782953781517348 0.15896758470483191 0 0.2753684785711788 0.17561038616679461 0 0.2480117625504723 0.15988161517611299 0 0.25438166837756182 0.15569588162337331 0 0.25531151570931399 0.16247299450870861 0 0.2480117625504723 0.15988161517611299 0 0.25531151570931399 0.16247299450870861 0 0.25108078632114311 0.16784635495939959 0 0.25438166837756182 0.15569588162337331 0 0.25531151570931399 0.16247299450870861 0 0.25438166837756182 0.15569588162337331 0 0.25531151570931399 0.16247299450870861 0 0.25782953781517348 0.15896758470483191 0 0.25438166837756182 0.15569588162337331 0 0.25782953781517348 0.15896758470483191 0 0.25531151570931399 0.16247299450870861 0 0.25782953781517348 0.15896758470483191 0 0.25531151570931399 0.16247299450870861 0 0.25677835218432538 0.1716291868250383 0 0.25531151570931399 0.16247299450870861 0 0.25677835218432538 0.1716291868250383 0 0.25782953781517348 0.15896758470483191 0 0.25531151570931399 0.16247299450870861 0 0.25108078632114311 0.16784635495939959 0 0.25677835218432538 0.1716291868250383 0 0.25677835218432538 0.1716291868250383 0 0.26280716400370391 0.18496711810446709 0 0.2753684785711788 0.17561038616679461 0 0.24908873164767151 0.1770288671046478 0 0.26280716400370391 0.18496711810446709 0 0.25059494158165901 0.19032369199564031 0 0.24908873164767151 0.1770288671046478 0 0.25108078632114311 0.16784635495939959 0 0.25677835218432538 0.1716291868250383 0 0.24908873164767151 0.1770288671046478 0 0.25677835218432538 0.1716291868250383 0 0.26280716400370391 0.18496711810446709 0 0.26280716400370391 0.18496711810446709 0 0.2753684785711788 0.17561038616679461 0 0.27728556809105348 0.19259350051741789 0 0.25782953781517348 0.15896758470483191 0 0.2753684785711788 0.17561038616679461 0 0.25782953781517348 0.15896758470483191 0 0.2753684785711788 0.17561038616679461 0 0.28269506906519393 0.15921748153542181 0 0.2753684785711788 0.17561038616679461 0 0.28269506906519393 0.15921748153542181 0 0.29394514320621229 0.1739165730022037 0 0.28269506906519393 0.15921748153542181 0 0.29394514320621229 0.1739165730022037 0 0.30303535860701208 0.16037235413103429 0 0.2753684785711788 0.17561038616679461 0 0.29290741932718423 0.19225318762875701 0 0.2753684785711788 0.17561038616679461 0 0.27728556809105348 0.19259350051741789 0 0.29290741932718423 0.19225318762875701 0 0.2753684785711788 0.17561038616679461 0 0.29394514320621229 0.1739165730022037 0 0.29290741932718423 0.19225318762875701 0 0.29394514320621229 0.1739165730022037 0 0.30552074880784802 0.19083230073138871 0 0.31289049214066472 0.17337059339244759 0 0.29394514320621229 0.1739165730022037 0 0.29290741932718423 0.19225318762875701 0 0.30552074880784802 0.19083230073138871 0 0.29394514320621229 0.1739165730022037 0 0.30552074880784802 0.19083230073138871 0 0.30552074880784802 0.19083230073138871 0 0.31654835664450592 0.18507467184696519 0 0.31289049214066472 0.17337059339244759 0 0.30303535860701208 0.16037235413103429 0 0.31757881173450031 0.1529340605346122 0 0.31289049214066472 0.17337059339244759 0 0.29394514320621229 0.1739165730022037 0 0.30303535860701208 0.16037235413103429 0 0.31289049214066472 0.17337059339244759 0 0.29452356930869578 0.1464573505807599 0 0.315686730343329 0.13579358200093411 0 0.31757881173450031 0.1529340605346122 0 0.29452356930869578 0.1464573505807599 0 0.31757881173450031 0.1529340605346122 0 0.30303535860701208 0.16037235413103429 0 0.29452356930869578 0.1464573505807599 0 0.31757881173450031 0.1529340605346122 0 0.30273124653245381 0.1235288555175215 0 0.29290936044071508 0.13294622260908631 0 0.315686730343329 0.13579358200093411 0 0.29290936044071508 0.13294622260908631 0 0.29452356930869578 0.1464573505807599 0 0.315686730343329 0.13579358200093411 0 0.30273124653245381 0.1235288555175215 0 0.315686730343329 0.13579358200093411 0 0.30273124653245381 0.1235288555175215 0 0.28044915569120132 0.1274781747914005 0 0.27146832688289158 0.1399806406269069 0 0.28044915569120132 0.1274781747914005 0 0.29290936044071508 0.13294622260908631 0 0.30273124653245381 0.1235288555175215 0 0.28044915569120132 0.1274781747914005 0 0.29290936044071508 0.13294622260908631 0 0.27146832688289158 0.1399806406269069 0 0.29290936044071508 0.13294622260908631 0 0.29452356930869578 0.1464573505807599 0 0.27146832688289158 0.1399806406269069 0 0.28269506906519393 0.15921748153542181 0 0.29452356930869578 0.1464573505807599 0 0.27146832688289158 0.1399806406269069 0 0.29452356930869578 0.1464573505807599 0 0.28269506906519393 0.15921748153542181 0 0.30303535860701208 0.16037235413103429 0 0.29452356930869578 0.1464573505807599 0 0.27422647013237161 0.25356049296603311 0 0.27478306300754179 0.2350004025071766 0 0.29054302336085919 0.2384533556213457 0 0.27422647013237161 0.25356049296603311 0 0.27478306300754179 0.2350004025071766 0 0.2675309988367966 0.24592861094083041 0 0.27478306300754179 0.2350004025071766 0 0.2675309988367966 0.24592861094083041 0 0.26346455071020192 0.23476860060051941 0 0.2551851394074478 0.2434893950138429 0 0.26346455071020192 0.23476860060051941 0 0.25538970474944028 0.22639472194977939 0 0.2675309988367966 0.24592861094083041 0 0.2551851394074478 0.2434893950138429 0 0.26346455071020192 0.23476860060051941 0 0.25538970474944028 0.22639472194977939 0 0.2674778883171553 0.22062748816396649 0 0.25254676704563311 0.20930692990743879 0 0.26346455071020192 0.23476860060051941 0 0.25538970474944028 0.22639472194977939 0 0.2674778883171553 0.22062748816396649 0 0.27478306300754179 0.2350004025071766 0 0.2674778883171553 0.22062748816396649 0 0.28613716040526338 0.21455355020338029 0 0.27478306300754179 0.2350004025071766 0 0.26346455071020192 0.23476860060051941 0 0.2674778883171553 0.22062748816396649 0 0.26733725241959783 0.20446808010504641 0 0.27728556809105348 0.19259350051741789 0 0.28613716040526338 0.21455355020338029 0 0.2674778883171553 0.22062748816396649 0 0.26733725241959783 0.20446808010504641 0 0.28613716040526338 0.21455355020338029 0 0.2674778883171553 0.22062748816396649 0 0.26733725241959783 0.20446808010504641 0 0.25254676704563311 0.20930692990743879 0 0.26733725241959783 0.20446808010504641 0 0.25059494158165901 0.19032369199564031 0 0.26280716400370391 0.18496711810446709 0 0.26733725241959783 0.20446808010504641 0 0.25059494158165901 0.19032369199564031 0 0.26733725241959783 0.20446808010504641 0 0.25254676704563311 0.20930692990743879 0 0.25059494158165901 0.19032369199564031 0 0.26280716400370391 0.18496711810446709 0 0.26733725241959783 0.20446808010504641 0 0.27728556809105348 0.19259350051741789 0 0.27728556809105348 0.19259350051741789 0 0.29290741932718423 0.19225318762875701 0 0.28613716040526338 0.21455355020338029 0 0.30552074880784802 0.19083230073138871 0 0.31709635440948369 0.20774802846057369 0 0.29290741932718423 0.19225318762875701 0 0.30552074880784802 0.19083230073138871 0 0.31044636008318971 0.20889598909071941 0 0.30552074880784802 0.19083230073138871 0 0.31044636008318971 0.20889598909071941 0 0.31709635440948369 0.20774802846057369 0 0.29290741932718423 0.19225318762875701 0 0.31044636008318971 0.20889598909071941 0 0.31044636008318971 0.20889598909071941 0 0.28613716040526338 0.21455355020338029 0 0.30512252746339652 0.2267909639566634 0 0.29290741932718423 0.19225318762875701 0 0.31044636008318971 0.20889598909071941 0 0.28613716040526338 0.21455355020338029 0 0.28613716040526338 0.21455355020338029 0 0.30512252746339652 0.2267909639566634 0 0.29054302336085919 0.2384533556213457 0 0.27478306300754179 0.2350004025071766 0 0.28613716040526338 0.21455355020338029 0 0.29054302336085919 0.2384533556213457 0 0.30512252746339652 0.2267909639566634 0 0.29054302336085919 0.2384533556213457 0 0.31420017477305739 0.2431056701611205 0 0.30041504870691937 0.26067254976955972 0 0.29054302336085919 0.2384533556213457 0 0.31420017477305739 0.2431056701611205 0 0.33165117601699817 0.22901736053118121 0 0.35307730466155363 0.24934873687200709 0 0.34611449547382639 0.23457765694023119 0 0.33165117601699817 0.22901736053118121 0 0.34532353849112551 0.24899713256093869 0 0.32999523924895019 0.24481848980579379 0 0.33165117601699817 0.22901736053118121 0 0.34532353849112551 0.24899713256093869 0 0.33165117601699817 0.22901736053118121 0 0.35307730466155363 0.24934873687200709 0 0.33165117601699817 0.22901736053118121 0 0.35307730466155363 0.24934873687200709 0 0.34532353849112551 0.24899713256093869 0 0.33567128914585981 0.25335502600040072 0 0.32999523924895019 0.24481848980579379 0 0.34532353849112551 0.24899713256093869 0 0.32999523924895019 0.24481848980579379 0 0.31420017477305739 0.2431056701611205 0 0.33165117601699817 0.22901736053118121 0 0.32640088188025451 0.25485336633590389 0 0.32999523924895019 0.24481848980579379 0 0.31420017477305739 0.2431056701611205 0 0.31044636008318971 0.20889598909071941 0 0.30512252746339652 0.2267909639566634 0 0.32867196001111149 0.22466375618976411 0 0.31420017477305739 0.2431056701611205 0 0.32867196001111149 0.22466375618976411 0 0.33165117601699817 0.22901736053118121 0 0.30512252746339652 0.2267909639566634 0 0.31420017477305739 0.2431056701611205 0 0.32867196001111149 0.22466375618976411 0 0.31420017477305739 0.2431056701611205 0 0.32867196001111149 0.22466375618976411 0 0.32867196001111149 0.22466375618976411 0 0.34207323422406311 0.22633333879641729 0 0.34457037513999123 0.2183531628289597 0 0.32867196001111149 0.22466375618976411 0 0.33165117601699817 0.22901736053118121 0 0.34207323422406311 0.22633333879641729 0 0.32867196001111149 0.22466375618976411 0 0.33165117601699817 0.22901736053118121 0 0.33165117601699817 0.22901736053118121 0 0.34207323422406311 0.22633333879641729 0 0.34611449547382639 0.23457765694023119 0 0.32800790905094418 0.21041604109215381 0 0.33128149303353199 0.20070308412844609 0 0.34591119139827298 0.20269518652508381 0 0.32867196001111149 0.22466375618976411 0 0.34591119139827298 0.20269518652508381 0 0.34457037513999123 0.2183531628289597 0 0.32867196001111149 0.22466375618976411 0 0.32800790905094418 0.21041604109215381 0 0.34591119139827298 0.20269518652508381 0 0.32867196001111149 0.22466375618976411 0 0.34591119139827298 0.20269518652508381 0 0.31044636008318971 0.20889598909071941 0 0.32867196001111149 0.22466375618976411 0 0.32867196001111149 0.22466375618976411 0 0.31709635440948369 0.20774802846057369 0 0.31044636008318971 0.20889598909071941 0 0.32867196001111149 0.22466375618976411 0 0.31709635440948369 0.20774802846057369 0 0.32867196001111149 0.22466375618976411 0 0.31709635440948369 0.20774802846057369 0 0.32800790905094418 0.21041604109215381 0 0.32800790905094418 0.21041604109215381 0 0.3240792113226908 0.20306420695893959 0 0.33128149303353199 0.20070308412844609 0 0.31709635440948369 0.20774802846057369 0 0.32800790905094418 0.21041604109215381 0 0.3240792113226908 0.20306420695893959 0 0.31709635440948369 0.20774802846057369 0 0.3240792113226908 0.20306420695893959 0 0.31993108879680332 0.19338967415458491 0 0.30552074880784802 0.19083230073138871 0 0.31709635440948369 0.20774802846057369 0 0.31993108879680332 0.19338967415458491 0 0.3240792113226908 0.20306420695893959 0 0.31993108879680332 0.19338967415458491 0 0.33128149303353199 0.20070308412844609 0 0.31993108879680332 0.19338967415458491 0 0.33128149303353199 0.20070308412844609 0 0.32785109683270769 0.1827061191094394 0 0.30552074880784802 0.19083230073138871 0 0.31993108879680332 0.19338967415458491 0 0.31654835664450592 0.18507467184696519 0 0.33128149303353199 0.20070308412844609 0 0.32785109683270769 0.1827061191094394 0 0.34317187036597258 0.18498044398889471 0 0.33128149303353199 0.20070308412844609 0 0.34591119139827298 0.20269518652508381 0 0.34317187036597258 0.18498044398889471 0 0.34591119139827298 0.20269518652508381 0 0.36315042278543691 0.1807266168604052 0 0.34591119139827298 0.20269518652508381 0 0.36352127576199522 0.20080084544339641 0 0.36315042278543691 0.1807266168604052 0 0.34591119139827298 0.20269518652508381 0 0.34317187036597258 0.18498044398889471 0 0.36315042278543691 0.1807266168604052 0 0.36352127576199522 0.20080084544339641 0 0.36315042278543691 0.1807266168604052 0 0.37819548309979428 0.1949695083166976 0 0.36315042278543691 0.1807266168604052 0 0.38337805621419052 0.19605950666834929 0 0.37819548309979428 0.1949695083166976 0 0.36315042278543691 0.1807266168604052 0 0.37819548309979428 0.1949695083166976 0 0.36352127576199522 0.20080084544339641 0 0.37329147731281942 0.2054801251234922 0 0.37819548309979428 0.1949695083166976 0 0.36352127576199522 0.20080084544339641 0 0.3674137313543766 0.21210632290755629 0 0.35657840401441532 0.21544375076677069 0 0.36352127576199522 0.20080084544339641 0 0.37329147731281942 0.2054801251234922 0 0.3674137313543766 0.21210632290755629 0 0.37329147731281942 0.2054801251234922 0 0.3674137313543766 0.21210632290755629 0 0.37688317144521077 0.21603245608368291 0 0.3674137313543766 0.21210632290755629 0 0.36755355871421441 0.2257027006713577 0 0.37688317144521077 0.21603245608368291 0 0.3674137313543766 0.21210632290755629 0 0.35657840401441532 0.21544375076677069 0 0.36755355871421441 0.2257027006713577 0 0.34591119139827298 0.20269518652508381 0 0.35657840401441532 0.21544375076677069 0 0.34457037513999123 0.2183531628289597 0 0.34591119139827298 0.20269518652508381 0 0.36352127576199522 0.20080084544339641 0 0.35657840401441532 0.21544375076677069 0 0.34207323422406311 0.22633333879641729 0 0.34457037513999123 0.2183531628289597 0 0.35029204149645882 0.2230004888266143 0 0.35657840401441532 0.21544375076677069 0 0.34457037513999123 0.2183531628289597 0 0.35029204149645882 0.2230004888266143 0 0.34207323422406311 0.22633333879641729 0 0.35029204149645882 0.2230004888266143 0 0.35071872963011341 0.23016933322654309 0 0.34207323422406311 0.22633333879641729 0 0.35071872963011341 0.23016933322654309 0 0.34611449547382639 0.23457765694023119 0 0.35071872963011341 0.23016933322654309 0 0.35305203283640368 0.23801951527500739 0 0.34611449547382639 0.23457765694023119 0 0.35071872963011341 0.23016933322654309 0 0.35854102402500793 0.23347397252394689 0 0.35678665423559852 0.2254475481644268 0 0.35071872963011341 0.23016933322654309 0 0.35854102402500793 0.23347397252394689 0 0.35305203283640368 0.23801951527500739 0 0.35657840401441532 0.21544375076677069 0 0.35029204149645882 0.2230004888266143 0 0.35678665423559852 0.2254475481644268 0 0.35029204149645882 0.2230004888266143 0 0.35071872963011341 0.23016933322654309 0 0.35678665423559852 0.2254475481644268 0 0.35657840401441532 0.21544375076677069 0 0.35678665423559852 0.2254475481644268 0 0.36755355871421441 0.2257027006713577 0 0.36755355871421441 0.2257027006713577 0 0.37989212930292843 0.22549814467465071 0 0.37688317144521077 0.21603245608368291 0 0.36755355871421441 0.2257027006713577 0 0.36656380428810648 0.23849670095826181 0 0.37508925164400481 0.23431914263453141 0 0.36755355871421441 0.2257027006713577 0 0.37508925164400481 0.23431914263453141 0 0.37989212930292843 0.22549814467465071 0 0.35854102402500793 0.23347397252394689 0 0.35678665423559852 0.2254475481644268 0 0.36755355871421441 0.2257027006713577 0 0.35854102402500793 0.23347397252394689 0 0.36755355871421441 0.2257027006713577 0 0.36656380428810648 0.23849670095826181 0 0.35854102402500793 0.23347397252394689 0 0.36656380428810648 0.23849670095826181 0 0.35887129213361441 0.24112915331259721 0 0.36656380428810648 0.23849670095826181 0 0.36312229485699982 0.24630684093376251 0 0.35887129213361441 0.24112915331259721 0 0.36656380428810648 0.23849670095826181 0 0.37468630153993449 0.24031168258233679 0 0.37508925164400481 0.23431914263453141 0 0.36656380428810648 0.23849670095826181 0 0.37468630153993449 0.24031168258233679 0 0.37153597890319112 0.24485308026267541 0 0.36935999944055858 0.25035342442963759 0 0.37153597890319112 0.24485308026267541 0 0.36312229485699982 0.24630684093376251 0 0.36935999944055858 0.25035342442963759 0 0.37693108616487392 0.25112149136587758 0 0.37153597890319112 0.24485308026267541 0 0.36554718467112712 0.25398456366339739 0 0.36312229485699982 0.24630684093376251 0 0.35307730466155363 0.24934873687200709 0 0.36656380428810648 0.23849670095826181 0 0.37153597890319112 0.24485308026267541 0 0.36312229485699982 0.24630684093376251 0 0.36312229485699982 0.24630684093376251 0 0.35307730466155363 0.24934873687200709 0 0.35887129213361441 0.24112915331259721 0 0.35307730466155363 0.24934873687200709 0 0.35887129213361441 0.24112915331259721 0 0.35305203283640368 0.23801951527500739 0 0.35854102402500793 0.23347397252394689 0 0.35887129213361441 0.24112915331259721 0 0.35305203283640368 0.23801951527500739 0 0.35307730466155363 0.24934873687200709 0 0.35305203283640368 0.23801951527500739 0 0.34611449547382639 0.23457765694023119 0 0.3286422141542053 0.14805830848434559 0 0.34677644191411022 0.15750204627201461 0 0.34990433144588828 0.13766573298981241 0 0.3286422141542053 0.14805830848434559 0 0.34063405416030662 0.15941077048845809 0 0.34677644191411022 0.15750204627201461 0 0.31757881173450031 0.1529340605346122 0 0.34063405416030662 0.15941077048845809 0 0.3286422141542053 0.14805830848434559 0 0.34990433144588828 0.13766573298981241 0 0.3286422141542053 0.14805830848434559 0 0.32323491583127389 0.1507013075456044 0 0.34063405416030662 0.15941077048845809 0 0.3286422141542053 0.14805830848434559 0 0.34063405416030662 0.15941077048845809 0 0.33102798148580748 0.1185134895208889 0 0.33102743048056482 0.13452671694312901 0 0.34990433144588828 0.13766573298981241 0 0.3286422141542053 0.14805830848434559 0 0.33102743048056482 0.13452671694312901 0 0.34990433144588828 0.13766573298981241 0 0.33102798148580748 0.1185134895208889 0 0.30273124653245381 0.1235288555175215 0 0.315686730343329 0.13579358200093411 0 0.3286422141542053 0.14805830848434559 0 0.33102743048056482 0.13452671694312901 0 0.315686730343329 0.13579358200093411 0 0.33102798148580748 0.1185134895208889 0 0.33102743048056482 0.13452671694312901 0 0.315686730343329 0.13579358200093411 0 0.315686730343329 0.13579358200093411 0 0.31757881173450031 0.1529340605346122 0 0.32323491583127389 0.1507013075456044 0 0.31757881173450031 0.1529340605346122 0 0.32323491583127389 0.1507013075456044 0 0.34063405416030662 0.15941077048845809 0 0.3286422141542053 0.14805830848434559 0 0.315686730343329 0.13579358200093411 0 0.32323491583127389 0.1507013075456044 0 0.3286422141542053 0.14805830848434559 0 0.315686730343329 0.13579358200093411 0 0.3286422141542053 0.14805830848434559 0 0.32323491583127389 0.1507013075456044 0 0.31757881173450031 0.1529340605346122 0 0.32757984690823899 0.16828090143210361 0 0.31289049214066472 0.17337059339244759 0 0.31654835664450592 0.18507467184696519 0 0.31289049214066472 0.17337059339244759 0 0.32785109683270769 0.1827061191094394 0 0.32757984690823899 0.16828090143210361 0 0.31289049214066472 0.17337059339244759 0 0.32785109683270769 0.1827061191094394 0 0.31993108879680332 0.19338967415458491 0 0.31654835664450592 0.18507467184696519 0 0.32785109683270769 0.1827061191094394 0 0.32757984690823899 0.16828090143210361 0 0.32785109683270769 0.1827061191094394 0 0.33857796420107772 0.17303726062694211 0 0.32785109683270769 0.1827061191094394 0 0.33857796420107772 0.17303726062694211 0 0.34317187036597258 0.18498044398889471 0 0.31757881173450031 0.1529340605346122 0 0.32757984690823899 0.16828090143210361 0 0.34063405416030662 0.15941077048845809 0 0.32757984690823899 0.16828090143210361 0 0.33857796420107772 0.17303726062694211 0 0.34063405416030662 0.15941077048845809 0 0.33857796420107772 0.17303726062694211 0 0.34063405416030662 0.15941077048845809 0 0.3518922384728741 0.17006869367442909 0 0.34063405416030662 0.15941077048845809 0 0.35148088583504511 0.16245787714551349 0 0.3518922384728741 0.17006869367442909 0 0.34063405416030662 0.15941077048845809 0 0.34677644191411022 0.15750204627201461 0 0.35148088583504511 0.16245787714551349 0 0.34063405416030662 0.15941077048845809 0 0.35148088583504511 0.16245787714551349 0 0.34677644191411022 0.15750204627201461 0 0.35148088583504511 0.16245787714551349 0 0.34063405416030662 0.15941077048845809 0 0.3518922384728741 0.17006869367442909 0 0.35148088583504511 0.16245787714551349 0 0.3518922384728741 0.17006869367442909 0 0.36571752516518091 0.17745526640404169 0 0.35148088583504511 0.16245787714551349 0 0.36571752516518091 0.17745526640404169 0 0.34677644191411022 0.15750204627201461 0 0.35148088583504511 0.16245787714551349 0 0.35896078343382731 0.1536928117878173 0 0.34317187036597258 0.18498044398889471 0 0.3518922384728741 0.17006869367442909 0 0.36315042278543691 0.1807266168604052 0 0.33857796420107772 0.17303726062694211 0 0.34317187036597258 0.18498044398889471 0 0.3518922384728741 0.17006869367442909 0 0.3518922384728741 0.17006869367442909 0 0.36315042278543691 0.1807266168604052 0 0.36571752516518091 0.17745526640404169 0 0.38337805621419052 0.19605950666834929 0 0.36315042278543691 0.1807266168604052 0 0.36571752516518091 0.17745526640404169 0 0.38337805621419052 0.19605950666834929 0 0.3518922384728741 0.17006869367442909 0 0.36315042278543691 0.1807266168604052 0 0.36571752516518091 0.17745526640404169 0 0.36315042278543691 0.1807266168604052 0 0.36571752516518091 0.17745526640404169 0 0.36571752516518091 0.17745526640404169 0 0.37278903306611239 0.1684437907490611 0 0.36571752516518091 0.17745526640404169 0 0.37278903306611239 0.1684437907490611 0 0.37647612783782852 0.1765826374379825 0 0.36571752516518091 0.17745526640404169 0 0.38094336675417467 0.18575079152407661 0 0.37647612783782852 0.1765826374379825 0 0.35148088583504511 0.16245787714551349 0 0.36571752516518091 0.17745526640404169 0 0.37278903306611239 0.1684437907490611 0 0.35148088583504511 0.16245787714551349 0 0.37278903306611239 0.1684437907490611 0 0.35896078343382731 0.1536928117878173 0 0.35148088583504511 0.16245787714551349 0 0.37278903306611239 0.1684437907490611 0 0.37278903306611239 0.1684437907490611 0 0.37169054907655802 0.14440210890078459 0 0.35896078343382731 0.1536928117878173 0 0.37169054907655802 0.14440210890078459 0 0.35896078343382731 0.1536928117878173 0 0.34990433144588828 0.13766573298981241 0 0.34677644191411022 0.15750204627201461 0 0.35896078343382731 0.1536928117878173 0 0.34990433144588828 0.13766573298981241 0 0.35932471643916081 0.1134981235242544 0 0.34990433144588828 0.13766573298981241 0 0.37116644873757482 0.1272731574952862 0 0.34990433144588828 0.13766573298981241 0 0.37116644873757482 0.1272731574952862 0 0.37169054907655802 0.14440210890078459 0 0.34990433144588828 0.13766573298981241 0 0.37116644873757482 0.1272731574952862 0 0.37116644873757482 0.1272731574952862 0 0.38513200424378741 0.1338212526160229 0 0.39242856602925918 0.116880582000756 0 0.37169054907655802 0.14440210890078459 0 0.37116644873757482 0.1272731574952862 0 0.38513200424378741 0.1338212526160229 0 0.38513200424378741 0.1338212526160229 0 0.40121151000737459 0.13222401095123429 0 0.39242856602925918 0.116880582000756 0 0.38513200424378741 0.1338212526160229 0 0.40121151000737459 0.13222401095123429 0 0.3870002715367451 0.1503339008501488 0 0.40121151000737459 0.13222401095123429 0 0.3870002715367451 0.1503339008501488 0 0.40121151000737459 0.13222401095123429 0 0.3870002715367451 0.1503339008501488 0 0.4146563244798116 0.15571152904590541 0 0.37278903306611239 0.1684437907490611 0 0.37169054907655802 0.14440210890078459 0 0.3870002715367451 0.1503339008501488 0 0.37169054907655802 0.14440210890078459 0 0.38513200424378741 0.1338212526160229 0 0.3870002715367451 0.1503339008501488 0 0.37278903306611239 0.1684437907490611 0 0.3870002715367451 0.1503339008501488 0 0.37278903306611239 0.1684437907490611 0 0.3870002715367451 0.1503339008501488 0 0.38815714803524198 0.17276102243780719 0 0.37278903306611239 0.1684437907490611 0 0.38815714803524198 0.17276102243780719 0 0.36571752516518091 0.17745526640404169 0 0.38094336675417467 0.18575079152407661 0 0.38337805621419052 0.19605950666834929 0 0.38094336675417467 0.18575079152407661 0 0.37647612783782852 0.1765826374379825 0 0.38815714803524198 0.17276102243780719 0 0.37278903306611239 0.1684437907490611 0 0.37647612783782852 0.1765826374379825 0 0.38815714803524198 0.17276102243780719 0 0.38815714803524198 0.17276102243780719 0 0.4045222528532138 0.18247491933232551 0 0.40192127392429228 0.16692463564798199 0 0.38094336675417467 0.18575079152407661 0 0.4045222528532138 0.18247491933232551 0 0.38094336675417467 0.18575079152407661 0 0.38815714803524198 0.17276102243780719 0 0.4045222528532138 0.18247491933232551 0 0.38094336675417467 0.18575079152407661 0 0.4045222528532138 0.18247491933232551 0 0.3985862469864242 0.19415008040301501 0 0.3870002715367451 0.1503339008501488 0 0.40192127392429228 0.16692463564798199 0 0.4146563244798116 0.15571152904590541 0 0.3870002715367451 0.1503339008501488 0 0.38815714803524198 0.17276102243780719 0 0.40192127392429228 0.16692463564798199 0 0.40192127392429228 0.16692463564798199 0 0.41314885474212298 0.17172446815799 0 0.4146563244798116 0.15571152904590541 0 0.42810113895225288 0.179199047140574 0 0.4146563244798116 0.15571152904590541 0 0.41314885474212298 0.17172446815799 0 0.42810113895225288 0.179199047140574 0 0.4146563244798116 0.15571152904590541 0 0.4045222528532138 0.18247491933232551 0 0.42810113895225288 0.179199047140574 0 0.4045222528532138 0.18247491933232551 0 0.41314885474212298 0.17172446815799 0 0.42810113895225288 0.179199047140574 0 0.4045222528532138 0.18247491933232551 0 0.42810113895225288 0.179199047140574 0 0.42146212548932022 0.1904614947085462 0 0.4045222528532138 0.18247491933232551 0 0.40192127392429228 0.16692463564798199 0 0.41314885474212298 0.17172446815799 0 0.42810113895225288 0.179199047140574 0 0.43425218887628159 0.18994466930501019 0 0.44377405713131368 0.177021570367044 0 0.42810113895225288 0.179199047140574 0 0.43400057892753963 0.16035606940242839 0 0.44377405713131368 0.177021570367044 0 0.42810113895225288 0.179199047140574 0 0.44377405713131368 0.177021570367044 0 0.42810113895225288 0.179199047140574 0 0.42146212548932022 0.1904614947085462 0 0.43425218887628159 0.18994466930501019 0 0.42810113895225288 0.179199047140574 0 0.43425218887628159 0.18994466930501019 0 0.42810113895225288 0.179199047140574 0 0.43400057892753963 0.16035606940242839 0 0.4146563244798116 0.15571152904590541 0 0.43400057892753963 0.16035606940242839 0 0.42915063366564621 0.1370691130452816 0 0.4146563244798116 0.15571152904590541 0 0.43400057892753963 0.16035606940242839 0 0.42915063366564621 0.1370691130452816 0 0.4472551328860257 0.14810337040010249 0 0.42915063366564621 0.1370691130452816 0 0.4159777269694841 0.13294607515568341 0 0.42351370539076438 0.120429786377846 0 0.42915063366564621 0.1370691130452816 0 0.4357065652989397 0.1179962128903019 0 0.42351370539076438 0.120429786377846 0 0.40121151000737459 0.13222401095123429 0 0.4159777269694841 0.13294607515568341 0 0.4146563244798116 0.15571152904590541 0 0.40121151000737459 0.13222401095123429 0 0.4159777269694841 0.13294607515568341 0 0.41135646130382209 0.1192959363581485 0 0.40121151000737459 0.13222401095123429 0 0.41135646130382209 0.1192959363581485 0 0.42915063366564621 0.1370691130452816 0 0.4159777269694841 0.13294607515568341 0 0.4146563244798116 0.15571152904590541 0 0.40121151000737459 0.13222401095123429 0 0.4146563244798116 0.15571152904590541 0 0.40936178095289738 0.25240399705514732 0 0.39365908746925121 0.2498125304894577 0 0.39749634512331089 0.24266002312710749 0 0.40936178095289738 0.25240399705514732 0 0.40192736673093021 0.23598013559304321 0 0.39749634512331089 0.24266002312710749 0 0.39749634512331089 0.24266002312710749 0 0.38899187978027061 0.24134617663681771 0 0.39354161068320509 0.23375727586107151 0 0.40192736673093021 0.23598013559304321 0 0.39749634512331089 0.24266002312710749 0 0.39354161068320509 0.23375727586107151 0 0.39365908746925121 0.2498125304894577 0 0.39749634512331089 0.24266002312710749 0 0.38899187978027061 0.24134617663681771 0 0.38475748107919799 0.247937755230528 0 0.38032995906916089 0.24208425312706011 0 0.38899187978027061 0.24134617663681771 0 0.39365908746925121 0.2498125304894577 0 0.38475748107919799 0.247937755230528 0 0.38899187978027061 0.24134617663681771 0 0.37693108616487392 0.25112149136587758 0 0.37153597890319112 0.24485308026267541 0 0.38032995906916089 0.24208425312706011 0 0.37468630153993449 0.24031168258233679 0 0.37153597890319112 0.24485308026267541 0 0.38032995906916089 0.24208425312706011 0 0.37693108616487392 0.25112149136587758 0 0.38475748107919799 0.247937755230528 0 0.38032995906916089 0.24208425312706011 0 0.38032995906916089 0.24208425312706011 0 0.38432493707078491 0.23351562319483241 0 0.37508925164400481 0.23431914263453141 0 0.37468630153993449 0.24031168258233679 0 0.38032995906916089 0.24208425312706011 0 0.37508925164400481 0.23431914263453141 0 0.38899187978027061 0.24134617663681771 0 0.38432493707078491 0.23351562319483241 0 0.39354161068320509 0.23375727586107151 0 0.38032995906916089 0.24208425312706011 0 0.38899187978027061 0.24134617663681771 0 0.38432493707078491 0.23351562319483241 0 0.38432493707078491 0.23351562319483241 0 0.37989212930292843 0.22549814467465071 0 0.38993104293611408 0.2258120853389701 0 0.38432493707078491 0.23351562319483241 0 0.38993104293611408 0.2258120853389701 0 0.39354161068320509 0.23375727586107151 0 0.38432493707078491 0.23351562319483241 0 0.37508925164400481 0.23431914263453141 0 0.37989212930292843 0.22549814467465071 0 0.37989212930292843 0.22549814467465071 0 0.38514180047553448 0.21882654543850771 0 0.37688317144521077 0.21603245608368291 0 0.37989212930292843 0.22549814467465071 0 0.38993104293611408 0.2258120853389701 0 0.38514180047553448 0.21882654543850771 0 0.38993104293611408 0.2258120853389701 0 0.38514180047553448 0.21882654543850771 0 0.39572808315324459 0.21845423681237611 0 0.38993104293611408 0.2258120853389701 0 0.39804081997965518 0.22834487510909879 0 0.39572808315324459 0.21845423681237611 0 0.40192736673093021 0.23598013559304321 0 0.39804081997965518 0.22834487510909879 0 0.39354161068320509 0.23375727586107151 0 0.38993104293611408 0.2258120853389701 0 0.39804081997965518 0.22834487510909879 0 0.39354161068320509 0.23375727586107151 0 0.40192736673093021 0.23598013559304321 0 0.39804081997965518 0.22834487510909879 0 0.40847641157002329 0.228587940339531 0 0.39572808315324459 0.21845423681237611 0 0.40847641157002329 0.228587940339531 0 0.40103858726319719 0.2146637469326596 0 0.40816579721886481 0.2202325474979083 0 0.40828560372850897 0.2234552912292827 0 0.39572808315324459 0.21845423681237611 0 0.40828560372850897 0.2234552912292827 0 0.40847641157002329 0.228587940339531 0 0.39804081997965518 0.22834487510909879 0 0.39572808315324459 0.21845423681237611 0 0.40847641157002329 0.228587940339531 0 0.40103858726319719 0.2146637469326596 0 0.39324054341415121 0.20921239977299061 0 0.38337805621419052 0.19605950666834929 0 0.40103858726319719 0.2146637469326596 0 0.40188075570156889 0.20506745527973641 0 0.38337805621419052 0.19605950666834929 0 0.40103858726319719 0.2146637469326596 0 0.38337805621419052 0.19605950666834929 0 0.39324054341415121 0.20921239977299061 0 0.40828560372850897 0.2234552912292827 0 0.40103858726319719 0.2146637469326596 0 0.40188075570156889 0.20506745527973641 0 0.40723917269544019 0.21345093397370091 0 0.39324054341415121 0.20921239977299061 0 0.39572808315324459 0.21845423681237611 0 0.40828560372850897 0.2234552912292827 0 0.40103858726319719 0.2146637469326596 0 0.39324054341415121 0.20921239977299061 0 0.40828560372850897 0.2234552912292827 0 0.40103858726319719 0.2146637469326596 0 0.40723917269544019 0.21345093397370091 0 0.40816579721886481 0.2202325474979083 0 0.39324054341415121 0.20921239977299061 0 0.39572808315324459 0.21845423681237611 0 0.38297975473646528 0.20832053328522171 0 0.39572808315324459 0.21845423681237611 0 0.38297975473646528 0.20832053328522171 0 0.38514180047553448 0.21882654543850771 0 0.39572808315324459 0.21845423681237611 0 0.38297975473646528 0.20832053328522171 0 0.38514180047553448 0.21882654543850771 0 0.37688317144521077 0.21603245608368291 0 0.38297975473646528 0.20832053328522171 0 0.37329147731281942 0.2054801251234922 0 0.37688317144521077 0.21603245608368291 0 0.38297975473646528 0.20832053328522171 0 0.39324054341415121 0.20921239977299061 0 0.38297975473646528 0.20832053328522171 0 0.37819548309979428 0.1949695083166976 0 0.38094336675417467 0.18575079152407661 0 0.38337805621419052 0.19605950666834929 0 0.3985862469864242 0.19415008040301501 0 0.39324054341415121 0.20921239977299061 0 0.38337805621419052 0.19605950666834929 0 0.37819548309979428 0.1949695083166976 0 0.39324054341415121 0.20921239977299061 0 0.37819548309979428 0.1949695083166976 0 0.37329147731281942 0.2054801251234922 0 0.38297975473646528 0.20832053328522171 0 0.37819548309979428 0.1949695083166976 0 0.40188075570156889 0.20506745527973641 0 0.38337805621419052 0.19605950666834929 0 0.3985862469864242 0.19415008040301501 0 0.40188075570156889 0.20506745527973641 0 0.3985862469864242 0.19415008040301501 0 0.40901035966215971 0.20182192195462831 0 0.3985862469864242 0.19415008040301501 0 0.41027818172682479 0.19410762290970601 0 0.40901035966215971 0.20182192195462831 0 0.4045222528532138 0.18247491933232551 0 0.3985862469864242 0.19415008040301501 0 0.41027818172682479 0.19410762290970601 0 0.4045222528532138 0.18247491933232551 0 0.41027818172682479 0.19410762290970601 0 0.42146212548932022 0.1904614947085462 0 0.41027818172682479 0.19410762290970601 0 0.40901035966215971 0.20182192195462831 0 0.41747164122279939 0.20122447030200361 0 0.41027818172682479 0.19410762290970601 0 0.41747164122279939 0.20122447030200361 0 0.42146212548932022 0.1904614947085462 0 0.42146212548932022 0.1904614947085462 0 0.43425218887628159 0.18994466930501019 0 0.4306057428347112 0.20309109944371639 0 0.43425218887628159 0.18994466930501019 0 0.4306057428347112 0.20309109944371639 0 0.44428927597435708 0.20302735887789261 0 0.41747164122279939 0.20122447030200361 0 0.42146212548932022 0.1904614947085462 0 0.4306057428347112 0.20309109944371639 0 0.4306057428347112 0.20309109944371639 0 0.42227607246435289 0.2108459106933355 0 0.43567744953188209 0.21362160068557609 0 0.41747164122279939 0.20122447030200361 0 0.4306057428347112 0.20309109944371639 0 0.42227607246435289 0.2108459106933355 0 0.4306057428347112 0.20309109944371639 0 0.43567744953188209 0.21362160068557609 0 0.44428927597435708 0.20302735887789261 0 0.42227607246435289 0.2108459106933355 0 0.43567744953188209 0.21362160068557609 0 0.42412122374498618 0.22194899413835781 0 0.42227607246435289 0.2108459106933355 0 0.41202865604687938 0.20880250361413349 0 0.41375172140486011 0.21638679597622601 0 0.42227607246435289 0.2108459106933355 0 0.41375172140486011 0.21638679597622601 0 0.42412122374498618 0.22194899413835781 0 0.41747164122279939 0.20122447030200361 0 0.42227607246435289 0.2108459106933355 0 0.41202865604687938 0.20880250361413349 0 0.40188075570156889 0.20506745527973641 0 0.41202865604687938 0.20880250361413349 0 0.40723917269544019 0.21345093397370091 0 0.40901035966215971 0.20182192195462831 0 0.41747164122279939 0.20122447030200361 0 0.41202865604687938 0.20880250361413349 0 0.40188075570156889 0.20506745527973641 0 0.40901035966215971 0.20182192195462831 0 0.41202865604687938 0.20880250361413349 0 0.40723917269544019 0.21345093397370091 0 0.41375172140486011 0.21638679597622601 0 0.40816579721886481 0.2202325474979083 0 0.41202865604687938 0.20880250361413349 0 0.40723917269544019 0.21345093397370091 0 0.41375172140486011 0.21638679597622601 0 0.40828560372850897 0.2234552912292827 0 0.42469438251657449 0.23898919075016101 0 0.40828560372850897 0.2234552912292827 0 0.40847641157002329 0.228587940339531 0 0.42469438251657449 0.23898919075016101 0 0.40828560372850897 0.2234552912292827 0 0.42412122374498618 0.22194899413835781 0 0.42469438251657449 0.23898919075016101 0 0.41375172140486011 0.21638679597622601 0 0.40828560372850897 0.2234552912292827 0 0.42412122374498618 0.22194899413835781 0 0.40816579721886481 0.2202325474979083 0 0.40828560372850897 0.2234552912292827 0 0.41375172140486011 0.21638679597622601 0 0.40816579721886481 0.2202325474979083 0 0.40828560372850897 0.2234552912292827 0 0.40828560372850897 0.2234552912292827 0 0.40847641157002329 0.228587940339531 0 0.42412122374498618 0.22194899413835781 0 0.42469438251657449 0.23898919075016101 0 0.44116695617793278 0.2320277794605892 0 0.43567744953188209 0.21362160068557609 0 0.42412122374498618 0.22194899413835781 0 0.44116695617793278 0.2320277794605892 0 0.44110316130464111 0.25452309027103831 0 0.42478978643733262 0.2415555153052843 0 0.42469438251657449 0.23898919075016101 0 0.44110316130464111 0.25452309027103831 0 0.42469438251657449 0.23898919075016101 0 0.44116695617793278 0.2320277794605892 0 0.44110316130464111 0.25452309027103831 0 0.42469438251657449 0.23898919075016101 0 0.44110316130464111 0.25452309027103831 0 0.42478978643733262 0.2415555153052843 0 0.40936178095289738 0.25240399705514732 0 0.40847641157002329 0.228587940339531 0 0.42478978643733262 0.2415555153052843 0 0.40936178095289738 0.25240399705514732 0 0.40847641157002329 0.228587940339531 0 0.40847641157002329 0.228587940339531 0 0.42478978643733262 0.2415555153052843 0 0.42469438251657449 0.23898919075016101 0 0.40847641157002329 0.228587940339531 0 0.42478978643733262 0.2415555153052843 0 0.40936178095289738 0.25240399705514732 0 0.40192736673093021 0.23598013559304321 0 0.40847641157002329 0.228587940339531 0 0.45439012142468871 0.24678647365181461 0 0.45554685057757272 0.230865882216539 0 0.47099685105856659 0.24909432062393899 0 0.45439012142468871 0.24678647365181461 0 0.44116695617793278 0.2320277794605892 0 0.45554685057757272 0.230865882216539 0 0.44110316130464111 0.25452309027103831 0 0.45439012142468871 0.24678647365181461 0 0.44116695617793278 0.2320277794605892 0 0.44116695617793278 0.2320277794605892 0 0.45554685057757272 0.230865882216539 0 0.45187386292765219 0.2173831988418185 0 0.43567744953188209 0.21362160068557609 0 0.44116695617793278 0.2320277794605892 0 0.45187386292765219 0.2173831988418185 0 0.45554685057757272 0.230865882216539 0 0.45187386292765219 0.2173831988418185 0 0.47068038280299013 0.22277699506275911 0 0.45554685057757272 0.230865882216539 0 0.47068038280299013 0.22277699506275911 0 0.47099685105856659 0.24909432062393899 0 0.46239560677226271 0.2052150661567155 0 0.45187386292765219 0.2173831988418185 0 0.47068038280299013 0.22277699506275911 0 0.43567744953188209 0.21362160068557609 0 0.45187386292765219 0.2173831988418185 0 0.44428927597435708 0.20302735887789261 0 0.46239560677226271 0.2052150661567155 0 0.45187386292765219 0.2173831988418185 0 0.44428927597435708 0.20302735887789261 0 0.43425218887628159 0.18994466930501019 0 0.44428927597435708 0.20302735887789261 0 0.45093080490335269 0.18890851883451881 0 0.46239560677226271 0.2052150661567155 0 0.44428927597435708 0.20302735887789261 0 0.45093080490335269 0.18890851883451881 0 0.46239560677226271 0.2052150661567155 0 0.47722123341820649 0.19215568651400969 0 0.46453489988952468 0.18721829203691381 0 0.46239560677226271 0.2052150661567155 0 0.45093080490335269 0.18890851883451881 0 0.46453489988952468 0.18721829203691381 0 0.46239560677226271 0.2052150661567155 0 0.47722123341820649 0.19215568651400969 0 0.48263260808712449 0.2090117027798368 0 0.47722123341820649 0.19215568651400969 0 0.5 0.18872592139043051 0 0.48263260808712449 0.2090117027798368 0 0.5 0.18872592139043051 0 0.500000000000002 0.21376625816209011 0 0.48263260808712449 0.2090117027798368 0 0.500000000000002 0.21376625816209011 0 0.48263260808712449 0.2090117027798368 0 0.4854984255292849 0.23143028939301499 0 0.46239560677226271 0.2052150661567155 0 0.48263260808712449 0.2090117027798368 0 0.47068038280299013 0.22277699506275911 0 0.48263260808712449 0.2090117027798368 0 0.47068038280299013 0.22277699506275911 0 0.4854984255292849 0.23143028939301499 0 0.500000000000002 0.21376625816209011 0 0.4854984255292849 0.23143028939301499 0 0.5 0.2378946140413353 0 0.500000000000002 0.21376625816209011 0 0.4854984255292849 0.23143028939301499 0 0.5 0.26202296992058038 0 0.5 0.2378946140413353 0 0.48796407654405838 0.24861642653093519 0 0.4854984255292849 0.23143028939301499 0 0.5 0.2378946140413353 0 0.48796407654405838 0.24861642653093519 0 0.47068038280299013 0.22277699506275911 0 0.4854984255292849 0.23143028939301499 0 0.47099685105856659 0.24909432062393899 0 0.4854984255292849 0.23143028939301499 0 0.48796407654405838 0.24861642653093519 0 0.47099685105856659 0.24909432062393899 0 0.4854984255292849 0.23143028939301499 0 0.47099685105856659 0.24909432062393899 0 0.4641870433601718 0.14006742291246141 0 0.4472551328860257 0.14810337040010249 0 0.46326776301519812 0.1587644573903513 0 0.4641870433601718 0.14006742291246141 0 0.44910074313192522 0.12911261772131319 0 0.46616394133118072 0.1198459778800027 0 0.4641870433601718 0.14006742291246141 0 0.44910074313192522 0.12911261772131319 0 0.4472551328860257 0.14810337040010249 0 0.42915063366564621 0.1370691130452816 0 0.44910074313192522 0.12911261772131319 0 0.4472551328860257 0.14810337040010249 0 0.42915063366564621 0.1370691130452816 0 0.44910074313192522 0.12911261772131319 0 0.4357065652989397 0.1179962128903019 0 0.43400057892753963 0.16035606940242839 0 0.4472551328860257 0.14810337040010249 0 0.44971149835334029 0.1643047212070646 0 0.43400057892753963 0.16035606940242839 0 0.44971149835334029 0.1643047212070646 0 0.44377405713131368 0.177021570367044 0 0.44971149835334029 0.1643047212070646 0 0.44377405713131368 0.177021570367044 0 0.45944697531037437 0.17484409359351361 0 0.43425218887628159 0.18994466930501019 0 0.45093080490335269 0.18890851883451881 0 0.44377405713131368 0.177021570367044 0 0.44377405713131368 0.177021570367044 0 0.45944697531037437 0.17484409359351361 0 0.45093080490335269 0.18890851883451881 0 0.44377405713131368 0.177021570367044 0 0.45944697531037437 0.17484409359351361 0 0.45944697531037437 0.17484409359351361 0 0.46453489988952468 0.18721829203691381 0 0.47796052569578668 0.17414864873256081 0 0.45093080490335269 0.18890851883451881 0 0.45944697531037437 0.17484409359351361 0 0.46453489988952468 0.18721829203691381 0 0.44971149835334029 0.1643047212070646 0 0.45944697531037437 0.17484409359351361 0 0.46326776301519812 0.1587644573903513 0 0.45944697531037437 0.17484409359351361 0 0.46326776301519812 0.1587644573903513 0 0.47796052569578668 0.17414864873256081 0 0.4472551328860257 0.14810337040010249 0 0.44971149835334029 0.1643047212070646 0 0.46326776301519812 0.1587644573903513 0 0.46326776301519812 0.1587644573903513 0 0.47796052569578668 0.17414864873256081 0 0.4810454024854901 0.15111848749640491 0 0.47722123341820649 0.19215568651400969 0 0.46453489988952468 0.18721829203691381 0 0.47796052569578668 0.17414864873256081 0 0.47722123341820649 0.19215568651400969 0 0.5 0.18872592139043051 0 0.47796052569578668 0.17414864873256081 0 0.5 0.18872592139043051 0 0.47796052569578668 0.17414864873256081 0 0.5 0.16368558461877089 0 0.47796052569578668 0.17414864873256081 0 0.5 0.16368558461877089 0 0.4810454024854901 0.15111848749640491 0 0.5 0.16368558461877089 0 0.4810454024854901 0.15111848749640491 0 0.5 0.13864524784711141 0 0.4641870433601718 0.14006742291246141 0 0.46326776301519812 0.1587644573903513 0 0.4810454024854901 0.15111848749640491 0 0.4641870433601718 0.14006742291246141 0 0.4810454024854901 0.15111848749640491 0 0.48202996451929497 0.1290316023173789 0 0.4641870433601718 0.14006742291246141 0 0.48202996451929497 0.1290316023173789 0 0.46616394133118072 0.1198459778800027 0 0.4810454024854901 0.15111848749640491 0 0.48202996451929497 0.1290316023173789 0 0.5 0.13864524784711141 0 0.48202996451929497 0.1290316023173789 0 0.5 0.13864524784711141 0 0.5 0.11360491107545199 0 0.48202996451929497 0.1290316023173789 0 0.5 0.11360491107545199 0 0.48164324376201512 0.1103866494896297 0 0.48164324376201512 0.1103866494896297 0 0.49999999999998412 0.088564574303792512 0 0.47223897399802628 0.093484990248294514 0 0.5 0.11360491107545199 0 0.48164324376201512 0.1103866494896297 0 0.49999999999998412 0.088564574303792512 0 0.48164324376201512 0.1103866494896297 0 0.47223897399802628 0.093484990248294514 0 0.46616394133118072 0.1198459778800027 0 0.48202996451929497 0.1290316023173789 0 0.48164324376201512 0.1103866494896297 0 0.46616394133118072 0.1198459778800027 0 0.49571883890812751 0.075372854926424371 0 0.48604438940634598 0.051273887772271647 0 0.49571883890812751 0.075372854926424371 0 0.49999999999998412 0.088564574303792512 0 0.5 0.060877768231307527 0 0.49571883890812751 0.075372854926424371 0 0.48604438940634598 0.051273887772271647 0 0.5 0.060877768231307527 0 0.49571883890812751 0.075372854926424371 0 0.48120187576933138 0.069046704289004487 0 0.48604438940634598 0.051273887772271647 0 0.49571883890812751 0.075372854926424371 0 0.48406521968200461 0.080179817099671993 0 0.48120187576933138 0.069046704289004487 0 0.49999999999998412 0.088564574303792512 0 0.47223897399802628 0.093484990248294514 0 0.48406521968200461 0.080179817099671993 0 0.49999999999998412 0.088564574303792512 0 0.47223897399802628 0.093484990248294514 0 0.49571883890812751 0.075372854926424371 0 0.49999999999998412 0.088564574303792512 0 0.48406521968200461 0.080179817099671993 0 0.47223897399802628 0.093484990248294514 0 0.48406521968200461 0.080179817099671993 0 0.47116640973453727 0.074429961730844096 0 0.48406521968200461 0.080179817099671993 0 0.47116640973453727 0.074429961730844096 0 0.48120187576933138 0.069046704289004487 0 0.47116640973453727 0.074429961730844096 0 0.48120187576933138 0.069046704289004487 0 0.47139874545493671 0.061429918621521147 0 0.45820066983142499 0.067755826745289363 0 0.44911603479485418 0.088046279808874195 0 0.47116640973453727 0.074429961730844096 0 0.45820066983142499 0.067755826745289363 0 0.44911603479485418 0.088046279808874195 0 0.47116640973453727 0.074429961730844096 0 0.45820066983142499 0.067755826745289363 0 0.47139874545493671 0.061429918621521147 0 0.47223897399802628 0.093484990248294514 0 0.47116640973453727 0.074429961730844096 0 0.44911603479485418 0.088046279808874195 0 0.47116640973453727 0.074429961730844096 0 0.44911603479485418 0.088046279808874195 0 0.47223897399802628 0.093484990248294514 0 0.44911603479485418 0.088046279808874195 0 0.44447794799606882 0.098405406192797223 0 0.44911603479485418 0.088046279808874195 0 0.43192479398246408 0.088283511265858192 0 0.43612094188456069 0.075054025853421996 0 0.44911603479485418 0.088046279808874195 0 0.44447794799606882 0.098405406192797223 0 0.45820066983142499 0.067755826745289363 0 0.44911603479485418 0.088046279808874195 0 0.43612094188456069 0.075054025853421996 0 0.45820066983142499 0.067755826745289363 0 0.43612094188456069 0.075054025853421996 0 0.44760209918020932 0.053649981888992983 0 0.44910074313192522 0.12911261772131319 0 0.46616394133118072 0.1198459778800027 0 0.45232794468567228 0.1124282408537266 0 0.47223897399802628 0.093484990248294514 0 0.46616394133118072 0.1198459778800027 0 0.45232794468567228 0.1124282408537266 0 0.47223897399802628 0.093484990248294514 0 0.44447794799606882 0.098405406192797223 0 0.45232794468567228 0.1124282408537266 0 0.47223897399802628 0.093484990248294514 0 0.44447794799606882 0.098405406192797223 0 0.44911603479485418 0.088046279808874195 0 0.44447794799606882 0.098405406192797223 0 0.42745407196643381 0.10142274968174531 0 0.44911603479485418 0.088046279808874195 0 0.42745407196643381 0.10142274968174531 0 0.44447794799606882 0.098405406192797223 0 0.4357065652989397 0.1179962128903019 0 0.44910074313192522 0.12911261772131319 0 0.45232794468567228 0.1124282408537266 0 0.4357065652989397 0.1179962128903019 0 0.44447794799606882 0.098405406192797223 0 0.45232794468567228 0.1124282408537266 0 0.4357065652989397 0.1179962128903019 0 0.4357065652989397 0.1179962128903019 0 0.43037132227179248 0.10937741141546239 0 0.42351370539076438 0.120429786377846 0 0.43037132227179248 0.10937741141546239 0 0.42351370539076438 0.120429786377846 0 0.42150141260026791 0.10636786176506149 0 0.4159777269694841 0.13294607515568341 0 0.42351370539076438 0.120429786377846 0 0.41135646130382209 0.1192959363581485 0 0.41344346925412789 0.1100744312752541 0 0.41135646130382209 0.1192959363581485 0 0.42150141260026791 0.10636786176506149 0 0.41135646130382209 0.1192959363581485 0 0.42150141260026791 0.10636786176506149 0 0.42351370539076438 0.120429786377846 0 0.41135646130382209 0.1192959363581485 0 0.42150141260026791 0.10636786176506149 0 0.40727383961392388 0.1096244548545785 0 0.41344346925412789 0.1100744312752541 0 0.39943286654182242 0.1187261128687636 0 0.41344346925412789 0.1100744312752541 0 0.39943286654182242 0.1187261128687636 0 0.41344346925412789 0.1100744312752541 0 0.41135646130382209 0.1192959363581485 0 0.39943286654182242 0.1187261128687636 0 0.42211911319858558 0.1023683277083946 0 0.40487028229554961 0.10542554261800589 0 0.42211911319858558 0.1023683277083946 0 0.40878905682453498 0.09333235837446209 0 0.40487028229554961 0.10542554261800589 0 0.40727383961392388 0.1096244548545785 0 0.42211911319858558 0.1023683277083946 0 0.40487028229554961 0.10542554261800589 0 0.40727383961392388 0.1096244548545785 0 0.42211911319858558 0.1023683277083946 0 0.41344346925412789 0.1100744312752541 0 0.42745407196643381 0.10142274968174531 0 0.42211911319858558 0.1023683277083946 0 0.41344346925412789 0.1100744312752541 0 0.42150141260026791 0.10636786176506149 0 0.42745407196643381 0.10142274968174531 0 0.40727383961392388 0.1096244548545785 0 0.41344346925412789 0.1100744312752541 0 0.42211911319858558 0.1023683277083946 0 0.41344346925412789 0.1100744312752541 0 0.42745407196643381 0.10142274968174531 0 0.42211911319858558 0.1023683277083946 0 0.4188599020932352 0.091251685517669823 0 0.40878905682453498 0.09333235837446209 0 0.42519744274311438 0.096795772811844816 0 0.42211911319858558 0.1023683277083946 0 0.4188599020932352 0.091251685517669823 0 0.44447794799606882 0.098405406192797223 0 0.4357065652989397 0.1179962128903019 0 0.43037132227179248 0.10937741141546239 0 0.42519744274311438 0.096795772811844816 0 0.42745407196643381 0.10142274968174531 0 0.43192479398246408 0.088283511265858192 0 0.44447794799606882 0.098405406192797223 0 0.43037132227179248 0.10937741141546239 0 0.42745407196643381 0.10142274968174531 0 0.44447794799606882 0.098405406192797223 0 0.42745407196643381 0.10142274968174531 0 0.42519744274311438 0.096795772811844816 0 0.42562933247485463 0.1006525898855594 0 0.42211911319858558 0.1023683277083946 0 0.42562933247485463 0.1006525898855594 0 0.42745407196643381 0.10142274968174531 0 0.42211911319858558 0.1023683277083946 0 0.42562933247485463 0.1006525898855594 0 0.42211911319858558 0.1023683277083946 0 0.42519744274311438 0.096795772811844816 0 0.42562933247485463 0.1006525898855594 0 0.42745407196643381 0.10142274968174531 0 0.43037132227179248 0.10937741141546239 0 0.42150141260026791 0.10636786176506149 0 0.42745407196643381 0.10142274968174531 0 0.42745407196643381 0.10142274968174531 0 0.42211911319858558 0.1023683277083946 0 0.43192479398246408 0.088283511265858192 0 0.43612094188456069 0.075054025853421996 0 0.42345108330365011 0.072175483991619438 0 0.43192479398246408 0.088283511265858192 0 0.42345108330365011 0.072175483991619438 0 0.41377272688613859 0.080843859662184839 0 0.44911603479485418 0.088046279808874195 0 0.42745407196643381 0.10142274968174531 0 0.43192479398246408 0.088283511265858192 0 0.42519744274311438 0.096795772811844816 0 0.43192479398246408 0.088283511265858192 0 0.4188599020932352 0.091251685517669823 0 0.43612094188456069 0.075054025853421996 0 0.42345108330365011 0.072175483991619438 0 0.42806905116036392 0.052559768973073982 0 0.43612094188456069 0.075054025853421996 0 0.42806905116036392 0.052559768973073982 0 0.42345108330365011 0.072175483991619438 0 0.41403602352239433 0.063221827251169732 0 0.42806905116036392 0.052559768973073982 0 0.42345108330365011 0.072175483991619438 0 0.41403602352239433 0.063221827251169732 0 0.41377272688613859 0.080843859662184839 0 0.43192479398246408 0.088283511265858192 0 0.4188599020932352 0.091251685517669823 0 0.41377272688613859 0.080843859662184839 0 0.4188599020932352 0.091251685517669823 0 0.41377272688613859 0.080843859662184839 0 0.40878905682453498 0.09333235837446209 0 0.41377272688613859 0.080843859662184839 0 0.39515155900724502 0.08800294691332583 0 0.3904366715797733 0.068618152357034126 0 0.41377272688613859 0.080843859662184839 0 0.40878905682453498 0.09333235837446209 0 0.39515155900724502 0.08800294691332583 0 0.41403602352239433 0.063221827251169732 0 0.41377272688613859 0.080843859662184839 0 0.3904366715797733 0.068618152357034126 0 0.41403602352239433 0.063221827251169732 0 0.3904366715797733 0.068618152357034126 0 0.40013573810427921 0.056265407542474583 0 0.37428304080467212 0.085181122486210264 0 0.36094463021682849 0.061879487444816861 0 0.3904366715797733 0.068618152357034126 0 0.37428304080467212 0.085181122486210264 0 0.39515155900724502 0.08800294691332583 0 0.3904366715797733 0.068618152357034126 0 0.37428304080467212 0.085181122486210264 0 0.39515155900724502 0.08800294691332583 0 0.38762145139251158 0.108482757527606 0 0.37428304080467212 0.085181122486210264 0 0.38762145139251158 0.108482757527606 0 0.37116644873757482 0.1272731574952862 0 0.39242856602925918 0.116880582000756 0 0.37116644873757482 0.1272731574952862 0 0.38762145139251158 0.108482757527606 0 0.39242856602925918 0.116880582000756 0 0.38762145139251158 0.108482757527606 0 0.39242856602925918 0.116880582000756 0 0.38762145139251158 0.108482757527606 0 0.39242856602925918 0.116880582000756 0 0.40487028229554961 0.10542554261800589 0 0.40121151000737459 0.13222401095123429 0 0.39242856602925918 0.116880582000756 0 0.39943286654182242 0.1187261128687636 0 0.40121151000737459 0.13222401095123429 0 0.39242856602925918 0.116880582000756 0 0.40121151000737459 0.13222401095123429 0 0.41135646130382209 0.1192959363581485 0 0.39943286654182242 0.1187261128687636 0 0.40727383961392388 0.1096244548545785 0 0.39242856602925918 0.116880582000756 0 0.40487028229554961 0.10542554261800589 0 0.40727383961392388 0.1096244548545785 0 0.39242856602925918 0.116880582000756 0 0.39943286654182242 0.1187261128687636 0 0.40727383961392388 0.1096244548545785 0 0.39242856602925918 0.116880582000756 0 0.40878905682453498 0.09333235837446209 0 0.39515155900724502 0.08800294691332583 0 0.40487028229554961 0.10542554261800589 0 0.38762145139251158 0.108482757527606 0 0.40487028229554961 0.10542554261800589 0 0.39515155900724502 0.08800294691332583 0 0.38762145139251158 0.108482757527606 0 0.40487028229554961 0.10542554261800589 0 0.40304935339332132 0.03084614512467837 0 0.40440383228968702 0.013281793936960841 0 0.38933922662206122 0.020538101306475692 0 0.40440383228968702 0.013281793936960841 0 0.38879050414320548 -0.0035019242188035209 0 0.40440383228968702 0.013281793936960841 0 0.38933922662206122 0.020538101306475692 0 0.38879050414320548 -0.0035019242188035209 0 0.40440383228968702 0.013281793936960841 0 0.40326955669734788 0.0013145221745210921 0 0.38879050414320548 -0.0035019242188035209 0 0.37480090979353559 0.012117275161245869 0 0.38933922662206122 0.020538101306475692 0 0.38879050414320548 -0.0035019242188035209 0 0.38933922662206122 0.020538101306475692 0 0.38879050414320548 -0.0035019242188035209 0 0.37480090979353559 0.012117275161245869 0 0.38879050414320548 -0.0035019242188035209 0 0.37232238509817878 -0.001610374512647025 0 0.37480090979353559 0.012117275161245869 0 0.36864859530982658 0.02996483807260069 0 0.38933922662206122 0.020538101306475692 0 0.36864859530982658 0.02996483807260069 0 0.38933922662206122 0.020538101306475692 0 0.38988794910091717 0.044578126831754869 0 0.37210288993999918 0.04768584512514757 0 0.36864859530982658 0.02996483807260069 0 0.38988794910091717 0.044578126831754869 0 0.38933922662206122 0.020538101306475692 0 0.38988794910091717 0.044578126831754869 0 0.3904366715797733 0.068618152357034126 0 0.38988794910091717 0.044578126831754869 0 0.37210288993999918 0.04768584512514757 0 0.3904366715797733 0.068618152357034126 0 0.38988794910091717 0.044578126831754869 0 0.38988794910091717 0.044578126831754869 0 0.40013573810427921 0.056265407542474583 0 0.41159859851777292 0.045767191455474601 0 0.3904366715797733 0.068618152357034126 0 0.38988794910091717 0.044578126831754869 0 0.40013573810427921 0.056265407542474583 0 0.40304935339332132 0.03084614512467837 0 0.38933922662206122 0.020538101306475692 0 0.38988794910091717 0.044578126831754869 0 0.40304935339332132 0.03084614512467837 0 0.38988794910091717 0.044578126831754869 0 0.41159859851777292 0.045767191455474601 0 0.41159859851777292 0.045767191455474601 0 0.42806905116036392 0.052559768973073982 0 0.42001716043616782 0.03006551209272583 0 0.40304935339332132 0.03084614512467837 0 0.41159859851777292 0.045767191455474601 0 0.42001716043616782 0.03006551209272583 0 0.42257969012342039 0.032820131455946269 0 0.42001716043616782 0.03006551209272583 0 0.41403602352239433 0.063221827251169732 0 0.40013573810427921 0.056265407542474583 0 0.41159859851777292 0.045767191455474601 0 0.41403602352239433 0.063221827251169732 0 0.41159859851777292 0.045767191455474601 0 0.42806905116036392 0.052559768973073982 0 0.43612094188456069 0.075054025853421996 0 0.42806905116036392 0.052559768973073982 0 0.44760209918020932 0.053649981888992983 0 0.42806905116036392 0.052559768973073982 0 0.42257969012342039 0.032820131455946269 0 0.43133848619062398 0.034903582623395712 0 0.42806905116036392 0.052559768973073982 0 0.43133848619062398 0.034903582623395712 0 0.44136604415549369 0.038199853072216419 0 0.42806905116036392 0.052559768973073982 0 0.42257969012342039 0.032820131455946269 0 0.42001716043616782 0.03006551209272583 0 0.42806905116036392 0.052559768973073982 0 0.42001716043616782 0.03006551209272583 0 0.42257969012342039 0.032820131455946269 0 0.43133848619062398 0.034903582623395712 0 0.42687974903311282 0.030263027797785131 0 0.43133848619062398 0.034903582623395712 0 0.43708004483063873 0.027078954084780719 0 0.44136604415549369 0.038199853072216419 0 0.43133848619062398 0.034903582623395712 0 0.43708004483063873 0.027078954084780719 0 0.43128088872523751 0.027278585451218421 0 0.43708004483063873 0.027078954084780719 0 0.43451575876189319 0.02313834934525846 0 0.43879067348313727 0.020805433857732269 0 0.43708004483063873 0.027078954084780719 0 0.43128088872523751 0.027278585451218421 0 0.43451575876189319 0.02313834934525846 0 0.43128088872523751 0.027278585451218421 0 0.43451575876189319 0.02313834934525846 0 0.4313326241119888 0.022108344300384209 0 0.43128088872523751 0.027278585451218421 0 0.4313326241119888 0.022108344300384209 0 0.42818580417653629 0.023850620982987319 0 0.43133848619062398 0.034903582623395712 0 0.43128088872523751 0.027278585451218421 0 0.42687974903311282 0.030263027797785131 0 0.43409456265846358 0.018420429032176701 0 0.43814930691050141 0.01529426991520119 0 0.43879067348313727 0.020805433857732269 0 0.43409456265846358 0.018420429032176701 0 0.43451575876189319 0.02313834934525846 0 0.43879067348313727 0.020805433857732269 0 0.43409456265846358 0.018420429032176701 0 0.4313326241119888 0.022108344300384209 0 0.42948179077376047 0.018551805098886071 0 0.43409456265846358 0.018420429032176701 0 0.43451575876189319 0.02313834934525846 0 0.4313326241119888 0.022108344300384209 0 0.43409456265846358 0.018420429032176701 0 0.42948179077376047 0.018551805098886071 0 0.43253335143261418 0.012622564430315951 0 0.42948179077376047 0.018551805098886071 0 0.42560923020108132 0.020989372467620001 0 0.42605553741435992 0.014353866481729941 0 0.4313326241119888 0.022108344300384209 0 0.42948179077376047 0.018551805098886071 0 0.42818580417653629 0.023850620982987319 0 0.42948179077376047 0.018551805098886071 0 0.42560923020108132 0.020989372467620001 0 0.42818580417653629 0.023850620982987319 0 0.42560923020108132 0.020989372467620001 0 0.42100382611867188 0.022961855258980611 0 0.42109918609410119 0.016035952683859201 0 0.42560923020108132 0.020989372467620001 0 0.42109918609410119 0.016035952683859201 0 0.42605553741435992 0.014353866481729941 0 0.43128088872523751 0.027278585451218421 0 0.42687974903311282 0.030263027797785131 0 0.42573909922002001 0.02663203435981407 0 0.42560923020108132 0.020989372467620001 0 0.42818580417653629 0.023850620982987319 0 0.42573909922002001 0.02663203435981407 0 0.43128088872523751 0.027278585451218421 0 0.42818580417653629 0.023850620982987319 0 0.42573909922002001 0.02663203435981407 0 0.42560923020108132 0.020989372467620001 0 0.42573909922002001 0.02663203435981407 0 0.42100382611867188 0.022961855258980611 0 0.42573909922002001 0.02663203435981407 0 0.42255516667028048 0.027335051702517911 0 0.42100382611867188 0.022961855258980611 0 0.42257969012342039 0.032820131455946269 0 0.42687974903311282 0.030263027797785131 0 0.4234605809062621 0.029680805098551151 0 0.42255516667028048 0.027335051702517911 0 0.4234605809062621 0.029680805098551151 0 0.42001716043616782 0.03006551209272583 0 0.42687974903311282 0.030263027797785131 0 0.42573909922002001 0.02663203435981407 0 0.4234605809062621 0.029680805098551151 0 0.42573909922002001 0.02663203435981407 0 0.42255516667028048 0.027335051702517911 0 0.4234605809062621 0.029680805098551151 0 0.42257969012342039 0.032820131455946269 0 0.4234605809062621 0.029680805098551151 0 0.42001716043616782 0.03006551209272583 0 0.40304935339332132 0.03084614512467837 0 0.40440383228968702 0.013281793936960841 0 0.42001716043616782 0.03006551209272583 0 0.40440383228968702 0.013281793936960841 0 0.42001716043616782 0.03006551209272583 0 0.41261136222314942 0.0093762189671962488 0 0.42001716043616782 0.03006551209272583 0 0.42100382611867188 0.022961855258980611 0 0.41261136222314942 0.0093762189671962488 0 0.42001716043616782 0.03006551209272583 0 0.41261136222314942 0.0093762189671962488 0 0.40440383228968702 0.013281793936960841 0 0.42001716043616782 0.03006551209272583 0 0.42255516667028048 0.027335051702517911 0 0.42001716043616782 0.03006551209272583 0 0.42100382611867188 0.022961855258980611 0 0.42100382611867188 0.022961855258980611 0 0.42109918609410119 0.016035952683859201 0 0.41261136222314942 0.0093762189671962488 0 0.40440383228968702 0.013281793936960841 0 0.40326955669734788 0.0013145221745210921 0 0.41261136222314942 0.0093762189671962488 0 0.42109918609410119 0.016035952683859201 0 0.41261136222314942 0.0093762189671962488 0 0.42089068881171687 0.0096543862810420274 0 0.41261136222314942 0.0093762189671962488 0 0.42089068881171687 0.0096543862810420274 0 0.41937437112046932 -0.001225319212085151 0 0.42089068881171687 0.0096543862810420274 0 0.42738201184002889 0.0071909116057871994 0 0.41937437112046932 -0.001225319212085151 0 0.42738201184002889 0.0071909116057871994 0 0.41937437112046932 -0.001225319212085151 0 0.43280487266672218 -0.00097476378086885104 0 0.42109918609410119 0.016035952683859201 0 0.42089068881171687 0.0096543862810420274 0 0.42605553741435992 0.014353866481729941 0 0.42089068881171687 0.0096543862810420274 0 0.42738201184002889 0.0071909116057871994 0 0.42605553741435992 0.014353866481729941 0 0.42738201184002889 0.0071909116057871994 0 0.42605553741435992 0.014353866481729941 0 0.43253335143261418 0.012622564430315951 0 0.42948179077376047 0.018551805098886071 0 0.42605553741435992 0.014353866481729941 0 0.43253335143261418 0.012622564430315951 0 0.42738201184002889 0.0071909116057871994 0 0.43253335143261418 0.012622564430315951 0 0.43535163979502972 0.0058594354029439539 0 0.43253335143261418 0.012622564430315951 0 0.43535163979502972 0.0058594354029439539 0 0.43807772553110669 0.010550348383535911 0 0.43253335143261418 0.012622564430315951 0 0.43807772553110669 0.010550348383535911 0 0.43814930691050141 0.01529426991520119 0 0.43409456265846358 0.018420429032176701 0 0.43253335143261418 0.012622564430315951 0 0.43814930691050141 0.01529426991520119 0 0.42738201184002889 0.0071909116057871994 0 0.43535163979502972 0.0058594354029439539 0 0.43280487266672218 -0.00097476378086885104 0 0.43535163979502972 0.0058594354029439539 0 0.44032989530471972 0.001629804140855494 0 0.43280487266672218 -0.00097476378086885104 0 0.43535163979502972 0.0058594354029439539 0 0.44215957830139502 0.0070052120563689809 0 0.43807772553110669 0.010550348383535911 0 0.43535163979502972 0.0058594354029439539 0 0.44032989530471972 0.001629804140855494 0 0.44215957830139502 0.0070052120563689809 0 0.44032989530471972 0.001629804140855494 0 0.44215957830139502 0.0070052120563689809 0 0.44712769213151921 0.0032257524911131902 0 0.44712769213151921 0.0032257524911131902 0 0.45464906528307619 0.00068230869151560559 0 0.45586947235798547 0.0093880077105401791 0 0.44215957830139502 0.0070052120563689809 0 0.44712769213151921 0.0032257524911131902 0 0.4475409920957194 0.010995865689257931 0 0.44712769213151921 0.0032257524911131902 0 0.4475409920957194 0.010995865689257931 0 0.45586947235798547 0.0093880077105401791 0 0.4475409920957194 0.010995865689257931 0 0.45153257803284652 0.018007423744728201 0 0.45586947235798547 0.0093880077105401791 0 0.4475409920957194 0.010995865689257931 0 0.44407006089426132 0.017825340716418041 0 0.45153257803284652 0.018007423744728201 0 0.4475409920957194 0.010995865689257931 0 0.44198758679143157 0.01206541197060443 0 0.44407006089426132 0.017825340716418041 0 0.44215957830139502 0.0070052120563689809 0 0.4475409920957194 0.010995865689257931 0 0.44198758679143157 0.01206541197060443 0 0.44215957830139502 0.0070052120563689809 0 0.44198758679143157 0.01206541197060443 0 0.43807772553110669 0.010550348383535911 0 0.44198758679143157 0.01206541197060443 0 0.43807772553110669 0.010550348383535911 0 0.43814930691050141 0.01529426991520119 0 0.44198758679143157 0.01206541197060443 0 0.43814930691050141 0.01529426991520119 0 0.44407006089426132 0.017825340716418041 0 0.43814930691050141 0.01529426991520119 0 0.43879067348313727 0.020805433857732269 0 0.44407006089426132 0.017825340716418041 0 0.43879067348313727 0.020805433857732269 0 0.44407006089426132 0.017825340716418041 0 0.44512569872122981 0.025550911030488659 0 0.43708004483063873 0.027078954084780719 0 0.44512569872122981 0.025550911030488659 0 0.44136604415549369 0.038199853072216419 0 0.43708004483063873 0.027078954084780719 0 0.43879067348313727 0.020805433857732269 0 0.44512569872122981 0.025550911030488659 0 0.44512569872122981 0.025550911030488659 0 0.4561369504253342 0.026625134082166321 0 0.45001234234451781 0.033102401678371272 0 0.44512569872122981 0.025550911030488659 0 0.45153257803284652 0.018007423744728201 0 0.4561369504253342 0.026625134082166321 0 0.44407006089426132 0.017825340716418041 0 0.44512569872122981 0.025550911030488659 0 0.45153257803284652 0.018007423744728201 0 0.45944114912089251 0.01795322250639194 0 0.4561369504253342 0.026625134082166321 0 0.46557544213517449 0.024593616317302149 0 0.45153257803284652 0.018007423744728201 0 0.45944114912089251 0.01795322250639194 0 0.4561369504253342 0.026625134082166321 0 0.4561369504253342 0.026625134082166321 0 0.46557544213517449 0.024593616317302149 0 0.46197746367777598 0.034192298150851133 0 0.46557544213517449 0.024593616317302149 0 0.46197746367777598 0.034192298150851133 0 0.47636993990456461 0.027174920618118811 0 0.45944114912089251 0.01795322250639194 0 0.46557544213517449 0.024593616317302149 0 0.47037343925141711 0.012237691140261469 0 0.47037343925141711 0.012237691140261469 0 0.46833294346041737 -0.00635317894308398 0 0.46437693859826967 -0.002699538337595897 0 0.45944114912089251 0.01795322250639194 0 0.46236210535530831 0.011509895728738961 0 0.47037343925141711 0.012237691140261469 0 0.46236210535530831 0.011509895728738961 0 0.46137405840640527 0.0052069130631511307 0 0.47037343925141711 0.012237691140261469 0 0.47037343925141711 0.012237691140261469 0 0.46437693859826967 -0.002699538337595897 0 0.46137405840640527 0.0052069130631511307 0 0.45964866809453719 -0.0006594034327338438 0 0.46437693859826967 -0.002699538337595897 0 0.46137405840640527 0.0052069130631511307 0 0.47037343925141711 0.012237691140261469 0 0.46437693859826967 -0.002699538337595897 0 0.46137405840640527 0.0052069130631511307 0 0.45464906528307619 0.00068230869151560559 0 0.45586947235798547 0.0093880077105401791 0 0.46137405840640527 0.0052069130631511307 0 0.45464906528307619 0.00068230869151560559 0 0.45964866809453719 -0.0006594034327338438 0 0.45153257803284652 0.018007423744728201 0 0.45944114912089251 0.01795322250639194 0 0.45586947235798547 0.0093880077105401791 0 0.45944114912089251 0.01795322250639194 0 0.46236210535530831 0.011509895728738961 0 0.45586947235798547 0.0093880077105401791 0 0.46236210535530831 0.011509895728738961 0 0.46137405840640527 0.0052069130631511307 0 0.45586947235798547 0.0093880077105401791 0 0.42806905116036392 0.052559768973073982 0 0.44760209918020932 0.053649981888992983 0 0.44136604415549369 0.038199853072216419 0 0.44760209918020932 0.053649981888992983 0 0.44136604415549369 0.038199853072216419 0 0.45401316519409879 0.041122939555902682 0 0.44136604415549369 0.038199853072216419 0 0.45001234234451781 0.033102401678371272 0 0.45401316519409879 0.041122939555902682 0 0.44512569872122981 0.025550911030488659 0 0.44136604415549369 0.038199853072216419 0 0.45001234234451781 0.033102401678371272 0 0.46197746367777598 0.034192298150851133 0 0.46728530486799491 0.047465373681704122 0 0.47636993990456461 0.027174920618118811 0 0.45001234234451781 0.033102401678371272 0 0.46197746367777598 0.034192298150851133 0 0.45401316519409879 0.041122939555902682 0 0.4561369504253342 0.026625134082166321 0 0.45001234234451781 0.033102401678371272 0 0.46197746367777598 0.034192298150851133 0 0.46197746367777598 0.034192298150851133 0 0.45401316519409879 0.041122939555902682 0 0.46728530486799491 0.047465373681704122 0 0.45820066983142499 0.067755826745289363 0 0.46728530486799491 0.047465373681704122 0 0.45820066983142499 0.067755826745289363 0 0.46728530486799491 0.047465373681704122 0 0.47139874545493671 0.061429918621521147 0 0.45820066983142499 0.067755826745289363 0 0.44760209918020932 0.053649981888992983 0 0.46728530486799491 0.047465373681704122 0 0.44760209918020932 0.053649981888992983 0 0.45401316519409879 0.041122939555902682 0 0.46728530486799491 0.047465373681704122 0 0.46728530486799491 0.047465373681704122 0 0.47139874545493671 0.061429918621521147 0 0.48604438940634598 0.051273887772271647 0 0.48120187576933138 0.069046704289004487 0 0.47139874545493671 0.061429918621521147 0 0.48604438940634598 0.051273887772271647 0 0.46728530486799491 0.047465373681704122 0 0.48604438940634598 0.051273887772271647 0 0.47636993990456461 0.027174920618118811 0 0.48604438940634598 0.051273887772271647 0 0.47636993990456461 0.027174920618118811 0 0.46728530486799491 0.047465373681704122 0 0.47636993990456461 0.027174920618118811 0 0.5 0.033190962158822453 0 0.49120381902457871 0.033503494910178171 0 0.48604438940634598 0.051273887772271647 0 0.49120381902457871 0.033503494910178171 0 0.48604438940634598 0.051273887772271647 0 0.47636993990456461 0.027174920618118811 0 0.5 0.033190962158822453 0 0.48604438940634598 0.051273887772271647 0 0.5 0.060877768231307527 0 0.48257431086373292 0.013317512232496999 0 0.48127972706441741 0.01620895384915497 0 0.46833294346041737 -0.00635317894308398 0 0.48257431086373292 0.013317512232496999 0 0.48610737433228413 -0.0065304440450226087 0 0.46833294346041737 -0.00635317894308398 0 0.47037343925141711 0.012237691140261469 0 0.48127972706441741 0.01620895384915497 0 0.46833294346041737 -0.00635317894308398 0 0.48127972706441741 0.01620895384915497 0 0.46833294346041737 -0.00635317894308398 0 0.48257431086373292 0.013317512232496999 0 0.48127972706441741 0.01620895384915497 0 0.47037343925141711 0.012237691140261469 0 0.47636993990456461 0.027174920618118811 0 0.46557544213517449 0.024593616317302149 0 0.47037343925141711 0.012237691140261469 0 0.47636993990456461 0.027174920618118811 0 0.49120381902457871 0.033503494910178171 0 0.47636993990456461 0.027174920618118811 0 0.48127972706441741 0.01620895384915497 0 0.47037343925141711 0.012237691140261469 0 0.47636993990456461 0.027174920618118811 0 0.48127972706441741 0.01620895384915497 0 0.47636993990456461 0.027174920618118811 0 0.48127972706441741 0.01620895384915497 0 0.49120381902457871 0.033503494910178171 0 0.48257431086373292 0.013317512232496999 0 0.48127972706441741 0.01620895384915497 0 0.49120381902457871 0.033503494910178171 0 0.48127972706441741 0.01620895384915497 0 0.5 0.033190962158822453 0 0.48257431086373292 0.013317512232496999 0 0.5 0.005504156086337475 0 0.5 0.033190962158822453 0 0.49120381902457871 0.033503494910178171 0 0.48257431086373292 0.013317512232496999 0 0.48257431086373292 0.013317512232496999 0 0.5 0.005504156086337475 0 0.48610737433228413 -0.0065304440450226087 0 0.5 0.005504156086337475 0 0.48610737433228413 -0.0065304440450226087 0 0.5 -0.022182649986147551 0 0.48610737433228413 -0.0065304440450226087 0 0.47958152260606601 -0.02160921024578363 0 0.46833294346041737 -0.00635317894308398 0 0.47958152260606601 -0.02160921024578363 0 0.46833294346041737 -0.00635317894308398 0 0.46865040588144818 -0.03056068281142299 0 0.48610737433228413 -0.0065304440450226087 0 0.47958152260606601 -0.02160921024578363 0 0.5 -0.022182649986147551 0 0.47958152260606601 -0.02160921024578363 0 0.5 -0.022182649986147551 0 0.47481688935618033 -0.04241909544324101 0 0.5 -0.022182649986147551 0 0.5 -0.049869456058632522 0 0.47481688935618033 -0.04241909544324101 0 0.5 -0.049869456058632522 0 0.48298318693957298 -0.06110217658412135 0 0.47481688935618033 -0.04241909544324101 0 0.48298318693957298 -0.06110217658412135 0 0.46880305013693069 -0.055739109839975418 0 0.46444317615752179 -0.069588279184178092 0 0.48298318693957298 -0.06110217658412135 0 0.46880305013693069 -0.055739109839975418 0 0.47481688935618033 -0.04241909544324101 0 0.47958152260606601 -0.02160921024578363 0 0.47481688935618033 -0.04241909544324101 0 0.46865040588144818 -0.03056068281142299 0 0.47481688935618033 -0.04241909544324101 0 0.45862813280429943 -0.046948269985401941 0 0.46865040588144818 -0.03056068281142299 0 0.47481688935618033 -0.04241909544324101 0 0.45862813280429943 -0.046948269985401941 0 0.45862813280429943 -0.046948269985401941 0 0.46865040588144818 -0.03056068281142299 0 0.45538615985641773 -0.028915311735323031 0 0.46880305013693069 -0.055739109839975418 0 0.47481688935618033 -0.04241909544324101 0 0.45862813280429943 -0.046948269985401941 0 0.46880305013693069 -0.055739109839975418 0 0.45433180236002968 -0.058697308896304798 0 0.46444317615752179 -0.069588279184178092 0 0.46880305013693069 -0.055739109839975418 0 0.45862813280429943 -0.046948269985401941 0 0.45433180236002968 -0.058697308896304798 0 0.45862813280429943 -0.046948269985401941 0 0.45433180236002968 -0.058697308896304798 0 0.4424393762524183 -0.051477444527562283 0 0.45862813280429943 -0.046948269985401941 0 0.4424393762524183 -0.051477444527562283 0 0.45433180236002968 -0.058697308896304798 0 0.4424393762524183 -0.051477444527562283 0 0.44217194191255199 -0.062490612600983861 0 0.4424393762524183 -0.051477444527562283 0 0.43534791473672191 -0.063835610177196495 0 0.4424393762524183 -0.051477444527562283 0 0.44217194191255199 -0.062490612600983861 0 0.43534791473672191 -0.063835610177196495 0 0.4424393762524183 -0.051477444527562283 0 0.45538615985641773 -0.028915311735323031 0 0.4424393762524183 -0.051477444527562283 0 0.45538615985641773 -0.028915311735323031 0 0.43732994433505229 -0.027210203214966519 0 0.45862813280429943 -0.046948269985401941 0 0.4424393762524183 -0.051477444527562283 0 0.45538615985641773 -0.028915311735323031 0 0.4442056936289327 -0.0069666154652798006 0 0.4537376814583553 -0.01406226645421654 0 0.43732994433505229 -0.027210203214966519 0 0.4537376814583553 -0.01406226645421654 0 0.45538615985641773 -0.028915311735323031 0 0.43732994433505229 -0.027210203214966519 0 0.44032989530471972 0.001629804140855494 0 0.4442056936289327 -0.0069666154652798006 0 0.43280487266672218 -0.00097476378086885104 0 0.44032989530471972 0.001629804140855494 0 0.44712769213151921 0.0032257524911131902 0 0.4442056936289327 -0.0069666154652798006 0 0.45464906528307619 0.00068230869151560559 0 0.4442056936289327 -0.0069666154652798006 0 0.4581946100903978 -0.0058272971480062136 0 0.44712769213151921 0.0032257524911131902 0 0.45464906528307619 0.00068230869151560559 0 0.4442056936289327 -0.0069666154652798006 0 0.4442056936289327 -0.0069666154652798006 0 0.4537376814583553 -0.01406226645421654 0 0.4581946100903978 -0.0058272971480062136 0 0.4537376814583553 -0.01406226645421654 0 0.4581946100903978 -0.0058272971480062136 0 0.46833294346041737 -0.00635317894308398 0 0.45464906528307619 0.00068230869151560559 0 0.4581946100903978 -0.0058272971480062136 0 0.45964866809453719 -0.0006594034327338438 0 0.4581946100903978 -0.0058272971480062136 0 0.45964866809453719 -0.0006594034327338438 0 0.46437693859826967 -0.002699538337595897 0 0.4581946100903978 -0.0058272971480062136 0 0.46833294346041737 -0.00635317894308398 0 0.46437693859826967 -0.002699538337595897 0 0.46833294346041737 -0.00635317894308398 0 0.46865040588144818 -0.03056068281142299 0 0.45538615985641773 -0.028915311735323031 0 0.46833294346041737 -0.00635317894308398 0 0.45538615985641773 -0.028915311735323031 0 0.4537376814583553 -0.01406226645421654 0 0.46833294346041737 -0.00635317894308398 0 0.45538615985641773 -0.028915311735323031 0 0.47795401619815792 -0.1231606782490454 0 0.47999748032389772 -0.10522009403983509 0 0.46299714927212632 -0.10470108997707581 0 0.47795401619815792 -0.1231606782490454 0 0.46299714927212632 -0.10470108997707581 0 0.47795401619815792 -0.1231606782490454 0 0.5 -0.1052430682036026 0 0.47999748032389772 -0.10522009403983509 0 0.47795401619815792 -0.1231606782490454 0 0.5 -0.1052430682036026 0 0.49999999999999561 -0.13292987427608749 0 0.5 -0.1052430682036026 0 0.47999748032389772 -0.10522009403983509 0 0.47903875582530658 -0.087775539729616631 0 0.47999748032389772 -0.10522009403983509 0 0.47903875582530658 -0.087775539729616631 0 0.46299714927212632 -0.10470108997707581 0 0.5 -0.1052430682036026 0 0.47903875582530658 -0.087775539729616631 0 0.5 -0.077556262131117548 0 0.5 -0.049869456058632522 0 0.48298318693957298 -0.06110217658412135 0 0.5 -0.077556262131117548 0 0.48298318693957298 -0.06110217658412135 0 0.47903875582530658 -0.087775539729616631 0 0.5 -0.077556262131117548 0 0.48298318693957298 -0.06110217658412135 0 0.47903875582530658 -0.087775539729616631 0 0.46444317615752179 -0.069588279184178092 0 0.46444317615752179 -0.069588279184178092 0 0.45027878182006231 -0.06919920505544766 0 0.44804028234609461 -0.086241501705106152 0 0.45433180236002968 -0.058697308896304798 0 0.46444317615752179 -0.069588279184178092 0 0.45027878182006231 -0.06919920505544766 0 0.45027878182006231 -0.06919920505544766 0 0.44804028234609461 -0.086241501705106152 0 0.43308341542006162 -0.067781913433137622 0 0.44804028234609461 -0.086241501705106152 0 0.43308341542006162 -0.067781913433137622 0 0.45433180236002968 -0.058697308896304798 0 0.44217194191255199 -0.062490612600983861 0 0.45027878182006231 -0.06919920505544766 0 0.44217194191255199 -0.062490612600983861 0 0.45027878182006231 -0.06919920505544766 0 0.43308341542006162 -0.067781913433137622 0 0.44217194191255199 -0.062490612600983861 0 0.43534791473672191 -0.063835610177196495 0 0.47903875582530658 -0.087775539729616631 0 0.46444317615752179 -0.069588279184178092 0 0.44804028234609461 -0.086241501705106152 0 0.47903875582530658 -0.087775539729616631 0 0.44804028234609461 -0.086241501705106152 0 0.46299714927212632 -0.10470108997707581 0 0.44804028234609461 -0.086241501705106152 0 0.46299714927212632 -0.10470108997707581 0 0.44804028234609461 -0.086241501705106152 0 0.44683152363590789 -0.1072242395943461 0 0.43322761898896228 -0.098575403491518776 0 0.44804028234609461 -0.086241501705106152 0 0.46299714927212632 -0.10470108997707581 0 0.44683152363590789 -0.1072242395943461 0 0.44683152363590789 -0.1072242395943461 0 0.43687004187442008 -0.1170243740091135 0 0.43322761898896228 -0.098575403491518776 0 0.44683152363590789 -0.1072242395943461 0 0.45524236696645898 -0.1212199631211599 0 0.43687004187442008 -0.1170243740091135 0 0.45524236696645898 -0.1212199631211599 0 0.43687004187442008 -0.1170243740091135 0 0.4445962514410613 -0.13209247138712141 0 0.46299714927212632 -0.10470108997707581 0 0.44683152363590789 -0.1072242395943461 0 0.45524236696645898 -0.1212199631211599 0 0.47795401619815792 -0.1231606782490454 0 0.46299714927212632 -0.10470108997707581 0 0.45524236696645898 -0.1212199631211599 0 0.42089006386453959 -0.11200822974034599 0 0.4057647178407664 -0.1214959209129528 0 0.42754440153228052 -0.1297071405274216 0 0.42089006386453959 -0.11200822974034599 0 0.409032018443029 -0.1047217950489531 0 0.4057647178407664 -0.1214959209129528 0 0.42089006386453959 -0.11200822974034599 0 0.43687004187442008 -0.1170243740091135 0 0.42754440153228052 -0.1297071405274216 0 0.42089006386453959 -0.11200822974034599 0 0.43322761898896228 -0.098575403491518776 0 0.41744817206744111 -0.096364455074562219 0 0.42089006386453959 -0.11200822974034599 0 0.43687004187442008 -0.1170243740091135 0 0.43322761898896228 -0.098575403491518776 0 0.42089006386453959 -0.11200822974034599 0 0.41744817206744111 -0.096364455074562219 0 0.409032018443029 -0.1047217950489531 0 0.41744817206744111 -0.096364455074562219 0 0.409032018443029 -0.1047217950489531 0 0.40725278117716901 -0.093755043199544474 0 0.41744817206744111 -0.096364455074562219 0 0.40725278117716901 -0.093755043199544474 0 0.41234154823645519 -0.083137566401515664 0 0.40725278117716901 -0.093755043199544474 0 0.41234154823645519 -0.083137566401515664 0 0.40087917353759323 -0.084189304317967936 0 0.41234154823645519 -0.083137566401515664 0 0.40627928666208529 -0.069564959327900272 0 0.40087917353759323 -0.084189304317967936 0 0.41234154823645519 -0.083137566401515664 0 0.4254526455152372 -0.08107992235687228 0 0.42155899470265118 -0.073265653606592748 0 0.41744817206744111 -0.096364455074562219 0 0.41234154823645519 -0.083137566401515664 0 0.4254526455152372 -0.08107992235687228 0 0.44804028234609461 -0.086241501705106152 0 0.43322761898896228 -0.098575403491518776 0 0.4254526455152372 -0.08107992235687228 0 0.44804028234609461 -0.086241501705106152 0 0.4254526455152372 -0.08107992235687228 0 0.43308341542006162 -0.067781913433137622 0 0.43322761898896228 -0.098575403491518776 0 0.41744817206744111 -0.096364455074562219 0 0.4254526455152372 -0.08107992235687228 0 0.4254526455152372 -0.08107992235687228 0 0.43308341542006162 -0.067781913433137622 0 0.4254526455152372 -0.08107992235687228 0 0.43308341542006162 -0.067781913433137622 0 0.42155899470265118 -0.073265653606592748 0 0.44217194191255199 -0.062490612600983861 0 0.43534791473672191 -0.063835610177196495 0 0.43308341542006162 -0.067781913433137622 0 0.43534791473672191 -0.063835610177196495 0 0.43308341542006162 -0.067781913433137622 0 0.43534791473672191 -0.063835610177196495 0 0.43063807767941342 -0.064763906513540165 0 0.43534791473672191 -0.063835610177196495 0 0.43308341542006162 -0.067781913433137622 0 0.43063807767941342 -0.064763906513540165 0 0.43308341542006162 -0.067781913433137622 0 0.43063807767941342 -0.064763906513540165 0 0.43308341542006162 -0.067781913433137622 0 0.43063807767941342 -0.064763906513540165 0 0.42155899470265118 -0.073265653606592748 0 0.43063807767941342 -0.064763906513540165 0 0.40627928666208529 -0.069564959327900272 0 0.43063807767941342 -0.064763906513540165 0 0.42155899470265118 -0.073265653606592748 0 0.40627928666208529 -0.069564959327900272 0 0.43063807767941342 -0.064763906513540165 0 0.40627928666208529 -0.069564959327900272 0 0.40956167881806782 -0.060675731607075858 0 0.41234154823645519 -0.083137566401515664 0 0.42155899470265118 -0.073265653606592748 0 0.40627928666208529 -0.069564959327900272 0 0.40627928666208529 -0.069564959327900272 0 0.40956167881806782 -0.060675731607075858 0 0.38981888180827351 -0.066199230173579773 0 0.40956167881806782 -0.060675731607075858 0 0.40627928666208529 -0.069564959327900272 0 0.38981888180827351 -0.066199230173579773 0 0.40956167881806782 -0.060675731607075858 0 0.40627928666208529 -0.069564959327900272 0 0.38591855650343132 -0.073578004998397201 0 0.40087917353759323 -0.084189304317967936 0 0.40627928666208529 -0.069564959327900272 0 0.38591855650343132 -0.073578004998397201 0 0.40627928666208529 -0.069564959327900272 0 0.38981888180827351 -0.066199230173579773 0 0.38591855650343132 -0.073578004998397201 0 0.40627928666208529 -0.069564959327900272 0 0.40087917353759323 -0.084189304317967936 0 0.38981888180827351 -0.066199230173579773 0 0.37310051534114907 -0.055734045615530178 0 0.37007608479847948 -0.071722728740084618 0 0.38981888180827351 -0.066199230173579773 0 0.38591855650343132 -0.073578004998397201 0 0.37007608479847948 -0.071722728740084618 0 0.38591855650343132 -0.073578004998397201 0 0.36555782634477701 -0.077591050668893297 0 0.38981888180827351 -0.066199230173579773 0 0.37007608479847948 -0.071722728740084618 0 0.38591855650343132 -0.073578004998397201 0 0.38575808074153423 -0.086081539328354703 0 0.39130091725929361 -0.084104759351983333 0 0.38591855650343132 -0.073578004998397201 0 0.37649869724681961 -0.085232108528193046 0 0.36555782634477701 -0.077591050668893297 0 0.38591855650343132 -0.073578004998397201 0 0.37649869724681961 -0.085232108528193046 0 0.38575808074153423 -0.086081539328354703 0 0.37649869724681961 -0.085232108528193046 0 0.38575808074153423 -0.086081539328354703 0 0.38014435813092012 -0.09377343229102815 0 0.38575808074153423 -0.086081539328354703 0 0.39264785825461579 -0.092570188763213462 0 0.39130091725929361 -0.084104759351983333 0 0.38575808074153423 -0.086081539328354703 0 0.39264785825461579 -0.092570188763213462 0 0.38014435813092012 -0.09377343229102815 0 0.40087917353759323 -0.084189304317967936 0 0.39547906041310132 -0.098813649308035698 0 0.39264785825461579 -0.092570188763213462 0 0.39130091725929361 -0.084104759351983333 0 0.40087917353759323 -0.084189304317967936 0 0.39264785825461579 -0.092570188763213462 0 0.40087917353759323 -0.084189304317967936 0 0.39547906041310132 -0.098813649308035698 0 0.38591855650343132 -0.073578004998397201 0 0.39130091725929361 -0.084104759351983333 0 0.40087917353759323 -0.084189304317967936 0 0.40725278117716901 -0.093755043199544474 0 0.40087917353759323 -0.084189304317967936 0 0.39547906041310132 -0.098813649308035698 0 0.409032018443029 -0.1047217950489531 0 0.39547906041310132 -0.098813649308035698 0 0.4057647178407664 -0.1214959209129528 0 0.39547906041310132 -0.098813649308035698 0 0.38876033644643782 -0.1024339116592892 0 0.38943292014273212 -0.1151875361385183 0 0.39547906041310132 -0.098813649308035698 0 0.38943292014273212 -0.1151875361385183 0 0.409032018443029 -0.1047217950489531 0 0.40725278117716901 -0.093755043199544474 0 0.39547906041310132 -0.098813649308035698 0 0.39547906041310132 -0.098813649308035698 0 0.39036575923334071 -0.097368703317491298 0 0.38876033644643782 -0.1024339116592892 0 0.39264785825461579 -0.092570188763213462 0 0.39547906041310132 -0.098813649308035698 0 0.39264785825461579 -0.092570188763213462 0 0.39547906041310132 -0.098813649308035698 0 0.39036575923334071 -0.097368703317491298 0 0.38876033644643782 -0.1024339116592892 0 0.36182546680226851 -0.103037311628457 0 0.39264785825461579 -0.092570188763213462 0 0.39036575923334071 -0.097368703317491298 0 0.38014435813092012 -0.09377343229102815 0 0.39036575923334071 -0.097368703317491298 0 0.38014435813092012 -0.09377343229102815 0 0.38876033644643782 -0.1024339116592892 0 0.38014435813092012 -0.09377343229102815 0 0.38876033644643782 -0.1024339116592892 0 0.36182546680226851 -0.103037311628457 0 0.38876033644643782 -0.1024339116592892 0 0.37544512553492981 -0.10953065870653531 0 0.36182546680226851 -0.103037311628457 0 0.38876033644643782 -0.1024339116592892 0 0.38943292014273212 -0.1151875361385183 0 0.37544512553492981 -0.10953065870653531 0 0.38943292014273212 -0.1151875361385183 0 0.38011491546278892 -0.11810593161037081 0 0.38338677987236258 -0.1315614229690007 0 0.38943292014273212 -0.1151875361385183 0 0.39442452004675282 -0.12650098367137541 0 0.38338677987236258 -0.1315614229690007 0 0.37544512553492981 -0.10953065870653531 0 0.38011491546278892 -0.11810593161037081 0 0.37564269716861559 -0.12678588016291681 0 0.38943292014273212 -0.1151875361385183 0 0.38338677987236258 -0.1315614229690007 0 0.38943292014273212 -0.1151875361385183 0 0.37544512553492981 -0.10953065870653531 0 0.38011491546278892 -0.11810593161037081 0 0.38943292014273212 -0.1151875361385183 0 0.4057647178407664 -0.1214959209129528 0 0.39442452004675282 -0.12650098367137541 0 0.39547906041310132 -0.098813649308035698 0 0.38943292014273212 -0.1151875361385183 0 0.4057647178407664 -0.1214959209129528 0 0.39547906041310132 -0.098813649308035698 0 0.4057647178407664 -0.1214959209129528 0 0.41923279199003072 -0.0211445745498627 0 0.42379054701307728 -0.036886174709135508 0 0.40487370445654097 -0.028910732081437549 0 0.41923279199003072 -0.0211445745498627 0 0.40487370445654097 -0.028910732081437549 0 0.40520556401013169 -0.01131307415833357 0 0.41923279199003072 -0.0211445745498627 0 0.41937437112046932 -0.001225319212085151 0 0.40520556401013169 -0.01131307415833357 0 0.41261136222314942 0.0093762189671962488 0 0.41937437112046932 -0.001225319212085151 0 0.40520556401013169 -0.01131307415833357 0 0.41261136222314942 0.0093762189671962488 0 0.40520556401013169 -0.01131307415833357 0 0.40326955669734788 0.0013145221745210921 0 0.41261136222314942 0.0093762189671962488 0 0.40520556401013169 -0.01131307415833357 0 0.4442056936289327 -0.0069666154652798006 0 0.42981145469092052 -0.01103712245688562 0 0.43732994433505229 -0.027210203214966519 0 0.41923279199003072 -0.0211445745498627 0 0.41937437112046932 -0.001225319212085151 0 0.42981145469092052 -0.01103712245688562 0 0.41937437112046932 -0.001225319212085151 0 0.43280487266672218 -0.00097476378086885104 0 0.42981145469092052 -0.01103712245688562 0 0.4442056936289327 -0.0069666154652798006 0 0.43280487266672218 -0.00097476378086885104 0 0.42981145469092052 -0.01103712245688562 0 0.41923279199003072 -0.0211445745498627 0 0.42981145469092052 -0.01103712245688562 0 0.43732994433505229 -0.027210203214966519 0 0.41923279199003072 -0.0211445745498627 0 0.43732994433505229 -0.027210203214966519 0 0.42379054701307728 -0.036886174709135508 0 0.4424393762524183 -0.051477444527562283 0 0.43732994433505229 -0.027210203214966519 0 0.43051261141928121 -0.046209239152283747 0 0.43732994433505229 -0.027210203214966519 0 0.43051261141928121 -0.046209239152283747 0 0.42379054701307728 -0.036886174709135508 0 0.43051261141928121 -0.046209239152283747 0 0.42379054701307728 -0.036886174709135508 0 0.41818522407808401 -0.047170275624608453 0 0.4424393762524183 -0.051477444527562283 0 0.42404294153364058 -0.056624267480134161 0 0.4424393762524183 -0.051477444527562283 0 0.43534791473672191 -0.063835610177196495 0 0.42404294153364058 -0.056624267480134161 0 0.4424393762524183 -0.051477444527562283 0 0.43051261141928121 -0.046209239152283747 0 0.42404294153364058 -0.056624267480134161 0 0.43534791473672191 -0.063835610177196495 0 0.43063807767941342 -0.064763906513540165 0 0.42404294153364058 -0.056624267480134161 0 0.43051261141928121 -0.046209239152283747 0 0.42404294153364058 -0.056624267480134161 0 0.41818522407808401 -0.047170275624608453 0 0.43063807767941342 -0.064763906513540165 0 0.42404294153364058 -0.056624267480134161 0 0.43063807767941342 -0.064763906513540165 0 0.42404294153364058 -0.056624267480134161 0 0.40956167881806782 -0.060675731607075858 0 0.41818522407808401 -0.047170275624608453 0 0.41228230496013429 -0.053307853495392833 0 0.39844553117711312 -0.046310110162332871 0 0.42404294153364058 -0.056624267480134161 0 0.40956167881806782 -0.060675731607075858 0 0.42404294153364058 -0.056624267480134161 0 0.41228230496013429 -0.053307853495392833 0 0.40956167881806782 -0.060675731607075858 0 0.42404294153364058 -0.056624267480134161 0 0.41818522407808401 -0.047170275624608453 0 0.41228230496013429 -0.053307853495392833 0 0.41228230496013429 -0.053307853495392833 0 0.40956167881806782 -0.060675731607075858 0 0.41228230496013429 -0.053307853495392833 0 0.40956167881806782 -0.060675731607075858 0 0.40461507862433499 -0.054575013274296147 0 0.42379054701307728 -0.036886174709135508 0 0.41818522407808401 -0.047170275624608453 0 0.39844553117711312 -0.046310110162332871 0 0.42379054701307728 -0.036886174709135508 0 0.39844553117711312 -0.046310110162332871 0 0.42379054701307728 -0.036886174709135508 0 0.39844553117711312 -0.046310110162332871 0 0.40487370445654097 -0.028910732081437549 0 0.39844553117711312 -0.046310110162332871 0 0.39411356909138728 -0.031692649096834613 0 0.40487370445654097 -0.028910732081437549 0 0.39844553117711312 -0.046310110162332871 0 0.39411356909138728 -0.031692649096834613 0 0.38793669507699557 -0.040908067645224207 0 0.38981888180827351 -0.066199230173579773 0 0.40956167881806782 -0.060675731607075858 0 0.39817079954202322 -0.058006357832382463 0 0.40956167881806782 -0.060675731607075858 0 0.40461507862433499 -0.054575013274296147 0 0.39817079954202322 -0.058006357832382463 0 0.41228230496013429 -0.053307853495392833 0 0.39844553117711312 -0.046310110162332871 0 0.40461507862433499 -0.054575013274296147 0 0.39844553117711312 -0.046310110162332871 0 0.40461507862433499 -0.054575013274296147 0 0.39817079954202322 -0.058006357832382463 0 0.39844553117711312 -0.046310110162332871 0 0.38793669507699557 -0.040908067645224207 0 0.37310051534114907 -0.055734045615530178 0 0.39844553117711312 -0.046310110162332871 0 0.37310051534114907 -0.055734045615530178 0 0.38981888180827351 -0.066199230173579773 0 0.39817079954202322 -0.058006357832382463 0 0.37310051534114907 -0.055734045615530178 0 0.39844553117711312 -0.046310110162332871 0 0.39817079954202322 -0.058006357832382463 0 0.37310051534114907 -0.055734045615530178 0 0.38793669507699557 -0.040908067645224207 0 0.38836359961010042 -0.022204995932013871 0 0.39411356909138728 -0.031692649096834613 0 0.38793669507699557 -0.040908067645224207 0 0.38836359961010042 -0.022204995932013871 0 0.38793669507699557 -0.040908067645224207 0 0.37825229334556137 -0.031008719458640449 0 0.38836359961010042 -0.022204995932013871 0 0.38793669507699557 -0.040908067645224207 0 0.37308567983935059 -0.0411596275133332 0 0.37310051534114907 -0.055734045615530178 0 0.38793669507699557 -0.040908067645224207 0 0.37825229334556137 -0.031008719458640449 0 0.37308567983935059 -0.0411596275133332 0 0.37825229334556137 -0.031008719458640449 0 0.37597945058794707 -0.017273306600101131 0 0.38836359961010042 -0.022204995932013871 0 0.38836359961010042 -0.022204995932013871 0 0.40487370445654097 -0.028910732081437549 0 0.40520556401013169 -0.01131307415833357 0 0.39411356909138728 -0.031692649096834613 0 0.38836359961010042 -0.022204995932013871 0 0.40487370445654097 -0.028910732081437549 0 0.38836359961010042 -0.022204995932013871 0 0.40520556401013169 -0.01131307415833357 0 0.38879050414320548 -0.0035019242188035209 0 0.40326955669734788 0.0013145221745210921 0 0.40520556401013169 -0.01131307415833357 0 0.38879050414320548 -0.0035019242188035209 0 0.37597945058794707 -0.017273306600101131 0 0.38879050414320548 -0.0035019242188035209 0 0.37232238509817878 -0.001610374512647025 0 0.38836359961010042 -0.022204995932013871 0 0.38879050414320548 -0.0035019242188035209 0 0.37597945058794707 -0.017273306600101131 0 0.38836359961010042 -0.022204995932013871 0 0.38879050414320548 -0.0035019242188035209 0 0.37597945058794707 -0.017273306600101131 0 0.38879050414320548 -0.0035019242188035209 0 0.37597945058794707 -0.017273306600101131 0 0.37232238509817878 -0.001610374512647025 0 0.36234648880232662 -0.0095180516875354674 0 0.37597945058794707 -0.017273306600101131 0 0.36234648880232662 -0.0095180516875354674 0 0.36368729215874179 -0.019429095072036631 0 0.36234648880232662 -0.0095180516875354674 0 0.3634290091795348 -0.00084253970199437951 0 0.35649244884947728 -0.0003015438520561878 0 0.37232238509817878 -0.001610374512647025 0 0.36234648880232662 -0.0095180516875354674 0 0.3634290091795348 -0.00084253970199437951 0 0.37597945058794707 -0.017273306600101131 0 0.36316839703268838 -0.031044688981398519 0 0.37825229334556137 -0.031008719458640449 0 0.37597945058794707 -0.017273306600101131 0 0.36316839703268838 -0.031044688981398519 0 0.37597945058794707 -0.017273306600101131 0 0.36368729215874179 -0.019429095072036631 0 0.36316839703268838 -0.031044688981398519 0 0.36234648880232662 -0.0095180516875354674 0 0.36368729215874179 -0.019429095072036631 0 0.35325483221200532 -0.01988033301911139 0 0.36368729215874179 -0.019429095072036631 0 0.36316839703268838 -0.031044688981398519 0 0.35325483221200532 -0.01988033301911139 0 0.35325483221200532 -0.01988033301911139 0 0.34087164677167292 -0.01020602834187557 0 0.3380117298813986 -0.028025180019855329 0 0.36316839703268838 -0.031044688981398519 0 0.35325483221200532 -0.01988033301911139 0 0.3511398709761363 -0.034580784172498422 0 0.35325483221200532 -0.01988033301911139 0 0.3380117298813986 -0.028025180019855329 0 0.3511398709761363 -0.034580784172498422 0 0.34729495446360309 0.00099039251516278774 0 0.35649244884947728 -0.0003015438520561878 0 0.35217988954463281 -0.0078587666981914175 0 0.36234648880232662 -0.0095180516875354674 0 0.35649244884947728 -0.0003015438520561878 0 0.35217988954463281 -0.0078587666981914175 0 0.36234648880232662 -0.0095180516875354674 0 0.35325483221200532 -0.01988033301911139 0 0.35217988954463281 -0.0078587666981914175 0 0.35325483221200532 -0.01988033301911139 0 0.35217988954463281 -0.0078587666981914175 0 0.34087164677167292 -0.01020602834187557 0 0.34729495446360309 0.00099039251516278774 0 0.35217988954463281 -0.0078587666981914175 0 0.34087164677167292 -0.01020602834187557 0 0.33729290086539399 0.0042651539282855082 0 0.34087164677167292 -0.01020602834187557 0 0.31974752342260487 -0.010090103006627301 0 0.34729495446360309 0.00099039251516278774 0 0.33729290086539399 0.0042651539282855082 0 0.34087164677167292 -0.01020602834187557 0 0.34087164677167292 -0.01020602834187557 0 0.3380117298813986 -0.028025180019855329 0 0.31974752342260487 -0.010090103006627301 0 0.31974752342260487 -0.010090103006627301 0 0.32278478621535839 -0.031437608912432767 0 0.30522723780406941 -0.035456423375285137 0 0.3380117298813986 -0.028025180019855329 0 0.31974752342260487 -0.010090103006627301 0 0.32278478621535839 -0.031437608912432767 0 0.31486552590033517 0.0051080489061896828 0 0.31974752342260487 -0.010090103006627301 0 0.30557571239931841 -0.0076904691414317571 0 0.31977989133260432 -0.045619934910456073 0 0.33433254486113267 -0.055783446445636382 0 0.32279172766134151 -0.0648670065722739 0 0.31977989133260432 -0.045619934910456073 0 0.32279172766134151 -0.0648670065722739 0 0.30683512358493858 -0.06301060556910619 0 0.31977989133260432 -0.045619934910456073 0 0.33433254486113267 -0.055783446445636382 0 0.31977989133260432 -0.045619934910456073 0 0.32278478621535839 -0.031437608912432767 0 0.30522723780406941 -0.035456423375285137 0 0.31977989133260432 -0.045619934910456073 0 0.30522723780406941 -0.035456423375285137 0 0.31977989133260432 -0.045619934910456073 0 0.32278478621535839 -0.031437608912432767 0 0.33115754863611552 -0.037996403249940559 0 0.31977989133260432 -0.045619934910456073 0 0.33348408359171039 -0.045465823894714673 0 0.33115754863611552 -0.037996403249940559 0 0.33348408359171039 -0.045465823894714673 0 0.33115754863611552 -0.037996403249940559 0 0.34100188069252602 -0.039880316847690472 0 0.3380117298813986 -0.028025180019855329 0 0.32278478621535839 -0.031437608912432767 0 0.33115754863611552 -0.037996403249940559 0 0.3380117298813986 -0.028025180019855329 0 0.33115754863611552 -0.037996403249940559 0 0.34100188069252602 -0.039880316847690472 0 0.3380117298813986 -0.028025180019855329 0 0.34100188069252602 -0.039880316847690472 0 0.3511398709761363 -0.034580784172498422 0 0.33348408359171039 -0.045465823894714673 0 0.34100188069252602 -0.039880316847690472 0 0.34182469607443589 -0.050095350140872533 0 0.34182469607443589 -0.050095350140872533 0 0.33258140759496679 -0.052773653435302589 0 0.33433254486113267 -0.055783446445636382 0 0.33348408359171039 -0.045465823894714673 0 0.34182469607443589 -0.050095350140872533 0 0.33258140759496679 -0.052773653435302589 0 0.31977989133260432 -0.045619934910456073 0 0.33258140759496679 -0.052773653435302589 0 0.33433254486113267 -0.055783446445636382 0 0.31977989133260432 -0.045619934910456073 0 0.33348408359171039 -0.045465823894714673 0 0.33258140759496679 -0.052773653435302589 0 0.33258140759496679 -0.052773653435302589 0 0.33433254486113267 -0.055783446445636382 0 0.34182469607443589 -0.050095350140872533 0 0.33433254486113267 -0.055783446445636382 0 0.34775549950518508 -0.065157981068727888 0 0.33433254486113267 -0.055783446445636382 0 0.34775549950518508 -0.065157981068727888 0 0.33433254486113267 -0.055783446445636382 0 0.34120406576157941 -0.067593974367182161 0 0.35481661939179387 -0.051928312598413233 0 0.37310051534114907 -0.055734045615530178 0 0.34775549950518508 -0.065157981068727888 0 0.34182469607443589 -0.050095350140872533 0 0.35481661939179387 -0.051928312598413233 0 0.34775549950518508 -0.065157981068727888 0 0.34182469607443589 -0.050095350140872533 0 0.35481661939179387 -0.051928312598413233 0 0.35047537875560891 -0.045122955367500842 0 0.34100188069252602 -0.039880316847690472 0 0.34182469607443589 -0.050095350140872533 0 0.35047537875560891 -0.045122955367500842 0 0.34100188069252602 -0.039880316847690472 0 0.3511398709761363 -0.034580784172498422 0 0.35047537875560891 -0.045122955367500842 0 0.3511398709761363 -0.034580784172498422 0 0.35047537875560891 -0.045122955367500842 0 0.36092700728259092 -0.04353123079943403 0 0.35481661939179387 -0.051928312598413233 0 0.35047537875560891 -0.045122955367500842 0 0.36092700728259092 -0.04353123079943403 0 0.36316839703268838 -0.031044688981398519 0 0.3511398709761363 -0.034580784172498422 0 0.36092700728259092 -0.04353123079943403 0 0.36316839703268838 -0.031044688981398519 0 0.36092700728259092 -0.04353123079943403 0 0.37308567983935059 -0.0411596275133332 0 0.36092700728259092 -0.04353123079943403 0 0.37308567983935059 -0.0411596275133332 0 0.37310051534114907 -0.055734045615530178 0 0.37825229334556137 -0.031008719458640449 0 0.36316839703268838 -0.031044688981398519 0 0.37308567983935059 -0.0411596275133332 0 0.37310051534114907 -0.055734045615530178 0 0.34775549950518508 -0.065157981068727888 0 0.35481661939179387 -0.051928312598413233 0 0.36092700728259092 -0.04353123079943403 0 0.37310051534114907 -0.055734045615530178 0 0.38591855650343132 -0.073578004998397201 0 0.37007608479847948 -0.071722728740084618 0 0.36555782634477701 -0.077591050668893297 0 0.37310051534114907 -0.055734045615530178 0 0.37007608479847948 -0.071722728740084618 0 0.34775549950518508 -0.065157981068727888 0 0.37007608479847948 -0.071722728740084618 0 0.36555782634477701 -0.077591050668893297 0 0.34775549950518508 -0.065157981068727888 0 0.37649869724681961 -0.085232108528193046 0 0.36555782634477701 -0.077591050668893297 0 0.36605248277109442 -0.08877555401529727 0 0.36555782634477701 -0.077591050668893297 0 0.36605248277109442 -0.08877555401529727 0 0.34892755364662481 -0.080868833112374708 0 0.37649869724681961 -0.085232108528193046 0 0.36555782634477701 -0.077591050668893297 0 0.37649869724681961 -0.085232108528193046 0 0.38014435813092012 -0.09377343229102815 0 0.36605248277109442 -0.08877555401529727 0 0.34892755364662481 -0.080868833112374708 0 0.36182546680226851 -0.103037311628457 0 0.34804773967414449 -0.092935847380303888 0 0.34892755364662481 -0.080868833112374708 0 0.36182546680226851 -0.103037311628457 0 0.36555782634477701 -0.077591050668893297 0 0.34892755364662481 -0.080868833112374708 0 0.36605248277109442 -0.08877555401529727 0 0.34892755364662481 -0.080868833112374708 0 0.36182546680226851 -0.103037311628457 0 0.34804773967414449 -0.092935847380303888 0 0.34892755364662481 -0.080868833112374708 0 0.34408873349000091 -0.081822551673965918 0 0.34892755364662481 -0.080868833112374708 0 0.34408873349000091 -0.081822551673965918 0 0.33950349330838958 -0.075848035758874929 0 0.34892755364662481 -0.080868833112374708 0 0.34408873349000091 -0.081822551673965918 0 0.34892755364662481 -0.080868833112374708 0 0.34120406576157941 -0.067593974367182161 0 0.34892755364662481 -0.080868833112374708 0 0.34775549950518508 -0.065157981068727888 0 0.34120406576157941 -0.067593974367182161 0 0.36555782634477701 -0.077591050668893297 0 0.34775549950518508 -0.065157981068727888 0 0.36555782634477701 -0.077591050668893297 0 0.34892755364662481 -0.080868833112374708 0 0.34775549950518508 -0.065157981068727888 0 0.34775549950518508 -0.065157981068727888 0 0.34120406576157941 -0.067593974367182161 0 0.37544512553492981 -0.10953065870653531 0 0.36182546680226851 -0.103037311628457 0 0.37564269716861559 -0.12678588016291681 0 0.36182546680226851 -0.103037311628457 0 0.35603244527432393 -0.11855655260172521 0 0.37564269716861559 -0.12678588016291681 0 0.36182546680226851 -0.103037311628457 0 0.37564269716861559 -0.12678588016291681 0 0.38014435813092012 -0.09377343229102815 0 0.36605248277109442 -0.08877555401529727 0 0.36182546680226851 -0.103037311628457 0 0.34804773967414449 -0.092935847380303888 0 0.36182546680226851 -0.103037311628457 0 0.33991504715273507 -0.1035281529325201 0 0.36182546680226851 -0.103037311628457 0 0.35603244527432393 -0.11855655260172521 0 0.33991504715273507 -0.1035281529325201 0 0.36182546680226851 -0.103037311628457 0 0.33991504715273507 -0.1035281529325201 0 0.35603244527432393 -0.11855655260172521 0 0.34343843782823752 -0.12408400361420779 0 0.33991504715273507 -0.1035281529325201 0 0.33111612508452509 -0.1152082110251053 0 0.34343843782823752 -0.12408400361420779 0 0.33991504715273507 -0.1035281529325201 0 0.33111612508452509 -0.1152082110251053 0 0.34343843782823752 -0.12408400361420779 0 0.32310638785392598 -0.12920169331710929 0 0.33991504715273507 -0.1035281529325201 0 0.3288945989181209 -0.09621093478141185 0 0.31800462750320191 -0.10401899423658401 0 0.33991504715273507 -0.1035281529325201 0 0.31800462750320191 -0.10401899423658401 0 0.33111612508452509 -0.1152082110251053 0 0.33991504715273507 -0.1035281529325201 0 0.31800462750320191 -0.10401899423658401 0 0.34804773967414449 -0.092935847380303888 0 0.33991504715273507 -0.1035281529325201 0 0.33876747377514072 -0.09048193006016797 0 0.33991504715273507 -0.1035281529325201 0 0.3288945989181209 -0.09621093478141185 0 0.33876747377514072 -0.09048193006016797 0 0.3288945989181209 -0.09621093478141185 0 0.31649189585808879 -0.096552029269665163 0 0.31800462750320191 -0.10401899423658401 0 0.31649189585808879 -0.096552029269665163 0 0.31800462750320191 -0.10401899423658401 0 0.31800462750320191 -0.10401899423658401 0 0.32310638785392598 -0.12920169331710929 0 0.31800462750320191 -0.10401899423658401 0 0.31079556689248972 -0.1149447087572311 0 0.32310638785392598 -0.12920169331710929 0 0.33111612508452509 -0.1152082110251053 0 0.31800462750320191 -0.10401899423658401 0 0.32310638785392598 -0.12920169331710929 0 0.33317862578170909 -0.070578041484886958 0 0.33332645204008587 -0.077274112069145889 0 0.33950349330838958 -0.075848035758874929 0 0.33317862578170909 -0.070578041484886958 0 0.33332645204008587 -0.077274112069145889 0 0.326469079955928 -0.07624630830612239 0 0.33433254486113267 -0.055783446445636382 0 0.33317862578170909 -0.070578041484886958 0 0.32279172766134151 -0.0648670065722739 0 0.33317862578170909 -0.070578041484886958 0 0.34120406576157941 -0.067593974367182161 0 0.33433254486113267 -0.055783446445636382 0 0.34775549950518508 -0.065157981068727888 0 0.34120406576157941 -0.067593974367182161 0 0.33433254486113267 -0.055783446445636382 0 0.33317862578170909 -0.070578041484886958 0 0.34120406576157941 -0.067593974367182161 0 0.33317862578170909 -0.070578041484886958 0 0.34120406576157941 -0.067593974367182161 0 0.33950349330838958 -0.075848035758874929 0 0.34892755364662481 -0.080868833112374708 0 0.34120406576157941 -0.067593974367182161 0 0.33950349330838958 -0.075848035758874929 0 0.34408873349000091 -0.081822551673965918 0 0.33950349330838958 -0.075848035758874929 0 0.33740855081107152 -0.082304667123219682 0 0.34408873349000091 -0.081822551673965918 0 0.33740855081107152 -0.082304667123219682 0 0.33876747377514072 -0.09048193006016797 0 0.33332645204008587 -0.077274112069145889 0 0.33950349330838958 -0.075848035758874929 0 0.33740855081107152 -0.082304667123219682 0 0.34804773967414449 -0.092935847380303888 0 0.34408873349000091 -0.081822551673965918 0 0.33876747377514072 -0.09048193006016797 0 0.3288945989181209 -0.09621093478141185 0 0.33876747377514072 -0.09048193006016797 0 0.32918236294191378 -0.086747953792790253 0 0.33740855081107152 -0.082304667123219682 0 0.33876747377514072 -0.09048193006016797 0 0.32918236294191378 -0.086747953792790253 0 0.33332645204008587 -0.077274112069145889 0 0.32918236294191378 -0.086747953792790253 0 0.326469079955928 -0.07624630830612239 0 0.33332645204008587 -0.077274112069145889 0 0.33740855081107152 -0.082304667123219682 0 0.32918236294191378 -0.086747953792790253 0 0.32918236294191378 -0.086747953792790253 0 0.30898600530645481 -0.090983425666153264 0 0.32918236294191378 -0.086747953792790253 0 0.31677392156685358 -0.076864337915263037 0 0.30898600530645481 -0.090983425666153264 0 0.31649189585808879 -0.096552029269665163 0 0.32918236294191378 -0.086747953792790253 0 0.30898600530645481 -0.090983425666153264 0 0.32918236294191378 -0.086747953792790253 0 0.31677392156685358 -0.076864337915263037 0 0.326469079955928 -0.07624630830612239 0 0.3288945989181209 -0.09621093478141185 0 0.31649189585808879 -0.096552029269665163 0 0.32918236294191378 -0.086747953792790253 0 0.31677392156685358 -0.076864337915263037 0 0.32279172766134151 -0.0648670065722739 0 0.30683512358493858 -0.06301060556910619 0 0.33317862578170909 -0.070578041484886958 0 0.326469079955928 -0.07624630830612239 0 0.32279172766134151 -0.0648670065722739 0 0.31677392156685358 -0.076864337915263037 0 0.326469079955928 -0.07624630830612239 0 0.32279172766134151 -0.0648670065722739 0 0.30683512358493858 -0.06301060556910619 0 0.29726419323080711 -0.073379498158705633 0 0.29301592188122227 -0.056789072054479223 0 0.30683512358493858 -0.06301060556910619 0 0.29726419323080711 -0.073379498158705633 0 0.30607804916369952 -0.078697921269513513 0 0.31677392156685358 -0.076864337915263037 0 0.30683512358493858 -0.06301060556910619 0 0.30607804916369952 -0.078697921269513513 0 0.31677392156685358 -0.076864337915263037 0 0.30607804916369952 -0.078697921269513513 0 0.30898600530645481 -0.090983425666153264 0 0.30898600530645481 -0.090983425666153264 0 0.28878964767099569 -0.09521889753951629 0 0.30898600530645481 -0.090983425666153264 0 0.29705100483033969 -0.084974144027985171 0 0.28878964767099569 -0.09521889753951629 0 0.29726419323080711 -0.073379498158705633 0 0.30607804916369952 -0.078697921269513513 0 0.29705100483033969 -0.084974144027985171 0 0.30607804916369952 -0.078697921269513513 0 0.30898600530645481 -0.090983425666153264 0 0.29705100483033969 -0.084974144027985171 0 0.29705100483033969 -0.084974144027985171 0 0.28878964767099569 -0.09521889753951629 0 0.2808046059583762 -0.07812172073367385 0 0.29726419323080711 -0.073379498158705633 0 0.29705100483033969 -0.084974144027985171 0 0.2808046059583762 -0.07812172073367385 0 0.2808046059583762 -0.07812172073367385 0 0.29301592188122227 -0.056789072054479223 0 0.29726419323080711 -0.073379498158705633 0 0.2808046059583762 -0.07812172073367385 0 0.29301592188122227 -0.056789072054479223 0 0.30261828185502793 -0.12212355555811551 0 0.29945297035780333 -0.1044345919171154 0 0.29034728781846192 -0.11708715199789579 0 0.31079556689248972 -0.1149447087572311 0 0.30261828185502793 -0.12212355555811551 0 0.29945297035780333 -0.1044345919171154 0 0.31079556689248972 -0.1149447087572311 0 0.30261828185502793 -0.12212355555811551 0 0.32310638785392598 -0.12920169331710929 0 0.30898600530645481 -0.090983425666153264 0 0.29945297035780333 -0.1044345919171154 0 0.28878964767099569 -0.09521889753951629 0 0.31800462750320191 -0.10401899423658401 0 0.29945297035780333 -0.1044345919171154 0 0.31649189585808879 -0.096552029269665163 0 0.31800462750320191 -0.10401899423658401 0 0.29945297035780333 -0.1044345919171154 0 0.31649189585808879 -0.096552029269665163 0 0.30898600530645481 -0.090983425666153264 0 0.29945297035780333 -0.1044345919171154 0 0.31800462750320191 -0.10401899423658401 0 0.31079556689248972 -0.1149447087572311 0 0.29945297035780333 -0.1044345919171154 0 0.29945297035780333 -0.1044345919171154 0 0.29034728781846192 -0.11708715199789579 0 0.28090131321240469 -0.1048501895976464 0 0.29945297035780333 -0.1044345919171154 0 0.28878964767099569 -0.09521889753951629 0 0.28090131321240469 -0.1048501895976464 0 0.29945297035780333 -0.1044345919171154 0 0.28090131321240469 -0.1048501895976464 0 0.29034728781846192 -0.11708715199789579 0 0.28090131321240469 -0.1048501895976464 0 0.27798501411956061 -0.12654918030113391 0 0.30261828185502793 -0.12212355555811551 0 0.29034728781846192 -0.11708715199789579 0 0.29041098202153109 -0.13433528958156299 0 0.265931748490424 -0.1041039691026721 0 0.27798501411956061 -0.12654918030113391 0 0.265931748490424 -0.1041039691026721 0 0.28090131321240469 -0.1048501895976464 0 0.27798501411956061 -0.12654918030113391 0 0.26578143989208891 -0.12208723098105401 0 0.265931748490424 -0.1041039691026721 0 0.27798501411956061 -0.12654918030113391 0 0.28878964767099569 -0.09521889753951629 0 0.28090131321240469 -0.1048501895976464 0 0.26859329003553489 -0.099454369412871196 0 0.28878964767099569 -0.09521889753951629 0 0.26859329003553489 -0.099454369412871196 0 0.265931748490424 -0.1041039691026721 0 0.28090131321240469 -0.1048501895976464 0 0.26859329003553489 -0.099454369412871196 0 0.265931748490424 -0.1041039691026721 0 0.26859329003553489 -0.099454369412871196 0 0.265931748490424 -0.1041039691026721 0 0.26859329003553489 -0.099454369412871196 0 0.26395700607122669 -0.1004266660359741 0 0.26859329003553489 -0.099454369412871196 0 0.26395700607122669 -0.1004266660359741 0 0.26859329003553489 -0.099454369412871196 0 0.26395700607122669 -0.1004266660359741 0 0.26402206743103601 -0.089196963430846266 0 0.26395700607122669 -0.1004266660359741 0 0.2528876129834236 -0.094220099255164988 0 0.24867124287050699 -0.1036323143646536 0 0.26395700607122669 -0.1004266660359741 0 0.25723212346383367 -0.1064068621969374 0 0.24867124287050699 -0.1036323143646536 0 0.26395700607122669 -0.1004266660359741 0 0.24867124287050699 -0.1036323143646536 0 0.25723212346383367 -0.1064068621969374 0 0.25101743794683912 -0.1146121967995704 0 0.24867124287050699 -0.1036323143646536 0 0.265931748490424 -0.1041039691026721 0 0.26395700607122669 -0.1004266660359741 0 0.25723212346383367 -0.1064068621969374 0 0.265931748490424 -0.1041039691026721 0 0.26395700607122669 -0.1004266660359741 0 0.265931748490424 -0.1041039691026721 0 0.25433990433771841 -0.1243544269907422 0 0.25723212346383367 -0.1064068621969374 0 0.25101743794683912 -0.1146121967995704 0 0.25433990433771841 -0.1243544269907422 0 0.26578143989208891 -0.12208723098105401 0 0.265931748490424 -0.1041039691026721 0 0.25433990433771841 -0.1243544269907422 0 0.265931748490424 -0.1041039691026721 0 0.25723212346383367 -0.1064068621969374 0 0.25433990433771841 -0.1243544269907422 0 0.2687335489299521 -0.063935175532180893 0 0.2808046059583762 -0.07812172073367385 0 0.29301592188122227 -0.056789072054479223 0 0.26825877094290551 -0.07736384484572896 0 0.2687335489299521 -0.063935175532180893 0 0.2808046059583762 -0.07812172073367385 0 0.26825877094290551 -0.07736384484572896 0 0.2808046059583762 -0.07812172073367385 0 0.26402206743103601 -0.089196963430846266 0 0.26859329003553489 -0.099454369412871196 0 0.2808046059583762 -0.07812172073367385 0 0.26859329003553489 -0.099454369412871196 0 0.2808046059583762 -0.07812172073367385 0 0.26402206743103601 -0.089196963430846266 0 0.28878964767099569 -0.09521889753951629 0 0.26859329003553489 -0.099454369412871196 0 0.2808046059583762 -0.07812172073367385 0 0.26395700607122669 -0.1004266660359741 0 0.2528876129834236 -0.094220099255164988 0 0.25462483508046457 -0.083048591473203981 0 0.26395700607122669 -0.1004266660359741 0 0.26402206743103601 -0.089196963430846266 0 0.25462483508046457 -0.083048591473203981 0 0.26395700607122669 -0.1004266660359741 0 0.25462483508046457 -0.083048591473203981 0 0.26825877094290551 -0.07736384484572896 0 0.26402206743103601 -0.089196963430846266 0 0.25462483508046457 -0.083048591473203981 0 0.2528876129834236 -0.094220099255164988 0 0.25462483508046457 -0.083048591473203981 0 0.24429744486126961 -0.092415030224378816 0 0.25462483508046457 -0.083048591473203981 0 0.25855474571736492 -0.07119050109918576 0 0.24529266408970271 -0.065670516910433796 0 0.26825877094290551 -0.07736384484572896 0 0.25462483508046457 -0.083048591473203981 0 0.25855474571736492 -0.07119050109918576 0 0.26825877094290551 -0.07736384484572896 0 0.2687335489299521 -0.063935175532180893 0 0.25855474571736492 -0.07119050109918576 0 0.2687335489299521 -0.063935175532180893 0 0.25855474571736492 -0.07119050109918576 0 0.25571340908958867 -0.062031832045884867 0 0.25855474571736492 -0.07119050109918576 0 0.25571340908958867 -0.062031832045884867 0 0.24529266408970271 -0.065670516910433796 0 0.25571340908958867 -0.062031832045884867 0 0.25929484143176063 -0.048349716497673542 0 0.24861083198888209 -0.053598656101898408 0 0.2687335489299521 -0.063935175532180893 0 0.25571340908958867 -0.062031832045884867 0 0.25929484143176063 -0.048349716497673542 0 0.2687335489299521 -0.063935175532180893 0 0.27509708814106187 -0.047295978758774247 0 0.29301592188122227 -0.056789072054479223 0 0.2687335489299521 -0.063935175532180893 0 0.25929484143176063 -0.048349716497673542 0 0.27509708814106187 -0.047295978758774247 0 0.25929484143176063 -0.048349716497673542 0 0.27509708814106187 -0.047295978758774247 0 0.26740259793584858 -0.027938274662607902 0 0.27509708814106187 -0.047295978758774247 0 0.26740259793584858 -0.027938274662607902 0 0.29026437622241491 -0.041052673518925852 0 0.25929484143176063 -0.048349716497673542 0 0.24861083198888209 -0.053598656101898408 0 0.24443853931414289 -0.030798692898044659 0 0.25929484143176063 -0.048349716497673542 0 0.26740259793584858 -0.027938274662607902 0 0.24443853931414289 -0.030798692898044659 0 0.26047250981415798 -0.024130101093525019 0 0.26740259793584858 -0.027938274662607902 0 0.24443853931414289 -0.030798692898044659 0 0.26740259793584858 -0.027938274662607902 0 0.24443853931414289 -0.030798692898044659 0 0.26047250981415798 -0.024130101093525019 0 0.24443853931414289 -0.030798692898044659 0 0.24837822010643121 -0.01064171941143479 0 0.26047250981415798 -0.024130101093525019 0 0.25850292072972619 -0.01384443679003153 0 0.24837822010643121 -0.01064171941143479 0 0.26047250981415798 -0.024130101093525019 0 0.24837822010643121 -0.01064171941143479 0 0.26047250981415798 -0.024130101093525019 0 0.26740259793584858 -0.027938274662607902 0 0.26581248458308138 -0.017375345545485709 0 0.26047250981415798 -0.024130101093525019 0 0.25850292072972619 -0.01384443679003153 0 0.26581248458308138 -0.017375345545485709 0 0.25850292072972619 -0.01384443679003153 0 0.25868130099832759 -0.002948938419788077 0 0.24837822010643121 -0.01064171941143479 0 0.25850292072972619 -0.01384443679003153 0 0.25868130099832759 -0.002948938419788077 0 0.26581248458308138 -0.017375345545485709 0 0.25868130099832759 -0.002948938419788077 0 0.27452397877794099 -0.014013397423475019 0 0.26581248458308138 -0.017375345545485709 0 0.25868130099832759 -0.002948938419788077 0 0.27452397877794099 -0.014013397423475019 0 0.25868130099832759 -0.002948938419788077 0 0.2718345607453051 -0.0026332906206296752 0 0.27452397877794099 -0.014013397423475019 0 0.2718345607453051 -0.0026332906206296752 0 0.27452397877794099 -0.014013397423475019 0 0.28418256802486591 -0.0074972637063911319 0 0.2761515963063163 0.0051915330766209898 0 0.2718345607453051 -0.0026332906206296752 0 0.28418256802486591 -0.0074972637063911319 0 0.27452397877794099 -0.014013397423475019 0 0.26740259793584858 -0.027938274662607902 0 0.29036665655755328 -0.025077856427163508 0 0.26740259793584858 -0.027938274662607902 0 0.29036665655755328 -0.025077856427163508 0 0.27452397877794099 -0.014013397423475019 0 0.26740259793584858 -0.027938274662607902 0 0.26581248458308138 -0.017375345545485709 0 0.27452397877794099 -0.014013397423475019 0 0.29036665655755328 -0.025077856427163508 0 0.29036665655755328 -0.025077856427163508 0 0.29576882877798982 -0.01339442015289218 0 0.30401897309668852 -0.023377314905831649 0 0.27452397877794099 -0.014013397423475019 0 0.29036665655755328 -0.025077856427163508 0 0.28418256802486591 -0.0074972637063911319 0 0.29036665655755328 -0.025077856427163508 0 0.28418256802486591 -0.0074972637063911319 0 0.29576882877798982 -0.01339442015289218 0 0.28768181064917658 0.0036370595610417918 0 0.28418256802486591 -0.0074972637063911319 0 0.29470023381152188 -0.0033291965836443949 0 0.28418256802486591 -0.0074972637063911319 0 0.29576882877798982 -0.01339442015289218 0 0.29470023381152188 -0.0033291965836443949 0 0.31974752342260487 -0.010090103006627301 0 0.30557571239931841 -0.0076904691414317571 0 0.30401897309668852 -0.023377314905831649 0 0.29576882877798982 -0.01339442015289218 0 0.30557571239931841 -0.0076904691414317571 0 0.30401897309668852 -0.023377314905831649 0 0.30002338408281909 0.007883867274738967 0 0.29470023381152188 -0.0033291965836443949 0 0.30557571239931841 -0.0076904691414317571 0 0.29576882877798982 -0.01339442015289218 0 0.29470023381152188 -0.0033291965836443949 0 0.30557571239931841 -0.0076904691414317571 0 0.31974752342260487 -0.010090103006627301 0 0.30401897309668852 -0.023377314905831649 0 0.30522723780406941 -0.035456423375285137 0 0.31974752342260487 -0.010090103006627301 0 0.30522723780406941 -0.035456423375285137 0 0.29036665655755328 -0.025077856427163508 0 0.30401897309668852 -0.023377314905831649 0 0.29036665655755328 -0.025077856427163508 0 0.30522723780406941 -0.035456423375285137 0 0.29036665655755328 -0.025077856427163508 0 0.30401897309668852 -0.023377314905831649 0 0.30522723780406941 -0.035456423375285137 0 0.30522723780406941 -0.035456423375285137 0 0.29301592188122227 -0.056789072054479223 0 0.30683512358493858 -0.06301060556910619 0 0.30522723780406941 -0.035456423375285137 0 0.29301592188122227 -0.056789072054479223 0 0.31977989133260432 -0.045619934910456073 0 0.30683512358493858 -0.06301060556910619 0 0.30522723780406941 -0.035456423375285137 0 0.27509708814106187 -0.047295978758774247 0 0.29301592188122227 -0.056789072054479223 0 0.29026437622241491 -0.041052673518925852 0 0.26740259793584858 -0.027938274662607902 0 0.29036665655755328 -0.025077856427163508 0 0.29026437622241491 -0.041052673518925852 0 0.29036665655755328 -0.025077856427163508 0 0.30522723780406941 -0.035456423375285137 0 0.29026437622241491 -0.041052673518925852 0 0.30522723780406941 -0.035456423375285137 0 0.29301592188122227 -0.056789072054479223 0 0.29026437622241491 -0.041052673518925852 0 0.2900827356730854 -0.21330573301426209 0 0.28503515628741222 -0.1940397373007702 0 0.26970194708378481 -0.19890215936390249 0 0.2900827356730854 -0.21330573301426209 0 0.28503515628741222 -0.1940397373007702 0 0.29869382922117033 -0.19435588497721271 0 0.28503515628741222 -0.1940397373007702 0 0.29869382922117033 -0.19435588497721271 0 0.29326082556219257 -0.18242746645397809 0 0.29869382922117033 -0.19435588497721271 0 0.30899586046225469 -0.1817335086200155 0 0.31530851422462269 -0.2038666989828922 0 0.2900827356730854 -0.21330573301426209 0 0.31046352426238571 -0.22770930666462211 0 0.31530851422462269 -0.2038666989828922 0 0.2900827356730854 -0.21330573301426209 0 0.29869382922117033 -0.19435588497721271 0 0.31530851422462269 -0.2038666989828922 0 0.2900827356730854 -0.21330573301426209 0 0.31046352426238571 -0.22770930666462211 0 0.29527416221691433 -0.2343861111108784 0 0.2900827356730854 -0.21330573301426209 0 0.31046352426238571 -0.22770930666462211 0 0.31046352426238571 -0.22770930666462211 0 0.30849651450414628 -0.24795182056728149 0 0.29527416221691433 -0.2343861111108784 0 0.30849651450414628 -0.24795182056728149 0 0.29527416221691433 -0.2343861111108784 0 0.28793584206126588 -0.25107015271538341 0 0.29527416221691433 -0.2343861111108784 0 0.27939219458368852 -0.23189354259284281 0 0.28793584206126588 -0.25107015271538341 0 0.2900827356730854 -0.21330573301426209 0 0.29527416221691433 -0.2343861111108784 0 0.27939219458368852 -0.23189354259284281 0 0.2900827356730854 -0.21330573301426209 0 0.27939219458368852 -0.23189354259284281 0 0.27468620093453028 -0.21707440470637709 0 0.27939219458368852 -0.23189354259284281 0 0.25956792639756249 -0.22419618385450099 0 0.27468620093453028 -0.21707440470637709 0 0.27939219458368852 -0.23189354259284281 0 0.26755443156144948 -0.24793522987819169 0 0.28793584206126588 -0.25107015271538341 0 0.27939219458368852 -0.23189354259284281 0 0.26755443156144948 -0.24793522987819169 0 0.25956792639756249 -0.22419618385450099 0 0.26755443156144948 -0.24793522987819169 0 0.25956792639756249 -0.22419618385450099 0 0.2458949266121517 -0.24119477616399751 0 0.25956792639756249 -0.22419618385450099 0 0.25147688088271641 -0.21194752874198031 0 0.23934177232259221 -0.22380736018715999 0 0.25147688088271641 -0.21194752874198031 0 0.26970194708378481 -0.19890215936390249 0 0.25542854451629388 -0.1998498607268 0 0.25956792639756249 -0.22419618385450099 0 0.25147688088271641 -0.21194752874198031 0 0.26970194708378481 -0.19890215936390249 0 0.25956792639756249 -0.22419618385450099 0 0.26970194708378481 -0.19890215936390249 0 0.2900827356730854 -0.21330573301426209 0 0.26970194708378481 -0.19890215936390249 0 0.25956792639756249 -0.22419618385450099 0 0.27468620093453028 -0.21707440470637709 0 0.26970194708378481 -0.19890215936390249 0 0.2900827356730854 -0.21330573301426209 0 0.27468620093453028 -0.21707440470637709 0 0.26970194708378481 -0.19890215936390249 0 0.28503515628741222 -0.1940397373007702 0 0.26970194708378481 -0.19890215936390249 0 0.27640342984327232 -0.1821755831815243 0 0.26970194708378481 -0.19890215936390249 0 0.27640342984327232 -0.1821755831815243 0 0.26970194708378481 -0.19890215936390249 0 0.2675018019886598 -0.18870552556106029 0 0.27640342984327232 -0.1821755831815243 0 0.26970194708378481 -0.19890215936390249 0 0.26466827735564702 -0.19534474879840091 0 0.26970194708378481 -0.19890215936390249 0 0.2675018019886598 -0.18870552556106029 0 0.26466827735564702 -0.19534474879840091 0 0.2675018019886598 -0.18870552556106029 0 0.26466827735564702 -0.19534474879840091 0 0.25780914425533902 -0.1915101908503839 0 0.26466827735564702 -0.19534474879840091 0 0.25542854451629388 -0.1998498607268 0 0.25780914425533902 -0.1915101908503839 0 0.26970194708378481 -0.19890215936390249 0 0.26466827735564702 -0.19534474879840091 0 0.25542854451629388 -0.1998498607268 0 0.25542854451629388 -0.1998498607268 0 0.25780914425533902 -0.1915101908503839 0 0.24761350086738881 -0.19571291374376831 0 0.25780914425533902 -0.1915101908503839 0 0.2494281514357099 -0.18788699375990289 0 0.24761350086738881 -0.19571291374376831 0 0.26199206266145247 -0.18213120303134439 0 0.25232087801029662 -0.1743036082448125 0 0.2494281514357099 -0.18788699375990289 0 0.25780914425533902 -0.1915101908503839 0 0.26199206266145247 -0.18213120303134439 0 0.2494281514357099 -0.18788699375990289 0 0.2675018019886598 -0.18870552556106029 0 0.25780914425533902 -0.1915101908503839 0 0.26199206266145247 -0.18213120303134439 0 0.26199206266145247 -0.18213120303134439 0 0.25232087801029662 -0.1743036082448125 0 0.26549491197617431 -0.168855270340417 0 0.25232087801029662 -0.1743036082448125 0 0.25172611852857912 -0.16117425348272191 0 0.26549491197617431 -0.168855270340417 0 0.25172611852857912 -0.16117425348272191 0 0.26549491197617431 -0.168855270340417 0 0.26450787924013569 -0.1497712061948929 0 0.26549491197617431 -0.168855270340417 0 0.26450787924013569 -0.1497712061948929 0 0.28310491260276388 -0.16544900699914791 0 0.26450787924013569 -0.1497712061948929 0 0.28310491260276388 -0.16544900699914791 0 0.26549491197617431 -0.168855270340417 0 0.27640342984327232 -0.1821755831815243 0 0.28310491260276388 -0.16544900699914791 0 0.27640342984327232 -0.1821755831815243 0 0.28310491260276388 -0.16544900699914791 0 0.2675018019886598 -0.18870552556106029 0 0.26199206266145247 -0.18213120303134439 0 0.27640342984327232 -0.1821755831815243 0 0.26199206266145247 -0.18213120303134439 0 0.26549491197617431 -0.168855270340417 0 0.27640342984327232 -0.1821755831815243 0 0.25433990433771841 -0.1243544269907422 0 0.2648690926206575 -0.1333413475296707 0 0.245910845877507 -0.13409340539063849 0 0.2648690926206575 -0.1333413475296707 0 0.26450787924013569 -0.1497712061948929 0 0.245910845877507 -0.13409340539063849 0 0.26578143989208891 -0.12208723098105401 0 0.25433990433771841 -0.1243544269907422 0 0.2648690926206575 -0.1333413475296707 0 0.25172611852857912 -0.16117425348272191 0 0.26450787924013569 -0.1497712061948929 0 0.24825163994429519 -0.14855324651142299 0 0.26450787924013569 -0.1497712061948929 0 0.245910845877507 -0.13409340539063849 0 0.24825163994429519 -0.14855324651142299 0 0.26450787924013569 -0.1497712061948929 0 0.245910845877507 -0.13409340539063849 0 0.2648690926206575 -0.1333413475296707 0 0.26450787924013569 -0.1497712061948929 0 0.27842901908188278 -0.14556928034560529 0 0.26450787924013569 -0.1497712061948929 0 0.27842901908188278 -0.14556928034560529 0 0.28310491260276388 -0.16544900699914791 0 0.2648690926206575 -0.1333413475296707 0 0.27842901908188278 -0.14556928034560529 0 0.27798501411956061 -0.12654918030113391 0 0.26578143989208891 -0.12208723098105401 0 0.2648690926206575 -0.1333413475296707 0 0.27798501411956061 -0.12654918030113391 0 0.27842901908188278 -0.14556928034560529 0 0.27798501411956061 -0.12654918030113391 0 0.28948891994812881 -0.14951483406407001 0 0.27798501411956061 -0.12654918030113391 0 0.29041098202153109 -0.13433528958156299 0 0.28948891994812881 -0.14951483406407001 0 0.29034728781846192 -0.11708715199789579 0 0.27798501411956061 -0.12654918030113391 0 0.29041098202153109 -0.13433528958156299 0 0.27798501411956061 -0.12654918030113391 0 0.28948891994812881 -0.14951483406407001 0 0.29041098202153109 -0.13433528958156299 0 0.29420716177500777 -0.14221215070681631 0 0.30342348062744029 -0.13760193422682271 0 0.2912255771623028 -0.1527728115829716 0 0.28948891994812881 -0.14951483406407001 0 0.28310491260276388 -0.16544900699914791 0 0.27842901908188278 -0.14556928034560529 0 0.28948891994812881 -0.14951483406407001 0 0.28310491260276388 -0.16544900699914791 0 0.29041098202153109 -0.13433528958156299 0 0.29420716177500777 -0.14221215070681631 0 0.28948891994812881 -0.14951483406407001 0 0.29420716177500777 -0.14221215070681631 0 0.29409132150708672 -0.14709747919357469 0 0.29937718148225612 -0.14593854099046091 0 0.29409132150708672 -0.14709747919357469 0 0.29524987361639138 -0.15029732921987751 0 0.29937718148225612 -0.14593854099046091 0 0.29420716177500777 -0.14221215070681631 0 0.29409132150708672 -0.14709747919357469 0 0.28948891994812881 -0.14951483406407001 0 0.29409132150708672 -0.14709747919357469 0 0.28948891994812881 -0.14951483406407001 0 0.29256727978067493 -0.14953363923336691 0 0.2912255771623028 -0.1527728115829716 0 0.28948891994812881 -0.14951483406407001 0 0.29256727978067493 -0.14953363923336691 0 0.2912255771623028 -0.1527728115829716 0 0.29256727978067493 -0.14953363923336691 0 0.29524987361639138 -0.15029732921987751 0 0.29409132150708672 -0.14709747919357469 0 0.29256727978067493 -0.14953363923336691 0 0.29524987361639138 -0.15029732921987751 0 0.2912255771623028 -0.1527728115829716 0 0.29524987361639138 -0.15029732921987751 0 0.29528151507927181 -0.15507938828546919 0 0.30224824867025318 -0.1529152266746274 0 0.31132279207786079 -0.1498500992079152 0 0.29937718148225612 -0.14593854099046091 0 0.29524987361639138 -0.15029732921987751 0 0.29528151507927181 -0.15507938828546919 0 0.30224824867025318 -0.1529152266746274 0 0.29524987361639138 -0.15029732921987751 0 0.30224824867025318 -0.1529152266746274 0 0.29937718148225612 -0.14593854099046091 0 0.30224824867025318 -0.1529152266746274 0 0.31132279207786079 -0.1498500992079152 0 0.31096219410577852 -0.16400617167627951 0 0.31132279207786079 -0.1498500992079152 0 0.29937718148225612 -0.14593854099046091 0 0.30342348062744029 -0.13760193422682271 0 0.29420716177500777 -0.14221215070681631 0 0.29937718148225612 -0.14593854099046091 0 0.30342348062744029 -0.13760193422682271 0 0.30261828185502793 -0.12212355555811551 0 0.30342348062744029 -0.13760193422682271 0 0.32310638785392598 -0.12920169331710929 0 0.30261828185502793 -0.12212355555811551 0 0.29041098202153109 -0.13433528958156299 0 0.30342348062744029 -0.13760193422682271 0 0.27640342984327232 -0.1821755831815243 0 0.29326082556219257 -0.18242746645397809 0 0.29058524667449059 -0.17175513041351231 0 0.28503515628741222 -0.1940397373007702 0 0.27640342984327232 -0.1821755831815243 0 0.29326082556219257 -0.18242746645397809 0 0.27640342984327232 -0.1821755831815243 0 0.28310491260276388 -0.16544900699914791 0 0.29058524667449059 -0.17175513041351231 0 0.29326082556219257 -0.18242746645397809 0 0.29058524667449059 -0.17175513041351231 0 0.29985143088455563 -0.1705049542308337 0 0.28310491260276388 -0.16544900699914791 0 0.29162044411543447 -0.16293752342968601 0 0.29058524667449059 -0.17175513041351231 0 0.28948891994812881 -0.14951483406407001 0 0.28310491260276388 -0.16544900699914791 0 0.28310491260276388 -0.16544900699914791 0 0.29058524667449059 -0.17175513041351231 0 0.2912255771623028 -0.1527728115829716 0 0.28310491260276388 -0.16544900699914791 0 0.29162044411543447 -0.16293752342968601 0 0.29528151507927181 -0.15507938828546919 0 0.29162044411543447 -0.16293752342968601 0 0.30040507496494923 -0.16123543351683911 0 0.2912255771623028 -0.1527728115829716 0 0.29528151507927181 -0.15507938828546919 0 0.29162044411543447 -0.16293752342968601 0 0.29162044411543447 -0.16293752342968601 0 0.29058524667449059 -0.17175513041351231 0 0.29985143088455563 -0.1705049542308337 0 0.29162044411543447 -0.16293752342968601 0 0.29985143088455563 -0.1705049542308337 0 0.30040507496494923 -0.16123543351683911 0 0.29985143088455563 -0.1705049542308337 0 0.30040507496494923 -0.16123543351683911 0 0.31096219410577852 -0.16400617167627951 0 0.29528151507927181 -0.15507938828546919 0 0.30224824867025318 -0.1529152266746274 0 0.30040507496494923 -0.16123543351683911 0 0.30224824867025318 -0.1529152266746274 0 0.30040507496494923 -0.16123543351683911 0 0.31096219410577852 -0.16400617167627951 0 0.29326082556219257 -0.18242746645397809 0 0.29985143088455563 -0.1705049542308337 0 0.30899586046225469 -0.1817335086200155 0 0.29985143088455563 -0.1705049542308337 0 0.31096219410577852 -0.16400617167627951 0 0.30899586046225469 -0.1817335086200155 0 0.29869382922117033 -0.19435588497721271 0 0.29326082556219257 -0.18242746645397809 0 0.30899586046225469 -0.1817335086200155 0 0.31096219410577852 -0.16400617167627951 0 0.30899586046225469 -0.1817335086200155 0 0.33330990855537412 -0.17956709147815969 0 0.31096219410577852 -0.16400617167627951 0 0.33330990855537412 -0.17956709147815969 0 0.32820814820465 -0.15438439239763441 0 0.33330990855537412 -0.17956709147815969 0 0.32820814820465 -0.15438439239763441 0 0.34602787401434548 -0.1659716275549159 0 0.33330990855537412 -0.17956709147815969 0 0.32820814820465 -0.15438439239763441 0 0.31132279207786079 -0.1498500992079152 0 0.30342348062744029 -0.13760193422682271 0 0.32310638785392598 -0.12920169331710929 0 0.31132279207786079 -0.1498500992079152 0 0.32310638785392598 -0.12920169331710929 0 0.32820814820465 -0.15438439239763441 0 0.32310638785392598 -0.12920169331710929 0 0.32820814820465 -0.15438439239763441 0 0.31132279207786079 -0.1498500992079152 0 0.31096219410577852 -0.16400617167627951 0 0.32820814820465 -0.15438439239763441 0 0.32310638785392598 -0.12920169331710929 0 0.32820814820465 -0.15438439239763441 0 0.34315924150994809 -0.1435747212133468 0 0.32820814820465 -0.15438439239763441 0 0.34315924150994809 -0.1435747212133468 0 0.34602787401434548 -0.1659716275549159 0 0.34343843782823752 -0.12408400361420779 0 0.32310638785392598 -0.12920169331710929 0 0.34315924150994809 -0.1435747212133468 0 0.35603244527432393 -0.11855655260172521 0 0.34343843782823752 -0.12408400361420779 0 0.35934057741976239 -0.13534741467052461 0 0.34343843782823752 -0.12408400361420779 0 0.34315924150994809 -0.1435747212133468 0 0.35934057741976239 -0.13534741467052461 0 0.34315924150994809 -0.1435747212133468 0 0.35883402373876783 -0.15245919572568911 0 0.34602787401434548 -0.1659716275549159 0 0.34315924150994809 -0.1435747212133468 0 0.35934057741976239 -0.13534741467052461 0 0.35883402373876783 -0.15245919572568911 0 0.35934057741976239 -0.13534741467052461 0 0.35883402373876783 -0.15245919572568911 0 0.37256409223115239 -0.14577564863313491 0 0.35883402373876783 -0.15245919572568911 0 0.37256409223115239 -0.14577564863313491 0 0.37384484969918069 -0.1690525115198919 0 0.35603244527432393 -0.11855655260172521 0 0.35934057741976239 -0.13534741467052461 0 0.37564269716861559 -0.12678588016291681 0 0.35934057741976239 -0.13534741467052461 0 0.37256409223115239 -0.14577564863313491 0 0.37564269716861559 -0.12678588016291681 0 0.35632162773846682 -0.18166875232385579 0 0.34602787401434548 -0.1659716275549159 0 0.37384484969918069 -0.1690525115198919 0 0.33330990855537412 -0.17956709147815969 0 0.35632162773846682 -0.18166875232385579 0 0.35406267108959472 -0.19796104173242721 0 0.33330990855537412 -0.17956709147815969 0 0.35632162773846682 -0.18166875232385579 0 0.34602787401434548 -0.1659716275549159 0 0.35883402373876783 -0.15245919572568911 0 0.34602787401434548 -0.1659716275549159 0 0.37384484969918069 -0.1690525115198919 0 0.35632162773846682 -0.18166875232385579 0 0.37384484969918069 -0.1690525115198919 0 0.37385791301570431 -0.19478810405741889 0 0.37385791301570431 -0.19478810405741889 0 0.36123830093626891 -0.21477537223599311 0 0.35406267108959472 -0.19796104173242721 0 0.35632162773846682 -0.18166875232385579 0 0.37385791301570431 -0.19478810405741889 0 0.35406267108959472 -0.19796104173242721 0 0.37385791301570431 -0.19478810405741889 0 0.36123830093626891 -0.21477537223599311 0 0.38569815056541118 -0.21202009347340359 0 0.36123830093626891 -0.21477537223599311 0 0.33841166890609808 -0.204749790558685 0 0.34351342925682221 -0.22993248963921031 0 0.36123830093626891 -0.21477537223599311 0 0.35406267108959472 -0.19796104173242721 0 0.33841166890609808 -0.204749790558685 0 0.33330990855537412 -0.17956709147815969 0 0.33841166890609808 -0.204749790558685 0 0.31530851422462269 -0.2038666989828922 0 0.33330990855537412 -0.17956709147815969 0 0.33841166890609808 -0.204749790558685 0 0.33330990855537412 -0.17956709147815969 0 0.35406267108959472 -0.19796104173242721 0 0.33841166890609808 -0.204749790558685 0 0.33841166890609808 -0.204749790558685 0 0.34351342925682221 -0.22993248963921031 0 0.33841166890609808 -0.204749790558685 0 0.31530851422462269 -0.2038666989828922 0 0.32770828990032302 -0.2216742332320783 0 0.31046352426238571 -0.22770930666462211 0 0.31530851422462269 -0.2038666989828922 0 0.32770828990032302 -0.2216742332320783 0 0.30899586046225469 -0.1817335086200155 0 0.33330990855537412 -0.17956709147815969 0 0.31530851422462269 -0.2038666989828922 0 0.30849651450414628 -0.24795182056728149 0 0.33084431285168597 -0.2421128803149821 0 0.32132836083141447 -0.25869816695462983 0 0.31046352426238571 -0.22770930666462211 0 0.30849651450414628 -0.24795182056728149 0 0.33084431285168597 -0.2421128803149821 0 0.31046352426238571 -0.22770930666462211 0 0.33084431285168597 -0.2421128803149821 0 0.31046352426238571 -0.22770930666462211 0 0.32770828990032302 -0.2216742332320783 0 0.33084431285168597 -0.2421128803149821 0 0.33841166890609808 -0.204749790558685 0 0.32770828990032302 -0.2216742332320783 0 0.34351342925682221 -0.22993248963921031 0 0.32770828990032302 -0.2216742332320783 0 0.34351342925682221 -0.22993248963921031 0 0.33084431285168597 -0.2421128803149821 0 0.34351342925682221 -0.22993248963921031 0 0.33084431285168597 -0.2421128803149821 0 0.34511110575225162 -0.2497895771887422 0 0.34511110575225162 -0.2497895771887422 0 0.36072754685060221 -0.23661199597324931 0 0.35999001524652302 -0.25407051354681798 0 0.34351342925682221 -0.22993248963921031 0 0.34511110575225162 -0.2497895771887422 0 0.36072754685060221 -0.23661199597324931 0 0.36123830093626891 -0.21477537223599311 0 0.34351342925682221 -0.22993248963921031 0 0.36072754685060221 -0.23661199597324931 0 0.36123830093626891 -0.21477537223599311 0 0.36072754685060221 -0.23661199597324931 0 0.37876138036895562 -0.2308784280419337 0 0.36072754685060221 -0.23661199597324931 0 0.37876138036895562 -0.2308784280419337 0 0.37599739442549401 -0.25413598833060908 0 0.36072754685060221 -0.23661199597324931 0 0.37599739442549401 -0.25413598833060908 0 0.35999001524652302 -0.25407051354681798 0 0.39211153592001802 -0.243458058916251 0 0.37876138036895562 -0.2308784280419337 0 0.37599739442549401 -0.25413598833060908 0 0.39211153592001802 -0.243458058916251 0 0.41035187406274998 -0.24282753742178551 0 0.39511757652415641 -0.26150292724900559 0 0.39211153592001802 -0.243458058916251 0 0.39653919654912789 -0.22750706932675971 0 0.41035187406274998 -0.24282753742178551 0 0.39653919654912789 -0.22750706932675971 0 0.41035187406274998 -0.24282753742178551 0 0.41004392873759959 -0.22605415340095061 0 0.39653919654912789 -0.22750706932675971 0 0.40620368098581849 -0.2112598406499526 0 0.41004392873759959 -0.22605415340095061 0 0.39653919654912789 -0.22750706932675971 0 0.37876138036895562 -0.2308784280419337 0 0.38569815056541118 -0.21202009347340359 0 0.36123830093626891 -0.21477537223599311 0 0.37876138036895562 -0.2308784280419337 0 0.38569815056541118 -0.21202009347340359 0 0.39211153592001802 -0.243458058916251 0 0.39653919654912789 -0.22750706932675971 0 0.37876138036895562 -0.2308784280419337 0 0.37385791301570431 -0.19478810405741889 0 0.3965143716700531 -0.19450790035459309 0 0.38635526752066229 -0.1832675387771017 0 0.37385791301570431 -0.19478810405741889 0 0.38569815056541118 -0.21202009347340359 0 0.3965143716700531 -0.19450790035459309 0 0.3965143716700531 -0.19450790035459309 0 0.41709438826766482 -0.19803158576629171 0 0.40327715790131508 -0.1742830172318334 0 0.38569815056541118 -0.21202009347340359 0 0.3965143716700531 -0.19450790035459309 0 0.40620368098581849 -0.2112598406499526 0 0.39653919654912789 -0.22750706932675971 0 0.38569815056541118 -0.21202009347340359 0 0.40620368098581849 -0.2112598406499526 0 0.40620368098581849 -0.2112598406499526 0 0.43112922383217428 -0.19903060429503849 0 0.40620368098581849 -0.2112598406499526 0 0.43112922383217428 -0.19903060429503849 0 0.4255861716013436 -0.22415214759456539 0 0.3965143716700531 -0.19450790035459309 0 0.40620368098581849 -0.2112598406499526 0 0.41709438826766482 -0.19803158576629171 0 0.40620368098581849 -0.2112598406499526 0 0.41709438826766482 -0.19803158576629171 0 0.43112922383217428 -0.19903060429503849 0 0.41709438826766482 -0.19803158576629171 0 0.43112922383217428 -0.19903060429503849 0 0.42481280938198202 -0.1835758156652238 0 0.43112922383217428 -0.19903060429503849 0 0.42481280938198202 -0.1835758156652238 0 0.43620575601665912 -0.1837101461852719 0 0.4255861716013436 -0.22415214759456539 0 0.44418479110498171 -0.22284799629439461 0 0.44082046913993722 -0.20547675776734531 0 0.4255861716013436 -0.22415214759456539 0 0.44082046913993722 -0.20547675776734531 0 0.43112922383217428 -0.19903060429503849 0 0.4255861716013436 -0.22415214759456539 0 0.44082046913993722 -0.20547675776734531 0 0.4255861716013436 -0.22415214759456539 0 0.44188638875310959 -0.23917155451511701 0 0.44418479110498171 -0.22284799629439461 0 0.44188638875310959 -0.23917155451511701 0 0.44222135442591931 -0.25639948428993953 0 0.42738807778665799 -0.25011272741584589 0 0.4255861716013436 -0.22415214759456539 0 0.44188638875310959 -0.23917155451511701 0 0.42738807778665799 -0.25011272741584589 0 0.4255861716013436 -0.22415214759456539 0 0.41035187406274998 -0.24282753742178551 0 0.42738807778665799 -0.25011272741584589 0 0.40620368098581849 -0.2112598406499526 0 0.4255861716013436 -0.22415214759456539 0 0.41004392873759959 -0.22605415340095061 0 0.4255861716013436 -0.22415214759456539 0 0.41035187406274998 -0.24282753742178551 0 0.41004392873759959 -0.22605415340095061 0 0.4255861716013436 -0.22415214759456539 0 0.41035187406274998 -0.24282753742178551 0 0.4057647178407664 -0.1214959209129528 0 0.39911366233114992 -0.13775905466502969 0 0.39442452004675282 -0.12650098367137541 0 0.39911366233114992 -0.13775905466502969 0 0.39442452004675282 -0.12650098367137541 0 0.38338677987236258 -0.1315614229690007 0 0.39911366233114992 -0.13775905466502969 0 0.38338677987236258 -0.1315614229690007 0 0.38945992753496539 -0.15053444869737509 0 0.37564269716861559 -0.12678588016291681 0 0.38945992753496539 -0.15053444869737509 0 0.38338677987236258 -0.1315614229690007 0 0.37564269716861559 -0.12678588016291681 0 0.38945992753496539 -0.15053444869737509 0 0.38011491546278892 -0.11810593161037081 0 0.38338677987236258 -0.1315614229690007 0 0.37564269716861559 -0.12678588016291681 0 0.37256409223115239 -0.14577564863313491 0 0.37384484969918069 -0.1690525115198919 0 0.38945992753496539 -0.15053444869737509 0 0.37256409223115239 -0.14577564863313491 0 0.37564269716861559 -0.12678588016291681 0 0.38945992753496539 -0.15053444869737509 0 0.39911366233114992 -0.13775905466502969 0 0.38945992753496539 -0.15053444869737509 0 0.40575856112357561 -0.15636643591329569 0 0.38945992753496539 -0.15053444869737509 0 0.40575856112357561 -0.15636643591329569 0 0.40327715790131508 -0.1742830172318334 0 0.38945992753496539 -0.15053444869737509 0 0.40327715790131508 -0.1742830172318334 0 0.37384484969918069 -0.1690525115198919 0 0.38945992753496539 -0.15053444869737509 0 0.40327715790131508 -0.1742830172318334 0 0.37384484969918069 -0.1690525115198919 0 0.37385791301570431 -0.19478810405741889 0 0.38635526752066229 -0.1832675387771017 0 0.37384484969918069 -0.1690525115198919 0 0.38635526752066229 -0.1832675387771017 0 0.40327715790131508 -0.1742830172318334 0 0.3965143716700531 -0.19450790035459309 0 0.38635526752066229 -0.1832675387771017 0 0.40327715790131508 -0.1742830172318334 0 0.41709438826766482 -0.19803158576629171 0 0.40327715790131508 -0.1742830172318334 0 0.42481280938198202 -0.1835758156652238 0 0.41709438826766482 -0.19803158576629171 0 0.40327715790131508 -0.1742830172318334 0 0.40327715790131508 -0.1742830172318334 0 0.42481280938198202 -0.1835758156652238 0 0.42633603269609721 -0.16686046412278649 0 0.4324220634866493 -0.1767152939651685 0 0.42633603269609721 -0.16686046412278649 0 0.44233365585185869 -0.17271474988739169 0 0.42481280938198202 -0.1835758156652238 0 0.4324220634866493 -0.1767152939651685 0 0.42633603269609721 -0.16686046412278649 0 0.42481280938198202 -0.1835758156652238 0 0.43620575601665912 -0.1837101461852719 0 0.4324220634866493 -0.1767152939651685 0 0.43620575601665912 -0.1837101461852719 0 0.4324220634866493 -0.1767152939651685 0 0.44233365585185869 -0.17271474988739169 0 0.42633603269609721 -0.16686046412278649 0 0.44143405153979831 -0.15000862662125769 0 0.44233365585185869 -0.17271474988739169 0 0.40575856112357561 -0.15636643591329569 0 0.40327715790131508 -0.1742830172318334 0 0.42633603269609721 -0.16686046412278649 0 0.40575856112357561 -0.15636643591329569 0 0.42633603269609721 -0.16686046412278649 0 0.41605037526843169 -0.14417819251786959 0 0.39911366233114992 -0.13775905466502969 0 0.40575856112357561 -0.15636643591329569 0 0.41605037526843169 -0.14417819251786959 0 0.42633603269609721 -0.16686046412278649 0 0.41605037526843169 -0.14417819251786959 0 0.41605037526843169 -0.14417819251786959 0 0.42754440153228052 -0.1297071405274216 0 0.44143405153979831 -0.15000862662125769 0 0.42633603269609721 -0.16686046412278649 0 0.41605037526843169 -0.14417819251786959 0 0.44143405153979831 -0.15000862662125769 0 0.43687004187442008 -0.1170243740091135 0 0.42754440153228052 -0.1297071405274216 0 0.4445962514410613 -0.13209247138712141 0 0.4057647178407664 -0.1214959209129528 0 0.41605037526843169 -0.14417819251786959 0 0.4057647178407664 -0.1214959209129528 0 0.39911366233114992 -0.13775905466502969 0 0.41605037526843169 -0.14417819251786959 0 0.4057647178407664 -0.1214959209129528 0 0.41605037526843169 -0.14417819251786959 0 0.42754440153228052 -0.1297071405274216 0 0.47795401619815792 -0.1231606782490454 0 0.45524236696645898 -0.1212199631211599 0 0.46256858056301658 -0.13963219670491589 0 0.45524236696645898 -0.1212199631211599 0 0.46256858056301658 -0.13963219670491589 0 0.4445962514410613 -0.13209247138712141 0 0.46256858056301658 -0.13963219670491589 0 0.4445962514410613 -0.13209247138712141 0 0.44143405153979831 -0.15000862662125769 0 0.42754440153228052 -0.1297071405274216 0 0.4445962514410613 -0.13209247138712141 0 0.44143405153979831 -0.15000862662125769 0 0.46256858056301658 -0.13963219670491589 0 0.46198298563457929 -0.15994207975868169 0 0.46256858056301658 -0.13963219670491589 0 0.46198298563457929 -0.15994207975868169 0 0.47637830822116151 -0.1450787879816795 0 0.46256858056301658 -0.13963219670491589 0 0.44143405153979831 -0.15000862662125769 0 0.46198298563457929 -0.15994207975868169 0 0.46198298563457929 -0.15994207975868169 0 0.45659061392357358 -0.1725525158811044 0 0.4613973907061405 -0.18025196281244729 0 0.46198298563457929 -0.15994207975868169 0 0.4613973907061405 -0.18025196281244729 0 0.46198298563457929 -0.15994207975868169 0 0.4613973907061405 -0.18025196281244729 0 0.4771541369151644 -0.16093611466673061 0 0.45193683646230048 -0.16603750141982129 0 0.45150689499239499 -0.17608818006628471 0 0.45659061392357358 -0.1725525158811044 0 0.46198298563457929 -0.15994207975868169 0 0.45193683646230048 -0.16603750141982129 0 0.45659061392357358 -0.1725525158811044 0 0.44143405153979831 -0.15000862662125769 0 0.46198298563457929 -0.15994207975868169 0 0.45193683646230048 -0.16603750141982129 0 0.44143405153979831 -0.15000862662125769 0 0.45193683646230048 -0.16603750141982129 0 0.44233365585185869 -0.17271474988739169 0 0.45193683646230048 -0.16603750141982129 0 0.45150689499239499 -0.17608818006628471 0 0.44233365585185869 -0.17271474988739169 0 0.45150689499239499 -0.17608818006628471 0 0.44233365585185869 -0.17271474988739169 0 0.44556367366724531 -0.18329528694227279 0 0.43620575601665912 -0.1837101461852719 0 0.44233365585185869 -0.17271474988739169 0 0.44556367366724531 -0.18329528694227279 0 0.45150689499239499 -0.17608818006628471 0 0.44556367366724531 -0.18329528694227279 0 0.45491313257885019 -0.18067590641404119 0 0.44556367366724531 -0.18329528694227279 0 0.4560547666785304 -0.18680136794012489 0 0.45491313257885019 -0.18067590641404119 0 0.4560547666785304 -0.18680136794012489 0 0.46128250513715019 -0.18423647899843809 0 0.4613973907061405 -0.18025196281244729 0 0.4560547666785304 -0.18680136794012489 0 0.46128250513715019 -0.18423647899843809 0 0.4560547666785304 -0.18680136794012489 0 0.45491313257885019 -0.18067590641404119 0 0.4613973907061405 -0.18025196281244729 0 0.4560547666785304 -0.18680136794012489 0 0.4613973907061405 -0.18025196281244729 0 0.45491313257885019 -0.18067590641404119 0 0.45659061392357358 -0.1725525158811044 0 0.4613973907061405 -0.18025196281244729 0 0.45150689499239499 -0.17608818006628471 0 0.45491313257885019 -0.18067590641404119 0 0.45659061392357358 -0.1725525158811044 0 0.46128250513715019 -0.18423647899843809 0 0.4613973907061405 -0.18025196281244729 0 0.47623821401582039 -0.17689874919010709 0 0.46128250513715019 -0.18423647899843809 0 0.4613973907061405 -0.18025196281244729 0 0.4613973907061405 -0.18025196281244729 0 0.47623821401582039 -0.17689874919010709 0 0.4771541369151644 -0.16093611466673061 0 0.46128250513715019 -0.18423647899843809 0 0.47623821401582039 -0.17689874919010709 0 0.47298330065848598 -0.19096695416286991 0 0.46128250513715019 -0.18423647899843809 0 0.47623821401582039 -0.17689874919010709 0 0.47623821401582039 -0.17689874919010709 0 0.49119392289449049 -0.1695610193817759 0 0.47623821401582039 -0.17689874919010709 0 0.48657122604370101 -0.18595846856287521 0 0.47298330065848598 -0.19096695416286991 0 0.48657122604370101 -0.18595846856287521 0 0.5 -0.1776219292500186 0 0.49119392289449049 -0.1695610193817759 0 0.47623821401582039 -0.17689874919010709 0 0.48657122604370101 -0.18595846856287521 0 0.49119392289449049 -0.1695610193817759 0 0.49119392289449049 -0.1695610193817759 0 0.49031473573346118 -0.1556217428247163 0 0.50000000000000022 -0.1503695707293439 0 0.5 -0.1776219292500186 0 0.49119392289449049 -0.1695610193817759 0 0.50000000000000022 -0.1503695707293439 0 0.49119392289449049 -0.1695610193817759 0 0.4771541369151644 -0.16093611466673061 0 0.49031473573346118 -0.1556217428247163 0 0.47623821401582039 -0.17689874919010709 0 0.49119392289449049 -0.1695610193817759 0 0.4771541369151644 -0.16093611466673061 0 0.4613973907061405 -0.18025196281244729 0 0.4771541369151644 -0.16093611466673061 0 0.4771541369151644 -0.16093611466673061 0 0.47637830822116151 -0.1450787879816795 0 0.49291088312418951 -0.14162026652101489 0 0.46198298563457929 -0.15994207975868169 0 0.4771541369151644 -0.16093611466673061 0 0.47637830822116151 -0.1450787879816795 0 0.4771541369151644 -0.16093611466673061 0 0.49031473573346118 -0.1556217428247163 0 0.49291088312418951 -0.14162026652101489 0 0.4771541369151644 -0.16093611466673061 0 0.49291088312418951 -0.14162026652101489 0 0.50000000000000022 -0.1503695707293439 0 0.49291088312418951 -0.14162026652101489 0 0.49999999999999561 -0.13292987427608749 0 0.49031473573346118 -0.1556217428247163 0 0.50000000000000022 -0.1503695707293439 0 0.49291088312418951 -0.14162026652101489 0 0.50000000000000022 -0.1503695707293439 0 0.49291088312418951 -0.14162026652101489 0 0.47795401619815792 -0.1231606782490454 0 0.49291088312418951 -0.14162026652101489 0 0.47795401619815792 -0.1231606782490454 0 0.49291088312418951 -0.14162026652101489 0 0.49999999999999561 -0.13292987427608749 0 0.49291088312418951 -0.14162026652101489 0 0.49999999999999561 -0.13292987427608749 0 0.47795401619815792 -0.1231606782490454 0 0.46256858056301658 -0.13963219670491589 0 0.47637830822116151 -0.1450787879816795 0 0.47795401619815792 -0.1231606782490454 0 0.47637830822116151 -0.1450787879816795 0 0.49291088312418951 -0.14162026652101489 0 0.45993154745423143 -0.23109103872606779 0 0.44418479110498171 -0.22284799629439461 0 0.46060702629569072 -0.207663758862253 0 0.45993154745423143 -0.23109103872606779 0 0.46060702629569072 -0.207663758862253 0 0.45993154745423143 -0.23109103872606779 0 0.46060702629569072 -0.207663758862253 0 0.48072551199530827 -0.21921565117268771 0 0.45993154745423143 -0.23109103872606779 0 0.45971854406675899 -0.24853276314288689 0 0.47612558626526152 -0.23530406951341809 0 0.45993154745423143 -0.23109103872606779 0 0.45971854406675899 -0.24853276314288689 0 0.44188638875310959 -0.23917155451511701 0 0.45971854406675899 -0.24853276314288689 0 0.44188638875310959 -0.23917155451511701 0 0.44222135442591931 -0.25639948428993953 0 0.45993154745423143 -0.23109103872606779 0 0.44188638875310959 -0.23917155451511701 0 0.44418479110498171 -0.22284799629439461 0 0.44418479110498171 -0.22284799629439461 0 0.44082046913993722 -0.20547675776734531 0 0.46060702629569072 -0.207663758862253 0 0.43112922383217428 -0.19903060429503849 0 0.44556367366724531 -0.18329528694227279 0 0.4560547666785304 -0.18680136794012489 0 0.43112922383217428 -0.19903060429503849 0 0.4560547666785304 -0.18680136794012489 0 0.44082046913993722 -0.20547675776734531 0 0.4560547666785304 -0.18680136794012489 0 0.44082046913993722 -0.20547675776734531 0 0.43112922383217428 -0.19903060429503849 0 0.4560547666785304 -0.18680136794012489 0 0.43112922383217428 -0.19903060429503849 0 0.43620575601665912 -0.1837101461852719 0 0.44556367366724531 -0.18329528694227279 0 0.4560547666785304 -0.18680136794012489 0 0.44082046913993722 -0.20547675776734531 0 0.46060702629569072 -0.207663758862253 0 0.4560547666785304 -0.18680136794012489 0 0.46128250513715019 -0.18423647899843809 0 0.46060702629569072 -0.207663758862253 0 0.46128250513715019 -0.18423647899843809 0 0.46060702629569072 -0.207663758862253 0 0.47298330065848598 -0.19096695416286991 0 0.46128250513715019 -0.18423647899843809 0 0.46060702629569072 -0.207663758862253 0 0.46060702629569072 -0.207663758862253 0 0.48021753180006821 -0.2000773152006757 0 0.48072551199530827 -0.21921565117268771 0 0.46060702629569072 -0.207663758862253 0 0.47298330065848598 -0.19096695416286991 0 0.48021753180006821 -0.2000773152006757 0 0.48657122604370101 -0.18595846856287521 0 0.47298330065848598 -0.19096695416286991 0 0.48021753180006821 -0.2000773152006757 0 0.48657122604370101 -0.18595846856287521 0 0.5 -0.1776219292500186 0 0.5 -0.2048742877706933 0 0.48657122604370101 -0.18595846856287521 0 0.48021753180006821 -0.2000773152006757 0 0.5 -0.2048742877706933 0 0.5 -0.2048742877706933 0 0.5 -0.23212664629136809 0 0.48072551199530827 -0.21921565117268771 0 0.48021753180006821 -0.2000773152006757 0 0.5 -0.2048742877706933 0 0.48072551199530827 -0.21921565117268771 0 0.5 -0.23212664629136809 0 0.48072551199530827 -0.21921565117268771 0 0.47612558626526152 -0.23530406951341809 0 0.45993154745423143 -0.23109103872606779 0 0.48072551199530827 -0.21921565117268771 0 0.47612558626526152 -0.23530406951341809 0 0.45971854406675899 -0.24853276314288689 0 0.47612558626526152 -0.23530406951341809 0 0.48005555304084202 -0.25086957477450761 0 0.5 -0.23212664629136809 0 0.47612558626526152 -0.23530406951341809 0 0.48005555304084202 -0.25086957477450761 0 0.5 -0.23212664629136809 0 0.5 -0.25937900481204279 0 0.48005555304084202 -0.25086957477450761 0 0.5 -0.25937900481204279 0 0.48238679851899557 -0.27010709570024499 0 0.48005555304084202 -0.25086957477450761 0 0.5 -0.25937900481204279 0 0.48238679851899557 -0.27010709570024499 0 0.50000000000000022 -0.28663136333271749 0 0.48238679851899557 -0.27010709570024499 0 0.46537054964303343 -0.27587751544572892 0 0.47132628498073759 -0.29333752481836622 0 0.48238679851899557 -0.27010709570024499 0 0.46812616638324112 -0.26208212122897862 0 0.46537054964303343 -0.27587751544572892 0 0.48238679851899557 -0.27010709570024499 0 0.48005555304084202 -0.25086957477450761 0 0.46812616638324112 -0.26208212122897862 0 0.45971854406675899 -0.24853276314288689 0 0.48005555304084202 -0.25086957477450761 0 0.46812616638324112 -0.26208212122897862 0 0.45971854406675899 -0.24853276314288689 0 0.46812616638324112 -0.26208212122897862 0 0.45309938664657562 -0.26502365708152448 0 0.46812616638324112 -0.26208212122897862 0 0.46537054964303343 -0.27587751544572892 0 0.45309938664657562 -0.26502365708152448 0 0.46537054964303343 -0.27587751544572892 0 0.44873088824515478 -0.27798159794241739 0 0.45309938664657562 -0.26502365708152448 0 0.46537054964303343 -0.27587751544572892 0 0.44873088824515478 -0.27798159794241739 0 0.45489795979772218 -0.28610325223289229 0 0.44873088824515478 -0.27798159794241739 0 0.44323481619901939 -0.26908299279190068 0 0.45309938664657562 -0.26502365708152448 0 0.44873088824515478 -0.27798159794241739 0 0.4378609686856903 -0.27790111256739919 0 0.4430998265829787 -0.28736600713102672 0 0.44873088824515478 -0.27798159794241739 0 0.4378609686856903 -0.27790111256739919 0 0.44323481619901939 -0.26908299279190068 0 0.4378609686856903 -0.27790111256739919 0 0.44323481619901939 -0.26908299279190068 0 0.43268183932762322 -0.26686664253597869 0 0.44323481619901939 -0.26908299279190068 0 0.44222135442591931 -0.25639948428993953 0 0.43268183932762322 -0.26686664253597869 0 0.45971854406675899 -0.24853276314288689 0 0.44222135442591931 -0.25639948428993953 0 0.45309938664657562 -0.26502365708152448 0 0.44323481619901939 -0.26908299279190068 0 0.44222135442591931 -0.25639948428993953 0 0.45309938664657562 -0.26502365708152448 0 0.44897282168762798 -0.30951528310646931 0 0.44265256996147512 -0.30004368630401551 0 0.45935833195610593 -0.30681939417686699 0 0.44897282168762798 -0.30951528310646931 0 0.43939714155718262 -0.31069822970525229 0 0.44404107150044991 -0.31691257942273271 0 0.44897282168762798 -0.30951528310646931 0 0.43939714155718262 -0.31069822970525229 0 0.44265256996147512 -0.30004368630401551 0 0.44265256996147512 -0.30004368630401551 0 0.44596224953670649 -0.29595361582692209 0 0.4430998265829787 -0.28736600713102672 0 0.44596224953670649 -0.29595361582692209 0 0.43743694859126259 -0.29296775186900692 0 0.44265256996147512 -0.30004368630401551 0 0.44596224953670649 -0.29595361582692209 0 0.43743694859126259 -0.29296775186900692 0 0.4378609686856903 -0.27790111256739919 0 0.4430998265829787 -0.28736600713102672 0 0.43320270226329649 -0.28670757767434618 0 0.4430998265829787 -0.28736600713102672 0 0.43320270226329649 -0.28670757767434618 0 0.43743694859126259 -0.29296775186900692 0 0.44873088824515478 -0.27798159794241739 0 0.4430998265829787 -0.28736600713102672 0 0.45489795979772218 -0.28610325223289229 0 0.4430998265829787 -0.28736600713102672 0 0.44596224953670649 -0.29595361582692209 0 0.45489795979772218 -0.28610325223289229 0 0.44265256996147512 -0.30004368630401551 0 0.47132628498073759 -0.29333752481836622 0 0.44596224953670649 -0.29595361582692209 0 0.45489795979772218 -0.28610325223289229 0 0.47132628498073759 -0.29333752481836622 0 0.46537054964303343 -0.27587751544572892 0 0.45489795979772218 -0.28610325223289229 0 0.47132628498073759 -0.29333752481836622 0 0.44265256996147512 -0.30004368630401551 0 0.44596224953670649 -0.29595361582692209 0 0.47132628498073759 -0.29333752481836622 0 0.44265256996147512 -0.30004368630401551 0 0.45935833195610593 -0.30681939417686699 0 0.47132628498073759 -0.29333752481836622 0 0.50000000000000022 -0.28663136333271749 0 0.48686089257311133 -0.30322805980915413 0 0.5 -0.31831992893172412 0 0.45935833195610593 -0.30681939417686699 0 0.47132628498073759 -0.29333752481836622 0 0.47611728531170761 -0.31462342215380878 0 0.47132628498073759 -0.29333752481836622 0 0.48686089257311133 -0.30322805980915413 0 0.47611728531170761 -0.31462342215380878 0 0.48238679851899557 -0.27010709570024499 0 0.47132628498073759 -0.29333752481836622 0 0.50000000000000022 -0.28663136333271749 0 0.47132628498073759 -0.29333752481836622 0 0.50000000000000022 -0.28663136333271749 0 0.48686089257311133 -0.30322805980915413 0 0.47132628498073759 -0.29333752481836622 0 0.50000000000000022 -0.28663136333271749 0 0.48686089257311133 -0.30322805980915413 0 0.5 -0.31831992893172412 0 0.47611728531170761 -0.31462342215380878 0 0.5 -0.31831992893172412 0 0.47543790526315222 -0.33690731983133287 0 0.5 -0.36144527637361312 0 0.47543790526315222 -0.33690731983133287 0 0.47611728531170761 -0.31462342215380878 0 0.45708745315099197 -0.32352822190568042 0 0.5 -0.31831992893172412 0 0.47543790526315222 -0.33690731983133287 0 0.47611728531170761 -0.31462342215380878 0 0.47543790526315222 -0.33690731983133287 0 0.5 -0.36144527637361312 0 0.46499590257557433 -0.35765761135647373 0 0.5 -0.36144527637361312 0 0.46499590257557433 -0.35765761135647373 0 0.45487118058901199 -0.38199621202214712 0 0.46499590257557433 -0.35765761135647373 0 0.44278334950484988 -0.35944530444543521 0 0.45487118058901199 -0.38199621202214712 0 0.47543790526315222 -0.33690731983133287 0 0.46499590257557433 -0.35765761135647373 0 0.45229702983115788 -0.34286225908246609 0 0.46499590257557433 -0.35765761135647373 0 0.44278334950484988 -0.35944530444543521 0 0.45229702983115788 -0.34286225908246609 0 0.44278334950484988 -0.35944530444543521 0 0.45229702983115788 -0.34286225908246609 0 0.43309306375093792 -0.34301666624096899 0 0.44278334950484988 -0.35944530444543521 0 0.45487118058901199 -0.38199621202214712 0 0.4295064337016708 -0.37630380625537613 0 0.45935833195610593 -0.30681939417686699 0 0.47611728531170761 -0.31462342215380878 0 0.45708745315099197 -0.32352822190568042 0 0.44897282168762798 -0.30951528310646931 0 0.45935833195610593 -0.30681939417686699 0 0.45708745315099197 -0.32352822190568042 0 0.47543790526315222 -0.33690731983133287 0 0.45708745315099197 -0.32352822190568042 0 0.45229702983115788 -0.34286225908246609 0 0.45708745315099197 -0.32352822190568042 0 0.45229702983115788 -0.34286225908246609 0 0.43972289086756222 -0.33009179364262969 0 0.45229702983115788 -0.34286225908246609 0 0.43972289086756222 -0.33009179364262969 0 0.43309306375093792 -0.34301666624096899 0 0.45708745315099197 -0.32352822190568042 0 0.43972289086756222 -0.33009179364262969 0 0.44404107150044991 -0.31691257942273271 0 0.43972289086756222 -0.33009179364262969 0 0.44404107150044991 -0.31691257942273271 0 0.4371041589070484 -0.32172682425415838 0 0.44897282168762798 -0.30951528310646931 0 0.45708745315099197 -0.32352822190568042 0 0.44404107150044991 -0.31691257942273271 0 0.44404107150044991 -0.31691257942273271 0 0.43722059943748248 -0.31773037177480667 0 0.4371041589070484 -0.32172682425415838 0 0.43939714155718262 -0.31069822970525229 0 0.44404107150044991 -0.31691257942273271 0 0.43722059943748248 -0.31773037177480667 0 0.43939714155718262 -0.31069822970525229 0 0.4240033371286468 -0.32309023050752028 0 0.4283400257852491 -0.32158385371708348 0 0.43939714155718262 -0.31069822970525229 0 0.43722059943748248 -0.31773037177480667 0 0.4283400257852491 -0.32158385371708348 0 0.42297398439717532 -0.31431650461902289 0 0.4240033371286468 -0.32309023050752028 0 0.42980672607172021 -0.31042682570502478 0 0.4240033371286468 -0.32309023050752028 0 0.4283400257852491 -0.32158385371708348 0 0.42739211041768382 -0.32743769415249979 0 0.4240033371286468 -0.32309023050752028 0 0.4283400257852491 -0.32158385371708348 0 0.4283400257852491 -0.32158385371708348 0 0.42739211041768382 -0.32743769415249979 0 0.43268086703270719 -0.32605970776166238 0 0.43972289086756222 -0.33009179364262969 0 0.43268086703270719 -0.32605970776166238 0 0.4371041589070484 -0.32172682425415838 0 0.4283400257852491 -0.32158385371708348 0 0.43268086703270719 -0.32605970776166238 0 0.4371041589070484 -0.32172682425415838 0 0.43722059943748248 -0.31773037177480667 0 0.4283400257852491 -0.32158385371708348 0 0.4371041589070484 -0.32172682425415838 0 0.43972289086756222 -0.33009179364262969 0 0.43086357845263779 -0.33208314546185158 0 0.43309306375093792 -0.34301666624096899 0 0.43972289086756222 -0.33009179364262969 0 0.43268086703270719 -0.32605970776166238 0 0.43086357845263779 -0.33208314546185158 0 0.42739211041768382 -0.32743769415249979 0 0.43268086703270719 -0.32605970776166238 0 0.43086357845263779 -0.33208314546185158 0 0.43086357845263779 -0.33208314546185158 0 0.43309306375093792 -0.34301666624096899 0 0.42229662434271242 -0.33545340476313867 0 0.43309306375093792 -0.34301666624096899 0 0.42229662434271242 -0.33545340476313867 0 0.41903385168708313 -0.34688535415289518 0 0.4240033371286468 -0.32309023050752028 0 0.42739211041768382 -0.32743769415249979 0 0.42229662434271242 -0.33545340476313867 0 0.42739211041768382 -0.32743769415249979 0 0.43086357845263779 -0.33208314546185158 0 0.42229662434271242 -0.33545340476313867 0 0.4240033371286468 -0.32309023050752028 0 0.41210406985478099 -0.33779523160192332 0 0.3987434882363875 -0.3318644020273675 0 0.4240033371286468 -0.32309023050752028 0 0.41210406985478099 -0.33779523160192332 0 0.4240033371286468 -0.32309023050752028 0 0.42229662434271242 -0.33545340476313867 0 0.41210406985478099 -0.33779523160192332 0 0.42229662434271242 -0.33545340476313867 0 0.41210406985478099 -0.33779523160192332 0 0.41903385168708313 -0.34688535415289518 0 0.4101883959345286 -0.31966314944611968 0 0.39742652577003768 -0.32057764139979211 0 0.41604981830497062 -0.30626549427173949 0 0.4240033371286468 -0.32309023050752028 0 0.3987434882363875 -0.3318644020273675 0 0.4240033371286468 -0.32309023050752028 0 0.4101883959345286 -0.31966314944611968 0 0.3987434882363875 -0.3318644020273675 0 0.42297398439717532 -0.31431650461902289 0 0.4240033371286468 -0.32309023050752028 0 0.41804897230906352 -0.31593284869531119 0 0.4101883959345286 -0.31966314944611968 0 0.41804897230906352 -0.31593284869531119 0 0.41604981830497062 -0.30626549427173949 0 0.4240033371286468 -0.32309023050752028 0 0.4101883959345286 -0.31966314944611968 0 0.41804897230906352 -0.31593284869531119 0 0.44278334950484988 -0.35944530444543521 0 0.42502369809693241 -0.35815568128673458 0 0.4295064337016708 -0.37630380625537613 0 0.42502369809693241 -0.35815568128673458 0 0.41178072199276039 -0.36946034709897613 0 0.4295064337016708 -0.37630380625537613 0 0.44278334950484988 -0.35944530444543521 0 0.43309306375093792 -0.34301666624096899 0 0.42502369809693241 -0.35815568128673458 0 0.43309306375093792 -0.34301666624096899 0 0.42502369809693241 -0.35815568128673458 0 0.41903385168708313 -0.34688535415289518 0 0.41903385168708313 -0.34688535415289518 0 0.41038503268935173 -0.34873370916237301 0 0.41227131205239381 -0.35747889671188982 0 0.41210406985478099 -0.33779523160192332 0 0.41038503268935173 -0.34873370916237301 0 0.40020480258091429 -0.35250023269632541 0 0.41210406985478099 -0.33779523160192332 0 0.41903385168708313 -0.34688535415289518 0 0.41038503268935173 -0.34873370916237301 0 0.41038503268935173 -0.34873370916237301 0 0.41227131205239381 -0.35747889671188982 0 0.40020480258091429 -0.35250023269632541 0 0.42502369809693241 -0.35815568128673458 0 0.41903385168708313 -0.34688535415289518 0 0.41227131205239381 -0.35747889671188982 0 0.42502369809693241 -0.35815568128673458 0 0.41227131205239381 -0.35747889671188982 0 0.41178072199276039 -0.36946034709897613 0 0.41227131205239381 -0.35747889671188982 0 0.41178072199276039 -0.36946034709897613 0 0.40304008304445821 -0.36149948744727312 0 0.40023604077199898 -0.36932453307105673 0 0.39341151274236552 -0.36661605599290897 0 0.38985283232992851 -0.37406313562868282 0 0.40023604077199898 -0.36932453307105673 0 0.38985283232992851 -0.37406313562868282 0 0.40124512744111018 -0.37763097726200962 0 0.41178072199276039 -0.36946034709897613 0 0.40023604077199898 -0.36932453307105673 0 0.40124512744111018 -0.37763097726200962 0 0.40023604077199898 -0.36932453307105673 0 0.40304008304445821 -0.36149948744727312 0 0.39341151274236552 -0.36661605599290897 0 0.41178072199276039 -0.36946034709897613 0 0.40023604077199898 -0.36932453307105673 0 0.40304008304445821 -0.36149948744727312 0 0.39341151274236552 -0.36661605599290897 0 0.3946399643090438 -0.3593772067985665 0 0.38630181170484679 -0.36478243060390519 0 0.40304008304445821 -0.36149948744727312 0 0.39341151274236552 -0.36661605599290897 0 0.3946399643090438 -0.3593772067985665 0 0.3946399643090438 -0.3593772067985665 0 0.40020480258091429 -0.35250023269632541 0 0.40304008304445821 -0.36149948744727312 0 0.3946399643090438 -0.3593772067985665 0 0.40020480258091429 -0.35250023269632541 0 0.41227131205239381 -0.35747889671188982 0 0.40304008304445821 -0.36149948744727312 0 0.40020480258091429 -0.35250023269632541 0 0.41038503268935173 -0.34873370916237301 0 0.40020480258091429 -0.35250023269632541 0 0.41210406985478099 -0.33779523160192332 0 0.40020480258091429 -0.35250023269632541 0 0.4013806943369253 -0.34118357981305891 0 0.41210406985478099 -0.33779523160192332 0 0.40020480258091429 -0.35250023269632541 0 0.40020480258091429 -0.35250023269632541 0 0.3918726413069567 -0.34401977947806439 0 0.38851632190518742 -0.35061072575364077 0 0.40020480258091429 -0.35250023269632541 0 0.3918726413069567 -0.34401977947806439 0 0.4013806943369253 -0.34118357981305891 0 0.40020480258091429 -0.35250023269632541 0 0.38851632190518742 -0.35061072575364077 0 0.38133718508326653 -0.35451636401379688 0 0.40020480258091429 -0.35250023269632541 0 0.38133718508326653 -0.35451636401379688 0 0.3749751666447283 -0.36183479748459391 0 0.3918726413069567 -0.34401977947806439 0 0.38297223629938471 -0.34860510254240179 0 0.37348363934412848 -0.34063857354721577 0 0.3946399643090438 -0.3593772067985665 0 0.40020480258091429 -0.35250023269632541 0 0.3749751666447283 -0.36183479748459391 0 0.40020480258091429 -0.35250023269632541 0 0.3749751666447283 -0.36183479748459391 0 0.3918726413069567 -0.34401977947806439 0 0.38851632190518742 -0.35061072575364077 0 0.38297223629938471 -0.34860510254240179 0 0.38851632190518742 -0.35061072575364077 0 0.38297223629938471 -0.34860510254240179 0 0.38133718508326653 -0.35451636401379688 0 0.38297223629938471 -0.34860510254240179 0 0.38133718508326653 -0.35451636401379688 0 0.3744951480075942 -0.35066427621442442 0 0.38297223629938471 -0.34860510254240179 0 0.37348363934412848 -0.34063857354721577 0 0.3744951480075942 -0.35066427621442442 0 0.38133718508326653 -0.35451636401379688 0 0.3749751666447283 -0.36183479748459391 0 0.37243122142124518 -0.35615963110985549 0 0.38133718508326653 -0.35451636401379688 0 0.37243122142124518 -0.35615963110985549 0 0.3744951480075942 -0.35066427621442442 0 0.3946399643090438 -0.3593772067985665 0 0.38630181170484679 -0.36478243060390519 0 0.3749751666447283 -0.36183479748459391 0 0.38630181170484679 -0.36478243060390519 0 0.38002689313390109 -0.36613921001796063 0 0.3749751666447283 -0.36183479748459391 0 0.37648520032120342 -0.3663236554996292 0 0.38002689313390109 -0.36613921001796063 0 0.3749751666447283 -0.36183479748459391 0 0.37648520032120342 -0.3663236554996292 0 0.38002689313390109 -0.36613921001796063 0 0.38234539386482602 -0.37161595648371382 0 0.37648520032120342 -0.3663236554996292 0 0.38234539386482602 -0.37161595648371382 0 0.37575133369273522 -0.37683273687038998 0 0.38630181170484679 -0.36478243060390519 0 0.38234539386482602 -0.37161595648371382 0 0.38985283232992851 -0.37406313562868282 0 0.39341151274236552 -0.36661605599290897 0 0.38630181170484679 -0.36478243060390519 0 0.38985283232992851 -0.37406313562868282 0 0.38630181170484679 -0.36478243060390519 0 0.38002689313390109 -0.36613921001796063 0 0.38234539386482602 -0.37161595648371382 0 0.39742652577003768 -0.32057764139979211 0 0.3987434882363875 -0.3318644020273675 0 0.3822115312300981 -0.32415917707579478 0 0.39742652577003768 -0.32057764139979211 0 0.38944706664846618 -0.31248730223946453 0 0.41604981830497062 -0.30626549427173949 0 0.4101883959345286 -0.31966314944611968 0 0.39742652577003768 -0.32057764139979211 0 0.3987434882363875 -0.3318644020273675 0 0.41210406985478099 -0.33779523160192332 0 0.3987434882363875 -0.3318644020273675 0 0.4013806943369253 -0.34118357981305891 0 0.3918726413069567 -0.34401977947806439 0 0.3987434882363875 -0.3318644020273675 0 0.4013806943369253 -0.34118357981305891 0 0.3987434882363875 -0.3318644020273675 0 0.3822115312300981 -0.32415917707579478 0 0.37348363934412848 -0.34063857354721577 0 0.3987434882363875 -0.3318644020273675 0 0.37348363934412848 -0.34063857354721577 0 0.3918726413069567 -0.34401977947806439 0 0.3987434882363875 -0.3318644020273675 0 0.37348363934412848 -0.34063857354721577 0 0.3822115312300981 -0.32415917707579478 0 0.37056996727289587 -0.32839188471441277 0 0.37348363934412848 -0.34063857354721577 0 0.3822115312300981 -0.32415917707579478 0 0.38944706664846618 -0.31248730223946453 0 0.3628443149919619 -0.31870911020718928 0 0.38944706664846618 -0.31248730223946453 0 0.3628443149919619 -0.31870911020718928 0 0.39742652577003768 -0.32057764139979211 0 0.3822115312300981 -0.32415917707579478 0 0.38944706664846618 -0.31248730223946453 0 0.38944706664846618 -0.31248730223946453 0 0.3740360814172552 -0.30482459059460548 0 0.3628443149919619 -0.31870911020718928 0 0.38944706664846618 -0.31248730223946453 0 0.38695261715406271 -0.29610311232081099 0 0.3740360814172552 -0.30482459059460548 0 0.38695261715406271 -0.29610311232081099 0 0.36659040915697022 -0.29146125278917062 0 0.3740360814172552 -0.30482459059460548 0 0.38944706664846618 -0.31248730223946453 0 0.40287418797622238 -0.29903925571920897 0 0.41604981830497062 -0.30626549427173949 0 0.38944706664846618 -0.31248730223946453 0 0.41604981830497062 -0.30626549427173949 0 0.38944706664846618 -0.31248730223946453 0 0.40287418797622238 -0.29903925571920897 0 0.38695261715406271 -0.29610311232081099 0 0.40287418797622238 -0.29903925571920897 0 0.39965404316175662 -0.28557249735530632 0 0.38695261715406271 -0.29610311232081099 0 0.38695261715406271 -0.29610311232081099 0 0.37988327898556268 -0.28017831707622581 0 0.36659040915697022 -0.29146125278917062 0 0.39965404316175662 -0.28557249735530632 0 0.38695261715406271 -0.29610311232081099 0 0.37988327898556268 -0.28017831707622581 0 0.37988327898556268 -0.28017831707622581 0 0.39511757652415641 -0.26150292724900559 0 0.39211153592001802 -0.243458058916251 0 0.37599739442549401 -0.25413598833060908 0 0.39511757652415641 -0.26150292724900559 0 0.37988327898556268 -0.28017831707622581 0 0.37599739442549401 -0.25413598833060908 0 0.39511757652415641 -0.26150292724900559 0 0.41035187406274998 -0.24282753742178551 0 0.39511757652415641 -0.26150292724900559 0 0.39965404316175662 -0.28557249735530632 0 0.39511757652415641 -0.26150292724900559 0 0.41172808633507069 -0.27689478194499351 0 0.39965404316175662 -0.28557249735530632 0 0.37988327898556268 -0.28017831707622581 0 0.39511757652415641 -0.26150292724900559 0 0.39511757652415641 -0.26150292724900559 0 0.41172808633507069 -0.27689478194499351 0 0.4161754997135817 -0.26384999015432808 0 0.41172808633507069 -0.27689478194499351 0 0.4161754997135817 -0.26384999015432808 0 0.42542591766400262 -0.27878062255760377 0 0.41035187406274998 -0.24282753742178551 0 0.39511757652415641 -0.26150292724900559 0 0.4161754997135817 -0.26384999015432808 0 0.41035187406274998 -0.24282753742178551 0 0.4161754997135817 -0.26384999015432808 0 0.42738807778665799 -0.25011272741584589 0 0.4161754997135817 -0.26384999015432808 0 0.42738807778665799 -0.25011272741584589 0 0.43268183932762322 -0.26686664253597869 0 0.44222135442591931 -0.25639948428993953 0 0.42738807778665799 -0.25011272741584589 0 0.43268183932762322 -0.26686664253597869 0 0.4161754997135817 -0.26384999015432808 0 0.42542591766400262 -0.27878062255760377 0 0.43268183932762322 -0.26686664253597869 0 0.4378609686856903 -0.27790111256739919 0 0.42542591766400262 -0.27878062255760377 0 0.43320270226329649 -0.28670757767434618 0 0.4378609686856903 -0.27790111256739919 0 0.42542591766400262 -0.27878062255760377 0 0.43268183932762322 -0.26686664253597869 0 0.44265256996147512 -0.30004368630401551 0 0.42226739461185608 -0.29476787240872382 0 0.43743694859126259 -0.29296775186900692 0 0.42542591766400262 -0.27878062255760377 0 0.43320270226329649 -0.28670757767434618 0 0.42226739461185608 -0.29476787240872382 0 0.43320270226329649 -0.28670757767434618 0 0.42226739461185608 -0.29476787240872382 0 0.43743694859126259 -0.29296775186900692 0 0.44265256996147512 -0.30004368630401551 0 0.42226739461185608 -0.29476787240872382 0 0.41604981830497062 -0.30626549427173949 0 0.43939714155718262 -0.31069822970525229 0 0.44265256996147512 -0.30004368630401551 0 0.4240033371286468 -0.32309023050752028 0 0.44265256996147512 -0.30004368630401551 0 0.42980672607172021 -0.31042682570502478 0 0.41604981830497062 -0.30626549427173949 0 0.44265256996147512 -0.30004368630401551 0 0.41604981830497062 -0.30626549427173949 0 0.44265256996147512 -0.30004368630401551 0 0.4240033371286468 -0.32309023050752028 0 0.44265256996147512 -0.30004368630401551 0 0.4240033371286468 -0.32309023050752028 0 0.42980672607172021 -0.31042682570502478 0 0.42297398439717532 -0.31431650461902289 0 0.42980672607172021 -0.31042682570502478 0 0.41604981830497062 -0.30626549427173949 0 0.40287418797622238 -0.29903925571920897 0 0.42226739461185608 -0.29476787240872382 0 0.41604981830497062 -0.30626549427173949 0 0.42297398439717532 -0.31431650461902289 0 0.41804897230906352 -0.31593284869531119 0 0.41604981830497062 -0.30626549427173949 0 0.40287418797622238 -0.29903925571920897 0 0.39965404316175662 -0.28557249735530632 0 0.42226739461185608 -0.29476787240872382 0 0.39965404316175662 -0.28557249735530632 0 0.41172808633507069 -0.27689478194499351 0 0.42226739461185608 -0.29476787240872382 0 0.41172808633507069 -0.27689478194499351 0 0.42542591766400262 -0.27878062255760377 0 0.42226739461185608 -0.29476787240872382 0 0.4636459141367551 -0.4765568974702668 0 0.5 -0.5 0 0.41109778695890131 -0.5 0 0.5 -0.5 0 0.47218418424867709 -0.44843168764585251 0 0.5 -0.42013277262407062 0 0.4636459141367551 -0.4765568974702668 0 0.5 -0.5 0 0.47218418424867709 -0.44843168764585251 0 0.4636459141367551 -0.4765568974702668 0 0.44630804834363602 -0.45525441068934031 0 0.42775395235248143 -0.46350172428493908 0 0.47218418424867709 -0.44843168764585251 0 0.44630804834363602 -0.45525441068934031 0 0.45259826140332188 -0.43079312136857728 0 0.4636459141367551 -0.4765568974702668 0 0.47218418424867709 -0.44843168764585251 0 0.44630804834363602 -0.45525441068934031 0 0.4636459141367551 -0.4765568974702668 0 0.44630804834363602 -0.45525441068934031 0 0.44630804834363602 -0.45525441068934031 0 0.45259826140332188 -0.43079312136857728 0 0.42897018255051689 -0.43395192390841392 0 0.44630804834363602 -0.45525441068934031 0 0.42897018255051689 -0.43395192390841392 0 0.47218418424867709 -0.44843168764585251 0 0.45259826140332188 -0.43079312136857728 0 0.46931997675391912 -0.40722141449383581 0 0.45259826140332188 -0.43079312136857728 0 0.46931997675391912 -0.40722141449383581 0 0.42869180294811271 -0.40013368697946761 0 0.47218418424867709 -0.44843168764585251 0 0.46931997675391912 -0.40722141449383581 0 0.5 -0.42013277262407062 0 0.5 -0.36144527637361312 0 0.46931997675391912 -0.40722141449383581 0 0.5 -0.42013277262407062 0 0.5 -0.36144527637361312 0 0.46931997675391912 -0.40722141449383581 0 0.45487118058901199 -0.38199621202214712 0 0.46931997675391912 -0.40722141449383581 0 0.45487118058901199 -0.38199621202214712 0 0.42869180294811271 -0.40013368697946761 0 0.45487118058901199 -0.38199621202214712 0 0.4295064337016708 -0.37630380625537613 0 0.42869180294811271 -0.40013368697946761 0 0.4295064337016708 -0.37630380625537613 0 0.42869180294811271 -0.40013368697946761 0 0.41075325489251768 -0.38592676112580948 0 0.42869180294811271 -0.40013368697946761 0 0.40568277507322142 -0.39964786269385899 0 0.41163231675739781 -0.41264943712748731 0 0.42869180294811271 -0.40013368697946761 0 0.41075325489251768 -0.38592676112580948 0 0.40568277507322142 -0.39964786269385899 0 0.41178072199276039 -0.36946034709897613 0 0.4295064337016708 -0.37630380625537613 0 0.41075325489251768 -0.38592676112580948 0 0.41178072199276039 -0.36946034709897613 0 0.41075325489251768 -0.38592676112580948 0 0.40124512744111018 -0.37763097726200962 0 0.41075325489251768 -0.38592676112580948 0 0.40124512744111018 -0.37763097726200962 0 0.39360278721834568 -0.38938010938552281 0 0.38985283232992851 -0.37406313562868282 0 0.40124512744111018 -0.37763097726200962 0 0.39360278721834568 -0.38938010938552281 0 0.38985283232992851 -0.37406313562868282 0 0.39360278721834568 -0.38938010938552281 0 0.38218940135637458 -0.38225584858690898 0 0.38234539386482602 -0.37161595648371382 0 0.38985283232992851 -0.37406313562868282 0 0.38218940135637458 -0.38225584858690898 0 0.39360278721834568 -0.38938010938552281 0 0.38218940135637458 -0.38225584858690898 0 0.37906721098711121 -0.3964361635524748 0 0.38218940135637458 -0.38225584858690898 0 0.37906721098711121 -0.3964361635524748 0 0.3725893756201073 -0.38617657497850821 0 0.38234539386482602 -0.37161595648371382 0 0.38218940135637458 -0.38225584858690898 0 0.37575133369273522 -0.37683273687038998 0 0.38218940135637458 -0.38225584858690898 0 0.37575133369273522 -0.37683273687038998 0 0.3725893756201073 -0.38617657497850821 0 0.39360278721834568 -0.38938010938552281 0 0.37906721098711121 -0.3964361635524748 0 0.3900357593394973 -0.40699930696122733 0 0.41075325489251768 -0.38592676112580948 0 0.39360278721834568 -0.38938010938552281 0 0.40568277507322142 -0.39964786269385899 0 0.39360278721834568 -0.38938010938552281 0 0.40568277507322142 -0.39964786269385899 0 0.3900357593394973 -0.40699930696122733 0 0.40568277507322142 -0.39964786269385899 0 0.3900357593394973 -0.40699930696122733 0 0.41163231675739781 -0.41264943712748731 0 0.3900357593394973 -0.40699930696122733 0 0.39413163883159802 -0.4243586204458879 0 0.41163231675739781 -0.41264943712748731 0 0.3900357593394973 -0.40699930696122733 0 0.37646336504577682 -0.42153134523602548 0 0.39413163883159802 -0.4243586204458879 0 0.37906721098711121 -0.3964361635524748 0 0.3900357593394973 -0.40699930696122733 0 0.37646336504577682 -0.42153134523602548 0 0.37646336504577682 -0.42153134523602548 0 0.39104169031469749 -0.44404943858412138 0 0.37646336504577682 -0.42153134523602548 0 0.39104169031469749 -0.44404943858412138 0 0.37913814977281651 -0.44555452444289911 0 0.37646336504577682 -0.42153134523602548 0 0.39413163883159802 -0.4243586204458879 0 0.39104169031469749 -0.44404943858412138 0 0.39413163883159802 -0.4243586204458879 0 0.40733151899913428 -0.43273780035506149 0 0.39104169031469749 -0.44404943858412138 0 0.39413163883159802 -0.4243586204458879 0 0.40733151899913428 -0.43273780035506149 0 0.41163231675739781 -0.41264943712748731 0 0.45259826140332188 -0.43079312136857728 0 0.42869180294811271 -0.40013368697946761 0 0.42897018255051689 -0.43395192390841392 0 0.40733151899913428 -0.43273780035506149 0 0.41163231675739781 -0.41264943712748731 0 0.42897018255051689 -0.43395192390841392 0 0.41163231675739781 -0.41264943712748731 0 0.42897018255051689 -0.43395192390841392 0 0.42869180294811271 -0.40013368697946761 0 0.41163231675739781 -0.41264943712748731 0 0.42897018255051689 -0.43395192390841392 0 0.37523851177864098 -0.47371754287909079 0 0.41109778695890131 -0.5 0 0.34408812366205549 -0.5 0 0.44630804834363602 -0.45525441068934031 0 0.42897018255051689 -0.43395192390841392 0 0.42775395235248143 -0.46350172428493908 0 0.42897018255051689 -0.43395192390841392 0 0.42775395235248143 -0.46350172428493908 0 0.41088176654146119 -0.4486795817093967 0 0.42775395235248143 -0.46350172428493908 0 0.41088176654146119 -0.4486795817093967 0 0.40562001558361821 -0.46656753193221728 0 0.40733151899913428 -0.43273780035506149 0 0.42897018255051689 -0.43395192390841392 0 0.41088176654146119 -0.4486795817093967 0 0.41088176654146119 -0.4486795817093967 0 0.39104169031469749 -0.44404943858412138 0 0.40562001558361821 -0.46656753193221728 0 0.40733151899913428 -0.43273780035506149 0 0.41088176654146119 -0.4486795817093967 0 0.39104169031469749 -0.44404943858412138 0 0.39104169031469749 -0.44404943858412138 0 0.37913814977281651 -0.44555452444289911 0 0.39980292491970371 -0.46415472457675411 0 0.37913814977281651 -0.44555452444289911 0 0.39980292491970371 -0.46415472457675411 0 0.38082278545624881 -0.46020279151301519 0 0.39980292491970371 -0.46415472457675411 0 0.37523851177864098 -0.47371754287909079 0 0.37913814977281651 -0.44555452444289911 0 0.38082278545624881 -0.46020279151301519 0 0.39980292491970371 -0.46415472457675411 0 0.38082278545624881 -0.46020279151301519 0 0.37523851177864098 -0.47371754287909079 0 0.369111555353834 -0.45738437415331701 0 0.37913814977281651 -0.44555452444289911 0 0.38082278545624881 -0.46020279151301519 0 0.369111555353834 -0.45738437415331701 0 0.39104169031469749 -0.44404943858412138 0 0.40562001558361821 -0.46656753193221728 0 0.39104169031469749 -0.44404943858412138 0 0.39980292491970371 -0.46415472457675411 0 0.40562001558361821 -0.46656753193221728 0 0.39980292491970371 -0.46415472457675411 0 0.37523851177864098 -0.47371754287909079 0 0.41109778695890131 -0.5 0 0.39980292491970371 -0.46415472457675411 0 0.40562001558361821 -0.46656753193221728 0 0.41109778695890131 -0.5 0 0.42775395235248143 -0.46350172428493908 0 0.40562001558361821 -0.46656753193221728 0 0.41109778695890131 -0.5 0 0.4636459141367551 -0.4765568974702668 0 0.42775395235248143 -0.46350172428493908 0 0.41109778695890131 -0.5 0 0.31868831182379492 -0.47460448765723601 0 0.34408812366205549 -0.5 0 0.34725270303591199 -0.46165050048431538 0 0.31868831182379492 -0.47460448765723601 0 0.34408812366205549 -0.5 0 0.29358541846982961 -0.5 0 0.37523851177864098 -0.47371754287909079 0 0.34408812366205549 -0.5 0 0.34725270303591199 -0.46165050048431538 0 0.34725270303591199 -0.46165050048431538 0 0.369111555353834 -0.45738437415331701 0 0.35895718600688548 -0.44614595515701388 0 0.37523851177864098 -0.47371754287909079 0 0.34725270303591199 -0.46165050048431538 0 0.369111555353834 -0.45738437415331701 0 0.37913814977281651 -0.44555452444289911 0 0.369111555353834 -0.45738437415331701 0 0.35895718600688548 -0.44614595515701388 0 0.37913814977281651 -0.44555452444289911 0 0.35895718600688548 -0.44614595515701388 0 0.35847337462592921 -0.42695432430904412 0 0.35895718600688548 -0.44614595515701388 0 0.34214415181649999 -0.44039282659351159 0 0.35847337462592921 -0.42695432430904412 0 0.34725270303591199 -0.46165050048431538 0 0.35895718600688548 -0.44614595515701388 0 0.34214415181649999 -0.44039282659351159 0 0.34725270303591199 -0.46165050048431538 0 0.34214415181649999 -0.44039282659351159 0 0.31983498040145031 -0.44649870074235598 0 0.31868831182379492 -0.47460448765723601 0 0.34725270303591199 -0.46165050048431538 0 0.31983498040145031 -0.44649870074235598 0 0.31983498040145031 -0.44649870074235598 0 0.32870697664902088 -0.42422763619409409 0 0.31076565243682508 -0.42931543849232362 0 0.32870697664902088 -0.42422763619409409 0 0.31118591922025568 -0.41568402757079898 0 0.31076565243682508 -0.42931543849232362 0 0.32870697664902088 -0.42422763619409409 0 0.3216375343900556 -0.40619296884350792 0 0.31118591922025568 -0.41568402757079898 0 0.3216375343900556 -0.40619296884350792 0 0.31184844400754602 -0.40115600451131522 0 0.31118591922025568 -0.41568402757079898 0 0.33780859947904202 -0.40835412417518901 0 0.32870697664902088 -0.42422763619409409 0 0.3216375343900556 -0.40619296884350792 0 0.33780859947904202 -0.40835412417518901 0 0.32870697664902088 -0.42422763619409409 0 0.35847337462592921 -0.42695432430904412 0 0.34214415181649999 -0.44039282659351159 0 0.32870697664902088 -0.42422763619409409 0 0.35847337462592921 -0.42695432430904412 0 0.34214415181649999 -0.44039282659351159 0 0.31983498040145031 -0.44649870074235598 0 0.32870697664902088 -0.42422763619409409 0 0.37913814977281651 -0.44555452444289911 0 0.35847337462592921 -0.42695432430904412 0 0.37646336504577682 -0.42153134523602548 0 0.37913814977281651 -0.44555452444289911 0 0.35847337462592921 -0.42695432430904412 0 0.37646336504577682 -0.42153134523602548 0 0.35847337462592921 -0.42695432430904412 0 0.36188503977685621 -0.39901325188792969 0 0.37646336504577682 -0.42153134523602548 0 0.36188503977685621 -0.39901325188792969 0 0.33780859947904202 -0.40835412417518901 0 0.35847337462592921 -0.42695432430904412 0 0.33780859947904202 -0.40835412417518901 0 0.35847337462592921 -0.42695432430904412 0 0.36188503977685621 -0.39901325188792969 0 0.36188503977685621 -0.39901325188792969 0 0.35168057921699658 -0.38637396419872228 0 0.34225243093622848 -0.39372756618582022 0 0.33780859947904202 -0.40835412417518901 0 0.36188503977685621 -0.39901325188792969 0 0.34225243093622848 -0.39372756618582022 0 0.37906721098711121 -0.3964361635524748 0 0.36188503977685621 -0.39901325188792969 0 0.3725893756201073 -0.38617657497850821 0 0.37906721098711121 -0.3964361635524748 0 0.37646336504577682 -0.42153134523602548 0 0.36188503977685621 -0.39901325188792969 0 0.36188503977685621 -0.39901325188792969 0 0.3725893756201073 -0.38617657497850821 0 0.36550550193374109 -0.37967124366964988 0 0.36188503977685621 -0.39901325188792969 0 0.36550550193374109 -0.37967124366964988 0 0.35168057921699658 -0.38637396419872228 0 0.37575133369273522 -0.37683273687038998 0 0.3725893756201073 -0.38617657497850821 0 0.36550550193374109 -0.37967124366964988 0 0.36550550193374109 -0.37967124366964988 0 0.35168057921699658 -0.38637396419872228 0 0.35670474165818711 -0.37413374501353031 0 0.33692428299517091 -0.38194383452743141 0 0.35670474165818711 -0.37413374501353031 0 0.35168057921699658 -0.38637396419872228 0 0.33692428299517091 -0.38194383452743141 0 0.35670474165818711 -0.37413374501353031 0 0.33692428299517091 -0.38194383452743141 0 0.3497455307085422 -0.37116936227286262 0 0.35670474165818711 -0.37413374501353031 0 0.33692428299517091 -0.38194383452743141 0 0.32451589477235632 -0.3805039270611319 0 0.3497455307085422 -0.37116936227286262 0 0.33692428299517091 -0.38194383452743141 0 0.33353228443564897 -0.39344486223244318 0 0.3171438243321551 -0.38975392404133369 0 0.32451589477235632 -0.3805039270611319 0 0.3497455307085422 -0.37116936227286262 0 0.33692428299517091 -0.38194383452743141 0 0.34225243093622848 -0.39372756618582022 0 0.33353228443564897 -0.39344486223244318 0 0.35168057921699658 -0.38637396419872228 0 0.33692428299517091 -0.38194383452743141 0 0.34225243093622848 -0.39372756618582022 0 0.33780859947904202 -0.40835412417518901 0 0.33353228443564897 -0.39344486223244318 0 0.3171438243321551 -0.38975392404133369 0 0.33780859947904202 -0.40835412417518901 0 0.34225243093622848 -0.39372756618582022 0 0.33353228443564897 -0.39344486223244318 0 0.3216375343900556 -0.40619296884350792 0 0.3171438243321551 -0.38975392404133369 0 0.31184844400754602 -0.40115600451131522 0 0.33780859947904202 -0.40835412417518901 0 0.3171438243321551 -0.38975392404133369 0 0.33780859947904202 -0.40835412417518901 0 0.3216375343900556 -0.40619296884350792 0 0.3171438243321551 -0.38975392404133369 0 0.31473524050889778 -0.39070492601665763 0 0.3171438243321551 -0.38975392404133369 0 0.31184844400754602 -0.40115600451131522 0 0.3171438243321551 -0.38975392404133369 0 0.32451589477235632 -0.3805039270611319 0 0.31200834663845739 -0.38513152131946871 0 0.32451589477235632 -0.3805039270611319 0 0.31200834663845739 -0.38513152131946871 0 0.31473524050889778 -0.39070492601665763 0 0.3171438243321551 -0.38975392404133369 0 0.31200834663845739 -0.38513152131946871 0 0.33692428299517091 -0.38194383452743141 0 0.3171438243321551 -0.38975392404133369 0 0.32451589477235632 -0.3805039270611319 0 0.3171438243321551 -0.38975392404133369 0 0.31200834663845739 -0.38513152131946871 0 0.33692428299517091 -0.38194383452743141 0 0.3171438243321551 -0.38975392404133369 0 0.31473524050889778 -0.39070492601665763 0 0.3171438243321551 -0.38975392404133369 0 0.31733818943790881 -0.37790850518960978 0 0.31081738867531422 -0.37608488326482409 0 0.31200834663845739 -0.38513152131946871 0 0.31733818943790881 -0.37790850518960978 0 0.32451589477235632 -0.3805039270611319 0 0.31200834663845739 -0.38513152131946871 0 0.31733818943790881 -0.37790850518960978 0 0.31081738867531422 -0.37608488326482409 0 0.31651823040137472 -0.37104163235717103 0 0.31733818943790881 -0.37790850518960978 0 0.32451589477235632 -0.3805039270611319 0 0.32656154733158371 -0.36914920215321162 0 0.3171438243321551 -0.38975392404133369 0 0.32451589477235632 -0.3805039270611319 0 0.30074944021728928 -0.38929713796567278 0 0.30087887191891721 -0.38237028820663072 0 0.31200834663845739 -0.38513152131946871 0 0.30074944021728928 -0.38929713796567278 0 0.30087887191891721 -0.38237028820663072 0 0.29272165566417968 -0.38148077414825782 0 0.30074944021728928 -0.38929713796567278 0 0.30724237529501802 -0.39070686845439251 0 0.30074944021728928 -0.38929713796567278 0 0.29731078109748571 -0.39056938725297102 0 0.30125491439284202 -0.37545244228412589 0 0.30087887191891721 -0.38237028820663072 0 0.29468253797650962 -0.37505353359411409 0 0.30125491439284202 -0.37545244228412589 0 0.31200834663845739 -0.38513152131946871 0 0.30125491439284202 -0.37545244228412589 0 0.31081738867531422 -0.37608488326482409 0 0.31200834663845739 -0.38513152131946871 0 0.30125491439284202 -0.37545244228412589 0 0.30087887191891721 -0.38237028820663072 0 0.31200834663845739 -0.38513152131946871 0 0.30074944021728928 -0.38929713796567278 0 0.31200834663845739 -0.38513152131946871 0 0.30724237529501802 -0.39070686845439251 0 0.30074944021728928 -0.38929713796567278 0 0.31200834663845739 -0.38513152131946871 0 0.31473524050889778 -0.39070492601665763 0 0.31200834663845739 -0.38513152131946871 0 0.30724237529501802 -0.39070686845439251 0 0.31473524050889778 -0.39070492601665763 0 0.30281862903424178 -0.39541006475509671 0 0.29727024040171812 -0.40892052213655988 0 0.31473524050889778 -0.39070492601665763 0 0.30281862903424178 -0.39541006475509671 0 0.31473524050889778 -0.39070492601665763 0 0.29727024040171812 -0.40892052213655988 0 0.31473524050889778 -0.39070492601665763 0 0.30724237529501802 -0.39070686845439251 0 0.30281862903424178 -0.39541006475509671 0 0.31473524050889778 -0.39070492601665763 0 0.31184844400754602 -0.40115600451131522 0 0.29727024040171812 -0.40892052213655988 0 0.30281862903424178 -0.39541006475509671 0 0.29430326242677091 -0.39954524430462851 0 0.29727024040171812 -0.40892052213655988 0 0.30281862903424178 -0.39541006475509671 0 0.29597039466305758 -0.39461290342059629 0 0.29430326242677091 -0.39954524430462851 0 0.30074944021728928 -0.38929713796567278 0 0.30724237529501802 -0.39070686845439251 0 0.30281862903424178 -0.39541006475509671 0 0.30074944021728928 -0.38929713796567278 0 0.29731078109748571 -0.39056938725297102 0 0.30281862903424178 -0.39541006475509671 0 0.29731078109748571 -0.39056938725297102 0 0.30281862903424178 -0.39541006475509671 0 0.29597039466305758 -0.39461290342059629 0 0.29731078109748571 -0.39056938725297102 0 0.29597039466305758 -0.39461290342059629 0 0.28944890609373197 -0.39292691736968888 0 0.28944890609373197 -0.39292691736968888 0 0.29430326242677091 -0.39954524430462851 0 0.28483851071920502 -0.39971744616474059 0 0.29597039466305758 -0.39461290342059629 0 0.28944890609373197 -0.39292691736968888 0 0.29430326242677091 -0.39954524430462851 0 0.29430326242677091 -0.39954524430462851 0 0.28483851071920502 -0.39971744616474059 0 0.29727024040171812 -0.40892052213655988 0 0.28944890609373197 -0.39292691736968888 0 0.28483851071920502 -0.39971744616474059 0 0.28044175211659811 -0.38488798143965519 0 0.30074944021728928 -0.38929713796567278 0 0.29731078109748571 -0.39056938725297102 0 0.28044175211659811 -0.38488798143965519 0 0.30074944021728928 -0.38929713796567278 0 0.28044175211659811 -0.38488798143965519 0 0.30074944021728928 -0.38929713796567278 0 0.29272165566417968 -0.38148077414825782 0 0.28044175211659811 -0.38488798143965519 0 0.29731078109748571 -0.39056938725297102 0 0.28944890609373197 -0.39292691736968888 0 0.28044175211659811 -0.38488798143965519 0 0.30087887191891721 -0.38237028820663072 0 0.29468253797650962 -0.37505353359411409 0 0.29272165566417968 -0.38148077414825782 0 0.29468253797650962 -0.37505353359411409 0 0.29272165566417968 -0.38148077414825782 0 0.28712009536255512 -0.37555389988898102 0 0.29272165566417968 -0.38148077414825782 0 0.28712009536255512 -0.37555389988898102 0 0.28044175211659811 -0.38488798143965519 0 0.28712009536255512 -0.37555389988898102 0 0.28044175211659811 -0.38488798143965519 0 0.28062042269181919 -0.37395588221133558 0 0.28044175211659811 -0.38488798143965519 0 0.26013406401590672 -0.38047882491363849 0 0.26624182353569531 -0.37453487882786929 0 0.28044175211659811 -0.38488798143965519 0 0.26013406401590672 -0.38047882491363849 0 0.28044175211659811 -0.38488798143965519 0 0.26759888073157778 -0.38965162053523827 0 0.26013406401590672 -0.38047882491363849 0 0.28044175211659811 -0.38488798143965519 0 0.27302933098373239 -0.3720445187767164 0 0.28062042269181919 -0.37395588221133558 0 0.28044175211659811 -0.38488798143965519 0 0.26624182353569531 -0.37453487882786929 0 0.27302933098373239 -0.3720445187767164 0 0.26013406401590672 -0.38047882491363849 0 0.25831589449737669 -0.38339136364634541 0 0.23982637591521519 -0.37606966838762163 0 0.26013406401590672 -0.38047882491363849 0 0.25375531452165939 -0.37623440762837412 0 0.23982637591521519 -0.37606966838762163 0 0.25831589449737669 -0.38339136364634541 0 0.25262985795907278 -0.38262555595729458 0 0.23982637591521519 -0.37606966838762163 0 0.26039509775932151 -0.37535611644817157 0 0.26013406401590672 -0.38047882491363849 0 0.26624182353569531 -0.37453487882786929 0 0.26039509775932151 -0.37535611644817157 0 0.26013406401590672 -0.38047882491363849 0 0.25375531452165939 -0.37623440762837412 0 0.26759888073157778 -0.38965162053523827 0 0.25262985795907278 -0.38262555595729458 0 0.26759888073157778 -0.38965162053523827 0 0.26013406401590672 -0.38047882491363849 0 0.25831589449737669 -0.38339136364634541 0 0.26759888073157778 -0.38965162053523827 0 0.25262985795907278 -0.38262555595729458 0 0.25527927598515687 -0.39257823752362669 0 0.26759888073157778 -0.38965162053523827 0 0.25831589449737669 -0.38339136364634541 0 0.25262985795907278 -0.38262555595729458 0 0.25262985795907278 -0.38262555595729458 0 0.25527927598515687 -0.39257823752362669 0 0.24797184102598641 -0.38734771304747279 0 0.25191562489914582 -0.403836855131881 0 0.26357342846648779 -0.39829469068007012 0 0.26883282526468583 -0.40733423329173191 0 0.25191562489914582 -0.403836855131881 0 0.25527927598515687 -0.39257823752362669 0 0.26357342846648779 -0.39829469068007012 0 0.25191562489914582 -0.403836855131881 0 0.25527927598515687 -0.39257823752362669 0 0.24749080516554131 -0.39358411427499751 0 0.25527927598515687 -0.39257823752362669 0 0.24749080516554131 -0.39358411427499751 0 0.24797184102598641 -0.38734771304747279 0 0.26759888073157778 -0.38965162053523827 0 0.25527927598515687 -0.39257823752362669 0 0.26357342846648779 -0.39829469068007012 0 0.26357342846648779 -0.39829469068007012 0 0.27424053545187299 -0.39807250691787238 0 0.26883282526468583 -0.40733423329173191 0 0.26759888073157778 -0.38965162053523827 0 0.26357342846648779 -0.39829469068007012 0 0.27424053545187299 -0.39807250691787238 0 0.28044175211659811 -0.38488798143965519 0 0.26759888073157778 -0.38965162053523827 0 0.27424053545187299 -0.39807250691787238 0 0.28483851071920502 -0.39971744616474059 0 0.28044175211659811 -0.38488798143965519 0 0.27424053545187299 -0.39807250691787238 0 0.27424053545187299 -0.39807250691787238 0 0.26883282526468583 -0.40733423329173191 0 0.28134935645493048 -0.41196038256586631 0 0.28483851071920502 -0.39971744616474059 0 0.27424053545187299 -0.39807250691787238 0 0.28134935645493048 -0.41196038256586631 0 0.26883282526468583 -0.40733423329173191 0 0.27980524029453868 -0.42713611825646253 0 0.28134935645493048 -0.41196038256586631 0 0.26883282526468583 -0.40733423329173191 0 0.25879287694914321 -0.41560606491866858 0 0.27980524029453868 -0.42713611825646253 0 0.25191562489914582 -0.403836855131881 0 0.26883282526468583 -0.40733423329173191 0 0.25879287694914321 -0.41560606491866858 0 0.25879287694914321 -0.41560606491866858 0 0.25604227931608808 -0.42832054380316031 0 0.24595077245144839 -0.41665411901766092 0 0.25191562489914582 -0.403836855131881 0 0.25879287694914321 -0.41560606491866858 0 0.24595077245144839 -0.41665411901766092 0 0.25879287694914321 -0.41560606491866858 0 0.25604227931608808 -0.42832054380316031 0 0.27980524029453868 -0.42713611825646253 0 0.25604227931608808 -0.42832054380316031 0 0.27980524029453868 -0.42713611825646253 0 0.26568370113119583 -0.44669878343255831 0 0.27980524029453868 -0.42713611825646253 0 0.29688666743636921 -0.42429159524699372 0 0.29687926099881168 -0.43966745170869109 0 0.27980524029453868 -0.42713611825646253 0 0.29727024040171812 -0.40892052213655988 0 0.29688666743636921 -0.42429159524699372 0 0.27980524029453868 -0.42713611825646253 0 0.28134935645493048 -0.41196038256586631 0 0.29727024040171812 -0.40892052213655988 0 0.28483851071920502 -0.39971744616474059 0 0.28134935645493048 -0.41196038256586631 0 0.29727024040171812 -0.40892052213655988 0 0.27980524029453868 -0.42713611825646253 0 0.29727024040171812 -0.40892052213655988 0 0.29727024040171812 -0.40892052213655988 0 0.31118591922025568 -0.41568402757079898 0 0.29688666743636921 -0.42429159524699372 0 0.31184844400754602 -0.40115600451131522 0 0.29727024040171812 -0.40892052213655988 0 0.31118591922025568 -0.41568402757079898 0 0.31118591922025568 -0.41568402757079898 0 0.31076565243682508 -0.42931543849232362 0 0.29688666743636921 -0.42429159524699372 0 0.31076565243682508 -0.42931543849232362 0 0.29688666743636921 -0.42429159524699372 0 0.29687926099881168 -0.43966745170869109 0 0.26435448448350718 -0.4787772290542629 0 0.29358541846982961 -0.5 0 0.2268251930842379 -0.49999999999999889 0 0.31983498040145031 -0.44649870074235598 0 0.29687926099881168 -0.43966745170869109 0 0.28868033354972678 -0.46487323705950839 0 0.31983498040145031 -0.44649870074235598 0 0.31076565243682508 -0.42931543849232362 0 0.29687926099881168 -0.43966745170869109 0 0.31868831182379492 -0.47460448765723601 0 0.31983498040145031 -0.44649870074235598 0 0.28868033354972678 -0.46487323705950839 0 0.29687926099881168 -0.43966745170869109 0 0.28868033354972678 -0.46487323705950839 0 0.26568370113119583 -0.44669878343255831 0 0.27980524029453868 -0.42713611825646253 0 0.29687926099881168 -0.43966745170869109 0 0.26568370113119583 -0.44669878343255831 0 0.26568370113119583 -0.44669878343255831 0 0.2461781339165178 -0.45593835348483308 0 0.23968257135213941 -0.44784739402877238 0 0.25604227931608808 -0.42832054380316031 0 0.26568370113119583 -0.44669878343255831 0 0.23968257135213941 -0.44784739402877238 0 0.26568370113119583 -0.44669878343255831 0 0.23968257135213941 -0.44784739402877238 0 0.26568370113119583 -0.44669878343255831 0 0.26274331173437537 -0.46330535361607011 0 0.2461781339165178 -0.45593835348483308 0 0.26274331173437537 -0.46330535361607011 0 0.25066913662040152 -0.46960567687327343 0 0.2461781339165178 -0.45593835348483308 0 0.28868033354972678 -0.46487323705950839 0 0.26568370113119583 -0.44669878343255831 0 0.26274331173437537 -0.46330535361607011 0 0.28868033354972678 -0.46487323705950839 0 0.26274331173437537 -0.46330535361607011 0 0.26435448448350718 -0.4787772290542629 0 0.26435448448350718 -0.4787772290542629 0 0.25066913662040152 -0.46960567687327343 0 0.2365016635003776 -0.4779691767424159 0 0.26274331173437537 -0.46330535361607011 0 0.26435448448350718 -0.4787772290542629 0 0.25066913662040152 -0.46960567687327343 0 0.31868831182379492 -0.47460448765723601 0 0.28868033354972678 -0.46487323705950839 0 0.29358541846982961 -0.5 0 0.28868033354972678 -0.46487323705950839 0 0.26435448448350718 -0.4787772290542629 0 0.29358541846982961 -0.5 0 0.33080434841695783 -0.29074829287130521 0 0.32965780542240031 -0.27691611536811839 0 0.34653660693114219 -0.28206710405808127 0 0.33080434841695783 -0.29074829287130521 0 0.34048218640109079 -0.29769810510013028 0 0.34653660693114219 -0.28206710405808127 0 0.33080434841695783 -0.29074829287130521 0 0.34048218640109079 -0.29769810510013028 0 0.32882547648512522 -0.30000389176608211 0 0.34048218640109079 -0.29769810510013028 0 0.33873551144038527 -0.31192472829795859 0 0.32882547648512522 -0.30000389176608211 0 0.33873551144038527 -0.31192472829795859 0 0.31462670788880859 -0.30514034638872811 0 0.32882547648512522 -0.30000389176608211 0 0.31462670788880859 -0.30514034638872811 0 0.31947862827838341 -0.29450798617228829 0 0.31462670788880859 -0.30514034638872811 0 0.32356643349366909 -0.315722087904166 0 0.30768770755148411 -0.31625887968496008 0 0.33873551144038527 -0.31192472829795859 0 0.32882547648512522 -0.30000389176608211 0 0.31462670788880859 -0.30514034638872811 0 0.33873551144038527 -0.31192472829795859 0 0.31462670788880859 -0.30514034638872811 0 0.32356643349366909 -0.315722087904166 0 0.31462670788880859 -0.30514034638872811 0 0.31947862827838341 -0.29450798617228829 0 0.3091931624115945 -0.29635899131314541 0 0.31947862827838341 -0.29450798617228829 0 0.30977078155910132 -0.2883419886758033 0 0.3091931624115945 -0.29635899131314541 0 0.33080434841695783 -0.29074829287130521 0 0.32882547648512522 -0.30000389176608211 0 0.31947862827838341 -0.29450798617228829 0 0.33080434841695783 -0.29074829287130521 0 0.31947862827838341 -0.29450798617228829 0 0.3197131959765161 -0.28239582380179301 0 0.33080434841695783 -0.29074829287130521 0 0.3197131959765161 -0.28239582380179301 0 0.32965780542240031 -0.27691611536811839 0 0.31947862827838341 -0.29450798617228829 0 0.3197131959765161 -0.28239582380179301 0 0.30977078155910132 -0.2883419886758033 0 0.31509102578424852 -0.27192589933182021 0 0.32132836083141447 -0.25869816695462983 0 0.32965780542240031 -0.27691611536811839 0 0.3197131959765161 -0.28239582380179301 0 0.31509102578424852 -0.27192589933182021 0 0.30470102983776048 -0.27729653019685002 0 0.3197131959765161 -0.28239582380179301 0 0.31509102578424852 -0.27192589933182021 0 0.32965780542240031 -0.27691611536811839 0 0.31509102578424852 -0.27192589933182021 0 0.32132836083141447 -0.25869816695462983 0 0.30142790699742789 -0.26480033043832729 0 0.33084431285168597 -0.2421128803149821 0 0.32132836083141447 -0.25869816695462983 0 0.33552640377636223 -0.26286363857661149 0 0.34511110575225162 -0.2497895771887422 0 0.33552640377636223 -0.26286363857661149 0 0.34987549789431899 -0.26546285629266247 0 0.33084431285168597 -0.2421128803149821 0 0.34511110575225162 -0.2497895771887422 0 0.33552640377636223 -0.26286363857661149 0 0.33552640377636223 -0.26286363857661149 0 0.32965780542240031 -0.27691611536811839 0 0.34653660693114219 -0.28206710405808127 0 0.32132836083141447 -0.25869816695462983 0 0.33552640377636223 -0.26286363857661149 0 0.32965780542240031 -0.27691611536811839 0 0.33552640377636223 -0.26286363857661149 0 0.34987549789431899 -0.26546285629266247 0 0.34653660693114219 -0.28206710405808127 0 0.34987549789431899 -0.26546285629266247 0 0.36329898133796179 -0.27118029427363299 0 0.34653660693114219 -0.28206710405808127 0 0.34511110575225162 -0.2497895771887422 0 0.34987549789431899 -0.26546285629266247 0 0.35999001524652302 -0.25407051354681798 0 0.34987549789431899 -0.26546285629266247 0 0.35999001524652302 -0.25407051354681798 0 0.36329898133796179 -0.27118029427363299 0 0.37599739442549401 -0.25413598833060908 0 0.35999001524652302 -0.25407051354681798 0 0.36329898133796179 -0.27118029427363299 0 0.37988327898556268 -0.28017831707622581 0 0.36329898133796179 -0.27118029427363299 0 0.36659040915697022 -0.29146125278917062 0 0.37988327898556268 -0.28017831707622581 0 0.37599739442549401 -0.25413598833060908 0 0.36329898133796179 -0.27118029427363299 0 0.36659040915697022 -0.29146125278917062 0 0.34653660693114219 -0.28206710405808127 0 0.35250551392271168 -0.29832796041331611 0 0.34048218640109079 -0.29769810510013028 0 0.34653660693114219 -0.28206710405808127 0 0.35250551392271168 -0.29832796041331611 0 0.36329898133796179 -0.27118029427363299 0 0.36659040915697022 -0.29146125278917062 0 0.34653660693114219 -0.28206710405808127 0 0.33873551144038527 -0.31192472829795859 0 0.36089048936834089 -0.30627297123289249 0 0.3628443149919619 -0.31870911020718928 0 0.33873551144038527 -0.31192472829795859 0 0.35250551392271168 -0.29832796041331611 0 0.36089048936834089 -0.30627297123289249 0 0.34048218640109079 -0.29769810510013028 0 0.33873551144038527 -0.31192472829795859 0 0.35250551392271168 -0.29832796041331611 0 0.36089048936834089 -0.30627297123289249 0 0.3740360814172552 -0.30482459059460548 0 0.3628443149919619 -0.31870911020718928 0 0.36659040915697022 -0.29146125278917062 0 0.36089048936834089 -0.30627297123289249 0 0.3740360814172552 -0.30482459059460548 0 0.36659040915697022 -0.29146125278917062 0 0.35250551392271168 -0.29832796041331611 0 0.36089048936834089 -0.30627297123289249 0 0.3822115312300981 -0.32415917707579478 0 0.3628443149919619 -0.31870911020718928 0 0.37056996727289587 -0.32839188471441277 0 0.3822115312300981 -0.32415917707579478 0 0.3628443149919619 -0.31870911020718928 0 0.3628443149919619 -0.31870911020718928 0 0.37056996727289587 -0.32839188471441277 0 0.36117448259664181 -0.33019331593686058 0 0.37056996727289587 -0.32839188471441277 0 0.37348363934412848 -0.34063857354721577 0 0.36117448259664181 -0.33019331593686058 0 0.37348363934412848 -0.34063857354721577 0 0.36117448259664181 -0.33019331593686058 0 0.35555444199428993 -0.34179213160359412 0 0.36117448259664181 -0.33019331593686058 0 0.35555444199428993 -0.34179213160359412 0 0.34920381617543628 -0.32189932771988228 0 0.35555444199428993 -0.34179213160359412 0 0.34920381617543628 -0.32189932771988228 0 0.33162107477288688 -0.32902550564427702 0 0.33873551144038527 -0.31192472829795859 0 0.3628443149919619 -0.31870911020718928 0 0.33873551144038527 -0.31192472829795859 0 0.3628443149919619 -0.31870911020718928 0 0.34920381617543628 -0.32189932771988228 0 0.3628443149919619 -0.31870911020718928 0 0.34920381617543628 -0.32189932771988228 0 0.3628443149919619 -0.31870911020718928 0 0.36117448259664181 -0.33019331593686058 0 0.34920381617543628 -0.32189932771988228 0 0.37648520032120342 -0.3663236554996292 0 0.35670474165818711 -0.37413374501353031 0 0.3749751666447283 -0.36183479748459391 0 0.3497455307085422 -0.37116936227286262 0 0.3749751666447283 -0.36183479748459391 0 0.3497455307085422 -0.37116936227286262 0 0.35670474165818711 -0.37413374501353031 0 0.3749751666447283 -0.36183479748459391 0 0.36105171601068331 -0.36232965853858817 0 0.3497455307085422 -0.37116936227286262 0 0.37648520032120342 -0.3663236554996292 0 0.3749751666447283 -0.36183479748459391 0 0.35670474165818711 -0.37413374501353031 0 0.37648520032120342 -0.3663236554996292 0 0.36550550193374109 -0.37967124366964988 0 0.35670474165818711 -0.37413374501353031 0 0.37648520032120342 -0.3663236554996292 0 0.37575133369273522 -0.37683273687038998 0 0.36550550193374109 -0.37967124366964988 0 0.3749751666447283 -0.36183479748459391 0 0.36105171601068331 -0.36232965853858817 0 0.36704415181528538 -0.35766707909708162 0 0.37348363934412848 -0.34063857354721577 0 0.36403277299619102 -0.34988609376421143 0 0.34822379045186957 -0.34941274506706399 0 0.37348363934412848 -0.34063857354721577 0 0.34822379045186957 -0.34941274506706399 0 0.36105171601068331 -0.36232965853858817 0 0.36218961946005129 -0.35741102277749331 0 0.35672374461363249 -0.35708525648515582 0 0.36218961946005129 -0.35741102277749331 0 0.36403277299619102 -0.34988609376421143 0 0.35672374461363249 -0.35708525648515582 0 0.36218961946005129 -0.35741102277749331 0 0.36704415181528538 -0.35766707909708162 0 0.36403277299619102 -0.34988609376421143 0 0.36105171601068331 -0.36232965853858817 0 0.36218961946005129 -0.35741102277749331 0 0.36704415181528538 -0.35766707909708162 0 0.3749751666447283 -0.36183479748459391 0 0.36704415181528538 -0.35766707909708162 0 0.37243122142124518 -0.35615963110985549 0 0.37243122142124518 -0.35615963110985549 0 0.3744951480075942 -0.35066427621442442 0 0.36403277299619102 -0.34988609376421143 0 0.36704415181528538 -0.35766707909708162 0 0.37243122142124518 -0.35615963110985549 0 0.36403277299619102 -0.34988609376421143 0 0.37348363934412848 -0.34063857354721577 0 0.3744951480075942 -0.35066427621442442 0 0.36403277299619102 -0.34988609376421143 0 0.37348363934412848 -0.34063857354721577 0 0.35555444199428993 -0.34179213160359412 0 0.34822379045186957 -0.34941274506706399 0 0.35555444199428993 -0.34179213160359412 0 0.34822379045186957 -0.34941274506706399 0 0.33532521964461848 -0.34424399163981551 0 0.36403277299619102 -0.34988609376421143 0 0.34822379045186957 -0.34941274506706399 0 0.35112450151104518 -0.35275175811233189 0 0.34822379045186957 -0.34941274506706399 0 0.35112450151104518 -0.35275175811233189 0 0.33782019814170111 -0.3666278425867322 0 0.36403277299619102 -0.34988609376421143 0 0.35112450151104518 -0.35275175811233189 0 0.35672374461363249 -0.35708525648515582 0 0.35112450151104518 -0.35275175811233189 0 0.35672374461363249 -0.35708525648515582 0 0.35072776353668861 -0.35960044939757441 0 0.36105171601068331 -0.36232965853858817 0 0.35344819685459278 -0.36288375508335119 0 0.3497455307085422 -0.37116936227286262 0 0.36105171601068331 -0.36232965853858817 0 0.35672374461363249 -0.35708525648515582 0 0.35344819685459278 -0.36288375508335119 0 0.35672374461363249 -0.35708525648515582 0 0.35344819685459278 -0.36288375508335119 0 0.35072776353668861 -0.35960044939757441 0 0.35344819685459278 -0.36288375508335119 0 0.35072776353668861 -0.35960044939757441 0 0.34899222940341751 -0.36423404872257509 0 0.35112450151104518 -0.35275175811233189 0 0.35072776353668861 -0.35960044939757441 0 0.33782019814170111 -0.3666278425867322 0 0.35344819685459278 -0.36288375508335119 0 0.34899222940341751 -0.36423404872257509 0 0.3497455307085422 -0.37116936227286262 0 0.35112450151104518 -0.35275175811233189 0 0.33782019814170111 -0.3666278425867322 0 0.35072776353668861 -0.35960044939757441 0 0.34899222940341751 -0.36423404872257509 0 0.33782019814170111 -0.3666278425867322 0 0.34899222940341751 -0.36423404872257509 0 0.3497455307085422 -0.37116936227286262 0 0.33782019814170111 -0.3666278425867322 0 0.32451589477235632 -0.3805039270611319 0 0.3497455307085422 -0.37116936227286262 0 0.33782019814170111 -0.3666278425867322 0 0.32451589477235632 -0.3805039270611319 0 0.33782019814170111 -0.3666278425867322 0 0.32656154733158371 -0.36914920215321162 0 0.32451589477235632 -0.3805039270611319 0 0.33782019814170111 -0.3666278425867322 0 0.33782019814170111 -0.3666278425867322 0 0.32296394155961072 -0.35818691658691232 0 0.32656154733158371 -0.36914920215321162 0 0.34822379045186957 -0.34941274506706399 0 0.32296394155961072 -0.35818691658691232 0 0.34822379045186957 -0.34941274506706399 0 0.33782019814170111 -0.3666278425867322 0 0.32296394155961072 -0.35818691658691232 0 0.34822379045186957 -0.34941274506706399 0 0.33532521964461848 -0.34424399163981551 0 0.32296394155961072 -0.35818691658691232 0 0.33532521964461848 -0.34424399163981551 0 0.32296394155961072 -0.35818691658691232 0 0.32174015242745169 -0.34211471974346991 0 0.32296394155961072 -0.35818691658691232 0 0.32174015242745169 -0.34211471974346991 0 0.30607567145869519 -0.34974754393905277 0 0.32296394155961072 -0.35818691658691232 0 0.31651823040137472 -0.37104163235717103 0 0.32656154733158371 -0.36914920215321162 0 0.32296394155961072 -0.35818691658691232 0 0.31651823040137472 -0.37104163235717103 0 0.30985171353929869 -0.36954539251995883 0 0.31733818943790881 -0.37790850518960978 0 0.31651823040137472 -0.37104163235717103 0 0.32656154733158371 -0.36914920215321162 0 0.33873551144038527 -0.31192472829795859 0 0.33162107477288688 -0.32902550564427702 0 0.32356643349366909 -0.315722087904166 0 0.33873551144038527 -0.31192472829795859 0 0.34920381617543628 -0.32189932771988228 0 0.33162107477288688 -0.32902550564427702 0 0.35555444199428993 -0.34179213160359412 0 0.33162107477288688 -0.32902550564427702 0 0.35555444199428993 -0.34179213160359412 0 0.33532521964461848 -0.34424399163981551 0 0.33162107477288688 -0.32902550564427702 0 0.33532521964461848 -0.34424399163981551 0 0.33162107477288688 -0.32902550564427702 0 0.32174015242745169 -0.34211471974346991 0 0.33162107477288688 -0.32902550564427702 0 0.32174015242745169 -0.34211471974346991 0 0.31271485470144728 -0.32936964090729148 0 0.32174015242745169 -0.34211471974346991 0 0.31271485470144728 -0.32936964090729148 0 0.30607567145869519 -0.34974754393905277 0 0.33162107477288688 -0.32902550564427702 0 0.32356643349366909 -0.315722087904166 0 0.30768770755148411 -0.31625887968496008 0 0.33162107477288688 -0.32902550564427702 0 0.31271485470144728 -0.32936964090729148 0 0.30768770755148411 -0.31625887968496008 0 0.33162107477288688 -0.32902550564427702 0 0.30768770755148411 -0.31625887968496008 0 0.30768770755148411 -0.31625887968496008 0 0.29988541917444728 -0.3275991343708759 0 0.28875665365127451 -0.32195426472718308 0 0.31271485470144728 -0.32936964090729148 0 0.30768770755148411 -0.31625887968496008 0 0.29988541917444728 -0.3275991343708759 0 0.31271485470144728 -0.32936964090729148 0 0.29038246079358332 -0.34281375216406879 0 0.31271485470144728 -0.32936964090729148 0 0.29988541917444728 -0.3275991343708759 0 0.29038246079358332 -0.34281375216406879 0 0.31271485470144728 -0.32936964090729148 0 0.29038246079358332 -0.34281375216406879 0 0.30607567145869519 -0.34974754393905277 0 0.29988541917444728 -0.3275991343708759 0 0.29038246079358332 -0.34281375216406879 0 0.28875665365127451 -0.32195426472718308 0 0.29038246079358332 -0.34281375216406879 0 0.28875665365127451 -0.32195426472718308 0 0.27683504241329188 -0.33049491812134291 0 0.30768770755148411 -0.31625887968496008 0 0.28875665365127451 -0.32195426472718308 0 0.28375434033008118 -0.30349225372564309 0 0.28875665365127451 -0.32195426472718308 0 0.27323789935828491 -0.31622117181775677 0 0.28375434033008118 -0.30349225372564309 0 0.32296394155961072 -0.35818691658691232 0 0.29770409266735193 -0.36696108810676059 0 0.32296394155961072 -0.35818691658691232 0 0.30985171353929869 -0.36954539251995883 0 0.29770409266735193 -0.36696108810676059 0 0.30125491439284202 -0.37545244228412589 0 0.29468253797650962 -0.37505353359411409 0 0.29770409266735193 -0.36696108810676059 0 0.30125491439284202 -0.37545244228412589 0 0.30985171353929869 -0.36954539251995883 0 0.29770409266735193 -0.36696108810676059 0 0.30125491439284202 -0.37545244228412589 0 0.31081738867531422 -0.37608488326482409 0 0.30985171353929869 -0.36954539251995883 0 0.31081738867531422 -0.37608488326482409 0 0.31651823040137472 -0.37104163235717103 0 0.30985171353929869 -0.36954539251995883 0 0.29770409266735193 -0.36696108810676059 0 0.30607567145869519 -0.34974754393905277 0 0.29372861888937002 -0.3549828264727507 0 0.32296394155961072 -0.35818691658691232 0 0.29770409266735193 -0.36696108810676059 0 0.30607567145869519 -0.34974754393905277 0 0.29038246079358332 -0.34281375216406879 0 0.30607567145869519 -0.34974754393905277 0 0.29372861888937002 -0.3549828264727507 0 0.29038246079358332 -0.34281375216406879 0 0.28571565320688569 -0.35958239212715642 0 0.27884910825837089 -0.35831130741316702 0 0.29038246079358332 -0.34281375216406879 0 0.29372861888937002 -0.3549828264727507 0 0.28571565320688569 -0.35958239212715642 0 0.29770409266735193 -0.36696108810676059 0 0.29372861888937002 -0.3549828264727507 0 0.28993865285400239 -0.36711437816761389 0 0.29372861888937002 -0.3549828264727507 0 0.28993865285400239 -0.36711437816761389 0 0.28571565320688569 -0.35958239212715642 0 0.28571565320688569 -0.35958239212715642 0 0.28353722644380402 -0.36810993956364257 0 0.27993677318408078 -0.36378492370177701 0 0.28993865285400239 -0.36711437816761389 0 0.28571565320688569 -0.35958239212715642 0 0.28353722644380402 -0.36810993956364257 0 0.28571565320688569 -0.35958239212715642 0 0.27993677318408078 -0.36378492370177701 0 0.27884910825837089 -0.35831130741316702 0 0.28712009536255512 -0.37555389988898102 0 0.28993865285400239 -0.36711437816761389 0 0.28353722644380402 -0.36810993956364257 0 0.28712009536255512 -0.37555389988898102 0 0.28353722644380402 -0.36810993956364257 0 0.28062042269181919 -0.37395588221133558 0 0.29468253797650962 -0.37505353359411409 0 0.28712009536255512 -0.37555389988898102 0 0.28993865285400239 -0.36711437816761389 0 0.29468253797650962 -0.37505353359411409 0 0.29770409266735193 -0.36696108810676059 0 0.28993865285400239 -0.36711437816761389 0 0.26624182353569531 -0.37453487882786929 0 0.26817992700408011 -0.36975106750584191 0 0.26336664063451592 -0.3664414862695069 0 0.26624182353569531 -0.37453487882786929 0 0.26817992700408011 -0.36975106750584191 0 0.27302933098373239 -0.3720445187767164 0 0.26817992700408011 -0.36975106750584191 0 0.27008191286237682 -0.36598338614927522 0 0.26336664063451592 -0.3664414862695069 0 0.27302933098373239 -0.3720445187767164 0 0.27531540539501931 -0.36495411832062141 0 0.27008191286237682 -0.36598338614927522 0 0.26817992700408011 -0.36975106750584191 0 0.27302933098373239 -0.3720445187767164 0 0.27008191286237682 -0.36598338614927522 0 0.27302933098373239 -0.3720445187767164 0 0.28062042269181919 -0.37395588221133558 0 0.27831946892852222 -0.36885271396938552 0 0.28353722644380402 -0.36810993956364257 0 0.28062042269181919 -0.37395588221133558 0 0.27831946892852222 -0.36885271396938552 0 0.27302933098373239 -0.3720445187767164 0 0.27831946892852222 -0.36885271396938552 0 0.27531540539501931 -0.36495411832062141 0 0.28353722644380402 -0.36810993956364257 0 0.27831946892852222 -0.36885271396938552 0 0.27993677318408078 -0.36378492370177701 0 0.27831946892852222 -0.36885271396938552 0 0.27531540539501931 -0.36495411832062141 0 0.27993677318408078 -0.36378492370177701 0 0.27531540539501931 -0.36495411832062141 0 0.27993677318408078 -0.36378492370177701 0 0.27884910825837089 -0.35831130741316702 0 0.27531540539501931 -0.36495411832062141 0 0.27250911956336249 -0.36168928176346582 0 0.27884910825837089 -0.35831130741316702 0 0.27250911956336249 -0.36168928176346582 0 0.26859758350991669 -0.36156744990319573 0 0.26975620697552632 -0.35764263303335508 0 0.27250911956336249 -0.36168928176346582 0 0.27008191286237682 -0.36598338614927522 0 0.26859758350991669 -0.36156744990319573 0 0.26859758350991669 -0.36156744990319573 0 0.26805006688571931 -0.35625786342084631 0 0.26336664063451592 -0.3664414862695069 0 0.27531540539501931 -0.36495411832062141 0 0.27250911956336249 -0.36168928176346582 0 0.27008191286237682 -0.36598338614927522 0 0.27008191286237682 -0.36598338614927522 0 0.26859758350991669 -0.36156744990319573 0 0.26336664063451592 -0.3664414862695069 0 0.29038246079358332 -0.34281375216406879 0 0.26805006688571931 -0.35625786342084631 0 0.29038246079358332 -0.34281375216406879 0 0.26805006688571931 -0.35625786342084631 0 0.26975620697552632 -0.35764263303335508 0 0.29038246079358332 -0.34281375216406879 0 0.26975620697552632 -0.35764263303335508 0 0.27884910825837089 -0.35831130741316702 0 0.29038246079358332 -0.34281375216406879 0 0.26805006688571931 -0.35625786342084631 0 0.27463130633286931 -0.34191960504490437 0 0.26859758350991669 -0.36156744990319573 0 0.26805006688571931 -0.35625786342084631 0 0.26975620697552632 -0.35764263303335508 0 0.26805006688571931 -0.35625786342084631 0 0.26975620697552632 -0.35764263303335508 0 0.27250911956336249 -0.36168928176346582 0 0.26975620697552632 -0.35764263303335508 0 0.27884910825837089 -0.35831130741316702 0 0.26805006688571931 -0.35625786342084631 0 0.26492603941162168 -0.34492990828652131 0 0.27463130633286931 -0.34191960504490437 0 0.26805006688571931 -0.35625786342084631 0 0.25350575188741481 -0.34445313204813149 0 0.24758329680607269 -0.35476217619659811 0 0.26805006688571931 -0.35625786342084631 0 0.2525248183514478 -0.36560407007674622 0 0.24758329680607269 -0.35476217619659811 0 0.26805006688571931 -0.35625786342084631 0 0.26492603941162168 -0.34492990828652131 0 0.25350575188741481 -0.34445313204813149 0 0.26805006688571931 -0.35625786342084631 0 0.25350575188741481 -0.34445313204813149 0 0.26805006688571931 -0.35625786342084631 0 0.26336664063451592 -0.3664414862695069 0 0.2525248183514478 -0.36560407007674622 0 0.26805006688571931 -0.35625786342084631 0 0.2525248183514478 -0.36560407007674622 0 0.2525248183514478 -0.36560407007674622 0 0.25606429151247068 -0.37194659175708572 0 0.247834074023594 -0.37296100291649509 0 0.26336664063451592 -0.3664414862695069 0 0.2525248183514478 -0.36560407007674622 0 0.25606429151247068 -0.37194659175708572 0 0.25375531452165939 -0.37623440762837412 0 0.25606429151247068 -0.37194659175708572 0 0.247834074023594 -0.37296100291649509 0 0.26039509775932151 -0.37535611644817157 0 0.25375531452165939 -0.37623440762837412 0 0.25606429151247068 -0.37194659175708572 0 0.26039509775932151 -0.37535611644817157 0 0.26624182353569531 -0.37453487882786929 0 0.26336664063451592 -0.3664414862695069 0 0.26039509775932151 -0.37535611644817157 0 0.26336664063451592 -0.3664414862695069 0 0.25606429151247068 -0.37194659175708572 0 0.27323789935828491 -0.31622117181775677 0 0.27683504241329188 -0.33049491812134291 0 0.26447202090310318 -0.3291757726400365 0 0.28875665365127451 -0.32195426472718308 0 0.27323789935828491 -0.31622117181775677 0 0.27683504241329188 -0.33049491812134291 0 0.29038246079358332 -0.34281375216406879 0 0.27683504241329188 -0.33049491812134291 0 0.27463130633286931 -0.34191960504490437 0 0.27683504241329188 -0.33049491812134291 0 0.27463130633286931 -0.34191960504490437 0 0.26796639071671552 -0.3373114020383991 0 0.26492603941162168 -0.34492990828652131 0 0.27463130633286931 -0.34191960504490437 0 0.26796639071671552 -0.3373114020383991 0 0.27683504241329188 -0.33049491812134291 0 0.26796639071671552 -0.3373114020383991 0 0.26447202090310318 -0.3291757726400365 0 0.25896754452269127 -0.34003680609919001 0 0.25221426436745747 -0.32636962411678461 0 0.2389614368891104 -0.33264840067541668 0 0.25350575188741481 -0.34445313204813149 0 0.25896754452269127 -0.34003680609919001 0 0.2389614368891104 -0.33264840067541668 0 0.26796639071671552 -0.3373114020383991 0 0.26447202090310318 -0.3291757726400365 0 0.25896754452269127 -0.34003680609919001 0 0.26447202090310318 -0.3291757726400365 0 0.25896754452269127 -0.34003680609919001 0 0.25221426436745747 -0.32636962411678461 0 0.26492603941162168 -0.34492990828652131 0 0.26796639071671552 -0.3373114020383991 0 0.25896754452269127 -0.34003680609919001 0 0.26492603941162168 -0.34492990828652131 0 0.25350575188741481 -0.34445313204813149 0 0.25896754452269127 -0.34003680609919001 0 0.27323789935828491 -0.31622117181775677 0 0.26447202090310318 -0.3291757726400365 0 0.25775611908170121 -0.31253688977625182 0 0.25221426436745747 -0.32636962411678461 0 0.25775611908170121 -0.31253688977625182 0 0.24074369189693359 -0.31761255446677472 0 0.26447202090310318 -0.3291757726400365 0 0.25221426436745747 -0.32636962411678461 0 0.25775611908170121 -0.31253688977625182 0 0.25775611908170121 -0.31253688977625182 0 0.25259339633976108 -0.29130236208149418 0 0.26785321977025761 -0.29967293191608357 0 0.25259339633976108 -0.29130236208149418 0 0.27415931588549169 -0.28458432674766432 0 0.26785321977025761 -0.29967293191608357 0 0.25259339633976108 -0.29130236208149418 0 0.27415931588549169 -0.28458432674766432 0 0.25219259065276622 -0.27031256554595451 0 0.27415931588549169 -0.28458432674766432 0 0.26785321977025761 -0.29967293191608357 0 0.28375434033008118 -0.30349225372564309 0 0.27323789935828491 -0.31622117181775677 0 0.26785321977025761 -0.29967293191608357 0 0.28375434033008118 -0.30349225372564309 0 0.27323789935828491 -0.31622117181775677 0 0.25775611908170121 -0.31253688977625182 0 0.26785321977025761 -0.29967293191608357 0 0.30768770755148411 -0.31625887968496008 0 0.29051790433723201 -0.29835596447949753 0 0.28375434033008118 -0.30349225372564309 0 0.30768770755148411 -0.31625887968496008 0 0.28375434033008118 -0.30349225372564309 0 0.27415931588549169 -0.28458432674766432 0 0.29612604111821722 -0.29885608794937418 0 0.27415931588549169 -0.28458432674766432 0 0.2932156501306426 -0.28765763697567859 0 0.29239501919513289 -0.27819738546767259 0 0.27415931588549169 -0.28458432674766432 0 0.29051790433723201 -0.29835596447949753 0 0.28375434033008118 -0.30349225372564309 0 0.27415931588549169 -0.28458432674766432 0 0.29612604111821722 -0.29885608794937418 0 0.2932156501306426 -0.28765763697567859 0 0.27415931588549169 -0.28458432674766432 0 0.29051790433723201 -0.29835596447949753 0 0.29612604111821722 -0.29885608794937418 0 0.2932156501306426 -0.28765763697567859 0 0.30043639458113869 -0.28462172048830009 0 0.29239501919513289 -0.27819738546767259 0 0.29612604111821722 -0.29885608794937418 0 0.30209949218305598 -0.29161506112549612 0 0.3091931624115945 -0.29635899131314541 0 0.29612604111821722 -0.29885608794937418 0 0.2932156501306426 -0.28765763697567859 0 0.30209949218305598 -0.29161506112549612 0 0.30209949218305598 -0.29161506112549612 0 0.30043639458113869 -0.28462172048830009 0 0.30977078155910132 -0.2883419886758033 0 0.2932156501306426 -0.28765763697567859 0 0.30209949218305598 -0.29161506112549612 0 0.30043639458113869 -0.28462172048830009 0 0.3197131959765161 -0.28239582380179301 0 0.30977078155910132 -0.2883419886758033 0 0.30470102983776048 -0.27729653019685002 0 0.30043639458113869 -0.28462172048830009 0 0.30977078155910132 -0.2883419886758033 0 0.30470102983776048 -0.27729653019685002 0 0.30209949218305598 -0.29161506112549612 0 0.30977078155910132 -0.2883419886758033 0 0.3091931624115945 -0.29635899131314541 0 0.31462670788880859 -0.30514034638872811 0 0.29051790433723201 -0.29835596447949753 0 0.31462670788880859 -0.30514034638872811 0 0.30768770755148411 -0.31625887968496008 0 0.29051790433723201 -0.29835596447949753 0 0.31462670788880859 -0.30514034638872811 0 0.29051790433723201 -0.29835596447949753 0 0.29612604111821722 -0.29885608794937418 0 0.31462670788880859 -0.30514034638872811 0 0.29612604111821722 -0.29885608794937418 0 0.3091931624115945 -0.29635899131314541 0 0.30849651450414628 -0.24795182056728149 0 0.32132836083141447 -0.25869816695462983 0 0.30142790699742789 -0.26480033043832729 0 0.30849651450414628 -0.24795182056728149 0 0.30142790699742789 -0.26480033043832729 0 0.28793584206126588 -0.25107015271538341 0 0.31509102578424852 -0.27192589933182021 0 0.30142790699742789 -0.26480033043832729 0 0.30470102983776048 -0.27729653019685002 0 0.30043639458113869 -0.28462172048830009 0 0.30470102983776048 -0.27729653019685002 0 0.29239501919513289 -0.27819738546767259 0 0.30142790699742789 -0.26480033043832729 0 0.30470102983776048 -0.27729653019685002 0 0.29239501919513289 -0.27819738546767259 0 0.30142790699742789 -0.26480033043832729 0 0.29239501919513289 -0.27819738546767259 0 0.27927751772558901 -0.26614999846553228 0 0.27415931588549169 -0.28458432674766432 0 0.29239501919513289 -0.27819738546767259 0 0.27927751772558901 -0.26614999846553228 0 0.30142790699742789 -0.26480033043832729 0 0.28793584206126588 -0.25107015271538341 0 0.27927751772558901 -0.26614999846553228 0 0.26755443156144948 -0.24793522987819169 0 0.27927751772558901 -0.26614999846553228 0 0.25219259065276622 -0.27031256554595451 0 0.26755443156144948 -0.24793522987819169 0 0.28793584206126588 -0.25107015271538341 0 0.27927751772558901 -0.26614999846553228 0 0.27415931588549169 -0.28458432674766432 0 0.27927751772558901 -0.26614999846553228 0 0.25219259065276622 -0.27031256554595451 0 0.27415931588549169 -0.28458432674766432 0 0.25219259065276622 -0.27031256554595451 0 0.26755443156144948 -0.24793522987819169 0 0.25219259065276622 -0.27031256554595451 0 0.2458949266121517 -0.24119477616399751 0 0.25219259065276622 -0.27031256554595451 0 0.2302258654200407 -0.25604080434424459 0 0.2458949266121517 -0.24119477616399751 0 0.25219259065276622 -0.27031256554595451 0 0.2302258654200407 -0.25604080434424459 0 0.25219259065276622 -0.27031256554595451 0 0.2302258654200407 -0.25604080434424459 0 0.22796051236103529 -0.28362809442334119 0 0.2302258654200407 -0.25604080434424459 0 0.21297749869702209 -0.27370876728105381 0 0.22796051236103529 -0.28362809442334119 0 0.2302258654200407 -0.25604080434424459 0 0.21297749869702209 -0.27370876728105381 0 0.20245690766587529 -0.2622195216635434 0 0.2302258654200407 -0.25604080434424459 0 0.20245690766587529 -0.2622195216635434 0 0.20825914018731509 -0.24176904314253461 0 0.21297749869702209 -0.27370876728105381 0 0.19577054630340601 -0.27719280299441063 0 0.20245690766587529 -0.2622195216635434 0 0.21297749869702209 -0.27370876728105381 0 0.19577054630340601 -0.27719280299441063 0 0.20847366173475351 -0.28946261297972919 0 0.19577054630340601 -0.27719280299441063 0 0.20245690766587529 -0.2622195216635434 0 0.19577054630340601 -0.27719280299441063 0 0.20245690766587529 -0.2622195216635434 0 0.18231756712108699 -0.26383775936566878 0 0.20245690766587529 -0.2622195216635434 0 0.18231756712108699 -0.26383775936566878 0 0.19216952572399271 -0.24625439499940641 0 0.20245690766587529 -0.2622195216635434 0 0.20825914018731509 -0.24176904314253461 0 0.19216952572399271 -0.24625439499940641 0 0.19298791571575999 -0.30755098768990691 0 0.18908418494093721 -0.29216608432527802 0 0.18062694267570731 -0.31110503495265029 0 0.19298791571575999 -0.30755098768990691 0 0.20007177408017551 -0.31828615686023759 0 0.18062694267570731 -0.31110503495265029 0 0.18908418494093721 -0.29216608432527802 0 0.2057099355903291 -0.30566018977532322 0 0.19298791571575999 -0.30755098768990691 0 0.18908418494093721 -0.29216608432527802 0 0.2057099355903291 -0.30566018977532322 0 0.19298791571575999 -0.30755098768990691 0 0.2057099355903291 -0.30566018977532322 0 0.20007177408017551 -0.31828615686023759 0 0.18908418494093721 -0.29216608432527802 0 0.20847366173475351 -0.28946261297972919 0 0.2057099355903291 -0.30566018977532322 0 0.19577054630340601 -0.27719280299441063 0 0.18908418494093721 -0.29216608432527802 0 0.20847366173475351 -0.28946261297972919 0 0.19577054630340601 -0.27719280299441063 0 0.18908418494093721 -0.29216608432527802 0 0.21297749869702209 -0.27370876728105381 0 0.20847366173475351 -0.28946261297972919 0 0.22796051236103529 -0.28362809442334119 0 0.2057099355903291 -0.30566018977532322 0 0.22233568623972 -0.31915429522536959 0 0.20847366173475351 -0.28946261297972919 0 0.2057099355903291 -0.30566018977532322 0 0.2206990143771978 -0.30086585935086718 0 0.2057099355903291 -0.30566018977532322 0 0.2206990143771978 -0.30086585935086718 0 0.22233568623972 -0.31915429522536959 0 0.2206990143771978 -0.30086585935086718 0 0.23741511933110421 -0.30176401854185908 0 0.22233568623972 -0.31915429522536959 0 0.2206990143771978 -0.30086585935086718 0 0.22796051236103529 -0.28362809442334119 0 0.23741511933110421 -0.30176401854185908 0 0.20847366173475351 -0.28946261297972919 0 0.2206990143771978 -0.30086585935086718 0 0.22796051236103529 -0.28362809442334119 0 0.25259339633976108 -0.29130236208149418 0 0.25219259065276622 -0.27031256554595451 0 0.22796051236103529 -0.28362809442334119 0 0.25259339633976108 -0.29130236208149418 0 0.22796051236103529 -0.28362809442334119 0 0.23741511933110421 -0.30176401854185908 0 0.25775611908170121 -0.31253688977625182 0 0.25259339633976108 -0.29130236208149418 0 0.23741511933110421 -0.30176401854185908 0 0.25775611908170121 -0.31253688977625182 0 0.23741511933110421 -0.30176401854185908 0 0.24074369189693359 -0.31761255446677472 0 0.25221426436745747 -0.32636962411678461 0 0.24074369189693359 -0.31761255446677472 0 0.2389614368891104 -0.33264840067541668 0 0.25896754452269127 -0.34003680609919001 0 0.2389614368891104 -0.33264840067541668 0 0.25350575188741481 -0.34445313204813149 0 0.2389614368891104 -0.33264840067541668 0 0.23812126686143489 -0.34962330130308239 0 0.25350575188741481 -0.34445313204813149 0 0.2389614368891104 -0.33264840067541668 0 0.2389614368891104 -0.33264840067541668 0 0.21951660548464291 -0.32546727876782749 0 0.2389614368891104 -0.33264840067541668 0 0.22275218125969681 -0.3421285430696277 0 0.21951660548464291 -0.32546727876782749 0 0.2389614368891104 -0.33264840067541668 0 0.22275218125969681 -0.3421285430696277 0 0.23812126686143489 -0.34962330130308239 0 0.2389614368891104 -0.33264840067541668 0 0.22233568623972 -0.31915429522536959 0 0.21951660548464291 -0.32546727876782749 0 0.24074369189693359 -0.31761255446677472 0 0.2389614368891104 -0.33264840067541668 0 0.22233568623972 -0.31915429522536959 0 0.2389614368891104 -0.33264840067541668 0 0.22233568623972 -0.31915429522536959 0 0.23741511933110421 -0.30176401854185908 0 0.24074369189693359 -0.31761255446677472 0 0.22233568623972 -0.31915429522536959 0 0.2525248183514478 -0.36560407007674622 0 0.2388492865026699 -0.36353477295182429 0 0.23642754580480091 -0.37529463544741981 0 0.2525248183514478 -0.36560407007674622 0 0.23642754580480091 -0.37529463544741981 0 0.2525248183514478 -0.36560407007674622 0 0.247834074023594 -0.37296100291649509 0 0.23642754580480091 -0.37529463544741981 0 0.2388492865026699 -0.36353477295182429 0 0.2323821666879651 -0.37312182357695689 0 0.23642754580480091 -0.37529463544741981 0 0.247834074023594 -0.37296100291649509 0 0.23982637591521519 -0.37606966838762163 0 0.23642754580480091 -0.37529463544741981 0 0.2323821666879651 -0.37312182357695689 0 0.23642754580480091 -0.37529463544741981 0 0.2525248183514478 -0.36560407007674622 0 0.2388492865026699 -0.36353477295182429 0 0.24758329680607269 -0.35476217619659811 0 0.2388492865026699 -0.36353477295182429 0 0.23812126686143489 -0.34962330130308239 0 0.2288410778689817 -0.3579523375073505 0 0.2388492865026699 -0.36353477295182429 0 0.24758329680607269 -0.35476217619659811 0 0.23812126686143489 -0.34962330130308239 0 0.25350575188741481 -0.34445313204813149 0 0.24758329680607269 -0.35476217619659811 0 0.23812126686143489 -0.34962330130308239 0 0.22275218125969681 -0.3421285430696277 0 0.2288410778689817 -0.3579523375073505 0 0.2104881552217899 -0.36284535190813549 0 0.22275218125969681 -0.3421285430696277 0 0.23812126686143489 -0.34962330130308239 0 0.2288410778689817 -0.3579523375073505 0 0.2323821666879651 -0.37312182357695689 0 0.2141485145971371 -0.37049455273470289 0 0.23642754580480091 -0.37529463544741981 0 0.2141485145971371 -0.37049455273470289 0 0.23642754580480091 -0.37529463544741981 0 0.22380639522206469 -0.37549259574283528 0 0.2323821666879651 -0.37312182357695689 0 0.2141485145971371 -0.37049455273470289 0 0.2104881552217899 -0.36284535190813549 0 0.2323821666879651 -0.37312182357695689 0 0.2104881552217899 -0.36284535190813549 0 0.2288410778689817 -0.3579523375073505 0 0.2323821666879651 -0.37312182357695689 0 0.2104881552217899 -0.36284535190813549 0 0.2141485145971371 -0.37049455273470289 0 0.23642754580480091 -0.37529463544741981 0 0.2388492865026699 -0.36353477295182429 0 0.2288410778689817 -0.3579523375073505 0 0.2323821666879651 -0.37312182357695689 0 0.2141485145971371 -0.37049455273470289 0 0.2104881552217899 -0.36284535190813549 0 0.20133278074283961 -0.37645701622005928 0 0.2141485145971371 -0.37049455273470289 0 0.22380639522206469 -0.37549259574283528 0 0.21729133252485441 -0.37717975934536557 0 0.22275218125969681 -0.3421285430696277 0 0.2104881552217899 -0.36284535190813549 0 0.20559014228838191 -0.3450523763621357 0 0.20559014228838191 -0.3450523763621357 0 0.1885941437556147 -0.35256888023931432 0 0.1964870824405926 -0.33862665069502479 0 0.2104881552217899 -0.36284535190813549 0 0.20559014228838191 -0.3450523763621357 0 0.1885941437556147 -0.35256888023931432 0 0.2104881552217899 -0.36284535190813549 0 0.1885941437556147 -0.35256888023931432 0 0.2104881552217899 -0.36284535190813549 0 0.1885941437556147 -0.35256888023931432 0 0.1873748639993143 -0.35529930682298511 0 0.2104881552217899 -0.36284535190813549 0 0.1873748639993143 -0.35529930682298511 0 0.2104881552217899 -0.36284535190813549 0 0.1863121642240772 -0.37048192246816652 0 0.1873748639993143 -0.35529930682298511 0 0.2104881552217899 -0.36284535190813549 0 0.1863121642240772 -0.37048192246816652 0 0.20133278074283961 -0.37645701622005928 0 0.21951660548464291 -0.32546727876782749 0 0.206911707711252 -0.33133770239716043 0 0.20007177408017551 -0.31828615686023759 0 0.21951660548464291 -0.32546727876782749 0 0.20007177408017551 -0.31828615686023759 0 0.2057099355903291 -0.30566018977532322 0 0.22233568623972 -0.31915429522536959 0 0.20007177408017551 -0.31828615686023759 0 0.22233568623972 -0.31915429522536959 0 0.21951660548464291 -0.32546727876782749 0 0.20007177408017551 -0.31828615686023759 0 0.22275218125969681 -0.3421285430696277 0 0.20559014228838191 -0.3450523763621357 0 0.206911707711252 -0.33133770239716043 0 0.22275218125969681 -0.3421285430696277 0 0.21951660548464291 -0.32546727876782749 0 0.206911707711252 -0.33133770239716043 0 0.206911707711252 -0.33133770239716043 0 0.1964870824405926 -0.33862665069502479 0 0.19688437115496191 -0.32595043097964121 0 0.20559014228838191 -0.3450523763621357 0 0.206911707711252 -0.33133770239716043 0 0.1964870824405926 -0.33862665069502479 0 0.1885941437556147 -0.35256888023931432 0 0.1964870824405926 -0.33862665069502479 0 0.1844550472927525 -0.33822386349687261 0 0.1964870824405926 -0.33862665069502479 0 0.19688437115496191 -0.32595043097964121 0 0.1844550472927525 -0.33822386349687261 0 0.20007177408017551 -0.31828615686023759 0 0.18062694267570731 -0.31110503495265029 0 0.19688437115496191 -0.32595043097964121 0 0.20007177408017551 -0.31828615686023759 0 0.18201326139010079 -0.32591143716851512 0 0.20007177408017551 -0.31828615686023759 0 0.18201326139010079 -0.32591143716851512 0 0.18062694267570731 -0.31110503495265029 0 0.206911707711252 -0.33133770239716043 0 0.19688437115496191 -0.32595043097964121 0 0.20007177408017551 -0.31828615686023759 0 0.18201326139010079 -0.32591143716851512 0 0.17006275041133989 -0.33476224015481698 0 0.18062694267570731 -0.31110503495265029 0 0.17006275041133989 -0.33476224015481698 0 0.16742957888073379 -0.31791064082249182 0 0.18062694267570731 -0.31110503495265029 0 0.17006275041133989 -0.33476224015481698 0 0.18062694267570731 -0.31110503495265029 0 0.19688437115496191 -0.32595043097964121 0 0.17006275041133989 -0.33476224015481698 0 0.1844550472927525 -0.33822386349687261 0 0.17006275041133989 -0.33476224015481698 0 0.1667001322894385 -0.34229240857049498 0 0.19688437115496191 -0.32595043097964121 0 0.18201326139010079 -0.32591143716851512 0 0.17006275041133989 -0.33476224015481698 0 0.19688437115496191 -0.32595043097964121 0 0.1844550472927525 -0.33822386349687261 0 0.17006275041133989 -0.33476224015481698 0 0.17006275041133989 -0.33476224015481698 0 0.1667001322894385 -0.34229240857049498 0 0.1586472750631677 -0.33851260973067482 0 0.17006275041133989 -0.33476224015481698 0 0.1586472750631677 -0.33851260973067482 0 0.17006275041133989 -0.33476224015481698 0 0.1667001322894385 -0.34229240857049498 0 0.1667001322894385 -0.34229240857049498 0 0.1586472750631677 -0.33851260973067482 0 0.1667001322894385 -0.34229240857049498 0 0.1586472750631677 -0.33851260973067482 0 0.16487121265498861 -0.34638804844599991 0 0.1586472750631677 -0.33851260973067482 0 0.16487121265498861 -0.34638804844599991 0 0.15117919905164229 -0.34096612517436359 0 0.16487121265498861 -0.34638804844599991 0 0.15117919905164229 -0.34096612517436359 0 0.17006275041133989 -0.33476224015481698 0 0.1586472750631677 -0.33851260973067482 0 0.15854267577228451 -0.33203757090818847 0 0.17006275041133989 -0.33476224015481698 0 0.15854267577228451 -0.33203757090818847 0 0.1610351896070813 -0.32497326650839697 0 0.1586472750631677 -0.33851260973067482 0 0.15854267577228451 -0.33203757090818847 0 0.15318439061781461 -0.33594847582038267 0 0.17006275041133989 -0.33476224015481698 0 0.1610351896070813 -0.32497326650839697 0 0.16742957888073379 -0.31791064082249182 0 0.15854267577228451 -0.33203757090818847 0 0.1610351896070813 -0.32497326650839697 0 0.14978377316201991 -0.32599126232667042 0 0.16742957888073379 -0.31791064082249182 0 0.1561768831418939 -0.31493776838462112 0 0.16502668359358499 -0.30534374240510859 0 0.1610351896070813 -0.32497326650839697 0 0.16742957888073379 -0.31791064082249182 0 0.1561768831418939 -0.31493776838462112 0 0.1863121642240772 -0.37048192246816652 0 0.1725939065739176 -0.36143467139509838 0 0.16586473307507801 -0.37334626187033249 0 0.1863121642240772 -0.37048192246816652 0 0.1725939065739176 -0.36143467139509838 0 0.1873748639993143 -0.35529930682298511 0 0.1873748639993143 -0.35529930682298511 0 0.16487121265498861 -0.34638804844599991 0 0.1725939065739176 -0.36143467139509838 0 0.1873748639993143 -0.35529930682298511 0 0.16487121265498861 -0.34638804844599991 0 0.1885941437556147 -0.35256888023931432 0 0.1844550472927525 -0.33822386349687261 0 0.1667001322894385 -0.34229240857049498 0 0.1667001322894385 -0.34229240857049498 0 0.1873748639993143 -0.35529930682298511 0 0.16487121265498861 -0.34638804844599991 0 0.1885941437556147 -0.35256888023931432 0 0.1667001322894385 -0.34229240857049498 0 0.1873748639993143 -0.35529930682298511 0 0.1885941437556147 -0.35256888023931432 0 0.1667001322894385 -0.34229240857049498 0 0.1667001322894385 -0.34229240857049498 0 0.16487121265498861 -0.34638804844599991 0 0.16487121265498861 -0.34638804844599991 0 0.15829011304517601 -0.36112560906862728 0 0.16487121265498861 -0.34638804844599991 0 0.15829011304517601 -0.36112560906862728 0 0.15119319059276909 -0.35229505863841032 0 0.1725939065739176 -0.36143467139509838 0 0.16487121265498861 -0.34638804844599991 0 0.15829011304517601 -0.36112560906862728 0 0.1725939065739176 -0.36143467139509838 0 0.15829011304517601 -0.36112560906862728 0 0.16586473307507801 -0.37334626187033249 0 0.15829011304517601 -0.36112560906862728 0 0.16586473307507801 -0.37334626187033249 0 0.15170901343536339 -0.37586316969125472 0 0.14250759595021889 -0.35956866674590371 0 0.12964343717385621 -0.367966648186694 0 0.15170901343536339 -0.37586316969125472 0 0.15829011304517601 -0.36112560906862728 0 0.14250759595021889 -0.35956866674590371 0 0.15170901343536339 -0.37586316969125472 0 0.15829011304517601 -0.36112560906862728 0 0.15170901343536339 -0.37586316969125472 0 0.14250759595021889 -0.35956866674590371 0 0.15119319059276909 -0.35229505863841032 0 0.13285301213736089 -0.34698689713072628 0 0.15829011304517601 -0.36112560906862728 0 0.14250759595021889 -0.35956866674590371 0 0.15119319059276909 -0.35229505863841032 0 0.13285301213736089 -0.34698689713072628 0 0.15117919905164229 -0.34096612517436359 0 0.15119319059276909 -0.35229505863841032 0 0.13285301213736089 -0.34698689713072628 0 0.15117919905164229 -0.34096612517436359 0 0.16487121265498861 -0.34638804844599991 0 0.15119319059276909 -0.35229505863841032 0 0.15117919905164229 -0.34096612517436359 0 0.13285301213736089 -0.34698689713072628 0 0.12964343717385621 -0.367966648186694 0 0.1145268252230785 -0.35300766908708592 0 0.14250759595021889 -0.35956866674590371 0 0.13285301213736089 -0.34698689713072628 0 0.12964343717385621 -0.367966648186694 0 0.1422499266094501 -0.31660967253405531 0 0.1561768831418939 -0.31493776838462112 0 0.14978377316201991 -0.32599126232667042 0 0.1610351896070813 -0.32497326650839697 0 0.1561768831418939 -0.31493776838462112 0 0.14978377316201991 -0.32599126232667042 0 0.15854267577228451 -0.33203757090818847 0 0.14978377316201991 -0.32599126232667042 0 0.15318439061781461 -0.33594847582038267 0 0.14978377316201991 -0.32599126232667042 0 0.15318439061781461 -0.33594847582038267 0 0.1277096158765349 -0.33167236584288751 0 0.15318439061781461 -0.33594847582038267 0 0.15117919905164229 -0.34096612517436359 0 0.1277096158765349 -0.33167236584288751 0 0.1586472750631677 -0.33851260973067482 0 0.15318439061781461 -0.33594847582038267 0 0.1586472750631677 -0.33851260973067482 0 0.15318439061781461 -0.33594847582038267 0 0.15117919905164229 -0.34096612517436359 0 0.1586472750631677 -0.33851260973067482 0 0.15117919905164229 -0.34096612517436359 0 0.13285301213736089 -0.34698689713072628 0 0.15117919905164229 -0.34096612517436359 0 0.1277096158765349 -0.33167236584288751 0 0.15117919905164229 -0.34096612517436359 0 0.1277096158765349 -0.33167236584288751 0 0.13285301213736089 -0.34698689713072628 0 0.1277096158765349 -0.33167236584288751 0 0.1175933922248182 -0.34031097300678109 0 0.1422499266094501 -0.31660967253405531 0 0.14978377316201991 -0.32599126232667042 0 0.1277096158765349 -0.33167236584288751 0 0.1422499266094501 -0.31660967253405531 0 0.1277096158765349 -0.33167236584288751 0 0.12683322860644439 -0.31098052818449412 0 0.12683322860644439 -0.31098052818449412 0 0.1401134834850129 -0.29069959292781089 0 0.1278890963722015 -0.28956777061598998 0 0.12683322860644439 -0.31098052818449412 0 0.14661875021173451 -0.29854555470513761 0 0.1401134834850129 -0.29069959292781089 0 0.1422499266094501 -0.31660967253405531 0 0.12683322860644439 -0.31098052818449412 0 0.14942642451146149 -0.2995824498575701 0 0.12683322860644439 -0.31098052818449412 0 0.14942642451146149 -0.2995824498575701 0 0.1422499266094501 -0.31660967253405531 0 0.1561768831418939 -0.31493776838462112 0 0.14942642451146149 -0.2995824498575701 0 0.12683322860644439 -0.31098052818449412 0 0.14661875021173451 -0.29854555470513761 0 0.14942642451146149 -0.2995824498575701 0 0.14661875021173451 -0.29854555470513761 0 0.14942642451146149 -0.2995824498575701 0 0.1466794613861967 -0.29377083497606099 0 0.14661875021173451 -0.29854555470513761 0 0.14942642451146149 -0.2995824498575701 0 0.14942642451146149 -0.2995824498575701 0 0.1595618869819069 -0.29446919383113762 0 0.1508292363689587 -0.28932805491236291 0 0.1467666386820988 -0.27833762361772918 0 0.16091224763727771 -0.28314036009338062 0 0.14942642451146149 -0.2995824498575701 0 0.1508292363689587 -0.28932805491236291 0 0.1595618869819069 -0.29446919383113762 0 0.14942642451146149 -0.2995824498575701 0 0.1508292363689587 -0.28932805491236291 0 0.1466794613861967 -0.29377083497606099 0 0.14661875021173451 -0.29854555470513761 0 0.1466794613861967 -0.29377083497606099 0 0.1401134834850129 -0.29069959292781089 0 0.1508292363689587 -0.28932805491236291 0 0.1466794613861967 -0.29377083497606099 0 0.1401134834850129 -0.29069959292781089 0 0.1508292363689587 -0.28932805491236291 0 0.1401134834850129 -0.29069959292781089 0 0.1467666386820988 -0.27833762361772918 0 0.1401134834850129 -0.29069959292781089 0 0.1278890963722015 -0.28956777061598998 0 0.13398591315260419 -0.27567973463621481 0 0.1401134834850129 -0.29069959292781089 0 0.13398591315260419 -0.27567973463621481 0 0.1467666386820988 -0.27833762361772918 0 0.13398591315260419 -0.27567973463621481 0 0.1417327159860497 -0.26177566485948067 0 0.1208808610854319 -0.25970788443117943 0 0.1278890963722015 -0.28956777061598998 0 0.13398591315260419 -0.27567973463621481 0 0.1189280483528791 -0.27808952203523229 0 0.1417327159860497 -0.26177566485948067 0 0.1208808610854319 -0.25970788443117943 0 0.1313098299079942 -0.24396976042201809 0 0.1417327159860497 -0.26177566485948067 0 0.14457918263284869 -0.24901401909077739 0 0.1313098299079942 -0.24396976042201809 0 0.1417327159860497 -0.26177566485948067 0 0.1578031145482737 -0.25808536852191172 0 0.14457918263284869 -0.24901401909077739 0 0.1417327159860497 -0.26177566485948067 0 0.15406655483346779 -0.26946469125216171 0 0.1578031145482737 -0.25808536852191172 0 0.13398591315260419 -0.27567973463621481 0 0.1417327159860497 -0.26177566485948067 0 0.1467666386820988 -0.27833762361772918 0 0.1417327159860497 -0.26177566485948067 0 0.1467666386820988 -0.27833762361772918 0 0.15406655483346779 -0.26946469125216171 0 0.1467666386820988 -0.27833762361772918 0 0.15406655483346779 -0.26946469125216171 0 0.16091224763727771 -0.28314036009338062 0 0.15406655483346779 -0.26946469125216171 0 0.1655019821859241 -0.27302585195735052 0 0.16091224763727771 -0.28314036009338062 0 0.1655019821859241 -0.27302585195735052 0 0.17729308356343121 -0.28259596814131349 0 0.16091224763727771 -0.28314036009338062 0 0.15406655483346779 -0.26946469125216171 0 0.1655019821859241 -0.27302585195735052 0 0.1578031145482737 -0.25808536852191172 0 0.1655019821859241 -0.27302585195735052 0 0.17729308356343121 -0.28259596814131349 0 0.1578031145482737 -0.25808536852191172 0 0.16999054138435979 -0.26125902205485563 0 0.1735801302704959 -0.25009110129751427 0 0.1655019821859241 -0.27302585195735052 0 0.1578031145482737 -0.25808536852191172 0 0.16999054138435979 -0.26125902205485563 0 0.16999054138435979 -0.26125902205485563 0 0.1735801302704959 -0.25009110129751427 0 0.18231756712108699 -0.26383775936566878 0 0.1655019821859241 -0.27302585195735052 0 0.16999054138435979 -0.26125902205485563 0 0.18231756712108699 -0.26383775936566878 0 0.1655019821859241 -0.27302585195735052 0 0.18231756712108699 -0.26383775936566878 0 0.17729308356343121 -0.28259596814131349 0 0.19577054630340601 -0.27719280299441063 0 0.18231756712108699 -0.26383775936566878 0 0.17729308356343121 -0.28259596814131349 0 0.19577054630340601 -0.27719280299441063 0 0.18908418494093721 -0.29216608432527802 0 0.17729308356343121 -0.28259596814131349 0 0.18908418494093721 -0.29216608432527802 0 0.17729308356343121 -0.28259596814131349 0 0.17236635084515639 -0.29476113694160883 0 0.18908418494093721 -0.29216608432527802 0 0.17729308356343121 -0.28259596814131349 0 0.17236635084515639 -0.29476113694160883 0 0.18062694267570731 -0.31110503495265029 0 0.16502668359358499 -0.30534374240510859 0 0.18908418494093721 -0.29216608432527802 0 0.18062694267570731 -0.31110503495265029 0 0.18908418494093721 -0.29216608432527802 0 0.17236635084515639 -0.29476113694160883 0 0.18062694267570731 -0.31110503495265029 0 0.18062694267570731 -0.31110503495265029 0 0.16502668359358499 -0.30534374240510859 0 0.17236635084515639 -0.29476113694160883 0 0.16502668359358499 -0.30534374240510859 0 0.1595618869819069 -0.29446919383113762 0 0.16742957888073379 -0.31791064082249182 0 0.18062694267570731 -0.31110503495265029 0 0.16502668359358499 -0.30534374240510859 0 0.1561768831418939 -0.31493776838462112 0 0.14942642451146149 -0.2995824498575701 0 0.16502668359358499 -0.30534374240510859 0 0.14942642451146149 -0.2995824498575701 0 0.16502668359358499 -0.30534374240510859 0 0.14942642451146149 -0.2995824498575701 0 0.16502668359358499 -0.30534374240510859 0 0.1595618869819069 -0.29446919383113762 0 0.17729308356343121 -0.28259596814131349 0 0.17236635084515639 -0.29476113694160883 0 0.16091224763727771 -0.28314036009338062 0 0.1508292363689587 -0.28932805491236291 0 0.1595618869819069 -0.29446919383113762 0 0.16091224763727771 -0.28314036009338062 0 0.17236635084515639 -0.29476113694160883 0 0.1595618869819069 -0.29446919383113762 0 0.16091224763727771 -0.28314036009338062 0 0.19648463516558981 -0.5 0 0.2040874442982562 -0.4750723076105986 0 0.18224081239923159 -0.48483550761679223 0 0.2040874442982562 -0.4750723076105986 0 0.18153695454437119 -0.46683529523665163 0 0.18224081239923159 -0.48483550761679223 0 0.2040874442982562 -0.4750723076105986 0 0.22049457680248391 -0.49999999999999928 0 0.2040874442982562 -0.4750723076105986 0 0.22049457680248391 -0.49999999999999928 0 0.2236301761340489 -0.48302415704983448 0 0.19648463516558981 -0.5 0 0.2040874442982562 -0.4750723076105986 0 0.22049457680248391 -0.49999999999999928 0 0.26435448448350718 -0.4787772290542629 0 0.2268251930842379 -0.49999999999999889 0 0.2365016635003776 -0.4779691767424159 0 0.2268251930842379 -0.49999999999999889 0 0.2365016635003776 -0.4779691767424159 0 0.2268251930842379 -0.49999999999999889 0 0.22049457680248391 -0.49999999999999928 0 0.2236301761340489 -0.48302415704983448 0 0.2268251930842379 -0.49999999999999889 0 0.2365016635003776 -0.4779691767424159 0 0.2236301761340489 -0.48302415704983448 0 0.2040874442982562 -0.4750723076105986 0 0.2236301761340489 -0.48302415704983448 0 0.23024200298488881 -0.46207930089615779 0 0.2365016635003776 -0.4779691767424159 0 0.2236301761340489 -0.48302415704983448 0 0.23024200298488881 -0.46207930089615779 0 0.25066913662040152 -0.46960567687327343 0 0.2365016635003776 -0.4779691767424159 0 0.2461781339165178 -0.45593835348483308 0 0.2365016635003776 -0.4779691767424159 0 0.2461781339165178 -0.45593835348483308 0 0.2365016635003776 -0.4779691767424159 0 0.23024200298488881 -0.46207930089615779 0 0.2461781339165178 -0.45593835348483308 0 0.23024200298488881 -0.46207930089615779 0 0.2461781339165178 -0.45593835348483308 0 0.23968257135213941 -0.44784739402877238 0 0.23968257135213941 -0.44784739402877238 0 0.21368144157308289 -0.44899600462498662 0 0.2288235487429581 -0.4277697562869478 0 0.23024200298488881 -0.46207930089615779 0 0.23968257135213941 -0.44784739402877238 0 0.21368144157308289 -0.44899600462498662 0 0.23968257135213941 -0.44784739402877238 0 0.21368144157308289 -0.44899600462498662 0 0.21368144157308289 -0.44899600462498662 0 0.19492301548916299 -0.43939045711320551 0 0.20160481816982831 -0.4272189687707354 0 0.2040874442982562 -0.4750723076105986 0 0.23024200298488881 -0.46207930089615779 0 0.21368144157308289 -0.44899600462498662 0 0.2040874442982562 -0.4750723076105986 0 0.18768031179402631 -0.45014461522119947 0 0.18153695454437119 -0.46683529523665163 0 0.2040874442982562 -0.4750723076105986 0 0.18768031179402631 -0.45014461522119947 0 0.2040874442982562 -0.4750723076105986 0 0.21368144157308289 -0.44899600462498662 0 0.18768031179402631 -0.45014461522119947 0 0.21368144157308289 -0.44899600462498662 0 0.18768031179402631 -0.45014461522119947 0 0.19492301548916299 -0.43939045711320551 0 0.21368144157308289 -0.44899600462498662 0 0.18768031179402631 -0.45014461522119947 0 0.18768031179402631 -0.45014461522119947 0 0.19492301548916299 -0.43939045711320551 0 0.18286475826282811 -0.4428282461311383 0 0.19492301548916299 -0.43939045711320551 0 0.20160481816982831 -0.4272189687707354 0 0.17438608759669841 -0.42666818125452288 0 0.20160481816982831 -0.4272189687707354 0 0.17438608759669841 -0.42666818125452288 0 0.20160481816982831 -0.4272189687707354 0 0.2086283830616808 -0.40733293002118898 0 0.19289629213530571 -0.40153387565190818 0 0.20160481816982831 -0.4272189687707354 0 0.19289629213530571 -0.40153387565190818 0 0.18491556676122409 -0.41482795304818149 0 0.2086283830616808 -0.40733293002118898 0 0.2196390259597796 -0.41485447665358749 0 0.22109399866912671 -0.39881904305015847 0 0.20160481816982831 -0.4272189687707354 0 0.2086283830616808 -0.40733293002118898 0 0.2196390259597796 -0.41485447665358749 0 0.21368144157308289 -0.44899600462498662 0 0.20160481816982831 -0.4272189687707354 0 0.2288235487429581 -0.4277697562869478 0 0.20160481816982831 -0.4272189687707354 0 0.2288235487429581 -0.4277697562869478 0 0.20160481816982831 -0.4272189687707354 0 0.2288235487429581 -0.4277697562869478 0 0.2196390259597796 -0.41485447665358749 0 0.25604227931608808 -0.42832054380316031 0 0.2288235487429581 -0.4277697562869478 0 0.25604227931608808 -0.42832054380316031 0 0.23968257135213941 -0.44784739402877238 0 0.2288235487429581 -0.4277697562869478 0 0.25604227931608808 -0.42832054380316031 0 0.2288235487429581 -0.4277697562869478 0 0.24595077245144839 -0.41665411901766092 0 0.25191562489914582 -0.403836855131881 0 0.24595077245144839 -0.41665411901766092 0 0.23417953234990649 -0.40773737494764661 0 0.2288235487429581 -0.4277697562869478 0 0.24595077245144839 -0.41665411901766092 0 0.23417953234990649 -0.40773737494764661 0 0.2196390259597796 -0.41485447665358749 0 0.23417953234990649 -0.40773737494764661 0 0.22109399866912671 -0.39881904305015847 0 0.2288235487429581 -0.4277697562869478 0 0.2196390259597796 -0.41485447665358749 0 0.23417953234990649 -0.40773737494764661 0 0.22109399866912671 -0.39881904305015847 0 0.2271044003362597 -0.38774329918042172 0 0.21807952791558899 -0.38844114998579821 0 0.22109399866912671 -0.39881904305015847 0 0.23301430555117841 -0.39392370191501308 0 0.2271044003362597 -0.38774329918042172 0 0.23417953234990649 -0.40773737494764661 0 0.22109399866912671 -0.39881904305015847 0 0.23301430555117841 -0.39392370191501308 0 0.25191562489914582 -0.403836855131881 0 0.23417953234990649 -0.40773737494764661 0 0.24094093667886171 -0.39725557204583978 0 0.23417953234990649 -0.40773737494764661 0 0.23301430555117841 -0.39392370191501308 0 0.24094093667886171 -0.39725557204583978 0 0.23301430555117841 -0.39392370191501308 0 0.24094093667886171 -0.39725557204583978 0 0.2407773248044412 -0.38859031849946579 0 0.25191562489914582 -0.403836855131881 0 0.24094093667886171 -0.39725557204583978 0 0.24749080516554131 -0.39358411427499751 0 0.24094093667886171 -0.39725557204583978 0 0.24749080516554131 -0.39358411427499751 0 0.2407773248044412 -0.38859031849946579 0 0.26013406401590672 -0.38047882491363849 0 0.23982637591521519 -0.37606966838762163 0 0.25262985795907278 -0.38262555595729458 0 0.23982637591521519 -0.37606966838762163 0 0.23642754580480091 -0.37529463544741981 0 0.25262985795907278 -0.38262555595729458 0 0.24055694029639499 -0.37889327973663239 0 0.23642754580480091 -0.37529463544741981 0 0.25831589449737669 -0.38339136364634541 0 0.23982637591521519 -0.37606966838762163 0 0.25262985795907278 -0.38262555595729458 0 0.23642754580480091 -0.37529463544741981 0 0.25375531452165939 -0.37623440762837412 0 0.247834074023594 -0.37296100291649509 0 0.23982637591521519 -0.37606966838762163 0 0.25262985795907278 -0.38262555595729458 0 0.24614515364075229 -0.38323594071672878 0 0.24055694029639499 -0.37889327973663239 0 0.24614515364075229 -0.38323594071672878 0 0.24342197528155529 -0.38407721412551549 0 0.24055694029639499 -0.37889327973663239 0 0.25262985795907278 -0.38262555595729458 0 0.24614515364075229 -0.38323594071672878 0 0.24797184102598641 -0.38734771304747279 0 0.24749080516554131 -0.39358411427499751 0 0.24797184102598641 -0.38734771304747279 0 0.2407773248044412 -0.38859031849946579 0 0.24797184102598641 -0.38734771304747279 0 0.24342197528155529 -0.38407721412551549 0 0.2407773248044412 -0.38859031849946579 0 0.24614515364075229 -0.38323594071672878 0 0.24797184102598641 -0.38734771304747279 0 0.24342197528155529 -0.38407721412551549 0 0.24342197528155529 -0.38407721412551549 0 0.239706928213968 -0.38291371747540731 0 0.2407773248044412 -0.38859031849946579 0 0.239706928213968 -0.38291371747540731 0 0.2407773248044412 -0.38859031849946579 0 0.23533994528121571 -0.38329647407915662 0 0.23301430555117841 -0.39392370191501308 0 0.2407773248044412 -0.38859031849946579 0 0.23533994528121571 -0.38329647407915662 0 0.23533994528121571 -0.38329647407915662 0 0.23527527895307479 -0.379273866306584 0 0.23759654761254489 -0.37990744517117692 0 0.239706928213968 -0.38291371747540731 0 0.23533994528121571 -0.38329647407915662 0 0.23759654761254489 -0.37990744517117692 0 0.239706928213968 -0.38291371747540731 0 0.23759654761254489 -0.37990744517117692 0 0.24055694029639499 -0.37889327973663239 0 0.24342197528155529 -0.38407721412551549 0 0.239706928213968 -0.38291371747540731 0 0.24055694029639499 -0.37889327973663239 0 0.23527527895307479 -0.379273866306584 0 0.23642754580480091 -0.37529463544741981 0 0.2366646985295161 -0.37747021052599122 0 0.23982637591521519 -0.37606966838762163 0 0.23642754580480091 -0.37529463544741981 0 0.24055694029639499 -0.37889327973663239 0 0.23642754580480091 -0.37529463544741981 0 0.2366646985295161 -0.37747021052599122 0 0.23527527895307479 -0.379273866306584 0 0.23642754580480091 -0.37529463544741981 0 0.23312232593844179 -0.3771655245687674 0 0.23759654761254489 -0.37990744517117692 0 0.24055694029639499 -0.37889327973663239 0 0.2366646985295161 -0.37747021052599122 0 0.23527527895307479 -0.379273866306584 0 0.23759654761254489 -0.37990744517117692 0 0.2366646985295161 -0.37747021052599122 0 0.23642754580480091 -0.37529463544741981 0 0.23312232593844179 -0.3771655245687674 0 0.22935422823584611 -0.37695552342907868 0 0.23312232593844179 -0.3771655245687674 0 0.23075238460300621 -0.38090926466039121 0 0.22935422823584611 -0.37695552342907868 0 0.23642754580480091 -0.37529463544741981 0 0.22935422823584611 -0.37695552342907868 0 0.22380639522206469 -0.37549259574283528 0 0.23533994528121571 -0.38329647407915662 0 0.23527527895307479 -0.379273866306584 0 0.23075238460300621 -0.38090926466039121 0 0.23527527895307479 -0.379273866306584 0 0.23312232593844179 -0.3771655245687674 0 0.23075238460300621 -0.38090926466039121 0 0.23075238460300621 -0.38090926466039121 0 0.22935422823584611 -0.37695552342907868 0 0.2243462399974421 -0.38107016139201311 0 0.23301430555117841 -0.39392370191501308 0 0.23533994528121571 -0.38329647407915662 0 0.2271044003362597 -0.38774329918042172 0 0.23533994528121571 -0.38329647407915662 0 0.23075238460300621 -0.38090926466039121 0 0.2271044003362597 -0.38774329918042172 0 0.23075238460300621 -0.38090926466039121 0 0.2271044003362597 -0.38774329918042172 0 0.2243462399974421 -0.38107016139201311 0 0.2271044003362597 -0.38774329918042172 0 0.2243462399974421 -0.38107016139201311 0 0.21807952791558899 -0.38844114998579821 0 0.2243462399974421 -0.38107016139201311 0 0.21729133252485441 -0.37717975934536557 0 0.21807952791558899 -0.38844114998579821 0 0.22935422823584611 -0.37695552342907868 0 0.22380639522206469 -0.37549259574283528 0 0.2243462399974421 -0.38107016139201311 0 0.22380639522206469 -0.37549259574283528 0 0.2243462399974421 -0.38107016139201311 0 0.21729133252485441 -0.37717975934536557 0 0.21729133252485441 -0.37717975934536557 0 0.21172146962880081 -0.38203217310278498 0 0.21807952791558899 -0.38844114998579821 0 0.2141485145971371 -0.37049455273470289 0 0.21729133252485441 -0.37717975934536557 0 0.21172146962880081 -0.38203217310278498 0 0.21172146962880081 -0.38203217310278498 0 0.2079077803743635 -0.39423828597955568 0 0.19462390421506151 -0.38765940086423678 0 0.2141485145971371 -0.37049455273470289 0 0.21172146962880081 -0.38203217310278498 0 0.20133278074283961 -0.37645701622005928 0 0.21172146962880081 -0.38203217310278498 0 0.21807952791558899 -0.38844114998579821 0 0.2079077803743635 -0.39423828597955568 0 0.2086283830616808 -0.40733293002118898 0 0.2079077803743635 -0.39423828597955568 0 0.19289629213530571 -0.40153387565190818 0 0.22109399866912671 -0.39881904305015847 0 0.21807952791558899 -0.38844114998579821 0 0.2079077803743635 -0.39423828597955568 0 0.2086283830616808 -0.40733293002118898 0 0.22109399866912671 -0.39881904305015847 0 0.2079077803743635 -0.39423828597955568 0 0.2079077803743635 -0.39423828597955568 0 0.19289629213530571 -0.40153387565190818 0 0.19462390421506151 -0.38765940086423678 0 0.19289629213530571 -0.40153387565190818 0 0.19462390421506151 -0.38765940086423678 0 0.17645588608826671 -0.38306977467941727 0 0.21172146962880081 -0.38203217310278498 0 0.19462390421506151 -0.38765940086423678 0 0.20133278074283961 -0.37645701622005928 0 0.19462390421506151 -0.38765940086423678 0 0.20133278074283961 -0.37645701622005928 0 0.17645588608826671 -0.38306977467941727 0 0.20133278074283961 -0.37645701622005928 0 0.17645588608826671 -0.38306977467941727 0 0.1863121642240772 -0.37048192246816652 0 0.20133278074283961 -0.37645701622005928 0 0.17645588608826671 -0.38306977467941727 0 0.1863121642240772 -0.37048192246816652 0 0.16586473307507801 -0.37334626187033249 0 0.17645588608826671 -0.38306977467941727 0 0.19289629213530571 -0.40153387565190818 0 0.17645588608826671 -0.38306977467941727 0 0.1707750691430642 -0.40389078651555937 0 0.1707750691430642 -0.40389078651555937 0 0.15157899143369369 -0.38968253313877532 0 0.15078338402556021 -0.40807071556887242 0 0.17645588608826671 -0.38306977467941727 0 0.1707750691430642 -0.40389078651555937 0 0.15157899143369369 -0.38968253313877532 0 0.16586473307507801 -0.37334626187033249 0 0.17645588608826671 -0.38306977467941727 0 0.15157899143369369 -0.38968253313877532 0 0.16586473307507801 -0.37334626187033249 0 0.15170901343536339 -0.37586316969125472 0 0.15157899143369369 -0.38968253313877532 0 0.17645588608826671 -0.38306977467941727 0 0.15157899143369369 -0.38968253313877532 0 0.15170901343536339 -0.37586316969125472 0 0.15157899143369369 -0.38968253313877532 0 0.13614122473974241 -0.38234841372082068 0 0.12964343717385621 -0.367966648186694 0 0.15170901343536339 -0.37586316969125472 0 0.13614122473974241 -0.38234841372082068 0 0.15157899143369369 -0.38968253313877532 0 0.13614122473974241 -0.38234841372082068 0 0.12670209677912081 -0.39629529159813331 0 0.13614122473974241 -0.38234841372082068 0 0.12670209677912081 -0.39629529159813331 0 0.1210725848766777 -0.38193442598924598 0 0.12964343717385621 -0.367966648186694 0 0.13614122473974241 -0.38234841372082068 0 0.1210725848766777 -0.38193442598924598 0 0.15157899143369369 -0.38968253313877532 0 0.12670209677912081 -0.39629529159813331 0 0.15157899143369369 -0.38968253313877532 0 0.12670209677912081 -0.39629529159813331 0 0.15078338402556021 -0.40807071556887242 0 0.15078338402556021 -0.40807071556887242 0 0.14716735702356859 -0.42611739373831048 0 0.1210404942669823 -0.41796687969920998 0 0.12670209677912081 -0.39629529159813331 0 0.15078338402556021 -0.40807071556887242 0 0.1210404942669823 -0.41796687969920998 0 0.14716735702356859 -0.42611739373831048 0 0.12824500471797429 -0.44111862644875499 0 0.1210404942669823 -0.41796687969920998 0 0.14716735702356859 -0.42611739373831048 0 0.1668897182361771 -0.43896749182371869 0 0.1531527583814484 -0.44627970193302202 0 0.14716735702356859 -0.42611739373831048 0 0.17438608759669841 -0.42666818125452288 0 0.14716735702356859 -0.42611739373831048 0 0.17438608759669841 -0.42666818125452288 0 0.1668897182361771 -0.43896749182371869 0 0.15078338402556021 -0.40807071556887242 0 0.14716735702356859 -0.42611739373831048 0 0.17438608759669841 -0.42666818125452288 0 0.1707750691430642 -0.40389078651555937 0 0.15078338402556021 -0.40807071556887242 0 0.17438608759669841 -0.42666818125452288 0 0.19289629213530571 -0.40153387565190818 0 0.1707750691430642 -0.40389078651555937 0 0.18491556676122409 -0.41482795304818149 0 0.1707750691430642 -0.40389078651555937 0 0.18491556676122409 -0.41482795304818149 0 0.17438608759669841 -0.42666818125452288 0 0.19492301548916299 -0.43939045711320551 0 0.17438608759669841 -0.42666818125452288 0 0.18286475826282811 -0.4428282461311383 0 0.20160481816982831 -0.4272189687707354 0 0.18491556676122409 -0.41482795304818149 0 0.17438608759669841 -0.42666818125452288 0 0.17438608759669841 -0.42666818125452288 0 0.18286475826282811 -0.4428282461311383 0 0.1668897182361771 -0.43896749182371869 0 0.17394576450835539 -0.4507513444933739 0 0.18286475826282811 -0.4428282461311383 0 0.1668897182361771 -0.43896749182371869 0 0.18768031179402631 -0.45014461522119947 0 0.17394576450835539 -0.4507513444933739 0 0.17886338369508259 -0.45709669188121332 0 0.18768031179402631 -0.45014461522119947 0 0.18286475826282811 -0.4428282461311383 0 0.18768031179402631 -0.45014461522119947 0 0.17394576450835539 -0.4507513444933739 0 0.18286475826282811 -0.4428282461311383 0 0.18768031179402631 -0.45014461522119947 0 0.17394576450835539 -0.4507513444933739 0 0.18153695454437119 -0.46683529523665163 0 0.17886338369508259 -0.45709669188121332 0 0.16365799726421909 -0.46024830085937901 0 0.18768031179402631 -0.45014461522119947 0 0.18153695454437119 -0.46683529523665163 0 0.17886338369508259 -0.45709669188121332 0 0.17394576450835539 -0.4507513444933739 0 0.17886338369508259 -0.45709669188121332 0 0.16365799726421909 -0.46024830085937901 0 0.18153695454437119 -0.46683529523665163 0 0.16365799726421909 -0.46024830085937901 0 0.165325283380862 -0.47414975733316572 0 0.16365799726421909 -0.46024830085937901 0 0.14976704045446479 -0.47161351470140328 0 0.165325283380862 -0.47414975733316572 0 0.17394576450835539 -0.4507513444933739 0 0.1668897182361771 -0.43896749182371869 0 0.1531527583814484 -0.44627970193302202 0 0.17394576450835539 -0.4507513444933739 0 0.16365799726421909 -0.46024830085937901 0 0.1531527583814484 -0.44627970193302202 0 0.14716735702356859 -0.42611739373831048 0 0.1531527583814484 -0.44627970193302202 0 0.12824500471797429 -0.44111862644875499 0 0.1531527583814484 -0.44627970193302202 0 0.12824500471797429 -0.44111862644875499 0 0.1395425460212113 -0.4600171342137287 0 0.12824500471797429 -0.44111862644875499 0 0.1395425460212113 -0.4600171342137287 0 0.1104953765956751 -0.45877784573399649 0 0.16365799726421909 -0.46024830085937901 0 0.1395425460212113 -0.4600171342137287 0 0.14976704045446479 -0.47161351470140328 0 0.16365799726421909 -0.46024830085937901 0 0.1531527583814484 -0.44627970193302202 0 0.1395425460212113 -0.4600171342137287 0 0.1395425460212113 -0.4600171342137287 0 0.14976704045446479 -0.47161351470140328 0 0.13696113909529911 -0.4763510840783734 0 0.14489004681788481 -0.48707487866658411 0 0.165325283380862 -0.47414975733316572 0 0.14976704045446479 -0.47161351470140328 0 0.14489004681788481 -0.48707487866658411 0 0.165325283380862 -0.47414975733316572 0 0.14976704045446479 -0.47161351470140328 0 0.13696113909529911 -0.4763510840783734 0 0.14489004681788481 -0.48707487866658411 0 0.1395425460212113 -0.4600171342137287 0 0.13696113909529911 -0.4763510840783734 0 0.1234056689517148 -0.4753591627729189 0 0.13696113909529911 -0.4763510840783734 0 0.124454810254907 -0.50000000000000133 0 0.1234056689517148 -0.4753591627729189 0 0.13696113909529911 -0.4763510840783734 0 0.14489004681788481 -0.48707487866658411 0 0.124454810254907 -0.50000000000000133 0 0.14846475189180119 -0.5 0 0.14489004681788481 -0.48707487866658411 0 0.124454810254907 -0.50000000000000133 0 0.14489004681788481 -0.48707487866658411 0 0.124454810254907 -0.50000000000000133 0 0.14846475189180119 -0.5 0 0.14489004681788481 -0.48707487866658411 0 0.16064007625764709 -0.48935932530963699 0 0.14846475189180119 -0.5 0 0.16064007625764709 -0.48935932530963699 0 0.17247469352869549 -0.5 0 0.16064007625764709 -0.48935932530963699 0 0.17247469352869549 -0.5 0 0.18224081239923159 -0.48483550761679223 0 0.16064007625764709 -0.48935932530963699 0 0.165325283380862 -0.47414975733316572 0 0.18224081239923159 -0.48483550761679223 0 0.14489004681788481 -0.48707487866658411 0 0.16064007625764709 -0.48935932530963699 0 0.165325283380862 -0.47414975733316572 0 0.18153695454437119 -0.46683529523665163 0 0.165325283380862 -0.47414975733316572 0 0.18224081239923159 -0.48483550761679223 0 0.19648463516558981 -0.5 0 0.17247469352869549 -0.5 0 0.18224081239923159 -0.48483550761679223 0 0.075561413286511586 -0.48341774274696919 0 0.05997095786520034 -0.47738020212921378 0 0.054311841330275681 -0.50000000000000222 0 0.077692830971819449 -0.5 0 0.075561413286511586 -0.48341774274696919 0 0.054311841330275681 -0.50000000000000222 0 0.075561413286511586 -0.48341774274696919 0 0.089907080202995024 -0.47228698575551681 0 0.065630074400124444 -0.45476040425842512 0 0.075561413286511586 -0.48341774274696919 0 0.065630074400124444 -0.45476040425842512 0 0.05997095786520034 -0.47738020212921378 0 0.075561413286511586 -0.48341774274696919 0 0.089907080202995024 -0.47228698575551681 0 0.1010738206133632 -0.5 0 0.077692830971819449 -0.5 0 0.075561413286511586 -0.48341774274696919 0 0.1010738206133632 -0.5 0 0.089907080202995024 -0.47228698575551681 0 0.1010738206133632 -0.5 0 0.1071389328979864 -0.48151675020802559 0 0.1010738206133632 -0.5 0 0.124454810254907 -0.50000000000000133 0 0.1071389328979864 -0.48151675020802559 0 0.124454810254907 -0.50000000000000133 0 0.1234056689517148 -0.4753591627729189 0 0.1071389328979864 -0.48151675020802559 0 0.1234056689517148 -0.4753591627729189 0 0.1071389328979864 -0.48151675020802559 0 0.1104953765956751 -0.45877784573399649 0 0.089907080202995024 -0.47228698575551681 0 0.1071389328979864 -0.48151675020802559 0 0.1104953765956751 -0.45877784573399649 0 0.089907080202995024 -0.47228698575551681 0 0.1104953765956751 -0.45877784573399649 0 0.087691320410763801 -0.45057620523792929 0 0.1395425460212113 -0.4600171342137287 0 0.1234056689517148 -0.4753591627729189 0 0.1104953765956751 -0.45877784573399649 0 0.12824500471797429 -0.44111862644875499 0 0.1104953765956751 -0.45877784573399649 0 0.1011348799199759 -0.43491518405407159 0 0.1104953765956751 -0.45877784573399649 0 0.087691320410763801 -0.45057620523792929 0 0.1011348799199759 -0.43491518405407159 0 0.087691320410763801 -0.45057620523792929 0 0.071289190935048555 -0.43214060638763652 0 0.1011348799199759 -0.43491518405407159 0 0.089907080202995024 -0.47228698575551681 0 0.087691320410763801 -0.45057620523792929 0 0.065630074400124444 -0.45476040425842512 0 0.065630074400124444 -0.45476040425842512 0 0.05997095786520034 -0.47738020212921378 0 0.065630074400124444 -0.45476040425842512 0 0.071289190935048555 -0.43214060638763652 0 0.065630074400124444 -0.45476040425842512 0 0.071289190935048555 -0.43214060638763652 0 0.056783731180929831 -0.44052937899198569 0 0.087691320410763801 -0.45057620523792929 0 0.065630074400124444 -0.45476040425842512 0 0.071289190935048555 -0.43214060638763652 0 0.076948307469974747 -0.40952080851684841 0 0.051981409302680248 -0.41615749164600191 0 0.071289190935048555 -0.43214060638763652 0 0.076948307469974747 -0.40952080851684841 0 0.051981409302680248 -0.41615749164600191 0 0.076948307469974747 -0.40952080851684841 0 0.060671962008258362 -0.3976415879987123 0 0.051981409302680248 -0.41615749164600191 0 0.071289190935048555 -0.43214060638763652 0 0.076948307469974747 -0.40952080851684841 0 0.071289190935048555 -0.43214060638763652 0 0.076948307469974747 -0.40952080851684841 0 0.093227904486638716 -0.41772443015035837 0 0.076948307469974747 -0.40952080851684841 0 0.093227904486638716 -0.41772443015035837 0 0.1018252021245479 -0.40290805005749131 0 0.071289190935048555 -0.43214060638763652 0 0.093227904486638716 -0.41772443015035837 0 0.1011348799199759 -0.43491518405407159 0 0.093227904486638716 -0.41772443015035837 0 0.1011348799199759 -0.43491518405407159 0 0.1210404942669823 -0.41796687969920998 0 0.12824500471797429 -0.44111862644875499 0 0.1011348799199759 -0.43491518405407159 0 0.1210404942669823 -0.41796687969920998 0 0.093227904486638716 -0.41772443015035837 0 0.1210404942669823 -0.41796687969920998 0 0.1018252021245479 -0.40290805005749131 0 0.12670209677912081 -0.39629529159813331 0 0.1018252021245479 -0.40290805005749131 0 0.12670209677912081 -0.39629529159813331 0 0.1210404942669823 -0.41796687969920998 0 0.1018252021245479 -0.40290805005749131 0 0.12670209677912081 -0.39629529159813331 0 0.1018252021245479 -0.40290805005749131 0 0.1210725848766777 -0.38193442598924598 0 0.1018252021245479 -0.40290805005749131 0 0.1210725848766777 -0.38193442598924598 0 0.10713483520734431 -0.37185186770187001 0 0.1018252021245479 -0.40290805005749131 0 0.091579777613193067 -0.3805998763552591 0 0.10713483520734431 -0.37185186770187001 0 0.091579777613193067 -0.3805998763552591 0 0.081501561354335506 -0.39132120405861381 0 0.077446040688824352 -0.37322460432357518 0 0.076948307469974747 -0.40952080851684841 0 0.1018252021245479 -0.40290805005749131 0 0.081501561354335506 -0.39132120405861381 0 0.1018252021245479 -0.40290805005749131 0 0.091579777613193067 -0.3805998763552591 0 0.081501561354335506 -0.39132120405861381 0 0.076948307469974747 -0.40952080851684841 0 0.1018252021245479 -0.40290805005749131 0 0.076948307469974747 -0.40952080851684841 0 0.081501561354335506 -0.39132120405861381 0 0.076948307469974747 -0.40952080851684841 0 0.081501561354335506 -0.39132120405861381 0 0.060671962008258362 -0.3976415879987123 0 0.081501561354335506 -0.39132120405861381 0 0.063808457074631231 -0.38151283302859251 0 0.060671962008258362 -0.3976415879987123 0 0.081501561354335506 -0.39132120405861381 0 0.063808457074631231 -0.38151283302859251 0 0.077446040688824352 -0.37322460432357518 0 0.063808457074631231 -0.38151283302859251 0 0.048134006740101917 -0.38510721858403829 0 0.060671962008258362 -0.3976415879987123 0 0.063808457074631231 -0.38151283302859251 0 0.048134006740101917 -0.38510721858403829 0 0.052224593376763599 -0.37423672689752291 0 0.048134006740101917 -0.38510721858403829 0 0.052224593376763599 -0.37423672689752291 0 0.041122553359336518 -0.3745189396943413 0 0.048134006740101917 -0.38510721858403829 0 0.060671962008258362 -0.3976415879987123 0 0.040799338141474989 -0.40028610027700767 0 0.060671962008258362 -0.3976415879987123 0 0.040799338141474989 -0.40028610027700767 0 0.051981409302680248 -0.41615749164600191 0 0.040799338141474989 -0.40028610027700767 0 0.031450163804322147 -0.38299648014708249 0 0.02273834873978673 -0.39721307904883207 0 0.048134006740101917 -0.38510721858403829 0 0.031450163804322147 -0.38299648014708249 0 0.041122553359336518 -0.3745189396943413 0 0.048134006740101917 -0.38510721858403829 0 0.040799338141474989 -0.40028610027700767 0 0.031450163804322147 -0.38299648014708249 0 0.031450163804322147 -0.38299648014708249 0 0.014416824747154619 -0.37592328633005739 0 0.02273834873978673 -0.39721307904883207 0 0.031450163804322147 -0.38299648014708249 0 0.014416824747154619 -0.37592328633005739 0 0.030258067008644449 -0.3667440264152243 0 0.014416824747154619 -0.37592328633005739 0 0.001178295979689481 -0.3881409324793787 0 0.02273834873978673 -0.39721307904883207 0 0.014416824747154619 -0.37592328633005739 0 0.001178295979689481 -0.3881409324793787 0 0.0014496837259096161 -0.37019917058000251 0 0.001178295979689481 -0.3881409324793787 0 0.02273834873978673 -0.39721307904883207 0 0.0080763184361985277 -0.4079839549095946 0 0.040799338141474989 -0.40028610027700767 0 0.02273834873978673 -0.39721307904883207 0 0.030081462129137919 -0.41744632225413558 0 0.030081462129137919 -0.41744632225413558 0 0.0080763184361985277 -0.4079839549095946 0 0.010569624309191479 -0.42328766487564329 0 0.02273834873978673 -0.39721307904883207 0 0.030081462129137919 -0.41744632225413558 0 0.0080763184361985277 -0.4079839549095946 0 -0.0062201247180692348 -0.41868752424963762 0 0.0080763184361985277 -0.4079839549095946 0 0.010569624309191479 -0.42328766487564329 0 -0.0062201247180692348 -0.41868752424963762 0 0.00098278496791487282 -0.43499994183307022 0 0.010569624309191479 -0.42328766487564329 0 0.00098278496791487282 -0.43499994183307022 0 0.010569624309191479 -0.42328766487564329 0 0.021992614728686671 -0.4340029927020036 0 0.030081462129137919 -0.41744632225413558 0 0.021992614728686671 -0.4340029927020036 0 0.038465138029012913 -0.44150166477683561 0 0.030081462129137919 -0.41744632225413558 0 0.010569624309191479 -0.42328766487564329 0 0.021992614728686671 -0.4340029927020036 0 0.030081462129137919 -0.41744632225413558 0 0.051981409302680248 -0.41615749164600191 0 0.038465138029012913 -0.44150166477683561 0 0.040799338141474989 -0.40028610027700767 0 0.030081462129137919 -0.41744632225413558 0 0.051981409302680248 -0.41615749164600191 0 0.051981409302680248 -0.41615749164600191 0 0.056783731180929831 -0.44052937899198569 0 0.038465138029012913 -0.44150166477683561 0 0.071289190935048555 -0.43214060638763652 0 0.051981409302680248 -0.41615749164600191 0 0.056783731180929831 -0.44052937899198569 0 0.065630074400124444 -0.45476040425842512 0 0.056783731180929831 -0.44052937899198569 0 0.048539989077827868 -0.46041700379042189 0 0.056783731180929831 -0.44052937899198569 0 0.048539989077827868 -0.46041700379042189 0 0.038465138029012913 -0.44150166477683561 0 0.065630074400124444 -0.45476040425842512 0 0.048539989077827868 -0.46041700379042189 0 0.05997095786520034 -0.47738020212921378 0 0.048539989077827868 -0.46041700379042189 0 0.038465138029012913 -0.44150166477683561 0 0.029297258176345299 -0.46836801061636929 0 0.021992614728686671 -0.4340029927020036 0 0.038465138029012913 -0.44150166477683561 0 0.01414289402616341 -0.45028778696906641 0 -0.01021388243781865 -0.45148415516460921 0 0.00098278496791487282 -0.43499994183307022 0 0.01414289402616341 -0.45028778696906641 0 0.00098278496791487282 -0.43499994183307022 0 0.021992614728686671 -0.4340029927020036 0 0.01414289402616341 -0.45028778696906641 0 -0.01021388243781865 -0.45148415516460921 0 0.01414289402616341 -0.45028778696906641 0 0.0058249948487519992 -0.47378655522329088 0 0.038465138029012913 -0.44150166477683561 0 0.01414289402616341 -0.45028778696906641 0 0.029297258176345299 -0.46836801061636929 0 0.01414289402616341 -0.45028778696906641 0 0.029297258176345299 -0.46836801061636929 0 0.0058249948487519992 -0.47378655522329088 0 0.029297258176345299 -0.46836801061636929 0 0.0058249948487519992 -0.47378655522329088 0 0.024390952079798359 -0.5 0 -0.0055299371706789557 -0.5 0 0.0058249948487519992 -0.47378655522329088 0 0.024390952079798359 -0.5 0 0.024390952079798359 -0.5 0 0.043002343019838969 -0.48403489736873301 0 0.054311841330275681 -0.50000000000000222 0 0.029297258176345299 -0.46836801061636929 0 0.024390952079798359 -0.5 0 0.043002343019838969 -0.48403489736873301 0 0.048539989077827868 -0.46041700379042189 0 0.029297258176345299 -0.46836801061636929 0 0.043002343019838969 -0.48403489736873301 0 0.048539989077827868 -0.46041700379042189 0 0.043002343019838969 -0.48403489736873301 0 0.05997095786520034 -0.47738020212921378 0 0.05997095786520034 -0.47738020212921378 0 0.054311841330275681 -0.50000000000000222 0 0.043002343019838969 -0.48403489736873301 0 0.05997095786520034 -0.47738020212921378 0 0.054311841330275681 -0.50000000000000222 0 0.087241639590741368 -0.28936629262043623 0 0.090461813947703196 -0.30275748092437949 0 0.074265614944040576 -0.29537428178351749 0 0.087241639590741368 -0.28936629262043623 0 0.077654089852171287 -0.28125970022802832 0 0.092016692267343686 -0.27859791770952169 0 0.087241639590741368 -0.28936629262043623 0 0.074265614944040576 -0.29537428178351749 0 0.077654089852171287 -0.28125970022802832 0 0.087241639590741368 -0.28936629262043623 0 0.092016692267343686 -0.27859791770952169 0 0.10180998694244819 -0.28884208245673387 0 0.087241639590741368 -0.28936629262043623 0 0.090461813947703196 -0.30275748092437949 0 0.10180998694244819 -0.28884208245673387 0 0.090461813947703196 -0.30275748092437949 0 0.076933733953785777 -0.312287948792907 0 0.06912499697456273 -0.30911339078243538 0 0.090461813947703196 -0.30275748092437949 0 0.092387068917125961 -0.3119314518137129 0 0.086387084638438055 -0.31128763931219089 0 0.090461813947703196 -0.30275748092437949 0 0.086387084638438055 -0.31128763931219089 0 0.076933733953785777 -0.312287948792907 0 0.090461813947703196 -0.30275748092437949 0 0.06912499697456273 -0.30911339078243538 0 0.060914123683401412 -0.30514867006951879 0 0.090461813947703196 -0.30275748092437949 0 0.074265614944040576 -0.29537428178351749 0 0.060914123683401412 -0.30514867006951879 0 0.090461813947703196 -0.30275748092437949 0 0.060914123683401412 -0.30514867006951879 0 0.076933733953785777 -0.312287948792907 0 0.06912499697456273 -0.30911339078243538 0 0.068385718831499187 -0.3157777733773246 0 0.06912499697456273 -0.30911339078243538 0 0.064288197420267479 -0.30787531134681517 0 0.060914123683401412 -0.30514867006951879 0 0.06912499697456273 -0.30911339078243538 0 0.065378483169108007 -0.31173360782830978 0 0.068385718831499187 -0.3157777733773246 0 0.064288197420267479 -0.30787531134681517 0 0.061864727394912708 -0.30757379433864318 0 0.062113958188891441 -0.30992056793374018 0 0.065378483169108007 -0.31173360782830978 0 0.061487738162087698 -0.31450880719725333 0 0.062113958188891441 -0.30992056793374018 0 0.06912499697456273 -0.30911339078243538 0 0.064288197420267479 -0.30787531134681517 0 0.065378483169108007 -0.31173360782830978 0 0.064288197420267479 -0.30787531134681517 0 0.065378483169108007 -0.31173360782830978 0 0.062113958188891441 -0.30992056793374018 0 0.064131802234868335 -0.29764185839350082 0 0.074265614944040576 -0.29537428178351749 0 0.060914123683401412 -0.30514867006951879 0 0.064131802234868335 -0.29764185839350082 0 0.064929538038565784 -0.29313043204618 0 0.074265614944040576 -0.29537428178351749 0 0.064929538038565784 -0.29313043204618 0 0.074265614944040576 -0.29537428178351749 0 0.070108322175904653 -0.28853399361832732 0 0.074265614944040576 -0.29537428178351749 0 0.077654089852171287 -0.28125970022802832 0 0.070108322175904653 -0.28853399361832732 0 0.064929538038565784 -0.29313043204618 0 0.070108322175904653 -0.28853399361832732 0 0.062765143881292465 -0.28424374038480138 0 0.077654089852171287 -0.28125970022802832 0 0.070108322175904653 -0.28853399361832732 0 0.062765143881292465 -0.28424374038480138 0 0.062765143881292465 -0.28424374038480138 0 0.071803253486697013 -0.26766580004284579 0 0.056220440876533863 -0.26916260607052173 0 0.077654089852171287 -0.28125970022802832 0 0.062765143881292465 -0.28424374038480138 0 0.071803253486697013 -0.26766580004284579 0 0.071803253486697013 -0.26766580004284579 0 0.065335708183982863 -0.25499807618111581 0 0.08209704847362069 -0.25074917337938168 0 0.071803253486697013 -0.26766580004284579 0 0.065335708183982863 -0.25499807618111581 0 0.056220440876533863 -0.26916260607052173 0 0.071803253486697013 -0.26766580004284579 0 0.08209704847362069 -0.25074917337938168 0 0.087435426970014343 -0.26572614325516442 0 0.08209704847362069 -0.25074917337938168 0 0.087435426970014343 -0.26572614325516442 0 0.10195227185327931 -0.25264655321542367 0 0.077654089852171287 -0.28125970022802832 0 0.071803253486697013 -0.26766580004284579 0 0.087435426970014343 -0.26572614325516442 0 0.077654089852171287 -0.28125970022802832 0 0.087435426970014343 -0.26572614325516442 0 0.092016692267343686 -0.27859791770952169 0 0.087435426970014343 -0.26572614325516442 0 0.092016692267343686 -0.27859791770952169 0 0.10383721457856609 -0.27060168385054262 0 0.10383721457856609 -0.27060168385054262 0 0.1189280483528791 -0.27808952203523229 0 0.10180998694244819 -0.28884208245673387 0 0.092016692267343686 -0.27859791770952169 0 0.10383721457856609 -0.27060168385054262 0 0.10180998694244819 -0.28884208245673387 0 0.10383721457856609 -0.27060168385054262 0 0.10195227185327931 -0.25264655321542367 0 0.1208808610854319 -0.25970788443117943 0 0.087435426970014343 -0.26572614325516442 0 0.10383721457856609 -0.27060168385054262 0 0.10195227185327931 -0.25264655321542367 0 0.10383721457856609 -0.27060168385054262 0 0.1208808610854319 -0.25970788443117943 0 0.1189280483528791 -0.27808952203523229 0 0.13398591315260419 -0.27567973463621481 0 0.1208808610854319 -0.25970788443117943 0 0.1189280483528791 -0.27808952203523229 0 0.1189280483528791 -0.27808952203523229 0 0.1158438525028663 -0.29545281856486583 0 0.10180998694244819 -0.28884208245673387 0 0.1278890963722015 -0.28956777061598998 0 0.1189280483528791 -0.27808952203523229 0 0.1158438525028663 -0.29545281856486583 0 0.090461813947703196 -0.30275748092437949 0 0.10180998694244819 -0.28884208245673387 0 0.10424538547426861 -0.30742011652108298 0 0.1158438525028663 -0.29545281856486583 0 0.10180998694244819 -0.28884208245673387 0 0.10424538547426861 -0.30742011652108298 0 0.090461813947703196 -0.30275748092437949 0 0.092387068917125961 -0.3119314518137129 0 0.10424538547426861 -0.30742011652108298 0 0.12683322860644439 -0.31098052818449412 0 0.1278890963722015 -0.28956777061598998 0 0.1158438525028663 -0.29545281856486583 0 0.12683322860644439 -0.31098052818449412 0 0.1158438525028663 -0.29545281856486583 0 0.10424538547426861 -0.30742011652108298 0 0.1277096158765349 -0.33167236584288751 0 0.1042400327014259 -0.32237860651141509 0 0.1277096158765349 -0.33167236584288751 0 0.12683322860644439 -0.31098052818449412 0 0.1042400327014259 -0.32237860651141509 0 0.12683322860644439 -0.31098052818449412 0 0.1042400327014259 -0.32237860651141509 0 0.12683322860644439 -0.31098052818449412 0 0.10424538547426861 -0.30742011652108298 0 0.1042400327014259 -0.32237860651141509 0 0.1277096158765349 -0.33167236584288751 0 0.1132844846321505 -0.33349979137663632 0 0.1042400327014259 -0.32237860651141509 0 0.1277096158765349 -0.33167236584288751 0 0.1175933922248182 -0.34031097300678109 0 0.1132844846321505 -0.33349979137663632 0 0.1175933922248182 -0.34031097300678109 0 0.1132844846321505 -0.33349979137663632 0 0.1035948977258222 -0.33963722014545972 0 0.1132844846321505 -0.33349979137663632 0 0.1035948977258222 -0.33963722014545972 0 0.1042400327014259 -0.32237860651141509 0 0.1035948977258222 -0.33963722014545972 0 0.1042400327014259 -0.32237860651141509 0 0.089330709239924519 -0.32990023547130659 0 0.1035948977258222 -0.33963722014545972 0 0.08844116445073813 -0.34624952808908871 0 0.089330709239924519 -0.32990023547130659 0 0.1042400327014259 -0.32237860651141509 0 0.089330709239924519 -0.32990023547130659 0 0.097574461564347639 -0.31973909589494359 0 0.1042400327014259 -0.32237860651141509 0 0.089330709239924519 -0.32990023547130659 0 0.097574461564347639 -0.31973909589494359 0 0.1042400327014259 -0.32237860651141509 0 0.092387068917125961 -0.3119314518137129 0 0.10424538547426861 -0.30742011652108298 0 0.097574461564347639 -0.31973909589494359 0 0.10424538547426861 -0.30742011652108298 0 0.097574461564347639 -0.31973909589494359 0 0.1042400327014259 -0.32237860651141509 0 0.12964343717385621 -0.367966648186694 0 0.1145268252230785 -0.35300766908708592 0 0.10713483520734431 -0.37185186770187001 0 0.12964343717385621 -0.367966648186694 0 0.1210725848766777 -0.38193442598924598 0 0.10713483520734431 -0.37185186770187001 0 0.13285301213736089 -0.34698689713072628 0 0.1145268252230785 -0.35300766908708592 0 0.13285301213736089 -0.34698689713072628 0 0.1175933922248182 -0.34031097300678109 0 0.1145268252230785 -0.35300766908708592 0 0.1175933922248182 -0.34031097300678109 0 0.1035948977258222 -0.33963722014545972 0 0.1145268252230785 -0.35300766908708592 0 0.1035948977258222 -0.33963722014545972 0 0.1145268252230785 -0.35300766908708592 0 0.10073779425957929 -0.3548879881316499 0 0.1035948977258222 -0.33963722014545972 0 0.10073779425957929 -0.3548879881316499 0 0.08844116445073813 -0.34624952808908871 0 0.1145268252230785 -0.35300766908708592 0 0.10073779425957929 -0.3548879881316499 0 0.10713483520734431 -0.37185186770187001 0 0.091579777613193067 -0.3805998763552591 0 0.10713483520734431 -0.37185186770187001 0 0.089991248690913239 -0.36369365563474498 0 0.10073779425957929 -0.3548879881316499 0 0.10713483520734431 -0.37185186770187001 0 0.089991248690913239 -0.36369365563474498 0 0.089991248690913239 -0.36369365563474498 0 0.072640683984735846 -0.35365963884978319 0 0.077446040688824352 -0.37322460432357518 0 0.091579777613193067 -0.3805998763552591 0 0.089991248690913239 -0.36369365563474498 0 0.077446040688824352 -0.37322460432357518 0 0.08844116445073813 -0.34624952808908871 0 0.072640683984735846 -0.35365963884978319 0 0.074421385778422167 -0.33742186443119598 0 0.089991248690913239 -0.36369365563474498 0 0.08844116445073813 -0.34624952808908871 0 0.072640683984735846 -0.35365963884978319 0 0.10073779425957929 -0.3548879881316499 0 0.089991248690913239 -0.36369365563474498 0 0.08844116445073813 -0.34624952808908871 0 0.072640683984735846 -0.35365963884978319 0 0.058342421804239 -0.34172675570256861 0 0.056843790210672762 -0.35498064084795322 0 0.072640683984735846 -0.35365963884978319 0 0.074421385778422167 -0.33742186443119598 0 0.058342421804239 -0.34172675570256861 0 0.072640683984735846 -0.35365963884978319 0 0.062047863969529 -0.36677367950336531 0 0.056843790210672762 -0.35498064084795322 0 0.072640683984735846 -0.35365963884978319 0 0.077446040688824352 -0.37322460432357518 0 0.062047863969529 -0.36677367950336531 0 0.063808457074631231 -0.38151283302859251 0 0.077446040688824352 -0.37322460432357518 0 0.062047863969529 -0.36677367950336531 0 0.085765721735137301 -0.3181736757177645 0 0.089330709239924519 -0.32990023547130659 0 0.074003159071310554 -0.32450105695314002 0 0.086387084638438055 -0.31128763931219089 0 0.076933733953785777 -0.312287948792907 0 0.085765721735137301 -0.3181736757177645 0 0.076933733953785777 -0.312287948792907 0 0.085765721735137301 -0.3181736757177645 0 0.074003159071310554 -0.32450105695314002 0 0.092387068917125961 -0.3119314518137129 0 0.097574461564347639 -0.31973909589494359 0 0.085765721735137301 -0.3181736757177645 0 0.092387068917125961 -0.3119314518137129 0 0.086387084638438055 -0.31128763931219089 0 0.085765721735137301 -0.3181736757177645 0 0.097574461564347639 -0.31973909589494359 0 0.085765721735137301 -0.3181736757177645 0 0.089330709239924519 -0.32990023547130659 0 0.08844116445073813 -0.34624952808908871 0 0.089330709239924519 -0.32990023547130659 0 0.074421385778422167 -0.33742186443119598 0 0.089330709239924519 -0.32990023547130659 0 0.074421385778422167 -0.33742186443119598 0 0.089330709239924519 -0.32990023547130659 0 0.074421385778422167 -0.33742186443119598 0 0.074003159071310554 -0.32450105695314002 0 0.074421385778422167 -0.33742186443119598 0 0.064566739271179424 -0.331130734387865 0 0.074003159071310554 -0.32450105695314002 0 0.074421385778422167 -0.33742186443119598 0 0.064566739271179424 -0.331130734387865 0 0.058342421804239 -0.34172675570256861 0 0.064566739271179424 -0.331130734387865 0 0.063075408685592166 -0.3222151227715731 0 0.074003159071310554 -0.32450105695314002 0 0.063075408685592166 -0.3222151227715731 0 0.074003159071310554 -0.32450105695314002 0 0.068385718831499187 -0.3157777733773246 0 0.076933733953785777 -0.312287948792907 0 0.074003159071310554 -0.32450105695314002 0 0.068385718831499187 -0.3157777733773246 0 0.063075408685592166 -0.3222151227715731 0 0.068385718831499187 -0.3157777733773246 0 0.061487738162087698 -0.31450880719725333 0 0.065378483169108007 -0.31173360782830978 0 0.068385718831499187 -0.3157777733773246 0 0.061487738162087698 -0.31450880719725333 0 0.061487738162087698 -0.31450880719725333 0 0.054861015916559057 -0.31255298228487299 0 0.059651335638657182 -0.31108324635509133 0 0.054861015916559057 -0.31255298228487299 0 0.048434365152107688 -0.3172097267298345 0 0.038648865542104401 -0.31139385333291081 0 0.063075408685592166 -0.3222151227715731 0 0.061487738162087698 -0.31450880719725333 0 0.055931140911825307 -0.31815135617537532 0 0.061487738162087698 -0.31450880719725333 0 0.055931140911825307 -0.31815135617537532 0 0.054861015916559057 -0.31255298228487299 0 0.055931140911825307 -0.31815135617537532 0 0.054861015916559057 -0.31255298228487299 0 0.048434365152107688 -0.3172097267298345 0 0.055931140911825307 -0.31815135617537532 0 0.048434365152107688 -0.3172097267298345 0 0.050105753047099112 -0.32184788155245603 0 0.055931140911825307 -0.31815135617537532 0 0.050105753047099112 -0.32184788155245603 0 0.053109718468583013 -0.32911568875116232 0 0.050105753047099112 -0.32184788155245603 0 0.053109718468583013 -0.32911568875116232 0 0.042947787655880407 -0.32291475455345192 0 0.048434365152107688 -0.3172097267298345 0 0.050105753047099112 -0.32184788155245603 0 0.042947787655880407 -0.32291475455345192 0 0.063075408685592166 -0.3222151227715731 0 0.055931140911825307 -0.31815135617537532 0 0.053109718468583013 -0.32911568875116232 0 0.064566739271179424 -0.331130734387865 0 0.063075408685592166 -0.3222151227715731 0 0.053109718468583013 -0.32911568875116232 0 0.064566739271179424 -0.331130734387865 0 0.058342421804239 -0.34172675570256861 0 0.053109718468583013 -0.32911568875116232 0 0.058342421804239 -0.34172675570256861 0 0.043898289860272111 -0.33612530774742699 0 0.04517789555464069 -0.34947216650677171 0 0.058342421804239 -0.34172675570256861 0 0.053109718468583013 -0.32911568875116232 0 0.043898289860272111 -0.33612530774742699 0 0.053109718468583013 -0.32911568875116232 0 0.043898289860272111 -0.33612530774742699 0 0.042947787655880407 -0.32291475455345192 0 0.043898289860272111 -0.33612530774742699 0 0.033965247158650493 -0.32796308058773721 0 0.042947787655880407 -0.32291475455345192 0 0.043898289860272111 -0.33612530774742699 0 0.04517789555464069 -0.34947216650677171 0 0.030576482396173471 -0.34187909507352537 0 0.043898289860272111 -0.33612530774742699 0 0.033965247158650493 -0.32796308058773721 0 0.030576482396173471 -0.34187909507352537 0 0.036165871615285963 -0.32037030487902329 0 0.033965247158650493 -0.32796308058773721 0 0.042947787655880407 -0.32291475455345192 0 0.036165871615285963 -0.32037030487902329 0 0.033965247158650493 -0.32796308058773721 0 0.029101586104508539 -0.31920953104199379 0 0.036165871615285963 -0.32037030487902329 0 0.029101586104508539 -0.31920953104199379 0 0.038648865542104401 -0.31139385333291081 0 0.048434365152107688 -0.3172097267298345 0 0.042947787655880407 -0.32291475455345192 0 0.038648865542104401 -0.31139385333291081 0 0.036165871615285963 -0.32037030487902329 0 0.042947787655880407 -0.32291475455345192 0 0.038648865542104401 -0.31139385333291081 0 0.052224593376763599 -0.37423672689752291 0 0.062047863969529 -0.36677367950336531 0 0.046010085740219302 -0.36327096367727718 0 0.062047863969529 -0.36677367950336531 0 0.056843790210672762 -0.35498064084795322 0 0.046010085740219302 -0.36327096367727718 0 0.063808457074631231 -0.38151283302859251 0 0.052224593376763599 -0.37423672689752291 0 0.062047863969529 -0.36677367950336531 0 0.056843790210672762 -0.35498064084795322 0 0.04517789555464069 -0.34947216650677171 0 0.046010085740219302 -0.36327096367727718 0 0.058342421804239 -0.34172675570256861 0 0.056843790210672762 -0.35498064084795322 0 0.04517789555464069 -0.34947216650677171 0 0.04517789555464069 -0.34947216650677171 0 0.034378023159232919 -0.35491652084408781 0 0.030576482396173471 -0.34187909507352537 0 0.04517789555464069 -0.34947216650677171 0 0.034378023159232919 -0.35491652084408781 0 0.046010085740219302 -0.36327096367727718 0 0.031450163804322147 -0.38299648014708249 0 0.041122553359336518 -0.3745189396943413 0 0.030258067008644449 -0.3667440264152243 0 0.046010085740219302 -0.36327096367727718 0 0.041122553359336518 -0.3745189396943413 0 0.030258067008644449 -0.3667440264152243 0 0.034378023159232919 -0.35491652084408781 0 0.046010085740219302 -0.36327096367727718 0 0.030258067008644449 -0.3667440264152243 0 0.052224593376763599 -0.37423672689752291 0 0.046010085740219302 -0.36327096367727718 0 0.041122553359336518 -0.3745189396943413 0 0.014416824747154619 -0.37592328633005739 0 0.030258067008644449 -0.3667440264152243 0 0.016897664443211911 -0.35643251698494471 0 0.016897664443211911 -0.35643251698494471 0 0.030576482396173471 -0.34187909507352537 0 0.016875997546474369 -0.34008768535312273 0 0.034378023159232919 -0.35491652084408781 0 0.030258067008644449 -0.3667440264152243 0 0.016897664443211911 -0.35643251698494471 0 0.034378023159232919 -0.35491652084408781 0 0.016897664443211911 -0.35643251698494471 0 0.030576482396173471 -0.34187909507352537 0 0.016897664443211911 -0.35643251698494471 0 0.0083774951014328053 -0.3479500164165038 0 0.016875997546474369 -0.34008768535312273 0 -0.00075274073939014601 -0.3564584525775914 0 0.016897664443211911 -0.35643251698494471 0 0.0083774951014328053 -0.3479500164165038 0 -0.0073683429415816156 -0.34561773438271709 0 -0.00075274073939014601 -0.3564584525775914 0 0.0083774951014328053 -0.3479500164165038 0 -0.0073683429415816156 -0.34561773438271709 0 0.0083774951014328053 -0.3479500164165038 0 0.0044609759893579036 -0.33771915893773408 0 -0.00075274073939014601 -0.3564584525775914 0 0.016897664443211911 -0.35643251698494471 0 0.0014496837259096161 -0.37019917058000251 0 0.014416824747154619 -0.37592328633005739 0 0.016897664443211911 -0.35643251698494471 0 0.0014496837259096161 -0.37019917058000251 0 0.017155100797118461 -0.31543707866132359 0 0.029101586104508539 -0.31920953104199379 0 0.038648865542104401 -0.31139385333291081 0 0.017155100797118461 -0.31543707866132359 0 0.038648865542104401 -0.31139385333291081 0 0.017155100797118461 -0.31543707866132359 0 0.02229327079121305 -0.3284747106140557 0 0.010620082302586761 -0.32779600885994298 0 0.017155100797118461 -0.31543707866132359 0 0.029101586104508539 -0.31920953104199379 0 0.02229327079121305 -0.3284747106140557 0 0.033965247158650493 -0.32796308058773721 0 0.029101586104508539 -0.31920953104199379 0 0.02229327079121305 -0.3284747106140557 0 0.033965247158650493 -0.32796308058773721 0 0.030576482396173471 -0.34187909507352537 0 0.02229327079121305 -0.3284747106140557 0 0.030576482396173471 -0.34187909507352537 0 0.016875997546474369 -0.34008768535312273 0 0.02229327079121305 -0.3284747106140557 0 0.016875997546474369 -0.34008768535312273 0 0.02229327079121305 -0.3284747106140557 0 0.010620082302586761 -0.32779600885994298 0 0.016875997546474369 -0.34008768535312273 0 0.0044609759893579036 -0.33771915893773408 0 0.010620082302586761 -0.32779600885994298 0 0.0083774951014328053 -0.3479500164165038 0 0.016875997546474369 -0.34008768535312273 0 0.0044609759893579036 -0.33771915893773408 0 -0.0053138169306343359 -0.33563337472114801 0 0.0044609759893579036 -0.33771915893773408 0 0.0016103038837324639 -0.33199173929296572 0 0.0044609759893579036 -0.33771915893773408 0 0.0016103038837324639 -0.33199173929296572 0 0.010620082302586761 -0.32779600885994298 0 -0.0033260258263804669 -0.32681841465303751 0 0.0016103038837324639 -0.33199173929296572 0 0.010620082302586761 -0.32779600885994298 0 -0.0033260258263804669 -0.32681841465303751 0 0.017155100797118461 -0.31543707866132359 0 -0.0031332965675300618 -0.3192535604675994 0 0.017155100797118461 -0.31543707866132359 0 -0.0033260258263804669 -0.32681841465303751 0 0.017155100797118461 -0.31543707866132359 0 0.010620082302586761 -0.32779600885994298 0 -0.0033260258263804669 -0.32681841465303751 0 -0.0031332965675300618 -0.3192535604675994 0 0.017155100797118461 -0.31543707866132359 0 -0.0031332965675300618 -0.3192535604675994 0 0.017155100797118461 -0.31543707866132359 0 0.0068436558020707403 -0.30952440010844662 0 -0.0064590071102648833 -0.30689811281617091 0 0.0068436558020707403 -0.30952440010844662 0 0.001060383604688247 -0.30155388938627731 0 0.0068436558020707403 -0.30952440010844662 0 0.001060383604688247 -0.30155388938627731 0 0.007984160493644676 -0.29957063481236962 0 0.001060383604688247 -0.30155388938627731 0 0.007984160493644676 -0.29957063481236962 0 0.0021455206274590228 -0.29404508635188592 0 0.007984160493644676 -0.29957063481236962 0 0.011885276994896891 -0.29235765001613923 0 0.017860696452828381 -0.30014143553418582 0 0.0068436558020707403 -0.30952440010844662 0 0.007984160493644676 -0.29957063481236962 0 0.017860696452828381 -0.30014143553418582 0 0.007984160493644676 -0.29957063481236962 0 0.0021455206274590228 -0.29404508635188592 0 0.011885276994896891 -0.29235765001613923 0 0.0045612647380138989 -0.28431467149452821 0 0.0021455206274590228 -0.29404508635188592 0 0.011885276994896891 -0.29235765001613923 0 0.0045612647380138989 -0.28431467149452821 0 0.011885276994896891 -0.29235765001613923 0 0.016822878392555071 -0.28350544084455848 0 0.016822878392555071 -0.28350544084455848 0 0.021937141264880309 -0.29256863105930753 0 0.026088200524735872 -0.2849450754268692 0 0.011885276994896891 -0.29235765001613923 0 0.016822878392555071 -0.28350544084455848 0 0.021937141264880309 -0.29256863105930753 0 0.011885276994896891 -0.29235765001613923 0 0.021937141264880309 -0.29256863105930753 0 0.017860696452828381 -0.30014143553418582 0 0.021937141264880309 -0.29256863105930753 0 0.027099238805566458 -0.29877494142714739 0 0.033727925389907411 -0.29257463336042661 0 0.021937141264880309 -0.29256863105930753 0 0.026088200524735872 -0.2849450754268692 0 0.033727925389907411 -0.29257463336042661 0 0.026088200524735872 -0.2849450754268692 0 0.033727925389907411 -0.29257463336042661 0 0.033869175146827163 -0.28033214879746882 0 0.0068436558020707403 -0.30952440010844662 0 0.017860696452828381 -0.30014143553418582 0 0.031366433419099539 -0.30753985921465771 0 0.017155100797118461 -0.31543707866132359 0 0.038648865542104401 -0.31139385333291081 0 0.031366433419099539 -0.30753985921465771 0 0.017155100797118461 -0.31543707866132359 0 0.0068436558020707403 -0.30952440010844662 0 0.031366433419099539 -0.30753985921465771 0 0.0068436558020707403 -0.30952440010844662 0 0.031366433419099539 -0.30753985921465771 0 0.021937141264880309 -0.29256863105930753 0 0.017860696452828381 -0.30014143553418582 0 0.027099238805566458 -0.29877494142714739 0 0.017860696452828381 -0.30014143553418582 0 0.027099238805566458 -0.29877494142714739 0 0.031366433419099539 -0.30753985921465771 0 0.027099238805566458 -0.29877494142714739 0 0.031366433419099539 -0.30753985921465771 0 0.033727925389907411 -0.29257463336042661 0 0.017155100797118461 -0.31543707866132359 0 0.031366433419099539 -0.30753985921465771 0 0.031366433419099539 -0.30753985921465771 0 0.033727925389907411 -0.29257463336042661 0 0.047362887493082352 -0.29865065004961477 0 0.031366433419099539 -0.30753985921465771 0 0.060914123683401412 -0.30514867006951879 0 0.031366433419099539 -0.30753985921465771 0 0.047362887493082352 -0.29865065004961477 0 0.038648865542104401 -0.31139385333291081 0 0.031366433419099539 -0.30753985921465771 0 0.060914123683401412 -0.30514867006951879 0 0.031366433419099539 -0.30753985921465771 0 0.060914123683401412 -0.30514867006951879 0 0.047362887493082352 -0.29865065004961477 0 0.033727925389907411 -0.29257463336042661 0 0.046925802589697863 -0.28483489502681869 0 0.033869175146827163 -0.28033214879746882 0 0.033727925389907411 -0.29257463336042661 0 0.046925802589697863 -0.28483489502681869 0 0.047362887493082352 -0.29865065004961477 0 0.046925802589697863 -0.28483489502681869 0 0.056417932273465581 -0.29691404967478707 0 0.047362887493082352 -0.29865065004961477 0 0.062765143881292465 -0.28424374038480138 0 0.046925802589697863 -0.28483489502681869 0 0.056417932273465581 -0.29691404967478707 0 0.064131802234868335 -0.29764185839350082 0 0.064929538038565784 -0.29313043204618 0 0.056417932273465581 -0.29691404967478707 0 0.064929538038565784 -0.29313043204618 0 0.062765143881292465 -0.28424374038480138 0 0.056417932273465581 -0.29691404967478707 0 0.038648865542104401 -0.31139385333291081 0 0.060914123683401412 -0.30514867006951879 0 0.060142630287090521 -0.30735062800449892 0 0.064131802234868335 -0.29764185839350082 0 0.056417932273465581 -0.29691404967478707 0 0.060914123683401412 -0.30514867006951879 0 0.038648865542104401 -0.31139385333291081 0 0.060142630287090521 -0.30735062800449892 0 0.054861015916559057 -0.31255298228487299 0 0.038648865542104401 -0.31139385333291081 0 0.060142630287090521 -0.30735062800449892 0 0.056417932273465581 -0.29691404967478707 0 0.060914123683401412 -0.30514867006951879 0 0.047362887493082352 -0.29865065004961477 0 0.060914123683401412 -0.30514867006951879 0 0.061864727394912708 -0.30757379433864318 0 0.060142630287090521 -0.30735062800449892 0 0.064288197420267479 -0.30787531134681517 0 0.060914123683401412 -0.30514867006951879 0 0.061864727394912708 -0.30757379433864318 0 0.061864727394912708 -0.30757379433864318 0 0.060142630287090521 -0.30735062800449892 0 0.062113958188891441 -0.30992056793374018 0 0.061487738162087698 -0.31450880719725333 0 0.062113958188891441 -0.30992056793374018 0 0.059651335638657182 -0.31108324635509133 0 0.060142630287090521 -0.30735062800449892 0 0.062113958188891441 -0.30992056793374018 0 0.059651335638657182 -0.31108324635509133 0 0.054861015916559057 -0.31255298228487299 0 0.060142630287090521 -0.30735062800449892 0 0.059651335638657182 -0.31108324635509133 0 0.051347829525214328 -0.25516012630376839 0 0.056220440876533863 -0.26916260607052173 0 0.039156849566354693 -0.26866517233414422 0 0.065335708183982863 -0.25499807618111581 0 0.051347829525214328 -0.25516012630376839 0 0.065379640124951593 -0.24066628117503369 0 0.065335708183982863 -0.25499807618111581 0 0.051347829525214328 -0.25516012630376839 0 0.056220440876533863 -0.26916260607052173 0 0.062765143881292465 -0.28424374038480138 0 0.046925802589697863 -0.28483489502681869 0 0.056220440876533863 -0.26916260607052173 0 0.046925802589697863 -0.28483489502681869 0 0.056220440876533863 -0.26916260607052173 0 0.039156849566354693 -0.26866517233414422 0 0.046925802589697863 -0.28483489502681869 0 0.039156849566354693 -0.26866517233414422 0 0.033869175146827163 -0.28033214879746882 0 0.039156849566354693 -0.26866517233414422 0 0.033869175146827163 -0.28033214879746882 0 0.023811996408049509 -0.2735459935247111 0 0.039156849566354693 -0.26866517233414422 0 0.035838626459895932 -0.25445004493449003 0 0.026491815037631671 -0.26159265953373739 0 0.051347829525214328 -0.25516012630376839 0 0.039156849566354693 -0.26866517233414422 0 0.035838626459895932 -0.25445004493449003 0 0.035838626459895932 -0.25445004493449003 0 0.026491815037631671 -0.26159265953373739 0 0.021593778469048891 -0.24814621671119719 0 0.026491815037631671 -0.26159265953373739 0 0.023811996408049509 -0.2735459935247111 0 0.01498682322944711 -0.2611745207366058 0 0.026491815037631671 -0.26159265953373739 0 0.01498682322944711 -0.2611745207366058 0 0.021593778469048891 -0.24814621671119719 0 0.026088200524735872 -0.2849450754268692 0 0.033869175146827163 -0.28033214879746882 0 0.023811996408049509 -0.2735459935247111 0 0.039156849566354693 -0.26866517233414422 0 0.026491815037631671 -0.26159265953373739 0 0.023811996408049509 -0.2735459935247111 0 0.023811996408049509 -0.2735459935247111 0 0.0097409198957476087 -0.27304631943005481 0 0.01498682322944711 -0.2611745207366058 0 0.016822878392555071 -0.28350544084455848 0 0.023811996408049509 -0.2735459935247111 0 0.0097409198957476087 -0.27304631943005481 0 0.016822878392555071 -0.28350544084455848 0 0.026088200524735872 -0.2849450754268692 0 0.023811996408049509 -0.2735459935247111 0 0.0045612647380138989 -0.28431467149452821 0 0.016822878392555071 -0.28350544084455848 0 0.0097409198957476087 -0.27304631943005481 0 -0.0046885611662538448 -0.27467123434601781 0 0.0097409198957476087 -0.27304631943005481 0 0.001638160530432056 -0.26101289470167283 0 -0.0046885611662538448 -0.27467123434601781 0 0.0045612647380138989 -0.28431467149452821 0 0.0097409198957476087 -0.27304631943005481 0 0.01498682322944711 -0.2611745207366058 0 0.001638160530432056 -0.26101289470167283 0 0.0072561364612929646 -0.24875986379435261 0 0.01498682322944711 -0.2611745207366058 0 0.0072561364612929646 -0.24875986379435261 0 0.021593778469048891 -0.24814621671119719 0 0.0097409198957476087 -0.27304631943005481 0 0.01498682322944711 -0.2611745207366058 0 0.001638160530432056 -0.26101289470167283 0 -0.0074019412988201817 -0.24854936663358451 0 0.001638160530432056 -0.26101289470167283 0 0.0072561364612929646 -0.24875986379435261 0 -0.0074019412988201817 -0.24854936663358451 0 0.0072561364612929646 -0.24875986379435261 0 0.0019815391129595372 -0.23326154048766989 0 0.0072561364612929646 -0.24875986379435261 0 0.01353775404639445 -0.23686482468736381 0 0.021593778469048891 -0.24814621671119719 0 0.0072561364612929646 -0.24875986379435261 0 0.01353775404639445 -0.23686482468736381 0 0.0019815391129595372 -0.23326154048766989 0 -0.00053481913395022479 -0.2137630812897415 0 0.0019815391129595372 -0.23326154048766989 0 0.01471451644136655 -0.22181613358337859 0 0.01353775404639445 -0.23686482468736381 0 0.0019815391129595372 -0.23326154048766989 0 0.01471451644136655 -0.22181613358337859 0 0.01353775404639445 -0.23686482468736381 0 0.01471451644136655 -0.22181613358337859 0 0.026999032769611631 -0.22954365399234661 0 0.01471451644136655 -0.22181613358337859 0 0.026999032769611631 -0.22954365399234661 0 0.03016143607599606 -0.21166961041805371 0 0.026999032769611631 -0.22954365399234661 0 0.021593778469048891 -0.24814621671119719 0 0.040898115418389967 -0.237290015030903 0 0.01353775404639445 -0.23686482468736381 0 0.026999032769611631 -0.22954365399234661 0 0.021593778469048891 -0.24814621671119719 0 -0.00053481913395022479 -0.2137630812897415 0 0.01471451644136655 -0.22181613358337859 0 0.016409805742316461 -0.20642863036497339 0 -0.00053481913395022479 -0.2137630812897415 0 0.0058434739981291749 -0.19505996769432099 0 0.016409805742316461 -0.20642863036497339 0 -0.00053481913395022479 -0.2137630812897415 0 0.0058434739981291749 -0.19505996769432099 0 0.01471451644136655 -0.22181613358337859 0 0.03016143607599606 -0.21166961041805371 0 0.016409805742316461 -0.20642863036497339 0 0.03016143607599606 -0.21166961041805371 0 0.016409805742316461 -0.20642863036497339 0 0.031864421330040749 -0.18983435883937211 0 0.0058434739981291749 -0.19505996769432099 0 0.016409805742316461 -0.20642863036497339 0 0.031864421330040749 -0.18983435883937211 0 0.031864421330040749 -0.18983435883937211 0 0.05150707552987499 -0.2033118635798416 0 0.047455261874821172 -0.18005746989323271 0 0.03016143607599606 -0.21166961041805371 0 0.031864421330040749 -0.18983435883937211 0 0.05150707552987499 -0.2033118635798416 0 0.031864421330040749 -0.18983435883937211 0 0.05150707552987499 -0.2033118635798416 0 0.03016143607599606 -0.21166961041805371 0 0.05150707552987499 -0.2033118635798416 0 0.041088596166473867 -0.22147512352318341 0 0.05150707552987499 -0.2033118635798416 0 0.041088596166473867 -0.22147512352318341 0 0.055407999529823303 -0.22602584764872671 0 0.05150707552987499 -0.2033118635798416 0 0.071149729729709177 -0.21678936832031101 0 0.05150707552987499 -0.2033118635798416 0 0.055407999529823303 -0.22602584764872671 0 0.071149729729709177 -0.21678936832031101 0 0.05150707552987499 -0.2033118635798416 0 0.070179327469090461 -0.20063938955103139 0 0.064189474076591924 -0.1864951449916771 0 0.05150707552987499 -0.2033118635798416 0 0.064189474076591924 -0.1864951449916771 0 0.047455261874821172 -0.18005746989323271 0 0.051347829525214328 -0.25516012630376839 0 0.035838626459895932 -0.25445004493449003 0 0.040898115418389967 -0.237290015030903 0 0.035838626459895932 -0.25445004493449003 0 0.021593778469048891 -0.24814621671119719 0 0.040898115418389967 -0.237290015030903 0 0.026999032769611631 -0.22954365399234661 0 0.040898115418389967 -0.237290015030903 0 0.041088596166473867 -0.22147512352318341 0 0.026999032769611631 -0.22954365399234661 0 0.03016143607599606 -0.21166961041805371 0 0.041088596166473867 -0.22147512352318341 0 0.040898115418389967 -0.237290015030903 0 0.041088596166473867 -0.22147512352318341 0 0.055407999529823303 -0.22602584764872671 0 0.040898115418389967 -0.237290015030903 0 0.055407999529823303 -0.22602584764872671 0 0.065379640124951593 -0.24066628117503369 0 0.051347829525214328 -0.25516012630376839 0 0.040898115418389967 -0.237290015030903 0 0.065379640124951593 -0.24066628117503369 0 0.065335708183982863 -0.25499807618111581 0 0.08209704847362069 -0.25074917337938168 0 0.065379640124951593 -0.24066628117503369 0 0.08209704847362069 -0.25074917337938168 0 0.10195227185327931 -0.25264655321542367 0 0.090792383929543391 -0.23026687306078061 0 0.08209704847362069 -0.25074917337938168 0 0.065379640124951593 -0.24066628117503369 0 0.090792383929543391 -0.23026687306078061 0 0.090792383929543391 -0.23026687306078061 0 0.071149729729709177 -0.21678936832031101 0 0.090792383929543391 -0.23026687306078061 0 0.071149729729709177 -0.21678936832031101 0 0.089414017858259531 -0.20970881774356209 0 0.055407999529823303 -0.22602584764872671 0 0.065379640124951593 -0.24066628117503369 0 0.071149729729709177 -0.21678936832031101 0 0.065379640124951593 -0.24066628117503369 0 0.090792383929543391 -0.23026687306078061 0 0.071149729729709177 -0.21678936832031101 0 0.071149729729709177 -0.21678936832031101 0 0.070179327469090461 -0.20063938955103139 0 0.089414017858259531 -0.20970881774356209 0 0.05150707552987499 -0.2033118635798416 0 0.071149729729709177 -0.21678936832031101 0 0.070179327469090461 -0.20063938955103139 0 0.070179327469090461 -0.20063938955103139 0 0.083271349076903922 -0.19114288263661861 0 0.064189474076591924 -0.1864951449916771 0 0.070179327469090461 -0.20063938955103139 0 0.083271349076903922 -0.19114288263661861 0 0.089414017858259531 -0.20970881774356209 0 0.083271349076903922 -0.19114288263661861 0 0.089414017858259531 -0.20970881774356209 0 0.098963235842677563 -0.19657029782595231 0 0.089414017858259531 -0.20970881774356209 0 0.098963235842677563 -0.19657029782595231 0 0.1110756185422275 -0.21313599349844231 0 0.090792383929543391 -0.23026687306078061 0 0.089414017858259531 -0.20970881774356209 0 0.1110756185422275 -0.21313599349844231 0 0.098963235842677563 -0.19657029782595231 0 0.1110756185422275 -0.21313599349844231 0 0.11107417708151569 -0.18559489645479299 0 0.1110756185422275 -0.21313599349844231 0 0.11107417708151569 -0.18559489645479299 0 0.1314761689024517 -0.19219162598023959 0 0.1110756185422275 -0.21313599349844231 0 0.11107417708151569 -0.18559489645479299 0 0.1110756185422275 -0.21313599349844231 0 0.11318810299470369 -0.23598163823489529 0 0.12850364820595331 -0.22750422579700491 0 0.1208808610854319 -0.25970788443117943 0 0.11318810299470369 -0.23598163823489529 0 0.1313098299079942 -0.24396976042201809 0 0.10195227185327931 -0.25264655321542367 0 0.1208808610854319 -0.25970788443117943 0 0.11318810299470369 -0.23598163823489529 0 0.11318810299470369 -0.23598163823489529 0 0.12850364820595331 -0.22750422579700491 0 0.1313098299079942 -0.24396976042201809 0 0.10195227185327931 -0.25264655321542367 0 0.090792383929543391 -0.23026687306078061 0 0.11318810299470369 -0.23598163823489529 0 0.090792383929543391 -0.23026687306078061 0 0.1110756185422275 -0.21313599349844231 0 0.11318810299470369 -0.23598163823489529 0 0.094839186637113104 -0.14947227465157251 0 0.1110712941600925 -0.13051270236749449 0 0.111072735620804 -0.1580537994111437 0 0.094839186637113104 -0.14947227465157251 0 0.095625712457041295 -0.1334101419337802 0 0.1110712941600925 -0.13051270236749449 0 0.095625712457041295 -0.1334101419337802 0 0.1110712941600925 -0.13051270236749449 0 0.10134097292599541 -0.121259740946941 0 0.095625712457041295 -0.1334101419337802 0 0.1110712941600925 -0.13051270236749449 0 0.1110712941600925 -0.13051270236749449 0 0.12662101070287141 -0.13750334345265089 0 0.13508646391308621 -0.12600769217292379 0 0.1110712941600925 -0.13051270236749449 0 0.13508646391308621 -0.12600769217292379 0 0.1110712941600925 -0.13051270236749449 0 0.12203859052377219 -0.14663482975687511 0 0.12662101070287141 -0.13750334345265089 0 0.1110712941600925 -0.13051270236749449 0 0.1244951109857452 -0.1203529848868761 0 0.13508646391308621 -0.12600769217292379 0 0.12203859052377219 -0.14663482975687511 0 0.111072735620804 -0.1580537994111437 0 0.12892468117211131 -0.15666310802434039 0 0.1110712941600925 -0.13051270236749449 0 0.111072735620804 -0.1580537994111437 0 0.1110712941600925 -0.13051270236749449 0 0.12203859052377219 -0.14663482975687511 0 0.111072735620804 -0.1580537994111437 0 0.111072735620804 -0.1580537994111437 0 0.1234787183091393 -0.17217479769050981 0 0.12892468117211131 -0.15666310802434039 0 0.111072735620804 -0.1580537994111437 0 0.11107417708151569 -0.18559489645479299 0 0.1234787183091393 -0.17217479769050981 0 0.11107417708151569 -0.18559489645479299 0 0.1314761689024517 -0.19219162598023959 0 0.111072735620804 -0.1580537994111437 0 0.1234787183091393 -0.17217479769050981 0 0.11107417708151569 -0.18559489645479299 0 0.098963235842677563 -0.19657029782595231 0 0.11107417708151569 -0.18559489645479299 0 0.093868575766757015 -0.17239581978625759 0 0.111072735620804 -0.1580537994111437 0 0.11107417708151569 -0.18559489645479299 0 0.093868575766757015 -0.17239581978625759 0 0.094839186637113104 -0.14947227465157251 0 0.111072735620804 -0.1580537994111437 0 0.093868575766757015 -0.17239581978625759 0 0.094839186637113104 -0.14947227465157251 0 0.093868575766757015 -0.17239581978625759 0 0.078630377646870073 -0.1609749981264505 0 0.093868575766757015 -0.17239581978625759 0 0.078630377646870073 -0.1609749981264505 0 0.076582835770705515 -0.17621237193012071 0 0.083271349076903922 -0.19114288263661861 0 0.098963235842677563 -0.19657029782595231 0 0.093868575766757015 -0.17239581978625759 0 0.083271349076903922 -0.19114288263661861 0 0.093868575766757015 -0.17239581978625759 0 0.076582835770705515 -0.17621237193012071 0 0.083271349076903922 -0.19114288263661861 0 0.076582835770705515 -0.17621237193012071 0 0.064189474076591924 -0.1864951449916771 0 0.076582835770705515 -0.17621237193012071 0 0.064189474076591924 -0.1864951449916771 0 0.062954402286404629 -0.17005301410959989 0 0.078630377646870073 -0.1609749981264505 0 0.076582835770705515 -0.17621237193012071 0 0.062954402286404629 -0.17005301410959989 0 0.078630377646870073 -0.1609749981264505 0 0.062954402286404629 -0.17005301410959989 0 0.063581600496990548 -0.1519653898852408 0 0.063581600496990548 -0.1519653898852408 0 0.076335658911884069 -0.14477898869177869 0 0.066784943708655592 -0.13540571965542161 0 0.078630377646870073 -0.1609749981264505 0 0.063581600496990548 -0.1519653898852408 0 0.076335658911884069 -0.14477898869177869 0 0.094839186637113104 -0.14947227465157251 0 0.078630377646870073 -0.1609749981264505 0 0.076335658911884069 -0.14477898869177869 0 0.094839186637113104 -0.14947227465157251 0 0.095625712457041295 -0.1334101419337802 0 0.076335658911884069 -0.14477898869177869 0 0.095625712457041295 -0.1334101419337802 0 0.079664021380890612 -0.12566464947746619 0 0.10134097292599541 -0.121259740946941 0 0.095625712457041295 -0.1334101419337802 0 0.076335658911884069 -0.14477898869177869 0 0.079664021380890612 -0.12566464947746619 0 0.079664021380890612 -0.12566464947746619 0 0.066784943708655592 -0.13540571965542161 0 0.058152342805634388 -0.1236805937218577 0 0.076335658911884069 -0.14477898869177869 0 0.079664021380890612 -0.12566464947746619 0 0.066784943708655592 -0.13540571965542161 0 0.053586655481677639 -0.13988048334286629 0 0.045679428127862819 -0.1253315646128193 0 0.058152342805634388 -0.1236805937218577 0 0.066784943708655592 -0.13540571965542161 0 0.053586655481677639 -0.13988048334286629 0 0.058152342805634388 -0.1236805937218577 0 0.063581600496990548 -0.1519653898852408 0 0.066784943708655592 -0.13540571965542161 0 0.053586655481677639 -0.13988048334286629 0 0.063581600496990548 -0.1519653898852408 0 0.053586655481677639 -0.13988048334286629 0 0.044370777803716933 -0.15638887475875299 0 0.053586655481677639 -0.13988048334286629 0 0.039200360943485058 -0.13744629710184589 0 0.044370777803716933 -0.15638887475875299 0 0.039200360943485058 -0.13744629710184589 0 0.044370777803716933 -0.15638887475875299 0 0.02188334785061893 -0.14802613332717449 0 0.045679428127862819 -0.1253315646128193 0 0.039200360943485058 -0.13744629710184589 0 0.031544928571029328 -0.1196954125554483 0 0.053586655481677639 -0.13988048334286629 0 0.045679428127862819 -0.1253315646128193 0 0.039200360943485058 -0.13744629710184589 0 0.064189474076591924 -0.1864951449916771 0 0.062954402286404629 -0.17005301410959989 0 0.047455261874821172 -0.18005746989323271 0 0.062954402286404629 -0.17005301410959989 0 0.063581600496990548 -0.1519653898852408 0 0.044370777803716933 -0.15638887475875299 0 0.062954402286404629 -0.17005301410959989 0 0.047455261874821172 -0.18005746989323271 0 0.044370777803716933 -0.15638887475875299 0 0.044370777803716933 -0.15638887475875299 0 0.031427292507451653 -0.17045034009861471 0 0.02188334785061893 -0.14802613332717449 0 0.047455261874821172 -0.18005746989323271 0 0.044370777803716933 -0.15638887475875299 0 0.031427292507451653 -0.17045034009861471 0 0.031864421330040749 -0.18983435883937211 0 0.047455261874821172 -0.18005746989323271 0 0.031427292507451653 -0.17045034009861471 0 0.031864421330040749 -0.18983435883937211 0 0.031427292507451653 -0.17045034009861471 0 0.012221767130207889 -0.17635685409890031 0 0.031864421330040749 -0.18983435883937211 0 0.012221767130207889 -0.17635685409890031 0 0.0058434739981291749 -0.19505996769432099 0 0.031864421330040749 -0.18983435883937211 0 0.012221767130207889 -0.17635685409890031 0 0.012221767130207889 -0.17635685409890031 0 0.02188334785061893 -0.14802613332717449 0 0.031427292507451653 -0.17045034009861471 0 0.012221767130207889 -0.17635685409890031 0 0.02188334785061893 -0.14802613332717449 0 0.0043408472213855853 -0.1709494822463099 0 0.012221767130207889 -0.17635685409890031 0 0.0044631311353323967 -0.15533498840657239 0 0.012221767130207889 -0.17635685409890031 0 0.02188334785061893 -0.14802613332717449 0 0.0044631311353323967 -0.15533498840657239 0 -0.00089121633836973589 -0.16327629310308001 0 0.0043408472213855853 -0.1709494822463099 0 0.0044631311353323967 -0.15533498840657239 0 0.0058434739981291749 -0.19505996769432099 0 0.012221767130207889 -0.17635685409890031 0 0.0058434739981291749 -0.19505996769432099 0 0.012221767130207889 -0.17635685409890031 0 0.001720711736504155 -0.18321484223918161 0 0.0043408472213855853 -0.1709494822463099 0 0.012221767130207889 -0.17635685409890031 0 0.0043408472213855853 -0.1709494822463099 0 0.012221767130207889 -0.17635685409890031 0 0.001720711736504155 -0.18321484223918161 0 0.01224617715836321 -0.13724651146592881 0 0.012533467824568901 -0.12403542566598751 0 0.031544928571029328 -0.1196954125554483 0 0.039200360943485058 -0.13744629710184589 0 0.02188334785061893 -0.14802613332717449 0 0.031544928571029328 -0.1196954125554483 0 0.02188334785061893 -0.14802613332717449 0 0.01224617715836321 -0.13724651146592881 0 0.031544928571029328 -0.1196954125554483 0 0.02188334785061893 -0.14802613332717449 0 0.031544928571029328 -0.1196954125554483 0 0.0044631311353323967 -0.15533498840657239 0 0.00207234792727306 -0.14230533698230219 0 0.01224617715836321 -0.13724651146592881 0 0.02188334785061893 -0.14802613332717449 0 0.0044631311353323967 -0.15533498840657239 0 0.01224617715836321 -0.13724651146592881 0 -8.7367507044229444e-05 -0.1320758947210427 0 0.00207234792727306 -0.14230533698230219 0 0.01224617715836321 -0.13724651146592881 0 -8.7367507044229444e-05 -0.1320758947210427 0 0.01224617715836321 -0.13724651146592881 0 0.012533467824568901 -0.12403542566598751 0 0.002348869369470805 -0.11731109275913 0 0.023020280963197831 -0.1035081769100045 0 -8.7367507044229444e-05 -0.1320758947210427 0 0.002348869369470805 -0.11731109275913 0 0.012533467824568901 -0.12403542566598751 0 0.002348869369470805 -0.11731109275913 0 0.012533467824568901 -0.12403542566598751 0 0.023020280963197831 -0.1035081769100045 0 0.012533467824568901 -0.12403542566598751 0 0.023020280963197831 -0.1035081769100045 0 0.031544928571029328 -0.1196954125554483 0 0.012533467824568901 -0.12403542566598751 0 0.023020280963197831 -0.1035081769100045 0 0.002348869369470805 -0.11731109275913 0 0.023020280963197831 -0.1035081769100045 0 0.00271208556382007 -0.09883127110100752 0 0.023020280963197831 -0.1035081769100045 0 0.00271208556382007 -0.09883127110100752 0 0.01208762864279588 -0.083210489898039489 0 -0.00083418359899767053 -0.072522553478430687 0 -0.01018293480097566 -0.085106020112889605 0 0.01208762864279588 -0.083210489898039489 0 -0.01018293480097566 -0.085106020112889605 0 0.00271208556382007 -0.09883127110100752 0 0.01208762864279588 -0.083210489898039489 0 -0.01018293480097566 -0.085106020112889605 0 0.01208762864279588 -0.083210489898039489 0 -0.00083418359899767053 -0.072522553478430687 0 0.01244861960884153 -0.069356819812348355 0 0.0055518271476778479 -0.060554578777902927 0 -0.00083418359899767053 -0.072522553478430687 0 0.01208762864279588 -0.083210489898039489 0 0.01244861960884153 -0.069356819812348355 0 0.01244861960884153 -0.069356819812348355 0 0.0055518271476778479 -0.060554578777902927 0 0.020658946618663531 -0.058672826047181707 0 0.02477887923406771 -0.071823650860188049 0 0.042357693807677121 -0.065656459852736215 0 0.020658946618663531 -0.058672826047181707 0 0.01244861960884153 -0.069356819812348355 0 0.02477887923406771 -0.071823650860188049 0 0.020658946618663531 -0.058672826047181707 0 0.01208762864279588 -0.083210489898039489 0 0.01244861960884153 -0.069356819812348355 0 0.02477887923406771 -0.071823650860188049 0 0.01208762864279588 -0.083210489898039489 0 0.034358192086567152 -0.08131495968318711 0 0.01208762864279588 -0.083210489898039489 0 0.02477887923406771 -0.071823650860188049 0 0.034358192086567152 -0.08131495968318711 0 0.023020280963197831 -0.1035081769100045 0 0.01208762864279588 -0.083210489898039489 0 0.034358192086567152 -0.08131495968318711 0 0.023020280963197831 -0.1035081769100045 0 0.034358192086567152 -0.08131495968318711 0 0.023020280963197831 -0.1035081769100045 0 0.034358192086567152 -0.08131495968318711 0 0.041206509291439972 -0.091364691783722515 0 0.034358192086567152 -0.08131495968318711 0 0.044940930060985103 -0.080414223622470873 0 0.044940930060985103 -0.080414223622470873 0 0.041206509291439972 -0.091364691783722515 0 0.034358192086567152 -0.08131495968318711 0 0.044940930060985103 -0.080414223622470873 0 0.041206509291439972 -0.091364691783722515 0 0.02477887923406771 -0.071823650860188049 0 0.034358192086567152 -0.08131495968318711 0 0.042357693807677121 -0.065656459852736215 0 0.034358192086567152 -0.08131495968318711 0 0.042357693807677121 -0.065656459852736215 0 0.034358192086567152 -0.08131495968318711 0 0.044940930060985103 -0.080414223622470873 0 0.042357693807677121 -0.065656459852736215 0 0.044940930060985103 -0.080414223622470873 0 0.042357693807677121 -0.065656459852736215 0 0.04922049719153343 -0.067865218971171398 0 0.042357693807677121 -0.065656459852736215 0 0.04922049719153343 -0.067865218971171398 0 0.042357693807677121 -0.065656459852736215 0 0.04922049719153343 -0.067865218971171398 0 0.047412572973300017 -0.061716556127691148 0 0.04922049719153343 -0.067865218971171398 0 0.052516739773351563 -0.068926098243374923 0 0.057353323497364467 -0.063713891590689298 0 0.04922049719153343 -0.067865218971171398 0 0.052516739773351563 -0.068926098243374923 0 0.044940930060985103 -0.080414223622470873 0 0.052516739773351563 -0.068926098243374923 0 0.059456295693036253 -0.079178767042997367 0 0.044940930060985103 -0.080414223622470873 0 0.04922049719153343 -0.067865218971171398 0 0.044940930060985103 -0.080414223622470873 0 0.04922049719153343 -0.067865218971171398 0 0.052516739773351563 -0.068926098243374923 0 0.052516739773351563 -0.068926098243374923 0 0.059456295693036253 -0.079178767042997367 0 0.064028295168381086 -0.066851515572077122 0 0.052516739773351563 -0.068926098243374923 0 0.057353323497364467 -0.063713891590689298 0 0.064028295168381086 -0.066851515572077122 0 0.041206509291439972 -0.091364691783722515 0 0.059456295693036253 -0.079178767042997367 0 0.06225117261196856 -0.095577457706679927 0 0.044940930060985103 -0.080414223622470873 0 0.041206509291439972 -0.091364691783722515 0 0.059456295693036253 -0.079178767042997367 0 0.041206509291439972 -0.091364691783722515 0 0.059456295693036253 -0.079178767042997367 0 0.044940930060985103 -0.080414223622470873 0 0.059456295693036253 -0.079178767042997367 0 0.059456295693036253 -0.079178767042997367 0 0.062234417156402329 -0.078942310826358914 0 0.041206509291439972 -0.091364691783722515 0 0.06225117261196856 -0.095577457706679927 0 0.048039519072448307 -0.1101370025177419 0 0.06225117261196856 -0.095577457706679927 0 0.048039519072448307 -0.1101370025177419 0 0.06904978789292035 -0.1107599220236726 0 0.058152342805634388 -0.1236805937218577 0 0.048039519072448307 -0.1101370025177419 0 0.06904978789292035 -0.1107599220236726 0 0.048039519072448307 -0.1101370025177419 0 0.06904978789292035 -0.1107599220236726 0 0.045679428127862819 -0.1253315646128193 0 0.058152342805634388 -0.1236805937218577 0 0.048039519072448307 -0.1101370025177419 0 0.045679428127862819 -0.1253315646128193 0 0.048039519072448307 -0.1101370025177419 0 0.031544928571029328 -0.1196954125554483 0 0.023020280963197831 -0.1035081769100045 0 0.041206509291439972 -0.091364691783722515 0 0.031544928571029328 -0.1196954125554483 0 0.041206509291439972 -0.091364691783722515 0 0.048039519072448307 -0.1101370025177419 0 0.031544928571029328 -0.1196954125554483 0 0.023020280963197831 -0.1035081769100045 0 0.041206509291439972 -0.091364691783722515 0 0.041206509291439972 -0.091364691783722515 0 0.031544928571029328 -0.1196954125554483 0 0.0217108161930991 -0.001085578434556951 0 0.02238708532816237 -0.016890391705211571 0 0.038128611492150757 -0.01355130648960292 0 0.0217108161930991 -0.001085578434556951 0 0.0094716142527038819 -0.0079088637512633383 0 0.02238708532816237 -0.016890391705211571 0 -0.008081950935871246 -0.0078643453545879025 0 0.0057465999670243432 0.0055996356184830438 0 0.0094716142527038819 -0.0079088637512633383 0 0.0057465999670243432 0.0055996356184830438 0 0.0217108161930991 -0.001085578434556951 0 0.0094716142527038819 -0.0079088637512633383 0 -0.008081950935871246 -0.0078643453545879025 0 0.0094716142527038819 -0.0079088637512633383 0 0.0069763512184407676 -0.022647556875415451 0 -0.0099906299789442321 -0.0293115812195653 0 0.0069763512184407676 -0.022647556875415451 0 0.0050241786169890248 -0.03713629370316586 0 0.0094716142527038819 -0.0079088637512633383 0 0.0069763512184407676 -0.022647556875415451 0 0.02238708532816237 -0.016890391705211571 0 0.02238708532816237 -0.016890391705211571 0 0.021886622530709179 -0.036171048666990703 0 0.034138560027680287 -0.024152117691514111 0 0.0069763512184407676 -0.022647556875415451 0 0.02238708532816237 -0.016890391705211571 0 0.021886622530709179 -0.036171048666990703 0 0.021886622530709179 -0.036171048666990703 0 0.0050241786169890248 -0.03713629370316586 0 0.020658946618663531 -0.058672826047181707 0 0.021886622530709179 -0.036171048666990703 0 0.020658946618663531 -0.058672826047181707 0 0.035330847008373439 -0.042144240077773162 0 0.021886622530709179 -0.036171048666990703 0 0.032219792099813592 -0.034239878983983049 0 0.034138560027680287 -0.024152117691514111 0 0.021886622530709179 -0.036171048666990703 0 0.035330847008373439 -0.042144240077773162 0 0.032219792099813592 -0.034239878983983049 0 0.0069763512184407676 -0.022647556875415451 0 0.021886622530709179 -0.036171048666990703 0 0.0050241786169890248 -0.03713629370316586 0 -0.0071811579328509706 -0.049712626935109173 0 0.0055518271476778479 -0.060554578777902927 0 0.020658946618663531 -0.058672826047181707 0 -0.0071811579328509706 -0.049712626935109173 0 0.020658946618663531 -0.058672826047181707 0 -0.0071811579328509706 -0.049712626935109173 0 0.0050241786169890248 -0.03713629370316586 0 0.020658946618663531 -0.058672826047181707 0 0.0055518271476778479 -0.060554578777902927 0 0.020658946618663531 -0.058672826047181707 0 0.020658946618663531 -0.058672826047181707 0 0.047642533568066622 -0.055311732721341003 0 0.035330847008373439 -0.042144240077773162 0 0.020658946618663531 -0.058672826047181707 0 0.047642533568066622 -0.055311732721341003 0 0.042357693807677121 -0.065656459852736215 0 0.020658946618663531 -0.058672826047181707 0 0.047642533568066622 -0.055311732721341003 0 0.042357693807677121 -0.065656459852736215 0 0.020658946618663531 -0.058672826047181707 0 0.042357693807677121 -0.065656459852736215 0 0.047642533568066622 -0.055311732721341003 0 0.042357693807677121 -0.065656459852736215 0 0.047412572973300017 -0.061716556127691148 0 0.047642533568066622 -0.055311732721341003 0 0.04922049719153343 -0.067865218971171398 0 0.053761519378825527 -0.054549547826943351 0 0.047642533568066622 -0.055311732721341003 0 0.053761519378825527 -0.054549547826943351 0 0.057477536026820139 -0.036060360610697888 0 0.04922049719153343 -0.067865218971171398 0 0.047412572973300017 -0.061716556127691148 0 0.053761519378825527 -0.054549547826943351 0 0.04922049719153343 -0.067865218971171398 0 0.057353323497364467 -0.063713891590689298 0 0.053761519378825527 -0.054549547826943351 0 0.047412572973300017 -0.061716556127691148 0 0.047642533568066622 -0.055311732721341003 0 0.053761519378825527 -0.054549547826943351 0 0.047642533568066622 -0.055311732721341003 0 0.053761519378825527 -0.054549547826943351 0 0.057353323497364467 -0.063713891590689298 0 0.053761519378825527 -0.054549547826943351 0 0.06723956597473027 -0.060377077339879508 0 0.053761519378825527 -0.054549547826943351 0 0.061655070364728309 -0.031403233020862488 0 0.057477536026820139 -0.036060360610697888 0 0.053761519378825527 -0.054549547826943351 0 0.061655070364728309 -0.031403233020862488 0 0.066082813200167345 -0.044591377035408969 0 0.047642533568066622 -0.055311732721341003 0 0.057477536026820139 -0.036060360610697888 0 0.047718036491888341 -0.036244064231816073 0 0.053761519378825527 -0.054549547826943351 0 0.061655070364728309 -0.031403233020862488 0 0.047642533568066622 -0.055311732721341003 0 0.057477536026820139 -0.036060360610697888 0 0.061655070364728309 -0.031403233020862488 0 0.057477536026820139 -0.036060360610697888 0 0.055324357297392018 -0.030367969142294511 0 0.057477536026820139 -0.036060360610697888 0 0.047718036491888341 -0.036244064231816073 0 0.055324357297392018 -0.030367969142294511 0 0.047718036491888341 -0.036244064231816073 0 0.039686342753942019 -0.032099660641540233 0 0.035330847008373439 -0.042144240077773162 0 0.047642533568066622 -0.055311732721341003 0 0.047718036491888341 -0.036244064231816073 0 0.035330847008373439 -0.042144240077773162 0 0.039686342753942019 -0.032099660641540233 0 0.035330847008373439 -0.042144240077773162 0 0.032219792099813592 -0.034239878983983049 0 0.02238708532816237 -0.016890391705211571 0 0.034138560027680287 -0.024152117691514111 0 0.038128611492150757 -0.01355130648960292 0 0.039686342753942019 -0.032099660641540233 0 0.032219792099813592 -0.034239878983983049 0 0.034138560027680287 -0.024152117691514111 0 0.034138560027680287 -0.024152117691514111 0 0.049024478141954458 -0.023718002222614741 0 0.038128611492150757 -0.01355130648960292 0 0.049024478141954458 -0.023718002222614741 0 0.053333918461092873 -0.01328775243377656 0 0.038128611492150757 -0.01355130648960292 0 0.047718036491888341 -0.036244064231816073 0 0.039686342753942019 -0.032099660641540233 0 0.049024478141954458 -0.023718002222614741 0 0.039686342753942019 -0.032099660641540233 0 0.034138560027680287 -0.024152117691514111 0 0.049024478141954458 -0.023718002222614741 0 0.047718036491888341 -0.036244064231816073 0 0.049024478141954458 -0.023718002222614741 0 0.055324357297392018 -0.030367969142294511 0 0.049024478141954458 -0.023718002222614741 0 0.055324357297392018 -0.030367969142294511 0 0.056680071202434228 -0.025913299250085391 0 0.061655070364728309 -0.031403233020862488 0 0.056680071202434228 -0.025913299250085391 0 0.060716379005662152 -0.01816399261456984 0 0.061655070364728309 -0.031403233020862488 0 0.055324357297392018 -0.030367969142294511 0 0.056680071202434228 -0.025913299250085391 0 0.049024478141954458 -0.023718002222614741 0 0.056680071202434228 -0.025913299250085391 0 0.060716379005662152 -0.01816399261456984 0 0.049024478141954458 -0.023718002222614741 0 0.060716379005662152 -0.01816399261456984 0 0.053333918461092873 -0.01328775243377656 0 0.060716379005662152 -0.01816399261456984 0 0.053333918461092873 -0.01328775243377656 0 0.069548621350630641 -0.0082569182147814307 0 0.053333918461092873 -0.01328775243377656 0 0.049251502315066371 -0.0027485426273138819 0 0.069548621350630641 -0.0082569182147814307 0 0.053333918461092873 -0.01328775243377656 0 0.049251502315066371 -0.0027485426273138819 0 0.038128611492150757 -0.01355130648960292 0 0.061392891900666088 0.0054489801558786077 0 0.049251502315066371 -0.0027485426273138819 0 0.076792188437033629 -0.0044115068200708124 0 0.0217108161930991 -0.001085578434556951 0 0.049251502315066371 -0.0027485426273138819 0 0.038128611492150757 -0.01355130648960292 0 0.0217108161930991 -0.001085578434556951 0 0.049251502315066371 -0.0027485426273138819 0 0.076792188437033629 -0.0044115068200708124 0 0.1043328745590008 -0.006074471012827736 0 0.095468603896129905 0.0032048388713090512 0 0.076792188437033629 -0.0044115068200708124 0 0.1043328745590008 -0.006074471012827736 0 0.089373688792089206 -0.011043439040499229 0 0.076792188437033629 -0.0044115068200708124 0 0.1043328745590008 -0.006074471012827736 0 0.089373688792089206 -0.011043439040499229 0 0.079601028667628138 -0.0150023615810559 0 0.089862916173340357 -0.01708762558901326 0 0.089373688792089206 -0.011043439040499229 0 0.089862916173340357 -0.01708762558901326 0 0.096279436123443099 -0.01264123019952843 0 0.089373688792089206 -0.011043439040499229 0 0.079601028667628138 -0.0150023615810559 0 0.076792188437033629 -0.0044115068200708124 0 0.049251502315066371 -0.0027485426273138819 0 0.076792188437033629 -0.0044115068200708124 0 0.049251502315066371 -0.0027485426273138819 0 0.076792188437033629 -0.0044115068200708124 0 0.069548621350630641 -0.0082569182147814307 0 0.069548621350630641 -0.0082569182147814307 0 0.07420405090032231 -0.012324735278690029 0 0.070874365145996834 -0.02162815449885196 0 0.076792188437033629 -0.0044115068200708124 0 0.069548621350630641 -0.0082569182147814307 0 0.07420405090032231 -0.012324735278690029 0 0.079601028667628138 -0.0150023615810559 0 0.076792188437033629 -0.0044115068200708124 0 0.07420405090032231 -0.012324735278690029 0 0.079601028667628138 -0.0150023615810559 0 0.07420405090032231 -0.012324735278690029 0 0.070874365145996834 -0.02162815449885196 0 0.061655070364728309 -0.031403233020862488 0 0.069548621350630641 -0.0082569182147814307 0 0.079601028667628138 -0.0150023615810559 0 0.070874365145996834 -0.02162815449885196 0 0.083110828861718888 -0.024746455878309429 0 0.061655070364728309 -0.031403233020862488 0 0.060716379005662152 -0.01816399261456984 0 0.069548621350630641 -0.0082569182147814307 0 0.061655070364728309 -0.031403233020862488 0 0.069548621350630641 -0.0082569182147814307 0 0.070874365145996834 -0.02162815449885196 0 0.061655070364728309 -0.031403233020862488 0 0.070874365145996834 -0.02162815449885196 0 0.074255817864639778 -0.034265107270482049 0 0.070874365145996834 -0.02162815449885196 0 0.083110828861718888 -0.024746455878309429 0 0.074255817864639778 -0.034265107270482049 0 0.079601028667628138 -0.0150023615810559 0 0.083110828861718888 -0.024746455878309429 0 0.089862916173340357 -0.01708762558901326 0 0.083110828861718888 -0.024746455878309429 0 0.089862916173340357 -0.01708762558901326 0 0.094022778193201012 -0.026123982876348699 0 0.083110828861718888 -0.024746455878309429 0 0.091714906782867311 -0.036797226709749317 0 0.094022778193201012 -0.026123982876348699 0 0.091714906782867311 -0.036797226709749317 0 0.079933656766624769 -0.051289529191830711 0 0.1061057941544242 -0.048029510556719501 0 0.091714906782867311 -0.036797226709749317 0 0.074255817864639778 -0.034265107270482049 0 0.079933656766624769 -0.051289529191830711 0 0.083110828861718888 -0.024746455878309429 0 0.091714906782867311 -0.036797226709749317 0 0.074255817864639778 -0.034265107270482049 0 0.074255817864639778 -0.034265107270482049 0 0.066082813200167345 -0.044591377035408969 0 0.079933656766624769 -0.051289529191830711 0 0.061655070364728309 -0.031403233020862488 0 0.074255817864639778 -0.034265107270482049 0 0.066082813200167345 -0.044591377035408969 0 0.053761519378825527 -0.054549547826943351 0 0.066082813200167345 -0.044591377035408969 0 0.079933656766624769 -0.051289529191830711 0 0.053761519378825527 -0.054549547826943351 0 0.079933656766624769 -0.051289529191830711 0 0.053761519378825527 -0.054549547826943351 0 0.06723956597473027 -0.060377077339879508 0 0.079933656766624769 -0.051289529191830711 0 0.06723956597473027 -0.060377077339879508 0 0.079933656766624769 -0.051289529191830711 0 0.082781044923730202 -0.063604138799858309 0 0.079933656766624769 -0.051289529191830711 0 0.1061057941544242 -0.048029510556719501 0 0.082781044923730202 -0.063604138799858309 0 0.079933656766624769 -0.051289529191830711 0 0.1061057941544242 -0.048029510556719501 0 0.1061057941544242 -0.048029510556719501 0 0.082781044923730202 -0.063604138799858309 0 0.111068071689429 -0.068942951262236568 0 0.1061057941544242 -0.048029510556719501 0 0.082781044923730202 -0.063604138799858309 0 0.1061057941544242 -0.048029510556719501 0 0.11106694476720951 -0.047411546375587969 0 0.11106694476720951 -0.047411546375587969 0 0.111068071689429 -0.068942951262236568 0 0.12044520320843211 -0.058176758004082361 0 0.11106694476720951 -0.047411546375587969 0 0.111068071689429 -0.068942951262236568 0 0.1061057941544242 -0.048029510556719501 0 0.11106694476720951 -0.047411546375587969 0 0.111068071689429 -0.068942951262236568 0 0.12044520320843211 -0.058176758004082361 0 0.11106694476720951 -0.047411546375587969 0 0.1268960241544852 -0.045439865843174693 0 0.1145384225706095 -0.042398793956269408 0 0.11874886145434339 -0.01988594297582702 0 0.1268960241544852 -0.045439865843174693 0 0.11106694476720951 -0.047411546375587969 0 0.1268960241544852 -0.045439865843174693 0 0.1110668037332045 -0.044716897026090753 0 0.1110657475635783 -0.024537318092090879 0 0.11106694476720951 -0.047411546375587969 0 0.1110668037332045 -0.044716897026090753 0 0.1145384225706095 -0.042398793956269408 0 0.11106694476720951 -0.047411546375587969 0 0.1145384225706095 -0.042398793956269408 0 0.1268960241544852 -0.045439865843174693 0 0.1061057941544242 -0.048029510556719501 0 0.11106694476720951 -0.047411546375587969 0 0.1110668037332045 -0.044716897026090753 0 0.1110668037332045 -0.044716897026090753 0 0.1145384225706095 -0.042398793956269408 0 0.1110657475635783 -0.024537318092090879 0 0.11874886145434339 -0.01988594297582702 0 0.1268960241544852 -0.045439865843174693 0 0.11106694476720951 -0.047411546375587969 0 0.1110668037332045 -0.044716897026090753 0 0.1110668037332045 -0.044716897026090753 0 0.1145384225706095 -0.042398793956269408 0 0.1110668037332045 -0.044716897026090753 0 0.1055557892623542 -0.033443297064595402 0 0.1033412620220773 -0.038743671180952483 0 0.1110668037332045 -0.044716897026090753 0 0.1055557892623542 -0.033443297064595402 0 0.1110657475635783 -0.024537318092090879 0 0.1055557892623542 -0.033443297064595402 0 0.1033412620220773 -0.038743671180952483 0 0.099735706130166191 -0.032363650611350291 0 0.1061057941544242 -0.048029510556719501 0 0.1110668037332045 -0.044716897026090753 0 0.1033412620220773 -0.038743671180952483 0 0.1061057941544242 -0.048029510556719501 0 0.1110668037332045 -0.044716897026090753 0 0.091714906782867311 -0.036797226709749317 0 0.1061057941544242 -0.048029510556719501 0 0.1033412620220773 -0.038743671180952483 0 0.091714906782867311 -0.036797226709749317 0 0.099735706130166191 -0.032363650611350291 0 0.094022778193201012 -0.026123982876348699 0 0.091714906782867311 -0.036797226709749317 0 0.1033412620220773 -0.038743671180952483 0 0.099735706130166191 -0.032363650611350291 0 0.094022778193201012 -0.026123982876348699 0 0.099939803117056927 -0.019438719481823939 0 0.10256942686274539 -0.02685494841249338 0 0.099735706130166191 -0.032363650611350291 0 0.094022778193201012 -0.026123982876348699 0 0.10256942686274539 -0.02685494841249338 0 0.089862916173340357 -0.01708762558901326 0 0.099939803117056927 -0.019438719481823939 0 0.096279436123443099 -0.01264123019952843 0 0.089862916173340357 -0.01708762558901326 0 0.094022778193201012 -0.026123982876348699 0 0.099939803117056927 -0.019438719481823939 0 0.099939803117056927 -0.019438719481823939 0 0.1110657475635783 -0.024537318092090879 0 0.1038427994338427 -0.01228339429365575 0 0.099939803117056927 -0.019438719481823939 0 0.10256942686274539 -0.02685494841249338 0 0.1110657475635783 -0.024537318092090879 0 0.1055557892623542 -0.033443297064595402 0 0.10256942686274539 -0.02685494841249338 0 0.1110657475635783 -0.024537318092090879 0 0.1055557892623542 -0.033443297064595402 0 0.099735706130166191 -0.032363650611350291 0 0.10256942686274539 -0.02685494841249338 0 0.1110657475635783 -0.024537318092090879 0 0.11874886145434339 -0.01988594297582702 0 0.11106469139395241 -0.0043577391580909642 0 0.1145384225706095 -0.042398793956269408 0 0.1110657475635783 -0.024537318092090879 0 0.11874886145434339 -0.01988594297582702 0 0.1110657475635783 -0.024537318092090879 0 0.11106469139395241 -0.0043577391580909642 0 0.1241013306504634 -0.00126979730434574 0 0.11106469139395241 -0.0043577391580909642 0 0.13403156470564001 -0.01549442786512698 0 0.11874886145434339 -0.01988594297582702 0 0.11106469139395241 -0.0043577391580909642 0 0.13403156470564001 -0.01549442786512698 0 0.11106469139395241 -0.0043577391580909642 0 0.13403156470564001 -0.01549442786512698 0 0.11616446291822149 0.0009867659353553224 0 0.1241013306504634 -0.00126979730434574 0 0.11106469139395241 -0.0043577391580909642 0 0.1110642626353554 0.0038342857635015049 0 0.11106469139395241 -0.0043577391580909642 0 0.1110657475635783 -0.024537318092090879 0 0.11106469139395241 -0.0043577391580909642 0 0.1038427994338427 -0.01228339429365575 0 0.11106469139395241 -0.0043577391580909642 0 0.1043328745590008 -0.006074471012827736 0 0.1038427994338427 -0.01228339429365575 0 0.095468603896129905 0.0032048388713090512 0 0.11106469139395241 -0.0043577391580909642 0 0.095468603896129905 0.0032048388713090512 0 0.11106469139395241 -0.0043577391580909642 0 0.1043328745590008 -0.006074471012827736 0 0.1043328745590008 -0.006074471012827736 0 0.1038427994338427 -0.01228339429365575 0 0.096279436123443099 -0.01264123019952843 0 0.089373688792089206 -0.011043439040499229 0 0.1043328745590008 -0.006074471012827736 0 0.096279436123443099 -0.01264123019952843 0 0.099939803117056927 -0.019438719481823939 0 0.1038427994338427 -0.01228339429365575 0 0.096279436123443099 -0.01264123019952843 0 0.079765876201786601 -0.094234890917057473 0 0.090060056713392317 -0.1113828415296032 0 0.097109735642090717 -0.098021729451106668 0 0.079765876201786601 -0.094234890917057473 0 0.090060056713392317 -0.1113828415296032 0 0.06904978789292035 -0.1107599220236726 0 0.090060056713392317 -0.1113828415296032 0 0.06904978789292035 -0.1107599220236726 0 0.079664021380890612 -0.12566464947746619 0 0.090060056713392317 -0.1113828415296032 0 0.10134097292599541 -0.121259740946941 0 0.079664021380890612 -0.12566464947746619 0 0.090060056713392317 -0.1113828415296032 0 0.06904978789292035 -0.1107599220236726 0 0.079664021380890612 -0.12566464947746619 0 0.058152342805634388 -0.1236805937218577 0 0.06904978789292035 -0.1107599220236726 0 0.06225117261196856 -0.095577457706679927 0 0.079765876201786601 -0.094234890917057473 0 0.06904978789292035 -0.1107599220236726 0 0.062234417156402329 -0.078942310826358914 0 0.068332551824409768 -0.085783267286662093 0 0.077954997458855341 -0.080982909940217215 0 0.059456295693036253 -0.079178767042997367 0 0.06225117261196856 -0.095577457706679927 0 0.068332551824409768 -0.085783267286662093 0 0.06225117261196856 -0.095577457706679927 0 0.079765876201786601 -0.094234890917057473 0 0.068332551824409768 -0.085783267286662093 0 0.059456295693036253 -0.079178767042997367 0 0.062234417156402329 -0.078942310826358914 0 0.068332551824409768 -0.085783267286662093 0 0.079765876201786601 -0.094234890917057473 0 0.068332551824409768 -0.085783267286662093 0 0.077954997458855341 -0.080982909940217215 0 0.06723956597473027 -0.060377077339879508 0 0.064028295168381086 -0.066851515572077122 0 0.082781044923730202 -0.063604138799858309 0 0.059456295693036253 -0.079178767042997367 0 0.062234417156402329 -0.078942310826358914 0 0.082781044923730202 -0.063604138799858309 0 0.059456295693036253 -0.079178767042997367 0 0.064028295168381086 -0.066851515572077122 0 0.082781044923730202 -0.063604138799858309 0 0.059456295693036253 -0.079178767042997367 0 0.082781044923730202 -0.063604138799858309 0 0.062234417156402329 -0.078942310826358914 0 0.077954997458855341 -0.080982909940217215 0 0.082781044923730202 -0.063604138799858309 0 0.057353323497364467 -0.063713891590689298 0 0.06723956597473027 -0.060377077339879508 0 0.064028295168381086 -0.066851515572077122 0 0.077954997458855341 -0.080982909940217215 0 0.082781044923730202 -0.063604138799858309 0 0.093583221149761669 -0.082010797624453624 0 0.079765876201786601 -0.094234890917057473 0 0.093583221149761669 -0.082010797624453624 0 0.097109735642090717 -0.098021729451106668 0 0.079765876201786601 -0.094234890917057473 0 0.077954997458855341 -0.080982909940217215 0 0.093583221149761669 -0.082010797624453624 0 0.093583221149761669 -0.082010797624453624 0 0.111068071689429 -0.068942951262236568 0 0.1110691986116488 -0.090474356148885188 0 0.093583221149761669 -0.082010797624453624 0 0.1110691986116488 -0.090474356148885188 0 0.097109735642090717 -0.098021729451106668 0 0.082781044923730202 -0.063604138799858309 0 0.093583221149761669 -0.082010797624453624 0 0.111068071689429 -0.068942951262236568 0 0.12044520320843211 -0.058176758004082361 0 0.111068071689429 -0.068942951262236568 0 0.12359760756783621 -0.077980187999416875 0 0.111068071689429 -0.068942951262236568 0 0.1110691986116488 -0.090474356148885188 0 0.111068071689429 -0.068942951262236568 0 0.12359760756783621 -0.077980187999416875 0 0.1110691986116488 -0.090474356148885188 0 0.12359760756783621 -0.077980187999416875 0 0.1110691986116488 -0.090474356148885188 0 0.1247667822469833 -0.094603111154835509 0 0.1247667822469833 -0.094603111154835509 0 0.1110703255338643 -0.11200576103553379 0 0.13251754910958141 -0.1022781194865121 0 0.1110691986116488 -0.090474356148885188 0 0.1110703255338643 -0.11200576103553379 0 0.1110691986116488 -0.090474356148885188 0 0.1247667822469833 -0.094603111154835509 0 0.1110703255338643 -0.11200576103553379 0 0.1110691986116488 -0.090474356148885188 0 0.097109735642090717 -0.098021729451106668 0 0.1110703255338643 -0.11200576103553379 0 0.090060056713392317 -0.1113828415296032 0 0.097109735642090717 -0.098021729451106668 0 0.1110703255338643 -0.11200576103553379 0 0.090060056713392317 -0.1113828415296032 0 0.1110703255338643 -0.11200576103553379 0 0.1110712941600925 -0.13051270236749449 0 0.10134097292599541 -0.121259740946941 0 0.1110703255338643 -0.11200576103553379 0 0.090060056713392317 -0.1113828415296032 0 0.10134097292599541 -0.121259740946941 0 0.1110703255338643 -0.11200576103553379 0 0.1110712941600925 -0.13051270236749449 0 0.1110703255338643 -0.11200576103553379 0 0.1244951109857452 -0.1203529848868761 0 0.1110712941600925 -0.13051270236749449 0 0.1110703255338643 -0.11200576103553379 0 0.1110703255338643 -0.11200576103553379 0 0.14075236033593799 -0.1128857839715522 0 0.1110703255338643 -0.11200576103553379 0 0.1244951109857452 -0.1203529848868761 0 0.14075236033593799 -0.1128857839715522 0 0.1244951109857452 -0.1203529848868761 0 0.14075236033593799 -0.1128857839715522 0 0.13508646391308621 -0.12600769217292379 0 0.14075236033593799 -0.1128857839715522 0 0.17043439513801181 -0.1137658069075705 0 0.14075236033593799 -0.1128857839715522 0 0.1591016336660796 -0.1215026819783514 0 0.13508646391308621 -0.12600769217292379 0 0.1591016336660796 -0.1215026819783514 0 0.13508646391308621 -0.12600769217292379 0 0.14621976162777481 -0.1060495915937488 0 0.13977851580334641 -0.085846349676890296 0 0.1533153804440896 -0.092729166951817821 0 0.14075236033593799 -0.1128857839715522 0 0.14621976162777481 -0.1060495915937488 0 0.1600023654421576 -0.1046503988106547 0 0.14621976162777481 -0.1060495915937488 0 0.13977851580334641 -0.085846349676890296 0 0.14621976162777481 -0.1060495915937488 0 0.1533153804440896 -0.092729166951817821 0 0.1600023654421576 -0.1046503988106547 0 0.1110703255338643 -0.11200576103553379 0 0.14075236033593799 -0.1128857839715522 0 0.13251754910958141 -0.1022781194865121 0 0.1247667822469833 -0.094603111154835509 0 0.13251754910958141 -0.1022781194865121 0 0.13977851580334641 -0.085846349676890296 0 0.14621976162777481 -0.1060495915937488 0 0.13251754910958141 -0.1022781194865121 0 0.13977851580334641 -0.085846349676890296 0 0.14075236033593799 -0.1128857839715522 0 0.14621976162777481 -0.1060495915937488 0 0.13251754910958141 -0.1022781194865121 0 0.12359760756783621 -0.077980187999416875 0 0.1247667822469833 -0.094603111154835509 0 0.13977851580334641 -0.085846349676890296 0 0.12359760756783621 -0.077980187999416875 0 0.13977851580334641 -0.085846349676890296 0 0.13333726997891801 -0.065643107760031738 0 0.13977851580334641 -0.085846349676890296 0 0.13333726997891801 -0.065643107760031738 0 0.14752880998169199 -0.069126175059886052 0 0.13977851580334641 -0.085846349676890296 0 0.13333726997891801 -0.065643107760031738 0 0.12044520320843211 -0.058176758004082361 0 0.12359760756783621 -0.077980187999416875 0 0.13333726997891801 -0.065643107760031738 0 0.14752880998169199 -0.069126175059886052 0 0.15449844762979709 -0.079210062000389603 0 0.16534332314343919 -0.066172810310391433 0 0.13977851580334641 -0.085846349676890296 0 0.14752880998169199 -0.069126175059886052 0 0.15449844762979709 -0.079210062000389603 0 0.13977851580334641 -0.085846349676890296 0 0.15449844762979709 -0.079210062000389603 0 0.1533153804440896 -0.092729166951817821 0 0.15449844762979709 -0.079210062000389603 0 0.1533153804440896 -0.092729166951817821 0 0.16638174870055461 -0.088044902470279018 0 0.15449844762979709 -0.079210062000389603 0 0.16638174870055461 -0.088044902470279018 0 0.16534332314343919 -0.066172810310391433 0 0.16534332314343919 -0.066172810310391433 0 0.18600015293391889 -0.083587075069055661 0 0.16534332314343919 -0.066172810310391433 0 0.18600015293391889 -0.083587075069055661 0 0.1902408166419349 -0.063653690646425509 0 0.16638174870055461 -0.088044902470279018 0 0.16534332314343919 -0.066172810310391433 0 0.18600015293391889 -0.083587075069055661 0 0.16638174870055461 -0.088044902470279018 0 0.18600015293391889 -0.083587075069055661 0 0.1815388957007569 -0.10312750993221841 0 0.1815388957007569 -0.10312750993221841 0 0.18311680341907299 -0.1169976717837789 0 0.19708371769526301 -0.1150201012677961 0 0.1815388957007569 -0.10312750993221841 0 0.18311680341907299 -0.1169976717837789 0 0.17043439513801181 -0.1137658069075705 0 0.18311680341907299 -0.1169976717837789 0 0.1591016336660796 -0.1215026819783514 0 0.18311680341907299 -0.1169976717837789 0 0.17043439513801181 -0.1137658069075705 0 0.1591016336660796 -0.1215026819783514 0 0.18311680341907299 -0.1169976717837789 0 0.1591016336660796 -0.1215026819783514 0 0.17103137087963541 -0.1290824278749787 0 0.14075236033593799 -0.1128857839715522 0 0.17043439513801181 -0.1137658069075705 0 0.1591016336660796 -0.1215026819783514 0 0.14075236033593799 -0.1128857839715522 0 0.17043439513801181 -0.1137658069075705 0 0.1600023654421576 -0.1046503988106547 0 0.1533153804440896 -0.092729166951817821 0 0.16638174870055461 -0.088044902470279018 0 0.1600023654421576 -0.1046503988106547 0 0.1815388957007569 -0.10312750993221841 0 0.17043439513801181 -0.1137658069075705 0 0.1600023654421576 -0.1046503988106547 0 0.16638174870055461 -0.088044902470279018 0 0.1815388957007569 -0.10312750993221841 0 0.1600023654421576 -0.1046503988106547 0 0.1454712798881049 -0.003730971849526866 0 0.13403156470564001 -0.01549442786512698 0 0.1569984380173273 -0.026631116572163761 0 0.1454712798881049 -0.003730971849526866 0 0.1569984380173273 -0.026631116572163761 0 0.1637454324533367 -0.01207635113786649 0 0.1454712798881049 -0.003730971849526866 0 0.13373112663479869 -0.0028115886610750019 0 0.13403156470564001 -0.01549442786512698 0 0.1241013306504634 -0.00126979730434574 0 0.13373112663479869 -0.0028115886610750019 0 0.13403156470564001 -0.01549442786512698 0 0.13403156470564001 -0.01549442786512698 0 0.13006182297500279 -0.02818687572521553 0 0.14057084158554251 -0.031927266216732593 0 0.11874886145434339 -0.01988594297582702 0 0.13006182297500279 -0.02818687572521553 0 0.1268960241544852 -0.045439865843174693 0 0.11874886145434339 -0.01988594297582702 0 0.13403156470564001 -0.01549442786512698 0 0.13006182297500279 -0.02818687572521553 0 0.13403156470564001 -0.01549442786512698 0 0.14057084158554251 -0.031927266216732593 0 0.1569984380173273 -0.026631116572163761 0 0.13403156470564001 -0.01549442786512698 0 0.1569984380173273 -0.026631116572163761 0 0.14057084158554251 -0.031927266216732593 0 0.1268960241544852 -0.045439865843174693 0 0.1562816529443998 -0.041779572606894091 0 0.14057084158554251 -0.031927266216732593 0 0.1562816529443998 -0.041779572606894091 0 0.1569984380173273 -0.026631116572163761 0 0.1268960241544852 -0.045439865843174693 0 0.1562816529443998 -0.041779572606894091 0 0.1268960241544852 -0.045439865843174693 0 0.14468649335295949 -0.048758545551727199 0 0.1562816529443998 -0.041779572606894091 0 0.13006182297500279 -0.02818687572521553 0 0.14057084158554251 -0.031927266216732593 0 0.1268960241544852 -0.045439865843174693 0 0.12044520320843211 -0.058176758004082361 0 0.13333726997891801 -0.065643107760031738 0 0.1268960241544852 -0.045439865843174693 0 0.13333726997891801 -0.065643107760031738 0 0.1268960241544852 -0.045439865843174693 0 0.13333726997891801 -0.065643107760031738 0 0.1268960241544852 -0.045439865843174693 0 0.14468649335295949 -0.048758545551727199 0 0.13333726997891801 -0.065643107760031738 0 0.14752880998169199 -0.069126175059886052 0 0.14468649335295949 -0.048758545551727199 0 0.16534332314343919 -0.066172810310391433 0 0.14468649335295949 -0.048758545551727199 0 0.1562816529443998 -0.041779572606894091 0 0.16534332314343919 -0.066172810310391433 0 0.14468649335295949 -0.048758545551727199 0 0.14752880998169199 -0.069126175059886052 0 0.16534332314343919 -0.066172810310391433 0 0.14468649335295949 -0.048758545551727199 0 0.16534332314343919 -0.066172810310391433 0 0.1743832686160221 -0.052431338233580919 0 0.1562816529443998 -0.041779572606894091 0 0.16534332314343919 -0.066172810310391433 0 0.1743832686160221 -0.052431338233580919 0 0.1902408166419349 -0.063653690646425509 0 0.1743832686160221 -0.052431338233580919 0 0.18566728173431429 -0.038119279370612658 0 0.1902408166419349 -0.063653690646425509 0 0.1743832686160221 -0.052431338233580919 0 0.18566728173431429 -0.038119279370612658 0 0.1562816529443998 -0.041779572606894091 0 0.18566728173431429 -0.038119279370612658 0 0.1799653113290145 -0.037767805279200532 0 0.1562816529443998 -0.041779572606894091 0 0.18566728173431429 -0.038119279370612658 0 0.1799653113290145 -0.037767805279200532 0 0.18352544288220721 -0.02643904852971838 0 0.1799653113290145 -0.037767805279200532 0 0.1569984380173273 -0.026631116572163761 0 0.1799653113290145 -0.037767805279200532 0 0.1562816529443998 -0.041779572606894091 0 0.1569984380173273 -0.026631116572163761 0 0.18566728173431429 -0.038119279370612658 0 0.1562816529443998 -0.041779572606894091 0 0.1799653113290145 -0.037767805279200532 0 0.1569984380173273 -0.026631116572163761 0 0.17157070889149501 -0.02546215785151933 0 0.17157070889149501 -0.02546215785151933 0 0.17532609562794901 -0.017265125093693819 0 0.1637454324533367 -0.01207635113786649 0 0.1569984380173273 -0.026631116572163761 0 0.17157070889149501 -0.02546215785151933 0 0.1637454324533367 -0.01207635113786649 0 0.1799653113290145 -0.037767805279200532 0 0.17157070889149501 -0.02546215785151933 0 0.18352544288220721 -0.02643904852971838 0 0.18352544288220721 -0.02643904852971838 0 0.17532609562794901 -0.017265125093693819 0 0.18464571804255381 -0.01434874739392517 0 0.17157070889149501 -0.02546215785151933 0 0.18352544288220721 -0.02643904852971838 0 0.17532609562794901 -0.017265125093693819 0 0.17532609562794901 -0.017265125093693819 0 0.18464571804255381 -0.01434874739392517 0 0.17522714050184721 -0.0049488647019317131 0 0.18464571804255381 -0.01434874739392517 0 0.17522714050184721 -0.0049488647019317131 0 0.1875025085325798 -0.00089400050155696853 0 0.1601032952255865 0.003960831588106911 0 0.1454712798881049 -0.003730971849526866 0 0.1637454324533367 -0.01207635113786649 0 0.1601032952255865 0.003960831588106911 0 0.17522714050184721 -0.0049488647019317131 0 0.1637454324533367 -0.01207635113786649 0 0.17532609562794901 -0.017265125093693819 0 0.17522714050184721 -0.0049488647019317131 0 0.1637454324533367 -0.01207635113786649 0 0.20658404310945239 -0.0047970488307741092 0 0.19732880705779859 -0.02003632072507585 0 0.21527408670860021 -0.016870533990492289 0 0.2148085754180758 0.0052537978973309406 0 0.20658404310945239 -0.0047970488307741092 0 0.2227394312342845 -0.0066353046367786921 0 0.20658404310945239 -0.0047970488307741092 0 0.21527408670860021 -0.016870533990492289 0 0.2227394312342845 -0.0066353046367786921 0 0.18464571804255381 -0.01434874739392517 0 0.1875025085325798 -0.00089400050155696853 0 0.19732880705779859 -0.02003632072507585 0 0.20658404310945239 -0.0047970488307741092 0 0.1875025085325798 -0.00089400050155696853 0 0.19732880705779859 -0.02003632072507585 0 0.18566728173431429 -0.038119279370612658 0 0.19732880705779859 -0.02003632072507585 0 0.2150529105242289 -0.034458986134331217 0 0.18566728173431429 -0.038119279370612658 0 0.18352544288220721 -0.02643904852971838 0 0.19732880705779859 -0.02003632072507585 0 0.18352544288220721 -0.02643904852971838 0 0.18464571804255381 -0.01434874739392517 0 0.19732880705779859 -0.02003632072507585 0 0.19732880705779859 -0.02003632072507585 0 0.21527408670860021 -0.016870533990492289 0 0.2150529105242289 -0.034458986134331217 0 0.18566728173431429 -0.038119279370612658 0 0.2150529105242289 -0.034458986134331217 0 0.18566728173431429 -0.038119279370612658 0 0.2150529105242289 -0.034458986134331217 0 0.20491372214368109 -0.052751152430799877 0 0.18566728173431429 -0.038119279370612658 0 0.20491372214368109 -0.052751152430799877 0 0.1902408166419349 -0.063653690646425509 0 0.20491372214368109 -0.052751152430799877 0 0.1902408166419349 -0.063653690646425509 0 0.21150083880492521 -0.067705321726837742 0 0.20491372214368109 -0.052751152430799877 0 0.22178985079401409 -0.054693465837619838 0 0.21150083880492521 -0.067705321726837742 0 0.2150529105242289 -0.034458986134331217 0 0.20491372214368109 -0.052751152430799877 0 0.22178985079401409 -0.054693465837619838 0 0.22178985079401409 -0.054693465837619838 0 0.23873029704772 -0.060004330127490971 0 0.2254105552342264 -0.069340092208567308 0 0.22178985079401409 -0.054693465837619838 0 0.23873029704772 -0.060004330127490971 0 0.23000289942002669 -0.044988868749372947 0 0.23873029704772 -0.060004330127490971 0 0.24861083198888209 -0.053598656101898408 0 0.24443853931414289 -0.030798692898044659 0 0.25571340908958867 -0.062031832045884867 0 0.24861083198888209 -0.053598656101898408 0 0.24529266408970271 -0.065670516910433796 0 0.23873029704772 -0.060004330127490971 0 0.24861083198888209 -0.053598656101898408 0 0.24529266408970271 -0.065670516910433796 0 0.23873029704772 -0.060004330127490971 0 0.24443853931414289 -0.030798692898044659 0 0.23873029704772 -0.060004330127490971 0 0.23000289942002669 -0.044988868749372947 0 0.24443853931414289 -0.030798692898044659 0 0.2150529105242289 -0.034458986134331217 0 0.24443853931414289 -0.030798692898044659 0 0.2150529105242289 -0.034458986134331217 0 0.23000289942002669 -0.044988868749372947 0 0.24443853931414289 -0.030798692898044659 0 0.2150529105242289 -0.034458986134331217 0 0.22178985079401409 -0.054693465837619838 0 0.23000289942002669 -0.044988868749372947 0 0.21527408670860021 -0.016870533990492289 0 0.2150529105242289 -0.034458986134331217 0 0.2314216026089275 -0.01657052648233805 0 0.2150529105242289 -0.034458986134331217 0 0.2314216026089275 -0.01657052648233805 0 0.24443853931414289 -0.030798692898044659 0 0.2314216026089275 -0.01657052648233805 0 0.24443853931414289 -0.030798692898044659 0 0.24837822010643121 -0.01064171941143479 0 0.24443853931414289 -0.030798692898044659 0 0.24837822010643121 -0.01064171941143479 0 0.23486169414593761 0.0044328377206448756 0 0.2314216026089275 -0.01657052648233805 0 0.24837822010643121 -0.01064171941143479 0 0.23486169414593761 0.0044328377206448756 0 0.24837822010643121 -0.01064171941143479 0 0.23486169414593761 0.0044328377206448756 0 0.2314216026089275 -0.01657052648233805 0 0.2227394312342845 -0.0066353046367786921 0 0.21527408670860021 -0.016870533990492289 0 0.2314216026089275 -0.01657052648233805 0 0.2227394312342845 -0.0066353046367786921 0 0.20665698272439861 -0.1010013398277199 0 0.20584527481288081 -0.083162880912667866 0 0.21995740980504969 -0.097151917108780711 0 0.20665698272439861 -0.1010013398277199 0 0.21995740980504969 -0.097151917108780711 0 0.22731381251487801 -0.11841560458638439 0 0.20665698272439861 -0.1010013398277199 0 0.21131158985563189 -0.1225609285287194 0 0.19708371769526301 -0.1150201012677961 0 0.20665698272439861 -0.1010013398277199 0 0.21131158985563189 -0.1225609285287194 0 0.22731381251487801 -0.11841560458638439 0 0.20665698272439861 -0.1010013398277199 0 0.22731381251487801 -0.11841560458638439 0 0.21131158985563189 -0.1225609285287194 0 0.19708371769526301 -0.1150201012677961 0 0.20204244888725309 -0.12834584035683219 0 0.19708371769526301 -0.1150201012677961 0 0.19170225420145701 -0.1255490584026607 0 0.20204244888725309 -0.12834584035683219 0 0.18311680341907299 -0.1169976717837789 0 0.19708371769526301 -0.1150201012677961 0 0.19170225420145701 -0.1255490584026607 0 0.1815388957007569 -0.10312750993221841 0 0.20665698272439861 -0.1010013398277199 0 0.19708371769526301 -0.1150201012677961 0 0.18600015293391889 -0.083587075069055661 0 0.1815388957007569 -0.10312750993221841 0 0.20665698272439861 -0.1010013398277199 0 0.18600015293391889 -0.083587075069055661 0 0.20665698272439861 -0.1010013398277199 0 0.20584527481288081 -0.083162880912667866 0 0.18600015293391889 -0.083587075069055661 0 0.20665698272439861 -0.1010013398277199 0 0.1902408166419349 -0.063653690646425509 0 0.21150083880492521 -0.067705321726837742 0 0.20584527481288081 -0.083162880912667866 0 0.18600015293391889 -0.083587075069055661 0 0.1902408166419349 -0.063653690646425509 0 0.20584527481288081 -0.083162880912667866 0 0.21150083880492521 -0.067705321726837742 0 0.20584527481288081 -0.083162880912667866 0 0.22056734931864541 -0.081637123969937081 0 0.20584527481288081 -0.083162880912667866 0 0.22056734931864541 -0.081637123969937081 0 0.21995740980504969 -0.097151917108780711 0 0.22056734931864541 -0.081637123969937081 0 0.23302205478129859 -0.089209967356937619 0 0.2254105552342264 -0.069340092208567308 0 0.22056734931864541 -0.081637123969937081 0 0.23302205478129859 -0.089209967356937619 0 0.21995740980504969 -0.097151917108780711 0 0.23873029704772 -0.060004330127490971 0 0.23302205478129859 -0.089209967356937619 0 0.2254105552342264 -0.069340092208567308 0 0.22178985079401409 -0.054693465837619838 0 0.21150083880492521 -0.067705321726837742 0 0.2254105552342264 -0.069340092208567308 0 0.21150083880492521 -0.067705321726837742 0 0.22056734931864541 -0.081637123969937081 0 0.2254105552342264 -0.069340092208567308 0 0.25462483508046457 -0.083048591473203981 0 0.24529266408970271 -0.065670516910433796 0 0.23873029704772 -0.060004330127490971 0 0.23302205478129859 -0.089209967356937619 0 0.23873029704772 -0.060004330127490971 0 0.24319344378213639 -0.077541246202979044 0 0.24529266408970271 -0.065670516910433796 0 0.25462483508046457 -0.083048591473203981 0 0.24319344378213639 -0.077541246202979044 0 0.24529266408970271 -0.065670516910433796 0 0.23873029704772 -0.060004330127490971 0 0.23302205478129859 -0.089209967356937619 0 0.24319344378213639 -0.077541246202979044 0 0.23302205478129859 -0.089209967356937619 0 0.24319344378213639 -0.077541246202979044 0 0.24429744486126961 -0.092415030224378816 0 0.25462483508046457 -0.083048591473203981 0 0.24319344378213639 -0.077541246202979044 0 0.24429744486126961 -0.092415030224378816 0 0.23302205478129859 -0.089209967356937619 0 0.24429744486126961 -0.092415030224378816 0 0.23338547966978729 -0.1068379626933337 0 0.2528876129834236 -0.094220099255164988 0 0.24429744486126961 -0.092415030224378816 0 0.24867124287050699 -0.1036323143646536 0 0.24867124287050699 -0.1036323143646536 0 0.23338547966978729 -0.1068379626933337 0 0.24429744486126961 -0.092415030224378816 0 0.24867124287050699 -0.1036323143646536 0 0.23338547966978729 -0.1068379626933337 0 0.23302205478129859 -0.089209967356937619 0 0.21995740980504969 -0.097151917108780711 0 0.22731381251487801 -0.11841560458638439 0 0.23302205478129859 -0.089209967356937619 0 0.22731381251487801 -0.11841560458638439 0 0.23302205478129859 -0.089209967356937619 0 0.23338547966978729 -0.1068379626933337 0 0.22731381251487801 -0.11841560458638439 0 0.21131158985563189 -0.1225609285287194 0 0.22731381251487801 -0.11841560458638439 0 0.2243374920012384 -0.13364364382207591 0 0.23338547966978729 -0.1068379626933337 0 0.22731381251487801 -0.11841560458638439 0 0.2421878029690071 -0.11792375126597229 0 0.22731381251487801 -0.11841560458638439 0 0.2421878029690071 -0.11792375126597229 0 0.245910845877507 -0.13409340539063849 0 0.24867124287050699 -0.1036323143646536 0 0.23338547966978729 -0.1068379626933337 0 0.2421878029690071 -0.11792375126597229 0 0.25101743794683912 -0.1146121967995704 0 0.24867124287050699 -0.1036323143646536 0 0.2421878029690071 -0.11792375126597229 0 0.25101743794683912 -0.1146121967995704 0 0.25433990433771841 -0.1243544269907422 0 0.2421878029690071 -0.11792375126597229 0 0.22731381251487801 -0.11841560458638439 0 0.245910845877507 -0.13409340539063849 0 0.245910845877507 -0.13409340539063849 0 0.23480427244398749 -0.14470340832726761 0 0.2243374920012384 -0.13364364382207591 0 0.25433990433771841 -0.1243544269907422 0 0.2421878029690071 -0.11792375126597229 0 0.245910845877507 -0.13409340539063849 0 0.25172611852857912 -0.16117425348272191 0 0.24825163994429519 -0.14855324651142299 0 0.24139489266072089 -0.15489719825353579 0 0.245910845877507 -0.13409340539063849 0 0.24825163994429519 -0.14855324651142299 0 0.23480427244398749 -0.14470340832726761 0 0.23480427244398749 -0.14470340832726761 0 0.24139489266072089 -0.15489719825353579 0 0.22950912267113219 -0.1579286806245345 0 0.24825163994429519 -0.14855324651142299 0 0.23480427244398749 -0.14470340832726761 0 0.24139489266072089 -0.15489719825353579 0 0.23480427244398749 -0.14470340832726761 0 0.22136117148759951 -0.1488716830577676 0 0.22950912267113219 -0.1579286806245345 0 0.23480427244398749 -0.14470340832726761 0 0.22136117148759951 -0.1488716830577676 0 0.2243374920012384 -0.13364364382207591 0 0.22136117148759951 -0.1488716830577676 0 0.2243374920012384 -0.13364364382207591 0 0.22731381251487801 -0.11841560458638439 0 0.245910845877507 -0.13409340539063849 0 0.2243374920012384 -0.13364364382207591 0 0.22731381251487801 -0.11841560458638439 0 0.2243374920012384 -0.13364364382207591 0 0.21131158985563189 -0.1225609285287194 0 0.2243374920012384 -0.13364364382207591 0 0.20933898145883961 -0.14011376792283381 0 0.21131158985563189 -0.1225609285287194 0 0.20933898145883961 -0.14011376792283381 0 0.20204244888725309 -0.12834584035683219 0 0.22136117148759951 -0.1488716830577676 0 0.20933898145883961 -0.14011376792283381 0 0.2046869147736663 -0.1547144632641109 0 0.22136117148759951 -0.1488716830577676 0 0.2046869147736663 -0.1547144632641109 0 0.2150163908689125 -0.1627032594048381 0 0.22136117148759951 -0.1488716830577676 0 0.2243374920012384 -0.13364364382207591 0 0.20933898145883961 -0.14011376792283381 0 0.20933898145883961 -0.14011376792283381 0 0.2046869147736663 -0.1547144632641109 0 0.19991565863556859 -0.14511136399123001 0 0.20933898145883961 -0.14011376792283381 0 0.19991565863556859 -0.14511136399123001 0 0.1959755485336879 -0.13697594020718429 0 0.2046869147736663 -0.1547144632641109 0 0.19991565863556859 -0.14511136399123001 0 0.18966118977608079 -0.1486412845707909 0 0.19991565863556859 -0.14511136399123001 0 0.18966118977608079 -0.1486412845707909 0 0.1959755485336879 -0.13697594020718429 0 0.18966118977608079 -0.1486412845707909 0 0.1959755485336879 -0.13697594020718429 0 0.18288499689202431 -0.13393341546785001 0 0.19170225420145701 -0.1255490584026607 0 0.1959755485336879 -0.13697594020718429 0 0.18288499689202431 -0.13393341546785001 0 0.19170225420145701 -0.1255490584026607 0 0.20204244888725309 -0.12834584035683219 0 0.1959755485336879 -0.13697594020718429 0 0.20933898145883961 -0.14011376792283381 0 0.20204244888725309 -0.12834584035683219 0 0.1959755485336879 -0.13697594020718429 0 0.19432264321285611 -0.1816642756381843 0 0.20617363014839349 -0.17138394852464489 0 0.20786688018092489 -0.1870703820251727 0 0.19432264321285611 -0.1816642756381843 0 0.1922402646605145 -0.1654529865563992 0 0.20617363014839349 -0.17138394852464489 0 0.19432264321285611 -0.1816642756381843 0 0.1922402646605145 -0.1654529865563992 0 0.17984174796593341 -0.17708923445271119 0 0.2046869147736663 -0.1547144632641109 0 0.1922402646605145 -0.1654529865563992 0 0.20617363014839349 -0.17138394852464489 0 0.2046869147736663 -0.1547144632641109 0 0.18966118977608079 -0.1486412845707909 0 0.1922402646605145 -0.1654529865563992 0 0.2046869147736663 -0.1547144632641109 0 0.20617363014839349 -0.17138394852464489 0 0.2150163908689125 -0.1627032594048381 0 0.20617363014839349 -0.17138394852464489 0 0.2150163908689125 -0.1627032594048381 0 0.2186364061125603 -0.17810730856617929 0 0.20617363014839349 -0.17138394852464489 0 0.2186364061125603 -0.17810730856617929 0 0.20786688018092489 -0.1870703820251727 0 0.2186364061125603 -0.17810730856617929 0 0.20786688018092489 -0.1870703820251727 0 0.21908074750825621 -0.19026954482832831 0 0.2299670202167462 -0.18426705026212989 0 0.22478585645270571 -0.16835020989676461 0 0.23838650933985181 -0.17066499135125021 0 0.2186364061125603 -0.17810730856617929 0 0.2299670202167462 -0.18426705026212989 0 0.22478585645270571 -0.16835020989676461 0 0.2186364061125603 -0.17810730856617929 0 0.2299670202167462 -0.18426705026212989 0 0.21908074750825621 -0.19026954482832831 0 0.2150163908689125 -0.1627032594048381 0 0.22478585645270571 -0.16835020989676461 0 0.22950912267113219 -0.1579286806245345 0 0.22136117148759951 -0.1488716830577676 0 0.2150163908689125 -0.1627032594048381 0 0.22950912267113219 -0.1579286806245345 0 0.2150163908689125 -0.1627032594048381 0 0.2186364061125603 -0.17810730856617929 0 0.22478585645270571 -0.16835020989676461 0 0.22478585645270571 -0.16835020989676461 0 0.22950912267113219 -0.1579286806245345 0 0.23838650933985181 -0.17066499135125021 0 0.25172611852857912 -0.16117425348272191 0 0.24139489266072089 -0.15489719825353579 0 0.23838650933985181 -0.17066499135125021 0 0.24139489266072089 -0.15489719825353579 0 0.22950912267113219 -0.1579286806245345 0 0.23838650933985181 -0.17066499135125021 0 0.25232087801029662 -0.1743036082448125 0 0.25172611852857912 -0.16117425348272191 0 0.23838650933985181 -0.17066499135125021 0 0.2299670202167462 -0.18426705026212989 0 0.24088166612482639 -0.18220765828638469 0 0.2388908918787678 -0.19256860285265909 0 0.2299670202167462 -0.18426705026212989 0 0.23838650933985181 -0.17066499135125021 0 0.24088166612482639 -0.18220765828638469 0 0.25232087801029662 -0.1743036082448125 0 0.23838650933985181 -0.17066499135125021 0 0.24088166612482639 -0.18220765828638469 0 0.25232087801029662 -0.1743036082448125 0 0.24088166612482639 -0.18220765828638469 0 0.2494281514357099 -0.18788699375990289 0 0.2494281514357099 -0.18788699375990289 0 0.2388908918787678 -0.19256860285265909 0 0.24761350086738881 -0.19571291374376831 0 0.24088166612482639 -0.18220765828638469 0 0.2494281514357099 -0.18788699375990289 0 0.2388908918787678 -0.19256860285265909 0 0.2388908918787678 -0.19256860285265909 0 0.2423767928016016 -0.20294914559991359 0 0.22809607852579289 -0.19997878680688611 0 0.25542854451629388 -0.1998498607268 0 0.2423767928016016 -0.20294914559991359 0 0.24761350086738881 -0.19571291374376831 0 0.2388908918787678 -0.19256860285265909 0 0.2423767928016016 -0.20294914559991359 0 0.24761350086738881 -0.19571291374376831 0 0.25147688088271641 -0.21194752874198031 0 0.25542854451629388 -0.1998498607268 0 0.2423767928016016 -0.20294914559991359 0 0.25147688088271641 -0.21194752874198031 0 0.2423767928016016 -0.20294914559991359 0 0.2355474620994345 -0.21068857441053529 0 0.25147688088271641 -0.21194752874198031 0 0.2355474620994345 -0.21068857441053529 0 0.23934177232259221 -0.22380736018715999 0 0.2423767928016016 -0.20294914559991359 0 0.2355474620994345 -0.21068857441053529 0 0.22809607852579289 -0.19997878680688611 0 0.22168370940054469 -0.21540197150896589 0 0.22809607852579289 -0.19997878680688611 0 0.21083735250525679 -0.20192419648127349 0 0.2355474620994345 -0.21068857441053529 0 0.22168370940054469 -0.21540197150896589 0 0.22809607852579289 -0.19997878680688611 0 0.2355474620994345 -0.21068857441053529 0 0.22168370940054469 -0.21540197150896589 0 0.23934177232259221 -0.22380736018715999 0 0.2299670202167462 -0.18426705026212989 0 0.2388908918787678 -0.19256860285265909 0 0.22809607852579289 -0.19997878680688611 0 0.2299670202167462 -0.18426705026212989 0 0.21908074750825621 -0.19026954482832831 0 0.22809607852579289 -0.19997878680688611 0 0.21908074750825621 -0.19026954482832831 0 0.22809607852579289 -0.19997878680688611 0 0.21083735250525679 -0.20192419648127349 0 0.25956792639756249 -0.22419618385450099 0 0.2458949266121517 -0.24119477616399751 0 0.23934177232259221 -0.22380736018715999 0 0.2458949266121517 -0.24119477616399751 0 0.23934177232259221 -0.22380736018715999 0 0.22657928359371141 -0.23525257407078701 0 0.22168370940054469 -0.21540197150896589 0 0.23934177232259221 -0.22380736018715999 0 0.22657928359371141 -0.23525257407078701 0 0.22168370940054469 -0.21540197150896589 0 0.22657928359371141 -0.23525257407078701 0 0.2115991114340609 -0.22695975730143261 0 0.2302258654200407 -0.25604080434424459 0 0.22657928359371141 -0.23525257407078701 0 0.20825914018731509 -0.24176904314253461 0 0.2302258654200407 -0.25604080434424459 0 0.20825914018731509 -0.24176904314253461 0 0.2302258654200407 -0.25604080434424459 0 0.2458949266121517 -0.24119477616399751 0 0.22657928359371141 -0.23525257407078701 0 0.22657928359371141 -0.23525257407078701 0 0.20825914018731509 -0.24176904314253461 0 0.2115991114340609 -0.22695975730143261 0 0.20825914018731509 -0.24176904314253461 0 0.2115991114340609 -0.22695975730143261 0 0.20062311415931891 -0.2256504216691933 0 0.22168370940054469 -0.21540197150896589 0 0.2115991114340609 -0.22695975730143261 0 0.20430044051251961 -0.21548295975203391 0 0.2115991114340609 -0.22695975730143261 0 0.20062311415931891 -0.2256504216691933 0 0.20430044051251961 -0.21548295975203391 0 0.20825914018731509 -0.24176904314253461 0 0.20062311415931891 -0.2256504216691933 0 0.1862924149545897 -0.22749728194082469 0 0.20062311415931891 -0.2256504216691933 0 0.20430044051251961 -0.21548295975203391 0 0.1926644637081093 -0.21654306620914071 0 0.20062311415931891 -0.2256504216691933 0 0.1926644637081093 -0.21654306620914071 0 0.1862924149545897 -0.22749728194082469 0 0.20825914018731509 -0.24176904314253461 0 0.1862924149545897 -0.22749728194082469 0 0.20825914018731509 -0.24176904314253461 0 0.19216952572399271 -0.24625439499940641 0 0.1862924149545897 -0.22749728194082469 0 0.20786688018092489 -0.1870703820251727 0 0.21083735250525679 -0.20192419648127349 0 0.1958608584331378 -0.1970601101099905 0 0.20786688018092489 -0.1870703820251727 0 0.21908074750825621 -0.19026954482832831 0 0.21083735250525679 -0.20192419648127349 0 0.22168370940054469 -0.21540197150896589 0 0.21083735250525679 -0.20192419648127349 0 0.20430044051251961 -0.21548295975203391 0 0.21083735250525679 -0.20192419648127349 0 0.20430044051251961 -0.21548295975203391 0 0.19687774908402619 -0.20781386219113809 0 0.19687774908402619 -0.20781386219113809 0 0.1958608584331378 -0.1970601101099905 0 0.18072563026110719 -0.20805897840325191 0 0.19687774908402619 -0.20781386219113809 0 0.1926644637081093 -0.21654306620914071 0 0.18072563026110719 -0.20805897840325191 0 0.20430044051251961 -0.21548295975203391 0 0.19687774908402619 -0.20781386219113809 0 0.1926644637081093 -0.21654306620914071 0 0.1958608584331378 -0.1970601101099905 0 0.18072563026110719 -0.20805897840325191 0 0.21083735250525679 -0.20192419648127349 0 0.19687774908402619 -0.20781386219113809 0 0.1958608584331378 -0.1970601101099905 0 0.19432264321285611 -0.1816642756381843 0 0.20786688018092489 -0.1870703820251727 0 0.1958608584331378 -0.1970601101099905 0 0.19432264321285611 -0.1816642756381843 0 0.1958608584331378 -0.1970601101099905 0 0.18028368911352 -0.19257410642798159 0 0.18028368911352 -0.19257410642798159 0 0.18072563026110719 -0.20805897840325191 0 0.16123398134048339 -0.19992518084684799 0 0.1958608584331378 -0.1970601101099905 0 0.18028368911352 -0.19257410642798159 0 0.18072563026110719 -0.20805897840325191 0 0.18028368911352 -0.19257410642798159 0 0.18072563026110719 -0.20805897840325191 0 0.1926644637081093 -0.21654306620914071 0 0.18072563026110719 -0.20805897840325191 0 0.1862924149545897 -0.22749728194082469 0 0.18072563026110719 -0.20805897840325191 0 0.16409835017509311 -0.22014213048147699 0 0.18072563026110719 -0.20805897840325191 0 0.16123398134048339 -0.19992518084684799 0 0.16409835017509311 -0.22014213048147699 0 0.16123398134048339 -0.19992518084684799 0 0.15415387058183119 -0.18125047226734689 0 0.1680194230563424 -0.18517538835000391 0 0.18028368911352 -0.19257410642798159 0 0.16123398134048339 -0.19992518084684799 0 0.1680194230563424 -0.18517538835000391 0 0.1735801302704959 -0.25009110129751427 0 0.18231756712108699 -0.26383775936566878 0 0.18152159869109671 -0.23594836888446041 0 0.18231756712108699 -0.26383775936566878 0 0.19216952572399271 -0.24625439499940641 0 0.18152159869109671 -0.23594836888446041 0 0.18231756712108699 -0.26383775936566878 0 0.18152159869109671 -0.23594836888446041 0 0.19216952572399271 -0.24625439499940641 0 0.18152159869109671 -0.23594836888446041 0 0.1862924149545897 -0.22749728194082469 0 0.1735801302704959 -0.25009110129751427 0 0.18152159869109671 -0.23594836888446041 0 0.17235773068871291 -0.23931872091140829 0 0.18152159869109671 -0.23594836888446041 0 0.17235773068871291 -0.23931872091140829 0 0.17055663314039701 -0.23052911234105941 0 0.18072563026110719 -0.20805897840325191 0 0.18152159869109671 -0.23594836888446041 0 0.17055663314039701 -0.23052911234105941 0 0.18072563026110719 -0.20805897840325191 0 0.18152159869109671 -0.23594836888446041 0 0.18072563026110719 -0.20805897840325191 0 0.18152159869109671 -0.23594836888446041 0 0.1862924149545897 -0.22749728194082469 0 0.18072563026110719 -0.20805897840325191 0 0.16409835017509311 -0.22014213048147699 0 0.17055663314039701 -0.23052911234105941 0 0.16409835017509311 -0.22014213048147699 0 0.16377256065286189 -0.24070630112259919 0 0.14747107008907701 -0.23222528255969921 0 0.16409835017509311 -0.22014213048147699 0 0.17055663314039701 -0.23052911234105941 0 0.16377256065286189 -0.24070630112259919 0 0.1578031145482737 -0.25808536852191172 0 0.1735801302704959 -0.25009110129751427 0 0.16377256065286189 -0.24070630112259919 0 0.1578031145482737 -0.25808536852191172 0 0.16377256065286189 -0.24070630112259919 0 0.14747107008907701 -0.23222528255969921 0 0.17235773068871291 -0.23931872091140829 0 0.17055663314039701 -0.23052911234105941 0 0.16377256065286189 -0.24070630112259919 0 0.1735801302704959 -0.25009110129751427 0 0.17235773068871291 -0.23931872091140829 0 0.16377256065286189 -0.24070630112259919 0 0.1578031145482737 -0.25808536852191172 0 0.14747107008907701 -0.23222528255969921 0 0.1578031145482737 -0.25808536852191172 0 0.14457918263284869 -0.24901401909077739 0 0.14747107008907701 -0.23222528255969921 0 0.14457918263284869 -0.24901401909077739 0 0.14747107008907701 -0.23222528255969921 0 0.1313098299079942 -0.24396976042201809 0 0.16409835017509311 -0.22014213048147699 0 0.14747107008907701 -0.23222528255969921 0 0.13947361949576409 -0.21220845426996951 0 0.14747107008907701 -0.23222528255969921 0 0.13947361949576409 -0.21220845426996951 0 0.16409835017509311 -0.22014213048147699 0 0.14747107008907701 -0.23222528255969921 0 0.14747107008907701 -0.23222528255969921 0 0.12850364820595331 -0.22750422579700491 0 0.13947361949576409 -0.21220845426996951 0 0.14747107008907701 -0.23222528255969921 0 0.12850364820595331 -0.22750422579700491 0 0.1313098299079942 -0.24396976042201809 0 0.14747107008907701 -0.23222528255969921 0 0.1313098299079942 -0.24396976042201809 0 0.16123398134048339 -0.19992518084684799 0 0.1458632593072765 -0.19371399483855309 0 0.15415387058183119 -0.18125047226734689 0 0.16123398134048339 -0.19992518084684799 0 0.1458632593072765 -0.19371399483855309 0 0.13947361949576409 -0.21220845426996951 0 0.16123398134048339 -0.19992518084684799 0 0.16409835017509311 -0.22014213048147699 0 0.13947361949576409 -0.21220845426996951 0 0.1110756185422275 -0.21313599349844231 0 0.12850364820595331 -0.22750422579700491 0 0.13947361949576409 -0.21220845426996951 0 0.1110756185422275 -0.21313599349844231 0 0.13947361949576409 -0.21220845426996951 0 0.1314761689024517 -0.19219162598023959 0 0.1458632593072765 -0.19371399483855309 0 0.13947361949576409 -0.21220845426996951 0 0.1314761689024517 -0.19219162598023959 0 0.13947361949576409 -0.21220845426996951 0 0.1314761689024517 -0.19219162598023959 0 0.1458632593072765 -0.19371399483855309 0 0.1314761689024517 -0.19219162598023959 0 0.1410235773105491 -0.1820434389066494 0 0.1234787183091393 -0.17217479769050981 0 0.1314761689024517 -0.19219162598023959 0 0.1234787183091393 -0.17217479769050981 0 0.1314761689024517 -0.19219162598023959 0 0.1410235773105491 -0.1820434389066494 0 0.1234787183091393 -0.17217479769050981 0 0.1410235773105491 -0.1820434389066494 0 0.14269071920786239 -0.16764499463070739 0 0.1458632593072765 -0.19371399483855309 0 0.1410235773105491 -0.1820434389066494 0 0.15415387058183119 -0.18125047226734689 0 0.15415387058183119 -0.18125047226734689 0 0.14269071920786239 -0.16764499463070739 0 0.16237258593310269 -0.16763516319551089 0 0.1410235773105491 -0.1820434389066494 0 0.15415387058183119 -0.18125047226734689 0 0.14269071920786239 -0.16764499463070739 0 0.14269071920786239 -0.16764499463070739 0 0.14326268672299791 -0.14958371871869361 0 0.15407762764822189 -0.15578564611827431 0 0.14269071920786239 -0.16764499463070739 0 0.15407762764822189 -0.15578564611827431 0 0.16237258593310269 -0.16763516319551089 0 0.1234787183091393 -0.17217479769050981 0 0.14269071920786239 -0.16764499463070739 0 0.12892468117211131 -0.15666310802434039 0 0.14269071920786239 -0.16764499463070739 0 0.12892468117211131 -0.15666310802434039 0 0.14326268672299791 -0.14958371871869361 0 0.12203859052377219 -0.14663482975687511 0 0.12892468117211131 -0.15666310802434039 0 0.13100463664809181 -0.14588650793811311 0 0.12203859052377219 -0.14663482975687511 0 0.13100463664809181 -0.14588650793811311 0 0.12662101070287141 -0.13750334345265089 0 0.13100463664809181 -0.14588650793811311 0 0.13736152323831141 -0.13809920111329721 0 0.14326268672299791 -0.14958371871869361 0 0.12892468117211131 -0.15666310802434039 0 0.13100463664809181 -0.14588650793811311 0 0.14326268672299791 -0.14958371871869361 0 0.13100463664809181 -0.14588650793811311 0 0.12662101070287141 -0.13750334345265089 0 0.13736152323831141 -0.13809920111329721 0 0.12662101070287141 -0.13750334345265089 0 0.13736152323831141 -0.13809920111329721 0 0.13508646391308621 -0.12600769217292379 0 0.13736152323831141 -0.13809920111329721 0 0.13508646391308621 -0.12600769217292379 0 0.14910529173173581 -0.13489940437613571 0 0.1591016336660796 -0.1215026819783514 0 0.13508646391308621 -0.12600769217292379 0 0.14910529173173581 -0.13489940437613571 0 0.14910529173173581 -0.13489940437613571 0 0.157247889196341 -0.1443703901609793 0 0.16138232676985481 -0.13378653540933219 0 0.13736152323831141 -0.13809920111329721 0 0.14910529173173581 -0.13489940437613571 0 0.14326268672299791 -0.14958371871869361 0 0.14910529173173581 -0.13489940437613571 0 0.14326268672299791 -0.14958371871869361 0 0.157247889196341 -0.1443703901609793 0 0.14326268672299791 -0.14958371871869361 0 0.15407762764822189 -0.15578564611827431 0 0.157247889196341 -0.1443703901609793 0 0.15407762764822189 -0.15578564611827431 0 0.157247889196341 -0.1443703901609793 0 0.16616179783317361 -0.1522713547655983 0 0.16616179783317361 -0.1522713547655983 0 0.16949760447206219 -0.1398956815778416 0 0.1778306107057574 -0.1473298984325099 0 0.157247889196341 -0.1443703901609793 0 0.16616179783317361 -0.1522713547655983 0 0.16949760447206219 -0.1398956815778416 0 0.1591016336660796 -0.1215026819783514 0 0.16138232676985481 -0.13378653540933219 0 0.17103137087963541 -0.1290824278749787 0 0.1591016336660796 -0.1215026819783514 0 0.14910529173173581 -0.13489940437613571 0 0.16138232676985481 -0.13378653540933219 0 0.157247889196341 -0.1443703901609793 0 0.16138232676985481 -0.13378653540933219 0 0.16949760447206219 -0.1398956815778416 0 0.16138232676985481 -0.13378653540933219 0 0.16949760447206219 -0.1398956815778416 0 0.17103137087963541 -0.1290824278749787 0 0.18311680341907299 -0.1169976717837789 0 0.19170225420145701 -0.1255490584026607 0 0.18288499689202431 -0.13393341546785001 0 0.18311680341907299 -0.1169976717837789 0 0.17103137087963541 -0.1290824278749787 0 0.18288499689202431 -0.13393341546785001 0 0.16949760447206219 -0.1398956815778416 0 0.18288499689202431 -0.13393341546785001 0 0.1778306107057574 -0.1473298984325099 0 0.16949760447206219 -0.1398956815778416 0 0.17103137087963541 -0.1290824278749787 0 0.18288499689202431 -0.13393341546785001 0 0.16616179783317361 -0.1522713547655983 0 0.1778306107057574 -0.1473298984325099 0 0.17763854884376859 -0.1595500476903812 0 0.18966118977608079 -0.1486412845707909 0 0.18288499689202431 -0.13393341546785001 0 0.1778306107057574 -0.1473298984325099 0 0.18966118977608079 -0.1486412845707909 0 0.1778306107057574 -0.1473298984325099 0 0.17763854884376859 -0.1595500476903812 0 0.18966118977608079 -0.1486412845707909 0 0.1922402646605145 -0.1654529865563992 0 0.17763854884376859 -0.1595500476903812 0 0.1922402646605145 -0.1654529865563992 0 0.17763854884376859 -0.1595500476903812 0 0.17984174796593341 -0.17708923445271119 0 0.17763854884376859 -0.1595500476903812 0 0.17984174796593341 -0.17708923445271119 0 0.16237258593310269 -0.16763516319551089 0 0.19432264321285611 -0.1816642756381843 0 0.18028368911352 -0.19257410642798159 0 0.17984174796593341 -0.17708923445271119 0 0.18028368911352 -0.19257410642798159 0 0.17984174796593341 -0.17708923445271119 0 0.18028368911352 -0.19257410642798159 0 0.17984174796593341 -0.17708923445271119 0 0.1680194230563424 -0.18517538835000391 0 0.15415387058183119 -0.18125047226734689 0 0.1680194230563424 -0.18517538835000391 0 0.16237258593310269 -0.16763516319551089 0 0.17984174796593341 -0.17708923445271119 0 0.1680194230563424 -0.18517538835000391 0 0.16237258593310269 -0.16763516319551089 0 0.15407762764822189 -0.15578564611827431 0 0.16616179783317361 -0.1522713547655983 0 0.16237258593310269 -0.16763516319551089 0 0.16616179783317361 -0.1522713547655983 0 0.17763854884376859 -0.1595500476903812 0 0.16237258593310269 -0.16763516319551089 0 
</DataArray>
</Points>
<Cells>
<DataArray type="UInt32" Name="connectivity" format="ascii">
0 1 2 3 4 5 6 7 8 9 10 11 12 13 14 15 16 17 18 19 20 21 22 23 24 25 26 27 28 29 30 31 32 33 34 35 36 37 38 39 40 41 42 43 44 45 46 47 48 49 50 51 52 53 54 55 56 57 58 59 60 61 62 63 64 65 66 67 68 69 70 71 72 73 74 75 76 77 78 79 80 81 82 83 84 85 86 87 88 89 90 91 92 93 94 95 96 97 98 99 100 101 102 103 104 105 106 107 108 109 110 111 112 113 114 115 116 117 118 119 120 121 122 123 124 125 126 127 128 129 130 131 132 133 134 135 136 137 138 139 140 141 142 143 144 145 146 147 148 149 150 151 152 153 154 155 156 157 158 159 160 161 162 163 164 165 166 167 168 169 170 171 172 173 174 175 176 177 178 179 180 181 182 183 184 185 186 187 188 189 190 191 192 193 194 195 196 197 198 199 200 201 202 203 204 205 206 207 208 209 210 211 212 213 214 215 216 217 218 219 220 221 222 223 224 225 226 227 228 229 230 231 232 233 234 235 236 237 238 239 240 241 242 243 244 245 246 247 248 249 250 251 252 253 254 255 256 257 258 259 260 261 262 263 264 265 266 267 268 269 270 271 272 273 274 275 276 277 278 279 280 281 282 283 284 285 286 287 288 289 290 291 292 293 294 295 296 297 298 299 300 301 302 303 304 305 306 307 308 309 310 311 312 313 314 315 316 317 318 319 320 321 322 323 324 325 326 327 328 329 330 331 332 333 334 335 336 337 338 339 340 341 342 343 344 345 346 347 348 349 350 351 352 353 354 355 356 357 358 359 360 361 362 363 364 365 366 367 368 369 370 371 372 373 374 375 376 377 378 379 380 381 382 383 384 385 386 387 388 389 390 391 392 393 394 395 396 397 398 399 400 401 402 403 404 405 406 407 408 409 410 411 412 413 414 415 416 417 418 419 420 421 422 423 424 425 426 427 428 429 430 431 432 433 434 435 436 437 438 439 440 441 442 443 444 445 446 447 448 449 450 451 452 453 454 455 456 457 458 459 460 461 462 463 464 465 466 467 468 469 470 471 472 473 474 475 476 477 478 479 480 481 482 483 484 485 486 487 488 489 490 491 492 493 494 495 496 497 498 499 500 501 502 503 504 505 506 507 508 509 510 511 512 513 514 515 516 517 518 519 520 521 522 523 524 525 526 527 528 529 530 531 532 533 534 535 536 537 538 539 540 541 542 543 544 545 546 547 548 549 550 551 552 553 554 555 556 557 558 559 560 561 562 563 564 565 566 567 568 569 570 571 572 573 574 575 576 577 578 579 580 581 582 583 584 585 586 587 588 589 590 591 592 593 594 595 596 597 598 599 600 601 602 603 604 605 606 607 608 609 610 611 612 613 614 615 616 617 618 619 620 621 622 623 624 625 626 627 628 629 630 631 632 633 634 635 636 637 638 639 640 641 642 643 644 645 646 647 648 649 650 651 652 653 654 655 656 657 658 659 660 661 662 663 664 665 666 667 668 669 670 671 672 673 674 675 676 677 678 679 680 681 682 683 684 685 686 687 688 689 690 691 692 693 694 695 696 697 698 699 700 701 702 703 704 705 706 707 708 709 710 711 712 713 714 715 716 717 718 719 720 721 722 723 724 725 726 727 728 729 730 731 732 733 734 735 736 737 738 739 740 741 742 743 744 745 746 747 748 749 750 751 752 753 754 755 756 757 758 759 760 761 762 763 764 765 766 767 768 769 770 771 772 773 774 775 776 777 778 779 780 781 782 783 784 785 786 787 788 789 790 791 792 793 794 795 796 797 798 799 800 801 802 803 804 805 806 807 808 809 810 811 812 813 814 815 816 817 818 819 820 821 822 823 824 825 826 827 828 829 830 831 832 833 834 835 836 837 838 839 840 841 842 843 844 845 846 847 848 849 850 851 852 853 854 855 856 857 858 859 860 861 862 863 864 865 866 867 868 869 870 871 872 873 874 875 876 877 878 879 880 881 882 883 884 885 886 887 888 889 890 891 892 893 894 895 896 897 898 899 900 901 902 903 904 905 906 907 908 909 910 911 912 913 914 915 916 917 918 919 920 921 922 923 924 925 926 927 928 929 930 931 932 933 934 935 936 937 938 939 940 941 942 943 944 945 946 947 948 949 950 951 952 953 954 955 956 957 958 959 960 961 962 963 964 965 966 967 968 969 970 971 972 973 974 975 976 977 978 979 980 981 982 983 984 985 986 987 988 989 990 991 992 993 994 995 996 997 998 999 1000 1001 1002 1003 1004 1005 1006 1007 1008 1009 1010 1011 1012 1013 1014 1015 1016 1017 1018 1019 1020 1021 1022 1023 1024 1025 1026 1027 1028 1029 1030 1031 1032 1033 1034 1035 1036 1037 1038 1039 1040 1041 1042 1043 1044 1045 1046 1047 1048 1049 1050 1051 1052 1053 1054 1055 1056 1057 1058 1059 1060 1061 1062 1063 1064 1065 1066 1067 1068 1069 1070 1071 1072 1073 1074 1075 1076 1077 1078 1079 1080 1081 1082 1083 1084 1085 1086 1087 1088 1089 1090 1091 1092 1093 1094 1095 1096 1097 1098 1099 1100 1101 1102 1103 1104 1105 1106 1107 1108 1109 1110 1111 1112 1113 1114 1115 1116 1117 1118 1119 1120 1121 1122 1123 1124 1125 1126 1127 1128 1129 1130 1131 1132 1133 1134 1135 1136 1137 1138 1139 1140 1141 1142 1143 1144 1145 1146 1147 1148 1149 1150 1151 1152 1153 1154 1155 1156 1157 1158 1159 1160 1161 1162 1163 1164 1165 1166 1167 1168 1169 1170 1171 1172 1173 1174 1175 1176 1177 1178 1179 1180 1181 1182 1183 1184 1185 1186 1187 1188 1189 1190 1191 1192 1193 1194 1195 1196 1197 1198 1199 1200 1201 1202 1203 1204 1205 1206 1207 1208 1209 1210 1211 1212 1213 1214 1215 1216 1217 1218 1219 1220 1221 1222 1223 1224 1225 1226 1227 1228 1229 1230 1231 1232 1233 1234 1235 1236 1237 1238 1239 1240 1241 1242 1243 1244 1245 1246 1247 1248 1249 1250 1251 1252 1253 1254 1255 1256 1257 1258 1259 1260 1261 1262 1263 1264 1265 1266 1267 1268 1269 1270 1271 1272 1273 1274 1275 1276 1277 1278 1279 1280 1281 1282 1283 1284 1285 1286 1287 1288 1289 1290 1291 1292 1293 1294 1295 1296 1297 1298 1299 1300 1301 1302 1303 1304 1305 1306 1307 1308 1309 1310 1311 1312 1313 1314 1315 1316 1317 1318 1319 1320 1321 1322 1323 1324 1325 1326 1327 1328 1329 1330 1331 1332 1333 1334 1335 1336 1337 1338 1339 1340 1341 1342 1343 1344 1345 1346 1347 1348 1349 1350 1351 1352 1353 1354 1355 1356 1357 1358 1359 1360 1361 1362 1363 1364 1365 1366 1367 1368 1369 1370 1371 1372 1373 1374 1375 1376 1377 1378 1379 1380 1381 1382 1383 1384 1385 1386 1387 1388 1389 1390 1391 1392 1393 1394 1395 1396 1397 1398 1399 1400 1401 1402 1403 1404 1405 1406 1407 1408 1409 1410 1411 1412 1413 1414 1415 1416 1417 1418 1419 1420 1421 1422 1423 1424 1425 1426 1427 1428 1429 1430 1431 1432 1433 1434 1435 1436 1437 1438 1439 1440 1441 1442 1443 1444 1445 1446 1447 1448 1449 1450 1451 1452 1453 1454 1455 1456 1457 1458 1459 1460 1461 1462 1463 1464 1465 1466 1467 1468 1469 1470 1471 1472 1473 1474 1475 1476 1477 1478 1479 1480 1481 1482 1483 1484 1485 1486 1487 1488 1489 1490 1491 1492 1493 1494 1495 1496 1497 1498 1499 1500 1501 1502 1503 1504 1505 1506 1507 1508 1509 1510 1511 1512 1513 1514 1515 1516 1517 1518 1519 1520 1521 1522 1523 1524 1525 1526 1527 1528 1529 1530 1531 1532 1533 1534 1535 1536 1537 1538 1539 1540 1541 1542 1543 1544 1545 1546 1547 1548 1549 1550 1551 1552 1553 1554 1555 1556 1557 1558 1559 1560 1561 1562 1563 1564 1565 1566 1567 1568 1569 1570 1571 1572 1573 1574 1575 1576 1577 1578 1579 1580 1581 1582 1583 1584 1585 1586 1587 1588 1589 1590 1591 1592 1593 1594 1595 1596 1597 1598 1599 1600 1601 1602 1603 1604 1605 1606 1607 1608 1609 1610 1611 1612 1613 1614 1615 1616 1617 1618 1619 1620 1621 1622 1623 1624 1625 1626 1627 1628 1629 1630 1631 1632 1633 1634 1635 1636 1637 1638 1639 1640 1641 1642 1643 1644 1645 1646 1647 1648 1649 1650 1651 1652 1653 1654 1655 1656 1657 1658 1659 1660 1661 1662 1663 1664 1665 1666 1667 1668 1669 1670 1671 1672 1673 1674 1675 1676 1677 1678 1679 1680 1681 1682 1683 1684 1685 1686 1687 1688 1689 1690 1691 1692 1693 1694 1695 1696 1697 1698 1699 1700 1701 1702 1703 1704 1705 1706 1707 1708 1709 1710 1711 1712 1713 1714 1715 1716 1717 1718 1719 1720 1721 1722 1723 1724 1725 1726 1727 1728 1729 1730 1731 1732 1733 1734 1735 1736 1737 1738 1739 1740 1741 1742 1743 1744 1745 1746 1747 1748 1749 1750 1751 1752 1753 1754 1755 1756 1757 1758 1759 1760 1761 1762 1763 1764 1765 1766 1767 1768 1769 1770 1771 1772 1773 1774 1775 1776 1777 1778 1779 1780 1781 1782 1783 1784 1785 1786 1787 1788 1789 1790 1791 1792 1793 1794 1795 1796 1797 1798 1799 1800 1801 1802 1803 1804 1805 1806 1807 1808 1809 1810 1811 1812 1813 1814 1815 1816 1817 1818 1819 1820 1821 1822 1823 1824 1825 1826 1827 1828 1829 1830 1831 1832 1833 1834 1835 1836 1837 1838 1839 1840 1841 1842 1843 1844 1845 1846 1847 1848 1849 1850 1851 1852 1853 1854 1855 1856 1857 1858 1859 1860 1861 1862 1863 1864 1865 1866 1867 1868 1869 1870 1871 1872 1873 1874 1875 1876 1877 1878 1879 1880 1881 1882 1883 1884 1885 1886 1887 1888 1889 1890 1891 1892 1893 1894 1895 1896 1897 1898 1899 1900 1901 1902 1903 1904 1905 1906 1907 1908 1909 1910 1911 1912 1913 1914 1915 1916 1917 1918 1919 1920 1921 1922 1923 1924 1925 1926 1927 1928 1929 1930 1931 1932 1933 1934 1935 1936 1937 1938 1939 1940 1941 1942 1943 1944 1945 1946 1947 1948 1949 1950 1951 1952 1953 1954 1955 1956 1957 1958 1959 1960 1961 1962 1963 1964 1965 1966 1967 1968 1969 1970 1971 1972 1973 1974 1975 1976 1977 1978 1979 1980 1981 1982 1983 1984 1985 1986 1987 1988 1989 1990 1991 1992 1993 1994 1995 1996 1997 1998 1999 2000 2001 2002 2003 2004 2005 2006 2007 2008 2009 2010 2011 2012 2013 2014 2015 2016 2017 2018 2019 2020 2021 2022 2023 2024 2025 2026 2027 2028 2029 2030 2031 2032 2033 2034 2035 2036 2037 2038 2039 2040 2041 2042 2043 2044 2045 2046 2047 2048 2049 2050 2051 2052 2053 2054 2055 2056 2057 2058 2059 2060 2061 2062 2063 2064 2065 2066 2067 2068 2069 2070 2071 2072 2073 2074 2075 2076 2077 2078 2079 2080 2081 2082 2083 2084 2085 2086 2087 2088 2089 2090 2091 2092 2093 2094 2095 2096 2097 2098 2099 2100 2101 2102 2103 2104 2105 2106 2107 2108 2109 2110 2111 2112 2113 2114 2115 2116 2117 2118 2119 2120 2121 2122 2123 2124 2125 2126 2127 2128 2129 2130 2131 2132 2133 2134 2135 2136 2137 2138 2139 2140 2141 2142 2143 2144 2145 2146 2147 2148 2149 2150 2151 2152 2153 2154 2155 2156 2157 2158 2159 2160 2161 2162 2163 2164 2165 2166 2167 2168 2169 2170 2171 2172 2173 2174 2175 2176 2177 2178 2179 2180 2181 2182 2183 2184 2185 2186 2187 2188 2189 2190 2191 2192 2193 2194 2195 2196 2197 2198 2199 2200 2201 2202 2203 2204 2205 2206 2207 2208 2209 2210 2211 2212 2213 2214 2215 2216 2217 2218 2219 2220 2221 2222 2223 2224 2225 2226 2227 2228 2229 2230 2231 2232 2233 2234 2235 2236 2237 2238 2239 2240 2241 2242 2243 2244 2245 2246 2247 2248 2249 2250 2251 2252 2253 2254 2255 2256 2257 2258 2259 2260 2261 2262 2263 2264 2265 2266 2267 2268 2269 2270 2271 2272 2273 2274 2275 2276 2277 2278 2279 2280 2281 2282 2283 2284 2285 2286 2287 2288 2289 2290 2291 2292 2293 2294 2295 2296 2297 2298 2299 2300 2301 2302 2303 2304 2305 2306 2307 2308 2309 2310 2311 2312 2313 2314 2315 2316 2317 2318 2319 2320 2321 2322 2323 2324 2325 2326 2327 2328 2329 2330 2331 2332 2333 2334 2335 2336 2337 2338 2339 2340 2341 2342 2343 2344 2345 2346 2347 2348 2349 2350 2351 2352 2353 2354 2355 2356 2357 2358 2359 2360 2361 2362 2363 2364 2365 2366 2367 2368 2369 2370 2371 2372 2373 2374 2375 2376 2377 2378 2379 2380 2381 2382 2383 2384 2385 2386 2387 2388 2389 2390 2391 2392 2393 2394 2395 2396 2397 2398 2399 2400 2401 2402 2403 2404 2405 2406 2407 2408 2409 2410 2411 2412 2413 2414 2415 2416 2417 2418 2419 2420 2421 2422 2423 2424 2425 2426 2427 2428 2429 2430 2431 2432 2433 2434 2435 2436 2437 2438 2439 2440 2441 2442 2443 2444 2445 2446 2447 2448 2449 2450 2451 2452 2453 2454 2455 2456 2457 2458 2459 2460 2461 2462 2463 2464 2465 2466 2467 2468 2469 2470 2471 2472 2473 2474 2475 2476 2477 2478 2479 2480 2481 2482 2483 2484 2485 2486 2487 2488 2489 2490 2491 2492 2493 2494 2495 2496 2497 2498 2499 2500 2501 2502 2503 2504 2505 2506 2507 2508 2509 2510 2511 2512 2513 2514 2515 2516 2517 2518 2519 2520 2521 2522 2523 2524 2525 2526 2527 2528 2529 2530 2531 2532 2533 2534 2535 2536 2537 2538 2539 2540 2541 2542 2543 2544 2545 2546 2547 2548 2549 2550 2551 2552 2553 2554 2555 2556 2557 2558 2559 2560 2561 2562 2563 2564 2565 2566 2567 2568 2569 2570 2571 2572 2573 2574 2575 2576 2577 2578 2579 2580 2581 2582 2583 2584 2585 2586 2587 2588 2589 2590 2591 2592 2593 2594 2595 2596 2597 2598 2599 2600 2601 2602 2603 2604 2605 2606 2607 2608 2609 2610 2611 2612 2613 2614 2615 2616 2617 2618 2619 2620 2621 2622 2623 2624 2625 2626 2627 2628 2629 2630 2631 2632 2633 2634 2635 2636 2637 2638 2639 2640 2641 2642 2643 2644 2645 2646 2647 2648 2649 2650 2651 2652 2653 2654 2655 2656 2657 2658 2659 2660 2661 2662 2663 2664 2665 2666 2667 2668 2669 2670 2671 2672 2673 2674 2675 2676 2677 2678 2679 2680 2681 2682 2683 2684 2685 2686 2687 2688 2689 2690 2691 2692 2693 2694 2695 2696 2697 2698 2699 2700 2701 2702 2703 2704 2705 2706 2707 2708 2709 2710 2711 2712 2713 2714 2715 2716 2717 2718 2719 2720 2721 2722 2723 2724 2725 2726 2727 2728 2729 2730 2731 2732 2733 2734 2735 2736 2737 2738 2739 2740 2741 2742 2743 2744 2745 2746 2747 2748 2749 2750 2751 2752 2753 2754 2755 2756 2757 2758 2759 2760 2761 2762 2763 2764 2765 2766 2767 2768 2769 2770 2771 2772 2773 2774 2775 2776 2777 2778 2779 2780 2781 2782 2783 2784 2785 2786 2787 2788 2789 2790 2791 2792 2793 2794 2795 2796 2797 2798 2799 2800 2801 2802 2803 2804 2805 2806 2807 2808 2809 2810 2811 2812 2813 2814 2815 2816 2817 2818 2819 2820 2821 2822 2823 2824 2825 2826 2827 2828 2829 2830 2831 2832 2833 2834 2835 2836 2837 2838 2839 2840 2841 2842 2843 2844 2845 2846 2847 2848 2849 2850 2851 2852 2853 2854 2855 2856 2857 2858 2859 2860 2861 2862 2863 2864 2865 2866 2867 2868 2869 2870 2871 2872 2873 2874 2875 2876 2877 2878 2879 2880 2881 2882 2883 2884 2885 2886 2887 2888 2889 2890 2891 2892 2893 2894 2895 2896 2897 2898 2899 2900 2901 2902 2903 2904 2905 2906 2907 2908 2909 2910 2911 2912 2913 2914 2915 2916 2917 2918 2919 2920 2921 2922 2923 2924 2925 2926 2927 2928 2929 2930 2931 2932 2933 2934 2935 2936 2937 2938 2939 2940 2941 2942 2943 2944 2945 2946 2947 2948 2949 2950 2951 2952 2953 2954 2955 2956 2957 2958 2959 2960 2961 2962 2963 2964 2965 2966 2967 2968 2969 2970 2971 2972 2973 2974 2975 2976 2977 2978 2979 2980 2981 2982 2983 2984 2985 2986 2987 2988 2989 2990 2991 2992 2993 2994 2995 2996 2997 2998 2999 3000 3001 3002 3003 3004 3005 3006 3007 3008 3009 3010 3011 3012 3013 3014 3015 3016 3017 3018 3019 3020 3021 3022 3023 3024 3025 3026 3027 3028 3029 3030 3031 3032 3033 3034 3035 3036 3037 3038 3039 3040 3041 3042 3043 3044 3045 3046 3047 3048 3049 3050 3051 3052 3053 3054 3055 3056 3057 3058 3059 3060 3061 3062 3063 3064 3065 3066 3067 3068 3069 3070 3071 3072 3073 3074 3075 3076 3077 3078 3079 3080 3081 3082 3083 3084 3085 3086 3087 3088 3089 3090 3091 3092 3093 3094 3095 3096 3097 3098 3099 3100 3101 3102 3103 3104 3105 3106 3107 3108 3109 3110 3111 3112 3113 3114 3115 3116 3117 3118 3119 3120 3121 3122 3123 3124 3125 3126 3127 3128 3129 3130 3131 3132 3133 3134 3135 3136 3137 3138 3139 3140 3141 3142 3143 3144 3145 3146 3147 3148 3149 3150 3151 3152 3153 3154 3155 3156 3157 3158 3159 3160 3161 3162 3163 3164 3165 3166 3167 3168 3169 3170 3171 3172 3173 3174 3175 3176 3177 3178 3179 3180 3181 3182 3183 3184 3185 3186 3187 3188 3189 3190 3191 3192 3193 3194 3195 3196 3197 3198 3199 3200 3201 3202 3203 3204 3205 3206 3207 3208 3209 3210 3211 3212 3213 3214 3215 3216 3217 3218 3219 3220 3221 3222 3223 3224 3225 3226 3227 3228 3229 3230 3231 3232 3233 3234 3235 3236 3237 3238 3239 3240 3241 3242 3243 3244 3245 3246 3247 3248 3249 3250 3251 3252 3253 3254 3255 3256 3257 3258 3259 3260 3261 3262 3263 3264 3265 3266 3267 3268 3269 3270 3271 3272 3273 3274 3275 3276 3277 3278 3279 3280 3281 3282 3283 3284 3285 3286 3287 3288 3289 3290 3291 3292 3293 3294 3295 3296 3297 3298 3299 3300 3301 3302 3303 3304 3305 3306 3307 3308 3309 3310 3311 3312 3313 3314 3315 3316 3317 3318 3319 3320 3321 3322 3323 3324 3325 3326 3327 3328 3329 3330 3331 3332 3333 3334 3335 3336 3337 3338 3339 3340 3341 3342 3343 3344 3345 3346 3347 3348 3349 3350 3351 3352 3353 3354 3355 3356 3357 3358 3359 3360 3361 3362 3363 3364 3365 3366 3367 3368 3369 3370 3371 3372 3373 3374 3375 3376 3377 3378 3379 3380 3381 3382 3383 3384 3385 3386 3387 3388 3389 3390 3391 3392 3393 3394 3395 3396 3397 3398 3399 3400 3401 3402 3403 3404 3405 3406 3407 3408 3409 3410 3411 3412 3413 3414 3415 3416 3417 3418 3419 3420 3421 3422 3423 3424 3425 3426 3427 3428 3429 3430 3431 3432 3433 3434 3435 3436 3437 3438 3439 3440 3441 3442 3443 3444 3445 3446 3447 3448 3449 3450 3451 3452 3453 3454 3455 3456 3457 3458 3459 3460 3461 3462 3463 3464 3465 3466 3467 3468 3469 3470 3471 3472 3473 3474 3475 3476 3477 3478 3479 3480 3481 3482 3483 3484 3485 3486 3487 3488 3489 3490 3491 3492 3493 3494 3495 3496 3497 3498 3499 3500 3501 3502 3503 3504 3505 3506 3507 3508 3509 3510 3511 3512 3513 3514 3515 3516 3517 3518 3519 3520 3521 3522 3523 3524 3525 3526 3527 3528 3529 3530 3531 3532 3533 3534 3535 3536 3537 3538 3539 3540 3541 3542 3543 3544 3545 3546 3547 3548 3549 3550 3551 3552 3553 3554 3555 3556 3557 3558 3559 3560 3561 3562 3563 3564 3565 3566 3567 3568 3569 3570 3571 3572 3573 3574 3575 3576 3577 3578 3579 3580 3581 3582 3583 3584 3585 3586 3587 3588 3589 3590 3591 3592 3593 3594 3595 3596 3597 3598 3599 3600 3601 3602 3603 3604 3605 3606 3607 3608 3609 3610 3611 3612 3613 3614 3615 3616 3617 3618 3619 3620 3621 3622 3623 3624 3625 3626 3627 3628 3629 3630 3631 3632 3633 3634 3635 3636 3637 3638 3639 3640 3641 3642 3643 3644 3645 3646 3647 3648 3649 3650 3651 3652 3653 3654 3655 3656 3657 3658 3659 3660 3661 3662 3663 3664 3665 3666 3667 3668 3669 3670 3671 3672 3673 3674 3675 3676 3677 3678 3679 3680 3681 3682 3683 3684 3685 3686 3687 3688 3689 3690 3691 3692 3693 3694 3695 3696 3697 3698 3699 3700 3701 3702 3703 3704 3705 3706 3707 3708 3709 3710 3711 3712 3713 3714 3715 3716 3717 3718 3719 3720 3721 3722 3723 3724 3725 3726 3727 3728 3729 3730 3731 3732 3733 3734 3735 3736 3737 3738 3739 3740 3741 3742 3743 3744 3745 3746 3747 3748 3749 3750 3751 3752 3753 3754 3755 3756 3757 3758 3759 3760 3761 3762 3763 3764 3765 3766 3767 3768 3769 3770 3771 3772 3773 3774 3775 3776 3777 3778 3779 3780 3781 3782 3783 3784 3785 3786 3787 3788 3789 3790 3791 3792 3793 3794 3795 3796 3797 3798 3799 3800 3801 3802 3803 3804 3805 3806 3807 3808 3809 3810 3811 3812 3813 3814 3815 3816 3817 3818 3819 3820 3821 3822 3823 3824 3825 3826 3827 3828 3829 3830 3831 3832 3833 3834 3835 3836 3837 3838 3839 3840 3841 3842 3843 3844 3845 3846 3847 3848 3849 3850 3851 3852 3853 3854 3855 3856 3857 3858 3859 3860 3861 3862 3863 3864 3865 3866 3867 3868 3869 3870 3871 3872 3873 3874 3875 3876 3877 3878 3879 3880 3881 3882 3883 3884 3885 3886 3887 3888 3889 3890 3891 3892 3893 3894 3895 3896 3897 3898 3899 3900 3901 3902 3903 3904 3905 3906 3907 3908 3909 3910 3911 3912 3913 3914 3915 3916 3917 3918 3919 3920 3921 3922 3923 3924 3925 3926 3927 3928 3929 3930 3931 3932 3933 3934 3935 3936 3937 3938 3939 3940 3941 3942 3943 3944 3945 3946 3947 3948 3949 3950 3951 3952 3953 3954 3955 3956 3957 3958 3959 3960 3961 3962 3963 3964 3965 3966 3967 3968 3969 3970 3971 3972 3973 3974 3975 3976 3977 3978 3979 3980 3981 3982 3983 3984 3985 3986 3987 3988 3989 3990 3991 3992 3993 3994 3995 3996 3997 3998 3999 4000 4001 4002 4003 4004 4005 4006 4007 4008 4009 4010 4011 4012 4013 4014 4015 4016 4017 4018 4019 4020 4021 4022 4023 4024 4025 4026 4027 4028 4029 4030 4031 4032 4033 4034 4035 4036 4037 4038 4039 4040 4041 4042 4043 4044 4045 4046 4047 4048 4049 4050 4051 4052 4053 4054 4055 4056 4057 4058 4059 4060 4061 4062 4063 4064 4065 4066 4067 4068 4069 4070 4071 4072 4073 4074 4075 4076 4077 4078 4079 4080 4081 4082 4083 4084 4085 4086 4087 4088 4089 4090 4091 4092 4093 4094 4095 4096 4097 4098 4099 4100 4101 4102 4103 4104 4105 4106 4107 4108 4109 4110 4111 4112 4113 4114 4115 4116 4117 4118 4119 4120 4121 4122 4123 4124 4125 4126 4127 4128 4129 4130 4131 4132 4133 4134 4135 4136 4137 4138 4139 4140 4141 4142 4143 4144 4145 4146 4147 4148 4149 4150 4151 4152 4153 4154 4155 4156 4157 4158 4159 4160 4161 4162 4163 4164 4165 4166 4167 4168 4169 4170 4171 4172 4173 4174 4175 4176 4177 4178 4179 4180 4181 4182 4183 4184 4185 4186 4187 4188 4189 4190 4191 4192 4193 4194 4195 4196 4197 4198 4199 4200 4201 4202 4203 4204 4205 4206 4207 4208 4209 4210 4211 4212 4213 4214 4215 4216 4217 4218 4219 4220 4221 4222 4223 4224 4225 4226 4227 4228 4229 4230 4231 4232 4233 4234 4235 4236 4237 4238 4239 4240 4241 4242 4243 4244 4245 4246 4247 4248 4249 4250 4251 4252 4253 4254 4255 4256 4257 4258 4259 4260 4261 4262 4263 4264 4265 4266 4267 4268 4269 4270 4271 4272 4273 4274 4275 4276 4277 4278 4279 4280 4281 4282 4283 4284 4285 4286 4287 4288 4289 4290 4291 4292 4293 4294 4295 4296 4297 4298 4299 4300 4301 4302 4303 4304 4305 4306 4307 4308 4309 4310 4311 4312 4313 4314 4315 4316 4317 4318 4319 4320 4321 4322 4323 4324 4325 4326 4327 4328 4329 4330 4331 4332 4333 4334 4335 4336 4337 4338 4339 4340 4341 4342 4343 4344 4345 4346 4347 4348 4349 4350 4351 4352 4353 4354 4355 4356 4357 4358 4359 4360 4361 4362 4363 4364 4365 4366 4367 4368 4369 4370 4371 4372 4373 4374 4375 4376 4377 4378 4379 4380 4381 4382 4383 4384 4385 4386 4387 4388 4389 4390 4391 4392 4393 4394 4395 4396 4397 4398 4399 4400 4401 4402 4403 4404 4405 4406 4407 4408 4409 4410 4411 4412 4413 4414 4415 4416 4417 4418 4419 4420 4421 4422 4423 4424 4425 4426 4427 4428 4429 4430 4431 4432 4433 4434 4435 4436 4437 4438 4439 4440 4441 4442 4443 4444 4445 4446 4447 4448 4449 4450 4451 4452 4453 4454 4455 4456 4457 4458 4459 4460 4461 4462 4463 4464 4465 4466 4467 4468 4469 4470 4471 4472 4473 4474 4475 4476 4477 4478 4479 4480 4481 4482 4483 4484 4485 4486 4487 4488 4489 4490 4491 4492 4493 4494 4495 4496 4497 4498 4499 4500 4501 4502 4503 4504 4505 4506 4507 4508 4509 4510 4511 4512 4513 4514 4515 4516 4517 4518 4519 4520 4521 4522 4523 4524 4525 4526 4527 4528 4529 4530 4531 4532 4533 4534 4535 4536 4537 4538 4539 4540 4541 4542 4543 4544 4545 4546 4547 4548 4549 4550 4551 4552 4553 4554 4555 4556 4557 4558 4559 4560 4561 4562 4563 4564 4565 4566 4567 4568 4569 4570 4571 4572 4573 4574 4575 4576 4577 4578 4579 4580 4581 4582 4583 4584 4585 4586 4587 4588 4589 4590 4591 4592 4593 4594 4595 4596 4597 4598 4599 4600 4601 4602 4603 4604 4605 4606 4607 4608 4609 4610 4611 4612 4613 4614 4615 4616 4617 4618 4619 4620 4621 4622 4623 4624 4625 4626 4627 4628 4629 4630 4631 4632 4633 4634 4635 4636 4637 4638 4639 4640 4641 4642 4643 4644 4645 4646 4647 4648 4649 4650 4651 4652 4653 4654 4655 4656 4657 4658 4659 4660 4661 4662 4663 4664 4665 4666 4667 4668 4669 4670 4671 4672 4673 4674 4675 4676 4677 4678 4679 4680 4681 4682 4683 4684 4685 4686 4687 4688 4689 4690 4691 4692 4693 4694 4695 4696 4697 4698 4699 4700 4701 4702 4703 4704 4705 4706 4707 4708 4709 4710 4711 4712 4713 4714 4715 4716 4717 4718 4719 4720 4721 4722 4723 4724 4725 4726 4727 4728 4729 4730 4731 4732 4733 4734 4735 4736 4737 4738 4739 4740 4741 4742 4743 4744 4745 4746 4747 4748 4749 4750 4751 4752 4753 4754 4755 4756 4757 4758 4759 4760 4761 4762 4763 4764 4765 4766 4767 4768 4769 4770 4771 4772 4773 4774 4775 4776 4777 4778 4779 4780 4781 4782 4783 4784 4785 4786 4787 4788 4789 4790 4791 4792 4793 4794 4795 4796 4797 4798 4799 4800 4801 4802 4803 4804 4805 4806 4807 4808 4809 4810 4811 4812 4813 4814 4815 4816 4817 4818 4819 4820 4821 4822 4823 4824 4825 4826 4827 4828 4829 4830 4831 4832 4833 4834 4835 4836 4837 4838 4839 4840 4841 4842 4843 4844 4845 4846 4847 4848 4849 4850 4851 4852 4853 4854 4855 4856 4857 4858 4859 4860 4861 4862 4863 4864 4865 4866 4867 4868 4869 4870 4871 4872 4873 4874 4875 4876 4877 4878 4879 4880 4881 4882 4883 4884 4885 4886 4887 4888 4889 4890 4891 4892 4893 4894 4895 4896 4897 4898 4899 4900 4901 4902 4903 4904 4905 4906 4907 4908 4909 4910 4911 4912 4913 4914 4915 4916 4917 4918 4919 4920 4921 4922 4923 4924 4925 4926 4927 4928 4929 4930 4931 4932 4933 4934 4935 4936 4937 4938 4939 4940 4941 4942 4943 4944 4945 4946 4947 4948 4949 4950 4951 4952 4953 4954 4955 4956 4957 4958 4959 4960 4961 4962 4963 4964 4965 4966 4967 4968 4969 4970 4971 4972 4973 4974 4975 4976 4977 4978 4979 4980 4981 4982 4983 4984 4985 4986 4987 4988 4989 4990 4991 4992 4993 4994 4995 4996 4997 4998 4999 5000 5001 5002 5003 5004 5005 5006 5007 5008 5009 5010 5011 5012 5013 5014 5015 5016 5017 5018 5019 5020 5021 5022 5023 5024 5025 5026 5027 5028 5029 5030 5031 5032 5033 5034 5035 5036 5037 5038 5039 5040 5041 5042 5043 5044 5045 5046 5047 5048 5049 5050 5051 5052 5053 5054 5055 5056 5057 5058 5059 5060 5061 5062 5063 5064 5065 5066 5067 5068 5069 5070 5071 5072 5073 5074 5075 5076 5077 5078 5079 5080 5081 5082 5083 5084 5085 5086 5087 5088 5089 5090 5091 5092 5093 5094 5095 5096 5097 5098 5099 5100 5101 5102 5103 5104 5105 5106 5107 5108 5109 5110 5111 5112 5113 5114 5115 5116 5117 5118 5119 5120 5121 5122 5123 5124 5125 5126 5127 5128 5129 5130 5131 5132 5133 5134 5135 5136 5137 5138 5139 5140 5141 5142 5143 5144 5145 5146 5147 5148 5149 5150 5151 5152 5153 5154 5155 5156 5157 5158 5159 5160 5161 5162 5163 5164 5165 5166 5167 5168 5169 5170 5171 5172 5173 5174 5175 5176 5177 5178 5179 5180 5181 5182 5183 5184 5185 5186 5187 5188 5189 5190 5191 5192 5193 5194 5195 5196 5197 5198 5199 5200 5201 5202 5203 5204 5205 5206 5207 5208 5209 5210 5211 5212 5213 5214 5215 5216 5217 5218 5219 5220 5221 5222 5223 5224 5225 5226 5227 5228 5229 5230 5231 5232 5233 5234 5235 5236 5237 5238 5239 5240 5241 5242 5243 5244 5245 5246 5247 5248 5249 5250 5251 5252 5253 5254 5255 5256 5257 5258 5259 5260 5261 5262 5263 5264 5265 5266 5267 5268 5269 5270 5271 5272 5273 5274 5275 5276 5277 5278 5279 5280 5281 5282 5283 5284 5285 5286 5287 5288 5289 5290 5291 5292 5293 5294 5295 5296 5297 5298 5299 5300 5301 5302 5303 5304 5305 5306 5307 5308 5309 5310 5311 5312 5313 5314 5315 5316 5317 5318 5319 5320 5321 5322 5323 5324 5325 5326 5327 5328 5329 5330 5331 5332 5333 5334 5335 5336 5337 5338 5339 5340 5341 5342 5343 5344 5345 5346 5347 5348 5349 5350 5351 5352 5353 5354 5355 5356 5357 5358 5359 5360 5361 5362 5363 5364 5365 5366 5367 5368 5369 5370 5371 5372 5373 5374 5375 5376 5377 5378 5379 5380 5381 5382 5383 5384 5385 5386 5387 5388 5389 5390 5391 5392 5393 5394 5395 5396 5397 5398 5399 5400 5401 5402 5403 5404 5405 5406 5407 5408 5409 5410 5411 5412 5413 5414 5415 5416 5417 5418 5419 5420 5421 5422 5423 5424 5425 5426 5427 5428 5429 5430 5431 5432 5433 5434 5435 5436 5437 5438 5439 5440 5441 5442 5443 5444 5445 5446 5447 5448 5449 5450 5451 5452 5453 5454 5455 5456 5457 5458 5459 5460 5461 5462 5463 5464 5465 5466 5467 5468 5469 5470 5471 5472 5473 5474 5475 5476 5477 5478 5479 5480 5481 5482 5483 5484 5485 5486 5487 5488 5489 5490 5491 5492 5493 5494 5495 5496 5497 5498 5499 5500 5501 5502 5503 5504 5505 5506 5507 5508 5509 5510 5511 5512 5513 5514 5515 5516 5517 5518 5519 5520 5521 5522 5523 5524 5525 5526 5527 5528 5529 5530 5531 5532 5533 5534 5535 5536 5537 5538 5539 5540 5541 5542 5543 5544 5545 5546 5547 5548 5549 5550 5551 5552 5553 5554 5555 5556 5557 5558 5559 5560 5561 5562 5563 5564 5565 5566 5567 5568 5569 5570 5571 5572 5573 5574 5575 5576 5577 5578 5579 5580 5581 5582 5583 5584 5585 5586 5587 5588 5589 5590 5591 5592 5593 5594 5595 5596 5597 5598 5599 5600 5601 5602 5603 5604 5605 5606 5607 5608 5609 5610 5611 5612 5613 5614 5615 5616 5617 5618 5619 5620 5621 5622 5623 5624 5625 5626 5627 5628 5629 5630 5631 5632 5633 5634 5635 5636 5637 5638 5639 5640 5641 5642 5643 5644 5645 5646 5647 5648 5649 5650 5651 5652 5653 5654 5655 5656 5657 5658 5659 5660 5661 5662 5663 5664 5665 5666 5667 5668 5669 5670 5671 5672 5673 5674 5675 5676 5677 5678 5679 5680 5681 5682 5683 5684 5685 5686 5687 5688 5689 5690 5691 5692 5693 5694 5695 5696 5697 5698 5699 5700 5701 5702 5703 5704 5705 5706 5707 5708 5709 5710 5711 5712 5713 5714 5715 5716 5717 5718 5719 5720 5721 5722 5723 5724 5725 5726 5727 5728 5729 5730 5731 5732 5733 5734 5735 5736 5737 5738 5739 5740 5741 5742 5743 5744 5745 5746 5747 5748 5749 5750 5751 5752 5753 5754 5755 5756 5757 5758 5759 5760 5761 5762 5763 5764 5765 5766 5767 5768 5769 5770 5771 5772 5773 5774 5775 5776 5777 5778 5779 5780 5781 5782 5783 5784 5785 5786 5787 5788 5789 5790 5791 5792 5793 5794 5795 5796 5797 5798 5799 5800 5801 5802 5803 5804 5805 5806 5807 5808 5809 5810 5811 5812 5813 5814 5815 5816 5817 5818 5819 5820 5821 5822 5823 5824 5825 5826 5827 5828 5829 5830 5831 5832 5833 5834 5835 5836 5837 5838 5839 5840 5841 5842 5843 5844 5845 5846 5847 5848 5849 5850 5851 5852 5853 5854 5855 5856 5857 5858 5859 5860 5861 5862 5863 5864 5865 5866 5867 5868 5869 5870 5871 5872 5873 5874 5875 5876 5877 5878 5879 5880 5881 5882 5883 5884 5885 5886 5887 5888 5889 5890 5891 5892 5893 5894 5895 5896 5897 5898 5899 5900 5901 5902 5903 5904 5905 5906 5907 5908 5909 5910 5911 5912 5913 5914 5915 5916 5917 5918 5919 5920 5921 5922 5923 5924 5925 5926 5927 5928 5929 5930 5931 5932 5933 5934 5935 5936 5937 5938 5939 5940 5941 5942 5943 5944 5945 5946 5947 5948 5949 5950 5951 5952 5953 5954 5955 5956 5957 5958 5959 5960 5961 5962 5963 5964 5965 5966 5967 5968 5969 5970 5971 5972 5973 5974 5975 5976 5977 5978 5979 5980 5981 5982 5983 5984 5985 5986 5987 5988 5989 5990 5991 5992 5993 5994 5995 5996 5997 5998 5999 6000 6001 6002 6003 6004 6005 6006 6007 6008 6009 6010 6011 6012 6013 6014 6015 6016 6017 6018 6019 6020 6021 6022 6023 6024 6025 6026 6027 6028 6029 6030 6031 6032 6033 6034 6035 6036 6037 6038 6039 6040 6041 6042 6043 6044 6045 6046 6047 6048 6049 6050 6051 6052 6053 6054 6055 6056 6057 6058 6059 6060 6061 6062 6063 6064 6065 6066 6067 6068 6069 6070 6071 6072 6073 6074 6075 6076 6077 6078 6079 6080 6081 6082 6083 6084 6085 6086 6087 6088 6089 6090 6091 6092 6093 6094 6095 6096 6097 6098 6099 6100 6101 6102 6103 6104 6105 6106 6107 6108 6109 6110 6111 6112 6113 6114 6115 6116 6117 6118 6119 6120 6121 6122 6123 6124 6125 6126 6127 6128 6129 6130 6131 6132 6133 6134 6135 6136 6137 6138 6139 6140 6141 6142 6143 6144 6145 6146 6147 6148 6149 6150 6151 6152 6153 6154 6155 6156 6157 6158 6159 6160 6161 6162 6163 6164 6165 6166 6167 6168 6169 6170 6171 6172 6173 6174 6175 6176 6177 6178 6179 6180 6181 6182 6183 6184 6185 6186 6187 6188 6189 6190 6191 6192 6193 6194 6195 6196 6197 6198 6199 6200 6201 6202 6203 6204 6205 6206 6207 6208 6209 6210 6211 6212 6213 6214 6215 6216 6217 6218 6219 6220 6221 6222 6223 6224 6225 6226 6227 6228 6229 6230 6231 6232 6233 6234 6235 6236 6237 6238 6239 6240 6241 6242 6243 6244 6245 6246 6247 6248 6249 6250 6251 6252 6253 6254 6255 6256 6257 6258 6259 6260 6261 6262 6263 6264 6265 6266 6267 6268 6269 6270 6271 6272 6273 6274 6275 6276 6277 6278 6279 6280 6281 6282 6283 6284 6285 6286 6287 6288 6289 6290 6291 6292 6293 6294 6295 6296 6297 6298 6299 6300 6301 6302 6303 6304 6305 6306 6307 6308 6309 6310 6311 6312 6313 6314 6315 6316 6317 6318 6319 6320 6321 6322 6323 6324 6325 6326 6327 6328 6329 6330 6331 6332 6333 6334 6335 6336 6337 6338 6339 6340 6341 6342 6343 6344 6345 6346 6347 6348 6349 6350 6351 6352 6353 6354 6355 6356 6357 6358 6359 6360 6361 6362 6363 6364 6365 6366 6367 6368 6369 6370 6371 6372 6373 6374 6375 6376 6377 6378 6379 6380 6381 6382 6383 6384 6385 6386 6387 6388 6389 6390 6391 6392 6393 6394 6395 6396 6397 6398 6399 6400 6401 6402 6403 6404 6405 6406 6407 6408 6409 6410 6411 6412 6413 6414 6415 6416 6417 6418 6419 6420 6421 6422 6423 6424 6425 6426 6427 6428 6429 6430 6431 6432 6433 6434 6435 6436 6437 6438 6439 6440 6441 6442 6443 6444 6445 6446 6447 6448 6449 6450 6451 6452 6453 6454 6455 6456 6457 6458 6459 6460 6461 6462 6463 6464 6465 6466 6467 6468 6469 6470 6471 6472 6473 6474 6475 6476 6477 6478 6479 6480 6481 6482 6483 6484 6485 6486 6487 6488 6489 6490 6491 6492 6493 6494 6495 6496 6497 6498 6499 6500 6501 6502 6503 6504 6505 6506 6507 6508 6509 6510 6511 6512 6513 6514 6515 6516 6517 6518 6519 6520 6521 6522 6523 6524 6525 6526 6527 6528 6529 6530 6531 6532 6533 6534 6535 6536 6537 6538 6539 6540 6541 6542 6543 6544 6545 6546 6547 6548 6549 6550 6551 6552 6553 6554 6555 6556 6557 6558 6559 6560 6561 6562 6563 6564 6565 6566 6567 6568 6569 6570 6571 6572 6573 6574 6575 6576 6577 6578 6579 6580 6581 6582 6583 6584 6585 6586 6587 6588 6589 6590 6591 6592 6593 6594 6595 6596 6597 6598 6599 6600 6601 6602 6603 6604 6605 6606 6607 6608 6609 6610 6611 6612 6613 6614 6615 6616 6617 6618 6619 6620 6621 6622 6623 6624 6625 6626 6627 6628 6629 6630 6631 6632 6633 6634 6635 6636 6637 6638 6639 6640 6641 6642 6643 6644 6645 6646 6647 6648 6649 6650 6651 6652 6653 6654 6655 6656 6657 6658 6659 6660 6661 6662 6663 6664 6665 6666 6667 6668 6669 6670 6671 6672 6673 6674 6675 6676 6677 6678 6679 6680 6681 6682 6683 6684 6685 6686 6687 6688 6689 6690 6691 6692 6693 6694 6695 6696 6697 6698 6699 6700 6701 6702 6703 6704 6705 6706 6707 6708 6709 6710 6711 6712 6713 6714 6715 6716 6717 6718 6719 6720 6721 6722 6723 6724 6725 6726 6727 6728 6729 6730 6731 6732 6733 6734 6735 6736 6737 6738 6739 6740 6741 6742 6743 6744 6745 6746 6747 6748 6749 6750 6751 6752 6753 6754 6755 6756 6757 6758 6759 6760 6761 6762 6763 6764 6765 6766 6767 6768 6769 6770 6771 6772 6773 6774 6775 6776 6777 6778 6779 6780 6781 6782 6783 6784 6785 6786 6787 6788 6789 6790 6791 6792 6793 6794 6795 6796 6797 6798 6799 6800 6801 6802 6803 6804 6805 6806 6807 6808 6809 6810 6811 6812 6813 6814 6815 6816 6817 6818 6819 6820 6821 6822 6823 6824 6825 6826 6827 6828 6829 6830 6831 6832 6833 6834 6835 6836 6837 6838 6839 6840 6841 6842 6843 6844 6845 6846 6847 6848 6849 6850 6851 6852 6853 6854 6855 6856 6857 6858 6859 6860 6861 6862 6863 6864 6865 6866 6867 6868 6869 6870 6871 6872 6873 6874 6875 6876 6877 6878 6879 6880 6881 6882 6883 6884 6885 6886 6887 6888 6889 6890 6891 6892 6893 6894 6895 6896 6897 6898 6899 6900 6901 6902 6903 6904 6905 6906 6907 6908 6909 6910 6911 6912 6913 6914 6915 6916 6917 6918 6919 6920 6921 6922 6923 6924 6925 6926 6927 6928 6929 6930 6931 6932 6933 6934 6935 6936 6937 6938 6939 6940 6941 6942 6943 6944 6945 6946 6947 6948 6949 6950 6951 6952 6953 6954 6955 6956 6957 6958 6959 6960 6961 6962 6963 6964 6965 6966 6967 6968 6969 6970 6971 6972 6973 6974 6975 6976 6977 6978 6979 6980 6981 6982 6983 6984 6985 6986 6987 6988 6989 6990 6991 6992 6993 6994 6995 6996 6997 6998 6999 7000 7001 7002 7003 7004 7005 7006 7007 7008 7009 7010 7011 7012 7013 7014 7015 7016 7017 7018 7019 7020 7021 7022 7023 7024 7025 7026 7027 7028 7029 7030 7031 7032 7033 7034 7035 7036 7037 7038 7039 7040 7041 7042 7043 7044 7045 7046 7047 7048 7049 7050 7051 7052 7053 7054 7055 7056 7057 7058 7059 7060 7061 7062 7063 7064 7065 7066 7067 7068 7069 7070 7071 7072 7073 7074 7075 7076 7077 7078 7079 7080 7081 7082 7083 7084 7085 7086 7087 7088 7089 7090 7091 7092 7093 7094 7095 7096 7097 7098 7099 7100 7101 7102 7103 7104 7105 7106 7107 7108 7109 7110 7111 7112 7113 7114 7115 7116 7117 7118 7119 7120 7121 7122 7123 7124 7125 7126 7127 7128 7129 7130 7131 7132 7133 7134 7135 7136 7137 7138 7139 7140 7141 7142 7143 7144 7145 7146 7147 7148 7149 7150 7151 7152 7153 7154 7155 7156 7157 7158 7159 7160 7161 7162 7163 7164 7165 7166 7167 7168 7169 7170 7171 7172 7173 7174 7175 7176 7177 7178 7179 7180 7181 7182 7183 7184 7185 7186 7187 7188 7189 7190 7191 7192 7193 7194 7195 7196 7197 7198 7199 7200 7201 7202 7203 7204 7205 7206 7207 7208 7209 7210 7211 7212 7213 7214 7215 7216 7217 7218 7219 7220 7221 7222 7223 7224 7225 7226 7227 7228 7229 7230 7231 7232 7233 7234 7235 7236 7237 7238 7239 7240 7241 7242 7243 7244 7245 7246 7247 7248 7249 7250 7251 7252 7253 7254 7255 7256 7257 7258 7259 7260 7261 7262 7263 7264 7265 7266 7267 7268 7269 7270 7271 7272 7273 7274 7275 7276 7277 7278 7279 7280 7281 7282 7283 7284 7285 7286 7287 7288 7289 7290 7291 7292 7293 7294 7295 7296 7297 7298 7299 7300 7301 7302 7303 7304 7305 7306 7307 7308 7309 7310 7311 7312 7313 7314 7315 7316 7317 7318 7319 7320 7321 7322 7323 7324 7325 7326 7327 7328 7329 7330 7331 7332 7333 7334 7335 7336 7337 7338 7339 7340 7341 7342 7343 7344 7345 7346 7347 7348 7349 7350 7351 7352 7353 7354 7355 7356 7357 7358 7359 7360 7361 7362 7363 7364 7365 7366 7367 7368 7369 7370 7371 7372 7373 7374 7375 7376 7377 7378 7379 7380 7381 7382 7383 7384 7385 7386 7387 7388 7389 7390 7391 7392 7393 7394 7395 7396 7397 7398 7399 7400 7401 7402 7403 7404 7405 7406 7407 7408 7409 7410 7411 7412 7413 7414 7415 7416 7417 7418 7419 7420 7421 7422 7423 7424 7425 7426 7427 7428 7429 7430 7431 7432 7433 7434 7435 7436 7437 7438 7439 7440 7441 7442 7443 7444 7445 7446 7447 7448 7449 7450 7451 7452 7453 7454 7455 7456 7457 7458 7459 7460 7461 7462 7463 7464 7465 7466 7467 7468 7469 7470 7471 7472 7473 7474 7475 7476 7477 7478 7479 7480 7481 7482 7483 7484 7485 7486 7487 7488 7489 7490 7491 7492 7493 7494 7495 7496 7497 7498 7499 7500 7501 7502 7503 7504 7505 7506 7507 7508 7509 7510 7511 7512 7513 7514 7515 7516 7517 7518 7519 7520 7521 7522 7523 7524 7525 7526 7527 7528 7529 7530 7531 7532 7533 7534 7535 7536 7537 7538 7539 7540 7541 7542 7543 7544 7545 7546 7547 7548 7549 7550 7551 7552 7553 7554 7555 7556 7557 7558 7559 7560 7561 7562 7563 7564 7565 7566 7567 7568 7569 7570 7571 7572 7573 7574 7575 7576 7577 7578 7579 7580 7581 7582 7583 7584 7585 7586 7587 7588 7589 7590 7591 7592 7593 7594 7595 7596 7597 7598 7599 7600 7601 7602 7603 7604 7605 7606 7607 7608 7609 7610 7611 7612 7613 7614 7615 7616 7617 7618 7619 7620 7621 7622 7623 7624 7625 7626 7627 7628 7629 7630 7631 7632 7633 7634 7635 7636 7637 7638 7639 7640 7641 7642 7643 7644 7645 7646 7647 7648 7649 7650 7651 7652 7653 7654 7655 7656 7657 7658 7659 7660 7661 7662 7663 7664 7665 7666 7667 7668 7669 7670 7671 7672 7673 7674 7675 7676 7677 7678 7679 7680 7681 7682 7683 7684 7685 7686 7687 7688 7689 7690 7691 7692 7693 7694 7695 7696 7697 7698 7699 7700 7701 7702 7703 7704 7705 7706 7707 7708 7709 7710 7711 7712 7713 7714 7715 7716 7717 7718 7719 7720 7721 7722 7723 7724 7725 7726 7727 7728 7729 7730 7731 7732 7733 7734 7735 7736 7737 7738 7739 7740 7741 7742 7743 7744 7745 7746 7747 7748 7749 7750 7751 7752 7753 7754 7755 7756 7757 7758 7759 7760 7761 7762 7763 7764 7765 7766 7767 7768 7769 7770 7771 7772 7773 7774 7775 7776 7777 7778 7779 7780 7781 7782 7783 7784 7785 7786 7787 7788 7789 7790 7791 7792 7793 7794 7795 7796 7797 7798 7799 7800 7801 7802 7803 7804 7805 7806 7807 7808 7809 7810 7811 7812 7813 7814 7815 7816 7817 7818 7819 7820 7821 7822 7823 7824 7825 7826 7827 7828 7829 7830 7831 7832 7833 7834 7835 7836 7837 7838 7839 7840 7841 7842 7843 7844 7845 7846 7847 7848 7849 7850 7851 7852 7853 7854 7855 7856 7857 7858 7859 7860 7861 7862 7863 7864 7865 7866 7867 7868 7869 7870 7871 7872 7873 7874 7875 7876 7877 7878 7879 7880 7881 7882 7883 7884 7885 7886 7887 7888 7889 7890 7891 7892 7893 7894 7895 7896 7897 7898 7899 7900 7901 7902 7903 7904 7905 7906 7907 7908 7909 7910 7911 7912 7913 7914 7915 7916 7917 7918 7919 7920 7921 7922 7923 7924 7925 7926 7927 7928 7929 7930 7931 7932 7933 7934 7935 7936 7937 7938 7939 7940 7941 7942 7943 7944 7945 7946 7947 7948 7949 7950 7951 7952 7953 7954 7955 7956 7957 7958 7959 7960 7961 7962 7963 7964 7965 7966 7967 7968 7969 7970 7971 7972 7973 7974 7975 7976 7977 7978 7979 7980 7981 7982 7983 7984 7985 7986 7987 7988 7989 7990 7991 7992 7993 7994 7995 7996 7997 7998 7999 8000 8001 8002 8003 8004 8005 8006 8007 8008 8009 8010 8011 8012 8013 8014 8015 8016 8017 8018 8019 8020 8021 8022 8023 8024 8025 8026 8027 8028 8029 8030 8031 8032 8033 8034 8035 8036 8037 8038 8039 8040 8041 8042 8043 8044 8045 8046 8047 8048 8049 8050 8051 8052 8053 8054 8055 8056 8057 8058 8059 8060 8061 8062 8063 8064 8065 8066 8067 8068 8069 8070 8071 8072 8073 8074 8075 8076 8077 8078 8079 8080 8081 8082 8083 8084 8085 8086 8087 8088 8089 8090 8091 8092 8093 8094 8095 8096 8097 8098 8099 8100 8101 8102 8103 8104 8105 8106 8107 8108 8109 8110 8111 8112 8113 8114 8115 8116 8117 8118 8119 8120 8121 8122 8123 8124 8125 8126 8127 8128 8129 8130 8131 8132 8133 8134 8135 8136 8137 8138 8139 8140 8141 8142 8143 8144 8145 8146 8147 8148 8149 8150 8151 8152 8153 8154 8155 8156 8157 8158 8159 8160 8161 8162 8163 8164 8165 8166 8167 8168 8169 8170 8171 8172 8173 8174 8175 8176 8177 8178 8179 8180 8181 8182 8183 8184 8185 8186 8187 8188 8189 8190 8191 8192 8193 8194 8195 8196 8197 8198 8199 8200 8201 8202 8203 8204 8205 8206 8207 8208 8209 8210 8211 8212 8213 8214 8215 8216 8217 8218 8219 8220 8221 8222 8223 8224 8225 8226 8227 8228 8229 8230 8231 8232 8233 8234 8235 8236 8237 8238 8239 8240 8241 8242 8243 8244 8245 8246 8247 8248 8249 8250 8251 8252 8253 8254 8255 8256 8257 8258 8259 8260 8261 8262 8263 8264 8265 8266 8267 8268 8269 8270 8271 8272 8273 8274 8275 8276 8277 8278 8279 8280 8281 8282 8283 8284 8285 8286 8287 8288 8289 8290 8291 8292 8293 8294 8295 8296 8297 8298 8299 8300 8301 8302 8303 8304 8305 8306 8307 8308 8309 8310 8311 8312 8313 8314 8315 8316 8317 8318 8319 8320 8321 8322 8323 8324 8325 8326 8327 8328 8329 8330 8331 8332 8333 8334 8335 8336 8337 8338 8339 8340 8341 8342 8343 8344 8345 8346 8347 8348 8349 8350 8351 8352 8353 8354 8355 8356 8357 8358 8359 8360 8361 8362 8363 8364 8365 8366 8367 8368 8369 8370 8371 8372 8373 8374 8375 8376 8377 8378 8379 8380 8381 8382 8383 8384 8385 8386 8387 8388 8389 8390 8391 8392 8393 8394 8395 8396 8397 8398 8399 8400 8401 8402 8403 8404 8405 8406 8407 8408 8409 8410 8411 8412 8413 8414 8415 8416 8417 8418 8419 8420 8421 8422 8423 8424 8425 8426 8427 8428 8429 8430 8431 8432 8433 8434 8435 8436 8437 8438 8439 8440 8441 8442 8443 8444 8445 8446 8447 8448 8449 8450 8451 8452 8453 8454 8455 8456 8457 8458 8459 8460 8461 8462 8463 8464 8465 8466 8467 8468 8469 8470 8471 8472 8473 8474 8475 8476 8477 8478 8479 8480 8481 8482 8483 8484 8485 8486 8487 8488 8489 8490 8491 8492 8493 8494 8495 8496 8497 8498 8499 8500 8501 8502 8503 8504 8505 8506 8507 8508 8509 8510 8511 8512 8513 8514 8515 8516 8517 8518 8519 8520 8521 8522 8523 8524 8525 8526 8527 8528 8529 8530 8531 8532 8533 8534 8535 8536 8537 8538 8539 8540 8541 8542 8543 8544 8545 8546 8547 8548 8549 8550 8551 8552 8553 8554 8555 8556 8557 8558 8559 8560 8561 8562 8563 8564 8565 8566 8567 8568 8569 8570 8571 8572 8573 8574 8575 8576 8577 8578 8579 8580 8581 8582 8583 8584 8585 8586 8587 8588 8589 8590 8591 8592 8593 8594 8595 8596 8597 8598 8599 8600 8601 8602 8603 8604 8605 8606 8607 8608 8609 8610 8611 8612 8613 8614 8615 8616 8617 8618 8619 8620 8621 8622 8623 8624 8625 8626 8627 8628 8629 8630 8631 8632 8633 8634 8635 8636 8637 8638 8639 8640 8641 8642 8643 8644 8645 8646 8647 8648 8649 8650 8651 8652 8653 8654 8655 8656 8657 8658 8659 8660 8661 8662 8663 8664 8665 8666 8667 8668 8669 8670 8671 8672 8673 8674 8675 8676 8677 8678 8679 8680 8681 8682 8683 8684 8685 8686 8687 8688 8689 8690 8691 8692 8693 8694 8695 8696 8697 8698 8699 8700 8701 8702 8703 8704 8705 8706 8707 8708 8709 8710 8711 8712 8713 8714 8715 8716 8717 8718 8719 8720 8721 8722 8723 8724 8725 8726 8727 8728 8729 8730 8731 8732 8733 8734 8735 8736 8737 8738 8739 8740 8741 8742 8743 8744 8745 8746 8747 8748 8749 8750 8751 8752 8753 8754 8755 8756 8757 8758 8759 8760 8761 8762 8763 8764 8765 8766 8767 8768 8769 8770 8771 8772 8773 8774 8775 8776 8777 8778 8779 8780 8781 8782 8783 8784 8785 8786 8787 8788 8789 8790 8791 8792 8793 8794 8795 8796 8797 8798 8799 8800 8801 8802 8803 8804 8805 8806 8807 8808 8809 8810 8811 8812 8813 8814 8815 8816 8817 8818 8819 8820 8821 8822 8823 8824 8825 8826 8827 8828 8829 8830 8831 8832 8833 8834 8835 8836 8837 8838 8839 8840 8841 8842 8843 8844 8845 8846 8847 8848 8849 8850 8851 8852 8853 8854 8855 8856 8857 8858 8859 8860 8861 8862 8863 8864 8865 8866 8867 8868 8869 8870 8871 8872 8873 8874 8875 8876 8877 8878 8879 8880 8881 8882 8883 8884 8885 8886 8887 8888 8889 8890 8891 8892 8893 8894 8895 8896 8897 8898 8899 8900 8901 8902 8903 8904 8905 8906 8907 8908 8909 8910 8911 8912 8913 8914 8915 8916 8917 8918 8919 8920 8921 8922 8923 8924 8925 8926 8927 8928 8929 8930 8931 8932 8933 8934 8935 8936 8937 8938 8939 8940 8941 8942 8943 8944 8945 8946 8947 8948 8949 8950 8951 8952 8953 8954 8955 8956 8957 8958 8959 8960 8961 8962 8963 8964 8965 8966 8967 8968 8969 8970 8971 8972 8973 8974 8975 8976 8977 8978 8979 8980 8981 8982 8983 8984 8985 8986 8987 8988 8989 8990 8991 8992 8993 8994 8995 8996 8997 8998 8999 9000 9001 9002 9003 9004 9005 9006 9007 9008 9009 9010 9011 9012 9013 9014 9015 9016 9017 9018 9019 9020 9021 9022 9023 9024 9025 9026 9027 9028 9029 9030 9031 9032 9033 9034 9035 9036 9037 9038 9039 9040 9041 9042 9043 9044 9045 9046 9047 9048 9049 9050 9051 9052 9053 9054 9055 9056 9057 9058 9059 9060 9061 9062 9063 9064 9065 9066 9067 9068 9069 9070 9071 9072 9073 9074 9075 9076 9077 9078 9079 9080 9081 9082 9083 9084 9085 9086 9087 9088 9089 9090 9091 9092 9093 9094 9095 9096 9097 9098 9099 9100 9101 9102 9103 9104 9105 9106 9107 9108 9109 9110 9111 9112 9113 9114 9115 9116 9117 9118 9119 9120 9121 9122 9123 9124 9125 9126 9127 9128 9129 9130 9131 9132 9133 9134 9135 9136 9137 9138 9139 9140 9141 9142 9143 9144 9145 9146 9147 9148 9149 9150 9151 9152 9153 9154 9155 9156 9157 9158 9159 9160 9161 9162 9163 9164 9165 9166 9167 9168 9169 9170 9171 9172 9173 9174 9175 9176 9177 9178 9179 9180 9181 9182 9183 9184 9185 9186 9187 9188 9189 9190 9191 9192 9193 9194 9195 9196 9197 9198 9199 9200 9201 9202 9203 9204 9205 9206 9207 9208 9209 9210 9211 9212 9213 9214 9215 9216 9217 9218 9219 9220 9221 9222 9223 9224 9225 9226 9227 9228 9229 9230 9231 9232 9233 9234 9235 9236 9237 9238 9239 9240 9241 9242 9243 9244 9245 9246 9247 9248 9249 9250 9251 9252 9253 9254 9255 9256 9257 9258 9259 9260 9261 9262 9263 9264 9265 9266 9267 9268 9269 9270 9271 9272 9273 9274 9275 9276 9277 9278 9279 9280 9281 9282 9283 9284 9285 9286 9287 9288 9289 9290 9291 9292 9293 9294 9295 9296 9297 9298 9299 9300 9301 9302 9303 9304 9305 9306 9307 9308 9309 9310 9311 9312 9313 9314 9315 9316 9317 9318 9319 9320 9321 9322 9323 9324 9325 9326 9327 9328 9329 9330 9331 9332 9333 9334 9335 9336 9337 9338 9339 9340 9341 9342 9343 9344 9345 9346 9347 9348 9349 9350 9351 9352 9353 9354 9355 9356 9357 9358 9359 9360 9361 9362 9363 9364 9365 9366 9367 9368 9369 9370 9371 9372 9373 9374 9375 9376 9377 9378 9379 9380 9381 9382 9383 9384 9385 9386 9387 9388 9389 9390 9391 9392 9393 9394 9395 9396 9397 9398 9399 9400 9401 9402 9403 9404 9405 9406 9407 9408 9409 9410 9411 9412 9413 9414 9415 9416 9417 9418 9419 9420 9421 9422 9423 9424 9425 9426 9427 9428 9429 9430 9431 9432 9433 9434 9435 9436 9437 9438 9439 9440 9441 9442 9443 9444 9445 9446 9447 9448 9449 9450 9451 9452 9453 9454 9455 9456 9457 9458 9459 9460 9461 9462 9463 9464 9465 9466 9467 9468 9469 9470 9471 9472 9473 9474 9475 9476 9477 9478 9479 9480 9481 9482 9483 9484 9485 9486 9487 9488 9489 9490 9491 9492 9493 9494 9495 9496 9497 9498 9499 9500 9501 9502 9503 9504 9505 9506 9507 9508 9509 9510 9511 9512 9513 9514 9515 9516 9517 9518 9519 9520 9521 9522 9523 9524 9525 9526 9527 9528 9529 9530 9531 9532 9533 9534 9535 9536 9537 9538 9539 9540 9541 9542 9543 9544 9545 9546 9547 9548 9549 9550 9551 9552 9553 9554 9555 9556 9557 9558 9559 9560 9561 9562 9563 9564 9565 9566 9567 9568 9569 9570 9571 9572 9573 9574 9575 9576 9577 9578 9579 9580 9581 9582 9583 9584 9585 9586 9587 9588 9589 9590 9591 9592 9593 9594 9595 9596 9597 9598 9599 9600 9601 9602 9603 9604 9605 9606 9607 9608 9609 9610 9611 9612 9613 9614 9615 9616 9617 9618 9619 9620 9621 9622 9623 9624 9625 9626 9627 9628 9629 9630 9631 9632 9633 9634 9635 9636 9637 9638 9639 9640 9641 9642 9643 9644 9645 9646 9647 9648 9649 9650 9651 9652 9653 9654 9655 9656 9657 9658 9659 9660 9661 9662 9663 9664 9665 9666 9667 9668 9669 9670 9671 9672 9673 9674 9675 9676 9677 9678 9679 9680 9681 9682 9683 9684 9685 9686 9687 9688 9689 9690 9691 9692 9693 9694 9695 9696 9697 9698 9699 9700 9701 9702 9703 9704 9705 9706 9707 9708 9709 9710 9711 9712 9713 9714 9715 9716 9717 9718 9719 9720 9721 9722 9723 9724 9725 9726 9727 9728 9729 9730 9731 9732 9733 9734 9735 9736 9737 9738 9739 9740 9741 9742 9743 9744 9745 9746 9747 9748 9749 9750 9751 9752 9753 9754 9755 9756 9757 9758 9759 9760 9761 9762 9763 9764 9765 9766 9767 9768 9769 9770 9771 9772 9773 9774 9775 9776 9777 9778 9779 9780 9781 9782 9783 9784 9785 9786 9787 9788 9789 9790 9791 9792 9793 9794 9795 9796 9797 9798 9799 9800 9801 9802 9803 9804 9805 9806 9807 9808 9809 9810 9811 9812 9813 9814 9815 9816 9817 9818 9819 9820 9821 9822 9823 9824 9825 9826 9827 9828 9829 9830 9831 9832 9833 9834 9835 9836 9837 9838 9839 9840 9841 9842 9843 9844 9845 9846 9847 9848 9849 9850 9851 9852 9853 9854 9855 9856 9857 9858 9859 9860 9861 9862 9863 9864 9865 9866 9867 9868 9869 9870 9871 9872 9873 9874 9875 9876 9877 9878 9879 9880 9881 9882 9883 9884 9885 9886 9887 9888 9889 9890 9891 9892 9893 9894 9895 9896 9897 9898 9899 9900 9901 9902 9903 9904 9905 9906 9907 9908 9909 9910 9911 9912 9913 9914 9915 9916 9917 9918 9919 9920 9921 9922 9923 9924 9925 9926 9927 9928 9929 9930 9931 9932 9933 9934 9935 9936 9937 9938 9939 9940 9941 9942 9943 9944 9945 9946 9947 9948 9949 9950 9951 9952 9953 9954 9955 9956 9957 9958 9959 9960 9961 9962 9963 9964 9965 9966 9967 9968 9969 9970 9971 9972 9973 9974 9975 9976 9977 9978 9979 9980 9981 9982 9983 9984 9985 9986 9987 9988 9989 9990 9991 9992 9993 9994 9995 9996 9997 9998 9999 10000 10001 10002 10003 10004 10005 10006 10007 10008 10009 10010 10011 10012 10013 10014 10015 10016 10017 10018 10019 10020 10021 10022 10023 10024 10025 10026 10027 10028 10029 10030 10031 10032 10033 10034 10035 10036 10037 10038 10039 10040 10041 10042 10043 10044 10045 10046 10047 10048 10049 10050 10051 10052 10053 10054 10055 10056 10057 10058 10059 10060 10061 10062 10063 10064 10065 10066 10067 10068 10069 10070 10071 10072 10073 10074 10075 10076 10077 10078 10079 10080 10081 10082 10083 10084 10085 10086 10087 10088 10089 10090 10091 10092 10093 10094 10095 10096 10097 10098 10099 10100 10101 10102 10103 10104 10105 10106 10107 10108 10109 10110 10111 10112 10113 10114 10115 10116 10117 10118 10119 10120 10121 10122 10123 10124 10125 10126 10127 10128 10129 10130 10131 10132 10133 10134 10135 10136 10137 10138 10139 10140 10141 10142 10143 10144 10145 10146 10147 10148 10149 10150 10151 10152 10153 10154 10155 10156 10157 10158 10159 10160 10161 10162 10163 10164 10165 10166 10167 10168 10169 10170 10171 10172 10173 10174 10175 10176 10177 10178 10179 10180 10181 10182 10183 10184 10185 10186 10187 10188 10189 10190 10191 10192 10193 10194 10195 10196 10197 10198 10199 10200 10201 10202 10203 10204 10205 10206 10207 10208 10209 10210 10211 10212 10213 10214 10215 10216 10217 10218 10219 10220 10221 10222 10223 10224 10225 10226 10227 10228 10229 10230 10231 10232 10233 10234 10235 10236 10237 10238 10239 10240 10241 10242 10243 10244 10245 10246 10247 10248 10249 10250 10251 10252 10253 10254 10255 10256 10257 10258 10259 10260 10261 10262 10263 10264 10265 10266 10267 10268 10269 10270 10271 10272 10273 10274 10275 10276 10277 10278 10279 10280 10281 10282 10283 10284 10285 10286 10287 10288 10289 10290 10291 10292 10293 10294 10295 10296 10297 10298 10299 10300 10301 10302 10303 10304 10305 10306 10307 10308 10309 10310 10311 10312 10313 10314 10315 10316 10317 10318 10319 10320 10321 10322 10323 10324 10325 10326 10327 10328 10329 10330 10331 10332 10333 10334 10335 10336 10337 10338 10339 10340 10341 10342 10343 10344 10345 10346 10347 10348 10349 10350 10351 10352 10353 10354 10355 10356 10357 10358 10359 10360 10361 10362 10363 10364 10365 10366 10367 10368 10369 10370 10371 10372 10373 10374 10375 10376 10377 10378 10379 10380 10381 10382 10383 10384 10385 10386 10387 10388 10389 10390 10391 10392 10393 10394 10395 10396 10397 10398 10399 10400 10401 10402 10403 10404 10405 10406 10407 10408 10409 10410 10411 10412 10413 10414 10415 10416 10417 10418 10419 10420 10421 10422 10423 10424 10425 10426 10427 10428 10429 10430 10431 10432 10433 10434 10435 10436 10437 10438 10439 10440 10441 10442 10443 10444 10445 10446 10447 10448 10449 10450 10451 10452 10453 10454 10455 10456 10457 10458 10459 10460 10461 10462 10463 10464 10465 10466 10467 10468 10469 10470 10471 10472 10473 10474 10475 10476 10477 10478 10479 10480 10481 10482 10483 10484 10485 10486 10487 10488 10489 10490 10491 10492 10493 10494 10495 10496 10497 10498 10499 10500 10501 10502 10503 10504 10505 10506 10507 10508 10509 10510 10511 10512 10513 10514 10515 10516 10517 10518 10519 10520 10521 10522 10523 10524 10525 10526 10527 10528 10529 10530 10531 10532 10533 10534 10535 10536 10537 10538 10539 10540 10541 10542 10543 10544 10545 10546 10547 10548 10549 10550 10551 10552 10553 10554 10555 10556 10557 10558 10559 10560 10561 10562 10563 10564 10565 10566 10567 10568 10569 10570 10571 10572 10573 10574 10575 10576 10577 10578 10579 10580 10581 10582 10583 10584 10585 10586 10587 10588 10589 10590 10591 10592 10593 10594 10595 10596 10597 10598 10599 10600 10601 10602 10603 10604 10605 10606 10607 10608 10609 10610 10611 10612 10613 10614 10615 10616 10617 10618 10619 10620 10621 10622 10623 10624 10625 10626 10627 10628 10629 10630 10631 10632 10633 10634 10635 10636 10637 10638 10639 10640 10641 10642 10643 10644 10645 10646 10647 10648 10649 10650 10651 10652 10653 10654 10655 10656 10657 10658 10659 10660 10661 10662 10663 10664 10665 10666 10667 10668 10669 10670 10671 10672 10673 10674 10675 10676 10677 10678 10679 10680 10681 10682 10683 10684 10685 10686 10687 10688 10689 10690 10691 10692 10693 10694 10695 10696 10697 10698 10699 10700 10701 10702 10703 10704 10705 10706 10707 10708 10709 10710 10711 10712 10713 10714 10715 10716 10717 10718 10719 10720 10721 10722 10723 10724 10725 10726 10727 10728 10729 10730 10731 10732 10733 10734 10735 10736 10737 10738 10739 10740 10741 10742 10743 10744 10745 10746 10747 10748 10749 10750 10751 10752 10753 10754 10755 10756 10757 10758 10759 10760 10761 10762 10763 10764 10765 10766 10767 10768 10769 10770 10771 10772 10773 10774 10775 10776 10777 10778 10779 10780 10781 10782 10783 10784 10785 10786 10787 10788 10789 10790 10791 10792 10793 10794 10795 10796 10797 10798 10799 10800 10801 10802 10803 10804 10805 10806 10807 10808 10809 10810 10811 10812 10813 10814 10815 10816 10817 10818 10819 10820 10821 10822 10823 10824 10825 10826 10827 10828 10829 10830 10831 10832 10833 10834 10835 10836 10837 10838 10839 10840 10841 10842 10843 10844 10845 10846 10847 10848 10849 10850 10851 10852 10853 10854 10855 10856 10857 10858 10859 10860 10861 10862 10863 10864 10865 10866 10867 10868 10869 10870 10871 10872 10873 10874 10875 10876 10877 10878 10879 10880 10881 10882 10883 10884 10885 10886 10887 10888 10889 10890 10891 10892 10893 10894 10895 10896 10897 10898 10899 10900 10901 10902 10903 10904 10905 10906 10907 10908 10909 10910 10911 10912 10913 10914 10915 10916 10917 10918 10919 10920 10921 10922 10923 10924 10925 10926 10927 10928 10929 10930 10931 10932 10933 10934 10935 10936 10937 10938 10939 10940 10941 10942 10943 10944 10945 10946 10947 10948 10949 10950 10951 10952 10953 10954 10955 10956 10957 10958 10959 10960 10961 10962 10963 10964 10965 10966 10967 10968 10969 10970 10971 10972 10973 10974 10975 10976 10977 10978 10979 10980 10981 10982 10983 10984 10985 10986 10987 10988 10989 10990 10991 10992 10993 10994 10995 10996 10997 10998 10999 11000 11001 11002 11003 11004 11005 11006 11007 11008 11009 11010 11011 11012 11013 11014 11015 11016 11017 11018 11019 11020 11021 11022 11023 11024 11025 11026 11027 11028 11029 11030 11031 11032 11033 11034 11035 11036 11037 11038 11039 11040 11041 11042 11043 11044 11045 11046 11047 11048 11049 11050 11051 11052 11053 11054 11055 11056 11057 11058 11059 11060 11061 11062 11063 11064 11065 11066 11067 11068 11069 11070 11071 11072 11073 11074 11075 11076 11077 11078 11079 11080 11081 11082 11083 11084 11085 11086 11087 11088 11089 11090 11091 11092 11093 11094 11095 11096 11097 11098 11099 11100 11101 11102 11103 11104 11105 11106 11107 11108 11109 11110 11111 11112 11113 11114 11115 11116 11117 11118 11119 11120 11121 11122 11123 11124 11125 11126 11127 11128 11129 11130 11131 11132 11133 11134 11135 11136 11137 11138 11139 11140 11141 11142 11143 11144 11145 11146 11147 11148 11149 11150 11151 11152 11153 11154 11155 11156 11157 11158 11159 11160 11161 11162 11163 11164 11165 11166 11167 11168 11169 11170 11171 11172 11173 11174 11175 11176 11177 11178 11179 11180 11181 11182 11183 11184 11185 11186 11187 11188 11189 11190 11191 11192 11193 11194 11195 11196 11197 11198 11199 11200 11201 11202 11203 11204 11205 11206 11207 11208 11209 11210 11211 11212 11213 11214 11215 11216 11217 11218 11219 11220 11221 11222 11223 11224 11225 11226 11227 11228 11229 11230 11231 11232 11233 11234 11235 11236 11237 11238 11239 11240 11241 11242 11243 11244 11245 11246 11247 11248 11249 11250 11251 11252 11253 11254 11255 11256 11257 11258 11259 11260 11261 11262 11263 11264 11265 11266 11267 11268 11269 11270 11271 11272 11273 11274 11275 11276 11277 11278 11279 11280 11281 11282 11283 11284 11285 11286 11287 11288 11289 11290 11291 11292 11293 11294 11295 11296 11297 11298 11299 11300 11301 11302 11303 11304 11305 11306 11307 11308 11309 11310 11311 11312 11313 11314 11315 11316 11317 11318 11319 11320 11321 11322 11323 11324 11325 11326 11327 11328 11329 11330 11331 11332 11333 11334 11335 11336 11337 11338 11339 11340 11341 11342 11343 11344 11345 11346 11347 11348 11349 11350 11351 11352 11353 11354 11355 11356 11357 11358 11359 11360 11361 11362 11363 11364 11365 11366 11367 11368 11369 11370 11371 11372 11373 11374 11375 11376 11377 11378 11379 11380 11381 11382 11383 11384 11385 11386 11387 11388 11389 11390 11391 11392 11393 11394 11395 11396 11397 11398 11399 11400 11401 11402 11403 11404 11405 11406 11407 11408 11409 11410 11411 11412 11413 11414 11415 11416 11417 11418 11419 11420 11421 11422 11423 11424 11425 11426 11427 11428 11429 11430 11431 11432 11433 11434 11435 11436 11437 11438 11439 11440 11441 11442 11443 11444 11445 11446 11447 11448 11449 11450 11451 11452 11453 11454 11455 11456 11457 11458 11459 11460 11461 11462 11463 11464 11465 11466 11467 11468 11469 11470 11471 11472 11473 11474 11475 11476 11477 11478 11479 11480 11481 11482 11483 11484 11485 11486 11487 11488 11489 11490 11491 11492 11493 11494 11495 11496 11497 11498 11499 11500 11501 11502 11503 11504 11505 11506 11507 11508 11509 11510 11511 11512 11513 11514 11515 11516 11517 11518 11519 11520 11521 11522 11523 11524 11525 11526 11527 11528 11529 11530 11531 11532 11533 11534 11535 11536 11537 11538 11539 11540 11541 11542 11543 11544 11545 11546 11547 11548 11549 11550 11551 11552 11553 11554 11555 11556 11557 11558 11559 11560 11561 11562 11563 11564 11565 11566 11567 11568 11569 11570 11571 11572 11573 11574 11575 11576 11577 11578 11579 11580 11581 11582 11583 11584 11585 11586 11587 11588 11589 11590 11591 11592 11593 11594 11595 11596 11597 11598 11599 11600 11601 11602 11603 11604 11605 11606 11607 11608 11609 11610 11611 11612 11613 11614 11615 11616 11617 11618 11619 11620 11621 11622 11623 11624 11625 11626 11627 11628 11629 11630 11631 11632 11633 11634 11635 11636 11637 11638 11639 11640 11641 11642 11643 11644 11645 11646 11647 11648 11649 11650 11651 11652 11653 11654 11655 11656 11657 11658 11659 11660 11661 11662 11663 11664 11665 11666 11667 11668 11669 11670 11671 11672 11673 11674 11675 11676 11677 11678 11679 11680 11681 11682 11683 11684 11685 11686 11687 11688 11689 11690 11691 11692 11693 11694 11695 11696 11697 11698 11699 11700 11701 11702 11703 11704 11705 11706 11707 11708 11709 11710 11711 11712 11713 11714 11715 11716 11717 11718 11719 11720 11721 11722 11723 11724 11725 11726 11727 11728 11729 11730 11731 11732 11733 11734 11735 11736 11737 11738 11739 11740 11741 11742 11743 11744 11745 11746 11747 11748 11749 11750 11751 11752 11753 11754 11755 11756 11757 11758 11759 11760 11761 11762 11763 11764 11765 11766 11767 11768 11769 11770 11771 11772 11773 11774 11775 11776 11777 11778 11779 11780 11781 11782 11783 11784 11785 11786 11787 11788 11789 11790 11791 11792 11793 11794 11795 11796 11797 11798 11799 11800 11801 11802 11803 11804 11805 11806 11807 11808 11809 11810 11811 11812 11813 11814 11815 11816 11817 11818 11819 11820 11821 11822 11823 11824 11825 11826 11827 11828 11829 11830 11831 11832 11833 11834 11835 11836 11837 11838 11839 11840 11841 11842 11843 11844 11845 11846 11847 11848 11849 11850 11851 11852 11853 11854 11855 11856 11857 11858 11859 11860 11861 11862 11863 11864 11865 11866 11867 11868 11869 11870 11871 11872 11873 11874 11875 11876 11877 11878 11879 11880 11881 11882 11883 11884 11885 11886 11887 11888 11889 11890 11891 11892 11893 11894 11895 11896 11897 11898 11899 11900 11901 11902 11903 11904 11905 11906 11907 11908 11909 11910 11911 11912 11913 11914 11915 11916 11917 11918 11919 11920 11921 11922 11923 11924 11925 11926 11927 11928 11929 11930 11931 11932 11933 11934 11935 11936 11937 11938 11939 11940 11941 11942 11943 11944 11945 11946 11947 11948 11949 11950 11951 11952 11953 11954 11955 11956 11957 11958 11959 11960 11961 11962 11963 11964 11965 11966 11967 11968 11969 11970 11971 11972 11973 11974 11975 11976 11977 11978 11979 11980 11981 11982 11983 11984 11985 11986 11987 11988 11989 11990 11991 11992 11993 11994 11995 11996 11997 11998 11999 12000 12001 12002 12003 12004 12005 12006 12007 12008 12009 12010 12011 12012 12013 12014 12015 12016 12017 12018 12019 12020 12021 12022 12023 12024 12025 12026 12027 12028 12029 12030 12031 12032 12033 12034 12035 12036 12037 12038 12039 12040 12041 12042 12043 12044 12045 12046 12047 12048 12049 12050 12051 12052 12053 12054 12055 12056 12057 12058 12059 12060 12061 12062 12063 12064 12065 12066 12067 12068 12069 12070 12071 12072 12073 12074 12075 12076 12077 12078 12079 12080 12081 12082 12083 12084 12085 12086 12087 12088 12089 12090 12091 12092 12093 12094 12095 12096 12097 12098 12099 12100 12101 12102 12103 12104 12105 12106 12107 12108 12109 12110 12111 12112 12113 12114 12115 12116 12117 12118 12119 12120 12121 12122 12123 12124 12125 12126 12127 12128 12129 12130 12131 12132 12133 12134 12135 12136 12137 12138 12139 12140 12141 12142 12143 12144 12145 12146 12147 12148 12149 12150 12151 12152 12153 12154 12155 12156 12157 12158 12159 12160 12161 12162 12163 12164 12165 12166 12167 12168 12169 12170 12171 12172 12173 12174 12175 12176 12177 12178 12179 12180 12181 12182 12183 12184 12185 12186 12187 12188 12189 12190 12191 12192 12193 12194 12195 12196 12197 12198 12199 12200 12201 12202 12203 12204 12205 12206 12207 12208 12209 12210 12211 12212 12213 12214 12215 12216 12217 12218 12219 12220 12221 12222 12223 12224 12225 12226 12227 12228 12229 12230 12231 12232 12233 12234 12235 12236 12237 12238 12239 12240 12241 12242 12243 12244 12245 12246 12247 12248 12249 12250 12251 12252 12253 12254 12255 12256 12257 12258 12259 12260 12261 12262 12263 12264 12265 12266 12267 12268 12269 12270 12271 12272 12273 12274 12275 12276 12277 12278 12279 12280 12281 12282 12283 12284 12285 12286 12287 12288 12289 12290 12291 12292 12293 12294 12295 12296 12297 12298 12299 12300 12301 12302 12303 12304 12305 12306 12307 12308 12309 12310 12311 12312 12313 12314 12315 12316 12317 12318 12319 12320 12321 12322 12323 12324 12325 12326 12327 12328 12329 12330 12331 12332 12333 12334 12335 12336 12337 12338 12339 12340 12341 12342 12343 12344 12345 12346 12347 12348 12349 12350 12351 12352 12353 12354 12355 12356 12357 12358 12359 12360 12361 12362 12363 12364 12365 12366 12367 12368 12369 12370 12371 12372 12373 12374 12375 12376 12377 12378 12379 12380 12381 12382 12383 12384 12385 12386 12387 12388 12389 12390 12391 12392 12393 12394 12395 12396 12397 12398 12399 12400 12401 12402 12403 12404 12405 12406 12407 12408 12409 12410 12411 12412 12413 12414 12415 12416 12417 12418 12419 12420 12421 12422 12423 12424 12425 12426 12427 12428 12429 12430 12431 12432 12433 12434 12435 12436 12437 12438 12439 12440 12441 12442 12443 12444 12445 12446 12447 12448 12449 12450 12451 12452 12453 12454 12455 12456 12457 12458 12459 12460 12461 12462 12463 12464 12465 12466 12467 12468 12469 12470 12471 12472 12473 12474 12475 12476 12477 12478 12479 12480 12481 12482 12483 12484 12485 12486 12487 12488 12489 12490 12491 12492 12493 12494 12495 12496 12497 12498 12499 12500 12501 12502 12503 12504 12505 12506 12507 12508 12509 12510 12511 12512 12513 12514 12515 12516 12517 12518 12519 12520 12521 12522 12523 12524 12525 12526 12527 12528 12529 12530 12531 12532 12533 12534 12535 12536 12537 12538 12539 12540 12541 12542 12543 12544 12545 12546 12547 12548 12549 12550 12551 12552 12553 12554 12555 12556 12557 12558 12559 12560 12561 12562 12563 12564 12565 12566 12567 12568 12569 12570 12571 12572 12573 12574 12575 12576 12577 12578 12579 12580 12581 12582 12583 12584 12585 12586 12587 12588 12589 12590 12591 12592 12593 12594 12595 12596 12597 12598 12599 12600 12601 12602 12603 12604 12605 12606 12607 12608 12609 12610 12611 12612 12613 12614 12615 12616 12617 12618 12619 12620 12621 12622 12623 12624 12625 12626 12627 12628 12629 12630 12631 12632 12633 12634 12635 12636 12637 12638 12639 12640 12641 12642 12643 12644 12645 12646 12647 12648 12649 12650 12651 12652 12653 12654 12655 12656 12657 12658 12659 12660 12661 12662 12663 12664 12665 12666 12667 12668 12669 12670 12671 12672 12673 12674 12675 12676 12677 12678 12679 12680 12681 12682 12683 12684 12685 12686 12687 12688 12689 12690 12691 12692 12693 12694 12695 12696 12697 12698 12699 12700 12701 12702 12703 12704 12705 12706 12707 12708 12709 12710 12711 12712 12713 12714 12715 12716 12717 12718 12719 12720 12721 12722 12723 12724 12725 12726 12727 12728 12729 12730 12731 12732 12733 12734 12735 12736 12737 12738 12739 12740 12741 12742 12743 12744 12745 12746 12747 12748 12749 12750 12751 12752 12753 12754 12755 12756 12757 12758 12759 12760 12761 12762 12763 12764 12765 12766 12767 12768 12769 12770 12771 12772 12773 12774 12775 12776 12777 12778 12779 12780 12781 12782 12783 12784 12785 12786 12787 12788 12789 12790 12791 12792 12793 12794 12795 12796 12797 12798 12799 12800 12801 12802 12803 12804 12805 12806 12807 12808 12809 12810 12811 12812 12813 12814 12815 12816 12817 12818 12819 12820 12821 12822 12823 12824 12825 12826 12827 12828 12829 12830 12831 12832 12833 12834 12835 12836 12837 12838 12839 12840 12841 12842 12843 12844 12845 12846 12847 12848 12849 12850 12851 12852 12853 12854 12855 12856 12857 12858 12859 12860 12861 12862 12863 12864 12865 12866 12867 12868 12869 12870 12871 12872 12873 12874 12875 12876 12877 12878 12879 12880 12881 12882 12883 12884 12885 12886 12887 12888 12889 12890 12891 12892 12893 12894 12895 12896 12897 12898 12899 12900 12901 12902 12903 12904 12905 12906 12907 12908 12909 12910 12911 12912 12913 12914 12915 12916 12917 12918 12919 12920 12921 12922 12923 12924 12925 12926 12927 12928 12929 12930 12931 12932 12933 12934 12935 12936 12937 12938 12939 12940 12941 12942 12943 12944 12945 12946 12947 12948 12949 12950 12951 12952 12953 12954 12955 12956 12957 12958 12959 12960 12961 12962 12963 12964 12965 12966 12967 12968 12969 12970 12971 12972 12973 12974 12975 12976 12977 12978 12979 12980 12981 12982 12983 12984 12985 12986 12987 12988 12989 12990 12991 12992 12993 12994 12995 12996 12997 12998 12999 13000 13001 13002 13003 13004 13005 13006 13007 13008 13009 13010 13011 13012 13013 13014 13015 13016 13017 13018 13019 13020 13021 13022 13023 13024 13025 13026 13027 13028 13029 13030 13031 13032 13033 13034 13035 13036 13037 13038 13039 13040 13041 13042 13043 13044 13045 13046 13047 13048 13049 13050 13051 13052 13053 13054 13055 13056 13057 13058 13059 13060 13061 13062 13063 13064 13065 13066 13067 13068 13069 13070 13071 13072 13073 13074 13075 13076 13077 13078 13079 13080 13081 13082 13083 13084 13085 13086 13087 13088 13089 13090 13091 13092 13093 13094 13095 13096 13097 13098 13099 13100 13101 13102 13103 13104 13105 13106 13107 13108 13109 13110 13111 13112 13113 13114 13115 13116 13117 13118 13119 13120 13121 13122 13123 13124 13125 13126 13127 13128 13129 13130 13131 13132 13133 13134 13135 13136 13137 13138 13139 13140 13141 13142 13143 13144 13145 13146 13147 13148 13149 13150 13151 13152 13153 13154 13155 13156 13157 13158 13159 13160 13161 13162 13163 13164 13165 13166 13167 13168 13169 13170 13171 13172 13173 13174 13175 13176 13177 13178 13179 13180 13181 13182 13183 13184 13185 13186 13187 13188 13189 13190 13191 13192 13193 13194 13195 13196 13197 13198 13199 13200 13201 13202 13203 13204 13205 13206 13207 13208 13209 13210 13211 13212 13213 13214 13215 13216 13217 13218 13219 13220 13221 13222 13223 13224 13225 13226 13227 13228 13229 13230 13231 13232 13233 13234 13235 13236 13237 13238 13239 13240 13241 13242 13243 13244 13245 13246 13247 13248 13249 13250 13251 13252 13253 13254 13255 13256 13257 13258 13259 13260 13261 13262 13263 13264 13265 13266 13267 13268 13269 13270 13271 13272 13273 13274 13275 13276 13277 13278 13279 13280 13281 13282 13283 13284 13285 13286 13287 13288 13289 13290 13291 13292 13293 13294 13295 13296 13297 13298 13299 13300 13301 13302 13303 13304 13305 13306 13307 13308 13309 13310 13311 13312 13313 13314 13315 13316 13317 13318 13319 13320 13321 13322 13323 13324 13325 13326 13327 13328 13329 13330 13331 13332 13333 13334 13335 13336 13337 13338 13339 13340 13341 13342 13343 13344 13345 13346 13347 13348 13349 13350 13351 13352 13353 13354 13355 13356 13357 13358 13359 13360 13361 13362 13363 13364 13365 13366 13367 13368 13369 13370 13371 13372 13373 13374 13375 13376 13377 13378 13379 13380 13381 13382 13383 13384 13385 13386 13387 13388 13389 13390 13391 13392 13393 13394 13395 13396 13397 13398 13399 13400 13401 13402 13403 13404 13405 13406 13407 13408 13409 13410 13411 13412 13413 13414 13415 13416 13417 13418 13419 13420 13421 13422 13423 13424 13425 13426 13427 13428 13429 13430 13431 13432 13433 13434 13435 13436 13437 13438 13439 13440 13441 13442 13443 13444 13445 13446 13447 13448 13449 13450 13451 13452 13453 13454 13455 13456 13457 13458 13459 13460 13461 13462 13463 13464 13465 13466 13467 13468 13469 13470 13471 13472 13473 13474 13475 13476 13477 13478 13479 13480 13481 13482 13483 13484 13485 13486 13487 13488 13489 13490 13491 13492 13493 13494 13495 13496 13497 13498 13499 13500 13501 13502 13503 13504 13505 13506 13507 13508 13509 13510 13511 13512 13513 13514 13515 13516 13517 13518 13519 13520 13521 13522 13523 13524 13525 13526 13527 13528 13529 13530 13531 13532 13533 13534 13535 13536 13537 13538 13539 13540 13541 13542 13543 13544 13545 13546 13547 13548 13549 13550 13551 13552 13553 13554 13555 13556 13557 13558 13559 13560 13561 13562 13563 13564 13565 13566 13567 13568 13569 13570 13571 13572 13573 13574 13575 13576 13577 13578 13579 13580 13581 13582 13583 13584 13585 13586 13587 13588 13589 13590 13591 13592 13593 13594 13595 13596 13597 13598 13599 13600 13601 13602 13603 13604 13605 13606 13607 13608 13609 13610 13611 13612 13613 13614 13615 13616 13617 13618 13619 13620 13621 13622 13623 13624 13625 13626 13627 13628 13629 13630 13631 13632 13633 13634 13635 13636 13637 13638 13639 13640 13641 13642 13643 13644 13645 13646 13647 13648 13649 13650 13651 13652 13653 13654 13655 13656 13657 13658 13659 13660 13661 13662 13663 13664 13665 13666 13667 13668 13669 13670 13671 13672 13673 13674 13675 13676 13677 13678 13679 13680 13681 13682 13683 13684 13685 13686 13687 13688 13689 13690 13691 13692 13693 13694 13695 13696 13697 13698 13699 13700 13701 13702 13703 13704 13705 13706 13707 13708 13709 13710 13711 13712 13713 13714 13715 13716 13717 13718 13719 13720 13721 13722 13723 13724 13725 13726 13727 13728 13729 13730 13731 13732 13733 13734 13735 13736 13737 13738 13739 13740 13741 13742 13743 13744 13745 13746 13747 13748 13749 13750 13751 13752 13753 13754 13755 13756 13757 13758 13759 13760 13761 13762 13763 13764 13765 13766 13767 13768 13769 13770 13771 13772 13773 13774 13775 13776 13777 13778 13779 13780 13781 13782 13783 13784 13785 13786 13787 13788 13789 13790 13791 13792 13793 13794 13795 13796 13797 13798 13799 13800 13801 13802 13803 13804 13805 13806 13807 13808 13809 13810 13811 13812 13813 13814 13815 13816 13817 13818 13819 13820 13821 13822 13823 13824 13825 13826 13827 13828 13829 13830 13831 13832 13833 13834 13835 13836 13837 13838 13839 13840 13841 13842 13843 13844 13845 13846 13847 13848 13849 13850 13851 13852 13853 13854 13855 13856 13857 13858 13859 13860 13861 13862 13863 13864 13865 13866 13867 13868 13869 13870 13871 13872 13873 13874 13875 13876 13877 13878 13879 13880 13881 13882 13883 13884 13885 13886 13887 13888 13889 13890 13891 13892 13893 13894 13895 13896 13897 13898 13899 13900 13901 13902 13903 13904 13905 13906 13907 13908 13909 13910 13911 13912 13913 13914 13915 13916 13917 13918 13919 13920 13921 13922 13923 13924 13925 13926 13927 13928 13929 13930 13931 13932 13933 13934 13935 13936 13937 13938 13939 13940 13941 13942 13943 13944 13945 13946 13947 13948 13949 13950 13951 13952 13953 13954 13955 13956 13957 13958 13959 13960 13961 13962 13963 13964 13965 13966 13967 13968 13969 13970 13971 13972 13973 13974 13975 13976 13977 13978 13979 13980 13981 13982 13983 13984 13985 13986 13987 13988 13989 13990 13991 13992 13993 13994 13995 13996 13997 13998 13999 14000 14001 14002 14003 14004 14005 14006 14007 14008 14009 14010 14011 14012 14013 14014 14015 14016 14017 14018 14019 14020 14021 14022 14023 14024 14025 14026 14027 14028 14029 14030 14031 14032 14033 14034 14035 14036 14037 14038 14039 14040 14041 14042 14043 14044 14045 14046 14047 14048 14049 14050 14051 14052 14053 14054 14055 14056 14057 14058 14059 14060 14061 14062 14063 14064 14065 14066 14067 14068 14069 14070 14071 14072 14073 14074 14075 14076 14077 14078 14079 14080 14081 14082 14083 14084 14085 14086 14087 14088 14089 14090 14091 14092 14093 14094 14095 14096 14097 14098 14099 14100 14101 14102 14103 14104 14105 14106 14107 14108 14109 14110 14111 14112 14113 14114 14115 14116 14117 14118 14119 14120 14121 14122 14123 14124 14125 14126 14127 14128 14129 14130 14131 14132 14133 14134 14135 14136 14137 14138 14139 14140 14141 14142 14143 14144 14145 14146 14147 14148 14149 14150 14151 14152 14153 14154 14155 14156 14157 14158 14159 14160 14161 14162 14163 14164 14165 14166 14167 14168 14169 14170 14171 14172 14173 14174 14175 14176 14177 14178 14179 14180 14181 14182 14183 14184 14185 14186 14187 14188 14189 14190 14191 14192 14193 14194 14195 14196 14197 14198 14199 14200 14201 14202 14203 14204 14205 14206 14207 14208 14209 14210 14211 14212 14213 14214 14215 14216 14217 14218 14219 14220 14221 14222 14223 14224 14225 14226 14227 14228 14229 14230 14231 14232 14233 14234 14235 14236 14237 14238 14239 14240 14241 14242 14243 14244 14245 14246 14247 14248 14249 14250 14251 14252 14253 14254 14255 14256 14257 14258 14259 14260 14261 14262 14263 14264 14265 14266 14267 14268 14269 14270 14271 14272 14273 14274 14275 14276 14277 14278 14279 14280 14281 14282 14283 14284 14285 14286 14287 14288 14289 14290 14291 14292 14293 14294 14295 14296 14297 14298 14299 14300 14301 14302 14303 14304 14305 14306 14307 14308 14309 14310 14311 14312 14313 14314 14315 14316 14317 14318 14319 14320 14321 14322 14323 14324 14325 14326 14327 14328 14329 14330 14331 14332 14333 14334 14335 14336 14337 14338 14339 14340 14341 14342 14343 14344 14345 14346 14347 14348 14349 14350 14351 14352 14353 14354 14355 14356 14357 14358 14359 14360 14361 14362 14363 14364 14365 14366 14367 14368 14369 14370 14371 14372 14373 14374 14375 14376 14377 14378 14379 14380 14381 14382 14383 14384 14385 14386 14387 14388 14389 14390 14391 14392 14393 14394 14395 14396 14397 14398 14399 14400 14401 14402 14403 14404 14405 14406 14407 14408 14409 14410 14411 14412 14413 14414 14415 14416 14417 14418 14419 14420 14421 14422 14423 14424 14425 14426 14427 14428 14429 14430 14431 14432 14433 14434 14435 14436 14437 14438 14439 14440 14441 14442 14443 14444 14445 14446 14447 14448 14449 14450 14451 14452 14453 14454 14455 14456 14457 14458 14459 14460 14461 14462 14463 14464 14465 14466 14467 14468 14469 14470 14471 14472 14473 14474 14475 14476 14477 14478 14479 14480 14481 14482 14483 14484 14485 14486 14487 14488 14489 14490 14491 14492 14493 14494 14495 14496 14497 14498 14499 14500 14501 14502 14503 14504 14505 14506 14507 14508 14509 14510 14511 14512 14513 14514 14515 14516 14517 14518 14519 14520 14521 14522 14523 14524 14525 14526 14527 14528 14529 14530 14531 14532 14533 14534 14535 14536 14537 14538 14539 14540 14541 14542 14543 14544 14545 14546 14547 14548 14549 14550 14551 14552 14553 14554 14555 14556 14557 14558 14559 14560 14561 14562 14563 14564 14565 14566 14567 14568 14569 14570 14571 14572 14573 14574 14575 14576 14577 14578 14579 14580 14581 14582 14583 14584 14585 14586 14587 14588 14589 14590 14591 14592 14593 14594 14595 14596 14597 14598 14599 14600 14601 14602 14603 14604 14605 14606 14607 14608 14609 14610 14611 14612 14613 14614 14615 14616 14617 14618 14619 14620 14621 14622 14623 14624 14625 14626 14627 14628 14629 14630 14631 14632 14633 14634 14635 14636 14637 14638 14639 14640 14641 14642 14643 14644 14645 14646 14647 14648 14649 14650 14651 14652 14653 14654 14655 14656 14657 14658 14659 14660 14661 14662 14663 14664 14665 14666 14667 14668 14669 14670 14671 14672 14673 14674 14675 14676 14677 14678 14679 14680 14681 14682 14683 14684 14685 14686 14687 14688 14689 14690 14691 14692 14693 14694 14695 14696 14697 14698 14699 14700 14701 14702 14703 14704 14705 14706 14707 14708 14709 14710 14711 14712 14713 14714 14715 14716 14717 14718 14719 14720 14721 14722 14723 14724 14725 14726 14727 14728 14729 14730 14731 14732 14733 14734 14735 14736 14737 14738 14739 14740 14741 14742 14743 14744 14745 14746 14747 14748 14749 14750 14751 14752 14753 14754 14755 14756 14757 14758 14759 14760 14761 14762 14763 14764 14765 14766 14767 14768 14769 14770 14771 14772 14773 14774 14775 14776 14777 14778 14779 14780 14781 14782 14783 14784 14785 14786 14787 14788 14789 14790 14791 14792 14793 14794 14795 14796 14797 14798 14799 14800 14801 14802 14803 14804 14805 14806 14807 14808 14809 14810 14811 14812 14813 14814 14815 14816 14817 14818 14819 14820 14821 14822 14823 14824 14825 14826 14827 14828 14829 14830 14831 14832 14833 14834 14835 14836 14837 14838 14839 14840 14841 14842 14843 14844 14845 14846 14847 14848 14849 14850 14851 14852 14853 14854 14855 14856 14857 14858 14859 14860 14861 14862 14863 14864 14865 14866 14867 14868 14869 14870 14871 14872 14873 14874 14875 14876 14877 14878 14879 14880 14881 14882 14883 14884 14885 14886 14887 14888 14889 14890 14891 14892 14893 14894 14895 14896 14897 14898 14899 14900 14901 14902 14903 14904 14905 14906 14907 14908 14909 14910 14911 14912 14913 14914 14915 14916 14917 14918 14919 14920 14921 14922 14923 14924 14925 14926 14927 14928 14929 14930 14931 14932 14933 14934 14935 14936 14937 14938 14939 14940 14941 14942 14943 14944 14945 14946 14947 14948 14949 14950 14951 14952 14953 14954 14955 14956 14957 14958 14959 14960 14961 14962 14963 14964 14965 14966 14967 14968 14969 14970 14971 14972 14973 14974 14975 14976 14977 14978 14979 14980 14981 14982 14983 14984 14985 14986 14987 14988 14989 14990 14991 14992 14993 14994 14995 14996 14997 14998 14999 15000 15001 15002 15003 15004 15005 15006 15007 15008 15009 15010 15011 15012 15013 15014 15015 15016 15017 15018 15019 15020 15021 15022 15023 15024 15025 15026 15027 15028 15029 15030 15031 15032 15033 15034 15035 15036 15037 15038 15039 15040 15041 15042 15043 15044 15045 15046 15047 15048 15049 15050 15051 15052 15053 15054 15055 15056 15057 15058 15059 15060 15061 15062 15063 15064 15065 15066 15067 15068 15069 15070 15071 15072 15073 15074 15075 15076 15077 15078 15079 15080 15081 15082 15083 15084 15085 15086 15087 15088 15089 15090 15091 15092 15093 15094 15095 15096 15097 15098 15099 15100 15101 15102 15103 15104 15105 15106 15107 15108 15109 15110 15111 15112 15113 15114 15115 15116 15117 15118 15119 15120 15121 15122 15123 15124 15125 15126 15127 15128 15129 15130 15131 15132 15133 15134 15135 15136 15137 15138 15139 15140 15141 15142 15143 15144 15145 15146 15147 15148 15149 15150 15151 15152 15153 15154 15155 15156 15157 15158 15159 15160 15161 15162 15163 15164 15165 15166 15167 15168 15169 15170 15171 15172 15173 15174 15175 15176 15177 15178 15179 15180 15181 15182 15183 15184 15185 15186 15187 15188 15189 15190 15191 15192 15193 15194 15195 15196 15197 15198 15199 15200 15201 15202 15203 15204 15205 15206 15207 15208 15209 15210 15211 15212 15213 15214 15215 15216 15217 15218 15219 15220 15221 15222 15223 15224 15225 15226 15227 15228 15229 15230 15231 15232 15233 15234 15235 15236 15237 15238 15239 15240 15241 15242 15243 15244 15245 15246 15247 15248 15249 15250 15251 15252 15253 15254 15255 15256 15257 15258 15259 15260 15261 15262 15263 15264 15265 15266 15267 15268 15269 15270 15271 15272 15273 15274 15275 15276 15277 15278 15279 15280 15281 15282 15283 15284 15285 15286 15287 15288 15289 15290 15291 15292 15293 15294 15295 15296 15297 15298 15299 15300 15301 15302 15303 15304 15305 15306 15307 15308 15309 15310 15311 15312 15313 15314 15315 15316 15317 15318 15319 15320 15321 15322 15323 15324 15325 15326 15327 15328 15329 15330 15331 15332 15333 15334 15335 15336 15337 15338 15339 15340 15341 15342 15343 15344 15345 15346 15347 15348 15349 15350 15351 15352 15353 15354 15355 15356 15357 15358 15359 15360 15361 15362 15363 15364 15365 15366 15367 15368 15369 15370 15371 15372 15373 15374 15375 15376 15377 15378 15379 15380 15381 15382 15383 15384 15385 15386 15387 15388 15389 15390 15391 15392 15393 15394 15395 15396 15397 15398 15399 15400 15401 15402 15403 15404 15405 15406 15407 15408 15409 15410 15411 15412 15413 15414 15415 15416 15417 15418 15419 15420 15421 15422 15423 15424 15425 15426 15427 15428 15429 15430 15431 15432 15433 15434 15435 15436 15437 15438 15439 15440 15441 15442 15443 15444 15445 15446 15447 15448 15449 15450 15451 15452 15453 15454 15455 15456 15457 15458 15459 15460 15461 15462 15463 15464 15465 15466 15467 15468 15469 15470 15471 15472 15473 15474 15475 15476 15477 15478 15479 15480 15481 15482 15483 15484 15485 15486 15487 15488 15489 15490 15491 15492 15493 15494 15495 15496 15497 15498 15499 15500 15501 15502 15503 15504 15505 15506 15507 15508 15509 15510 15511 15512 15513 15514 15515 15516 15517 15518 15519 15520 15521 15522 15523 15524 15525 15526 15527 15528 15529 15530 15531 15532 15533 15534 15535 15536 15537 15538 15539 15540 15541 15542 15543 15544 15545 15546 15547 15548 15549 15550 15551 15552 15553 15554 15555 15556 15557 15558 15559 15560 15561 15562 15563 15564 15565 15566 15567 15568 15569 15570 15571 15572 15573 15574 15575 15576 15577 15578 15579 15580 15581 15582 15583 15584 15585 15586 15587 15588 15589 15590 15591 15592 15593 15594 15595 15596 15597 15598 15599 15600 15601 15602 15603 15604 15605 15606 15607 15608 15609 15610 15611 15612 15613 15614 15615 15616 15617 15618 15619 15620 15621 15622 15623 15624 15625 15626 15627 15628 15629 15630 15631 15632 15633 15634 15635 15636 15637 15638 15639 15640 15641 15642 15643 15644 15645 15646 15647 15648 15649 15650 15651 15652 15653 15654 15655 15656 15657 15658 15659 15660 15661 15662 15663 15664 15665 15666 15667 15668 15669 15670 15671 15672 15673 15674 15675 15676 15677 15678 15679 15680 15681 15682 15683 15684 15685 15686 15687 15688 15689 15690 15691 15692 15693 15694 15695 15696 15697 15698 15699 15700 15701 15702 15703 15704 15705 15706 15707 15708 15709 15710 15711 15712 15713 15714 15715 15716 15717 15718 15719 15720 15721 15722 15723 15724 15725 15726 15727 15728 15729 15730 15731 15732 15733 15734 15735 15736 15737 15738 15739 15740 15741 15742 15743 15744 15745 15746 15747 15748 15749 15750 15751 15752 15753 15754 15755 15756 15757 15758 15759 15760 15761 15762 15763 15764 15765 15766 15767 15768 15769 15770 15771 15772 15773 15774 15775 15776 15777 15778 15779 15780 15781 15782 15783 15784 15785 15786 15787 15788 15789 15790 15791 15792 15793 15794 15795 15796 15797 15798 15799 15800 15801 15802 15803 15804 15805 15806 15807 15808 15809 15810 15811 15812 15813 15814 15815 15816 15817 15818 15819 15820 15821 15822 15823 15824 15825 15826 15827 15828 15829 15830 15831 15832 15833 15834 15835 15836 15837 15838 15839 15840 15841 15842 15843 15844 15845 15846 15847 15848 15849 15850 15851 15852 15853 15854 15855 15856 15857 15858 15859 15860 15861 15862 15863 15864 15865 15866 15867 15868 15869 15870 15871 15872 15873 15874 15875 15876 15877 15878 15879 15880 15881 15882 15883 15884 15885 15886 15887 15888 15889 15890 15891 15892 15893 15894 15895 15896 15897 15898 15899 15900 15901 15902 15903 15904 15905 15906 15907 15908 15909 15910 15911 15912 15913 15914 15915 15916 15917 15918 15919 15920 15921 15922 15923 15924 15925 15926 15927 15928 15929 15930 15931 15932 15933 15934 15935 15936 15937 15938 15939 15940 15941 15942 15943 15944 15945 15946 15947 15948 15949 15950 15951 15952 15953 15954 15955 15956 15957 15958 15959 15960 15961 15962 15963 15964 15965 15966 15967 15968 15969 15970 15971 15972 15973 15974 15975 15976 15977 15978 15979 15980 15981 15982 15983 15984 15985 15986 15987 15988 15989 15990 15991 15992 15993 15994 15995 15996 15997 15998 15999 16000 16001 16002 16003 16004 16005 16006 16007 16008 16009 16010 16011 16012 16013 16014 16015 16016 16017 16018 16019 16020 16021 16022 16023 16024 16025 16026 16027 16028 16029 16030 16031 16032 16033 16034 16035 16036 16037 16038 16039 16040 16041 16042 16043 16044 16045 16046 16047 16048 16049 16050 16051 16052 16053 16054 16055 16056 16057 16058 16059 16060 16061 16062 16063 16064 16065 16066 16067 16068 16069 16070 16071 16072 16073 16074 16075 16076 16077 16078 16079 16080 16081 16082 16083 16084 16085 16086 16087 16088 16089 16090 16091 16092 16093 16094 16095 16096 16097 16098 16099 16100 16101 16102 16103 16104 16105 16106 16107 16108 16109 16110 16111 16112 16113 16114 16115 16116 16117 16118 16119 16120 16121 16122 16123 16124 16125 16126 16127 16128 16129 16130 16131 16132 16133 16134 16135 16136 16137 16138 16139 16140 16141 16142 16143 16144 16145 16146 16147 16148 16149 16150 16151 16152 16153 16154 16155 16156 16157 16158 16159 16160 16161 16162 16163 16164 16165 16166 16167 16168 16169 16170 16171 16172 16173 16174 16175 16176 16177 16178 16179 16180 16181 16182 16183 16184 16185 16186 16187 16188 16189 16190 16191 16192 16193 16194 16195 16196 16197 16198 16199 16200 16201 16202 16203 16204 16205 16206 16207 16208 16209 16210 16211 16212 16213 16214 16215 16216 16217 16218 16219 16220 16221 16222 16223 16224 16225 16226 16227 16228 16229 16230 16231 16232 16233 16234 16235 16236 16237 16238 16239 16240 16241 16242 16243 16244 16245 16246 16247 16248 16249 16250 16251 16252 16253 16254 16255 16256 16257 16258 16259 16260 16261 16262 16263 16264 16265 16266 16267 16268 16269 16270 16271 16272 16273 16274 16275 16276 16277 16278 16279 16280 16281 16282 16283 16284 16285 16286 16287 16288 16289 16290 16291 16292 16293 16294 16295 16296 16297 16298 16299 16300 16301 16302 16303 16304 16305 16306 16307 16308 16309 16310 16311 16312 16313 16314 16315 16316 16317 16318 16319 16320 16321 16322 16323 16324 16325 16326 16327 16328 16329 16330 16331 16332 16333 16334 16335 16336 16337 16338 16339 16340 16341 16342 16343 16344 16345 16346 16347 16348 16349 16350 16351 16352 16353 16354 16355 16356 16357 16358 16359 16360 16361 16362 16363 16364 16365 16366 16367 16368 16369 16370 16371 16372 16373 16374 16375 16376 16377 16378 16379 16380 16381 16382 16383 16384 16385 16386 16387 16388 16389 16390 16391 16392 16393 16394 16395 16396 16397 16398 16399 16400 16401 16402 16403 16404 16405 16406 16407 16408 16409 16410 16411 16412 16413 16414 16415 16416 16417 16418 16419 16420 16421 16422 16423 16424 16425 16426 16427 16428 16429 16430 16431 16432 16433 16434 16435 16436 16437 16438 16439 16440 16441 16442 16443 16444 16445 16446 16447 16448 16449 16450 16451 16452 16453 16454 16455 16456 16457 16458 16459 16460 16461 16462 16463 16464 16465 16466 16467 16468 16469 16470 16471 16472 16473 16474 16475 16476 16477 16478 16479 16480 16481 16482 16483 16484 16485 16486 16487 16488 16489 16490 16491 16492 16493 16494 16495 16496 16497 16498 16499 16500 16501 16502 16503 16504 16505 16506 16507 16508 16509 16510 16511 16512 16513 16514 16515 16516 16517 16518 16519 16520 16521 16522 16523 16524 16525 16526 16527 16528 16529 16530 16531 16532 16533 16534 16535 16536 16537 16538 16539 16540 16541 16542 16543 16544 16545 16546 16547 16548 16549 16550 16551 16552 16553 16554 16555 16556 16557 16558 16559 16560 16561 16562 16563 16564 16565 16566 16567 16568 16569 16570 16571 16572 16573 16574 16575 16576 16577 16578 16579 16580 16581 16582 16583 16584 16585 16586 16587 16588 16589 16590 16591 16592 16593 16594 16595 16596 16597 16598 16599 16600 16601 16602 16603 16604 16605 16606 16607 16608 16609 16610 16611 16612 16613 16614 16615 16616 16617 16618 16619 16620 16621 16622 16623 16624 16625 16626 16627 16628 16629 16630 16631 16632 16633 16634 16635 16636 16637 16638 16639 16640 16641 16642 16643 16644 16645 16646 16647 16648 16649 16650 16651 16652 16653 16654 16655 16656 16657 16658 16659 16660 16661 16662 16663 16664 16665 16666 16667 16668 16669 16670 16671 16672 16673 16674 16675 16676 16677 16678 16679 16680 16681 16682 16683 16684 16685 16686 16687 16688 16689 16690 16691 16692 16693 16694 16695 16696 16697 16698 16699 16700 16701 16702 16703 16704 16705 16706 16707 16708 16709 16710 16711 16712 16713 16714 16715 16716 16717 16718 16719 16720 16721 16722 16723 16724 16725 16726 16727 16728 16729 16730 16731 16732 16733 16734 16735 16736 16737 16738 16739 16740 16741 16742 16743 16744 16745 16746 16747 16748 16749 16750 16751 16752 16753 16754 16755 16756 16757 16758 16759 16760 16761 16762 16763 16764 16765 16766 16767 16768 16769 16770 16771 16772 16773 16774 16775 16776 16777 16778 16779 16780 16781 16782 16783 16784 16785 16786 16787 16788 16789 16790 16791 16792 16793 16794 16795 16796 16797 16798 16799 16800 16801 16802 16803 16804 16805 16806 16807 16808 16809 16810 16811 16812 16813 16814 16815 16816 16817 16818 16819 16820 16821 16822 16823 16824 16825 16826 16827 16828 16829 16830 16831 16832 16833 16834 16835 16836 16837 16838 16839 16840 16841 16842 16843 16844 16845 16846 16847 16848 16849 16850 16851 16852 16853 16854 16855 16856 16857 16858 16859 16860 16861 16862 16863 16864 16865 16866 16867 16868 16869 16870 16871 16872 16873 16874 16875 16876 16877 16878 16879 16880 16881 16882 16883 16884 16885 16886 16887 16888 16889 16890 16891 16892 16893 16894 16895 16896 16897 16898 16899 16900 16901 16902 16903 16904 16905 16906 16907 16908 16909 16910 16911 16912 16913 16914 16915 16916 16917 16918 16919 16920 16921 16922 16923 16924 16925 16926 16927 16928 16929 16930 16931 16932 16933 16934 16935 16936 16937 16938 16939 16940 16941 16942 16943 16944 16945 16946 16947 16948 16949 16950 16951 16952 16953 16954 16955 16956 16957 16958 16959 16960 16961 16962 16963 16964 16965 16966 16967 16968 16969 16970 16971 16972 16973 16974 16975 16976 16977 16978 16979 16980 16981 16982 16983 16984 16985 16986 16987 16988 16989 16990 16991 16992 16993 16994 16995 16996 16997 16998 16999 17000 17001 17002 17003 17004 17005 17006 17007 17008 17009 17010 17011 17012 17013 17014 17015 17016 17017 17018 17019 17020 17021 17022 17023 17024 17025 17026 17027 17028 17029 17030 17031 17032 17033 17034 17035 17036 17037 17038 17039 17040 17041 17042 17043 17044 17045 17046 17047 17048 17049 17050 17051 17052 17053 17054 17055 17056 17057 17058 17059 17060 17061 17062 17063 17064 17065 17066 17067 17068 17069 17070 17071 17072 17073 17074 17075 17076 17077 17078 17079 17080 17081 17082 17083 17084 17085 17086 17087 17088 17089 17090 17091 17092 17093 17094 17095 17096 17097 17098 17099 17100 17101 17102 17103 17104 17105 17106 17107 17108 17109 17110 17111 17112 17113 17114 17115 17116 17117 17118 17119 17120 17121 17122 17123 17124 17125 17126 17127 17128 17129 17130 17131 17132 17133 17134 17135 17136 17137 17138 17139 17140 17141 17142 17143 17144 17145 17146 17147 17148 17149 17150 17151 17152 17153 17154 17155 17156 17157 17158 17159 17160 17161 17162 17163 17164 17165 17166 17167 17168 17169 17170 17171 17172 17173 17174 17175 17176 17177 17178 17179 17180 17181 17182 17183 17184 17185 17186 17187 17188 17189 17190 17191 17192 17193 17194 17195 17196 17197 17198 17199 17200 17201 17202 17203 17204 17205 17206 17207 17208 17209 17210 17211 17212 17213 17214 17215 17216 17217 17218 17219 17220 17221 17222 17223 17224 17225 17226 17227 17228 17229 17230 17231 17232 17233 17234 17235 17236 17237 17238 17239 17240 17241 17242 17243 17244 17245 17246 17247 17248 17249 17250 17251 17252 17253 17254 17255 17256 17257 17258 17259 17260 17261 17262 17263 17264 17265 17266 17267 17268 17269 17270 17271 17272 17273 17274 17275 17276 17277 17278 17279 17280 17281 17282 17283 17284 17285 17286 17287 17288 17289 17290 17291 17292 17293 17294 17295 17296 17297 17298 17299 17300 17301 17302 17303 17304 17305 17306 17307 17308 17309 17310 17311 17312 17313 17314 17315 17316 17317 17318 17319 17320 17321 17322 17323 17324 17325 17326 17327 17328 17329 17330 17331 17332 17333 17334 17335 17336 17337 17338 17339 17340 17341 17342 17343 17344 17345 17346 17347 17348 17349 17350 17351 17352 17353 17354 17355 17356 17357 17358 17359 17360 17361 17362 17363 17364 17365 17366 17367 17368 17369 17370 17371 17372 17373 17374 17375 17376 17377 17378 17379 17380 17381 17382 17383 17384 17385 17386 17387 17388 17389 17390 17391 17392 17393 17394 17395 17396 17397 17398 17399 17400 17401 17402 17403 17404 17405 17406 17407 17408 17409 17410 17411 17412 17413 17414 17415 17416 17417 17418 17419 17420 17421 17422 17423 17424 17425 17426 17427 17428 17429 17430 17431 17432 17433 17434 17435 17436 17437 17438 17439 17440 17441 17442 17443 17444 17445 17446 17447 17448 17449 17450 17451 17452 17453 17454 17455 17456 17457 17458 17459 17460 17461 17462 17463 17464 17465 17466 17467 17468 17469 17470 17471 17472 17473 17474 17475 17476 17477 17478 17479 17480 17481 17482 17483 17484 17485 17486 17487 17488 17489 17490 17491 17492 17493 17494 17495 17496 17497 17498 17499 17500 17501 17502 17503 17504 17505 17506 17507 17508 17509 17510 17511 17512 17513 17514 17515 17516 17517 17518 17519 17520 17521 17522 17523 17524 17525 17526 17527 17528 17529 17530 17531 17532 17533 17534 17535 17536 17537 17538 17539 17540 17541 17542 17543 17544 17545 17546 17547 17548 17549 17550 17551 17552 17553 17554 17555 17556 17557 17558 17559 17560 17561 17562 17563 17564 17565 17566 17567 17568 17569 17570 17571 17572 17573 17574 17575 17576 17577 17578 17579 17580 17581 17582 17583 17584 17585 17586 17587 17588 17589 17590 17591 17592 17593 17594 17595 17596 17597 17598 17599 17600 17601 17602 17603 17604 17605 17606 17607 17608 17609 17610 17611 17612 17613 17614 17615 17616 17617 17618 17619 17620 17621 17622 17623 17624 17625 17626 17627 17628 17629 17630 17631 17632 17633 17634 17635 17636 17637 17638 17639 17640 17641 17642 17643 17644 17645 17646 17647 17648 17649 17650 17651 17652 17653 17654 17655 17656 17657 17658 17659 17660 17661 17662 17663 17664 17665 17666 17667 17668 17669 17670 17671 17672 17673 17674 17675 17676 17677 17678 17679 17680 17681 17682 17683 17684 17685 17686 17687 17688 17689 17690 17691 17692 17693 17694 17695 17696 17697 17698 17699 17700 17701 17702 17703 17704 17705 17706 17707 17708 17709 17710 17711 17712 17713 17714 17715 17716 17717 17718 17719 17720 17721 17722 17723 17724 17725 17726 17727 17728 17729 17730 17731 17732 17733 17734 17735 17736 17737 17738 17739 17740 17741 17742 17743 17744 17745 17746 17747 17748 17749 17750 17751 17752 17753 17754 17755 17756 17757 17758 17759 17760 17761 17762 17763 17764 17765 17766 17767 17768 17769 17770 17771 17772 17773 17774 17775 17776 17777 17778 17779 17780 17781 17782 17783 17784 17785 17786 17787 17788 17789 17790 17791 17792 17793 17794 17795 17796 17797 17798 17799 17800 17801 17802 17803 17804 17805 17806 17807 17808 17809 17810 17811 17812 17813 17814 17815 17816 17817 17818 17819 17820 17821 17822 17823 17824 17825 17826 17827 17828 17829 17830 17831 17832 17833 17834 17835 17836 17837 17838 17839 17840 17841 17842 17843 17844 17845 17846 17847 17848 17849 17850 17851 17852 17853 17854 17855 17856 17857 17858 17859 17860 17861 17862 17863 17864 17865 17866 17867 17868 17869 17870 17871 17872 17873 17874 17875 17876 17877 17878 17879 17880 17881 17882 17883 17884 17885 17886 17887 17888 17889 17890 17891 17892 17893 17894 17895 17896 17897 17898 17899 17900 17901 17902 17903 17904 17905 17906 17907 17908 17909 17910 17911 17912 17913 17914 17915 17916 17917 17918 17919 17920 17921 17922 17923 17924 17925 17926 17927 17928 17929 17930 17931 17932 17933 17934 17935 17936 17937 17938 17939 17940 17941 17942 17943 17944 17945 17946 17947 17948 17949 17950 17951 17952 17953 17954 17955 17956 17957 17958 17959 17960 17961 17962 17963 17964 17965 17966 17967 17968 17969 17970 17971 17972 17973 17974 17975 17976 17977 17978 17979 17980 17981 17982 17983 17984 17985 17986 17987 17988 17989 17990 17991 17992 17993 17994 17995 17996 17997 17998 17999 18000 18001 18002 18003 18004 18005 18006 18007 18008 18009 18010 18011 18012 18013 18014 18015 18016 18017 18018 18019 18020 18021 18022 18023 18024 18025 18026 18027 18028 18029 18030 18031 18032 18033 18034 18035 18036 18037 18038 18039 18040 18041 18042 18043 18044 18045 18046 18047 18048 18049 18050 18051 18052 18053 18054 18055 18056 18057 18058 18059 18060 18061 18062 18063 18064 18065 18066 18067 18068 18069 18070 18071 18072 18073 18074 18075 18076 18077 18078 18079 18080 18081 18082 18083 18084 18085 18086 18087 18088 18089 18090 18091 18092 18093 18094 18095 18096 18097 18098 18099 18100 18101 18102 18103 18104 18105 18106 18107 18108 18109 18110 18111 18112 18113 18114 18115 18116 18117 18118 18119 18120 18121 18122 18123 18124 18125 18126 18127 18128 18129 18130 18131 18132 18133 18134 18135 18136 18137 18138 18139 18140 18141 18142 18143 18144 18145 18146 18147 18148 18149 18150 18151 18152 18153 18154 18155 18156 18157 18158 18159 18160 18161 18162 18163 18164 18165 18166 18167 18168 18169 18170 18171 18172 18173 18174 18175 18176 18177 18178 18179 18180 18181 18182 18183 18184 18185 18186 18187 18188 18189 18190 18191 18192 18193 18194 18195 18196 18197 18198 18199 18200 18201 18202 18203 18204 18205 18206 18207 18208 18209 18210 18211 18212 18213 18214 18215 18216 18217 18218 18219 18220 18221 18222 18223 18224 18225 18226 18227 18228 18229 18230 18231 18232 18233 18234 18235 18236 18237 18238 18239 18240 18241 18242 18243 18244 18245 18246 18247 18248 18249 18250 18251 18252 18253 18254 18255 18256 18257 18258 18259 18260 18261 18262 18263 18264 18265 18266 18267 18268 18269 18270 18271 18272 18273 18274 18275 18276 18277 18278 18279 18280 18281 18282 18283 18284 18285 18286 18287 18288 18289 18290 18291 18292 18293 18294 18295 18296 18297 18298 18299 18300 18301 18302 18303 18304 18305 18306 18307 18308 18309 18310 18311 18312 18313 18314 18315 18316 18317 18318 18319 18320 18321 18322 18323 18324 18325 18326 18327 18328 18329 18330 18331 18332 18333 18334 18335 18336 18337 18338 18339 18340 18341 18342 18343 18344 18345 18346 18347 18348 18349 18350 18351 18352 18353 18354 18355 18356 18357 18358 18359 18360 18361 18362 18363 18364 18365 18366 18367 18368 18369 18370 18371 18372 18373 18374 18375 18376 18377 18378 18379 18380 18381 18382 18383 18384 18385 18386 18387 18388 18389 18390 18391 18392 18393 18394 18395 18396 18397 18398 18399 18400 18401 18402 18403 18404 18405 18406 18407 18408 18409 18410 18411 18412 18413 18414 18415 18416 18417 18418 18419 18420 18421 18422 18423 18424 18425 18426 18427 18428 18429 18430 18431 18432 18433 18434 18435 18436 18437 18438 18439 18440 18441 18442 18443 18444 18445 18446 18447 18448 18449 18450 18451 18452 18453 18454 18455 18456 18457 18458 18459 18460 18461 18462 18463 18464 18465 18466 18467 18468 18469 18470 18471 18472 18473 18474 18475 18476 18477 18478 18479 18480 18481 18482 18483 18484 18485 18486 18487 18488 18489 18490 18491 18492 18493 18494 18495 18496 18497 18498 18499 18500 18501 18502 18503 18504 18505 18506 18507 18508 18509 18510 18511 18512 18513 18514 18515 18516 18517 18518 18519 18520 18521 18522 18523 18524 18525 18526 18527 18528 18529 18530 18531 18532 18533 18534 18535 18536 18537 18538 18539 18540 18541 18542 18543 18544 18545 18546 18547 18548 18549 18550 18551 18552 18553 18554 18555 18556 18557 18558 18559 18560 18561 18562 18563 18564 18565 18566 18567 18568 18569 18570 18571 18572 18573 18574 18575 18576 18577 18578 18579 18580 18581 18582 18583 18584 18585 18586 18587 18588 18589 18590 18591 18592 18593 18594 18595 18596 18597 18598 18599 18600 18601 18602 18603 18604 18605 18606 18607 18608 18609 18610 18611 18612 18613 18614 18615 18616 18617 18618 18619 18620 18621 18622 18623 18624 18625 18626 18627 18628 18629 18630 18631 18632 18633 18634 18635 18636 18637 18638 18639 18640 18641 18642 18643 18644 18645 18646 18647 18648 18649 18650 18651 18652 18653 18654 18655 18656 18657 18658 18659 18660 18661 18662 18663 18664 18665 18666 18667 18668 18669 18670 18671 18672 18673 18674 18675 18676 18677 18678 18679 18680 18681 18682 18683 18684 18685 18686 18687 18688 18689 18690 18691 18692 18693 18694 18695 18696 18697 18698 18699 18700 18701 18702 18703 18704 18705 18706 18707 18708 18709 18710 18711 18712 18713 18714 18715 18716 18717 18718 18719 18720 18721 18722 18723 18724 18725 18726 18727 18728 18729 18730 18731 18732 18733 18734 18735 18736 18737 18738 18739 18740 18741 18742 18743 18744 18745 18746 18747 18748 18749 18750 18751 18752 18753 18754 18755 18756 18757 18758 18759 18760 18761 18762 18763 18764 18765 18766 18767 18768 18769 18770 18771 18772 18773 18774 18775 18776 18777 18778 18779 18780 18781 18782 18783 18784 18785 18786 18787 18788 18789 18790 18791 18792 18793 18794 18795 18796 18797 18798 18799 18800 18801 18802 18803 18804 18805 18806 18807 18808 18809 18810 18811 18812 18813 18814 18815 18816 18817 18818 18819 18820 18821 18822 18823 18824 18825 18826 18827 18828 18829 18830 18831 18832 18833 18834 18835 18836 18837 18838 18839 18840 18841 18842 18843 18844 18845 18846 18847 18848 18849 18850 18851 18852 18853 18854 18855 18856 18857 18858 18859 18860 18861 18862 18863 18864 18865 18866 18867 18868 18869 18870 18871 18872 18873 18874 18875 18876 18877 18878 18879 18880 18881 18882 18883 18884 18885 18886 18887 18888 18889 18890 18891 18892 18893 18894 18895 18896 18897 18898 18899 18900 18901 18902 18903 18904 18905 18906 18907 18908 18909 18910 18911 18912 18913 18914 18915 18916 18917 18918 18919 18920 18921 18922 18923 18924 18925 18926 18927 18928 18929 18930 18931 18932 18933 18934 18935 18936 18937 18938 18939 18940 18941 18942 18943 18944 18945 18946 18947 18948 18949 18950 18951 18952 18953 18954 18955 18956 18957 18958 18959 18960 18961 18962 18963 18964 18965 18966 18967 18968 18969 18970 18971 18972 18973 18974 18975 18976 18977 18978 18979 18980 18981 18982 18983 18984 18985 18986 18987 18988 18989 18990 18991 18992 18993 18994 18995 18996 18997 18998 18999 19000 19001 19002 19003 19004 19005 19006 19007 19008 19009 19010 19011 19012 19013 19014 19015 19016 19017 19018 19019 19020 19021 19022 19023 19024 19025 19026 19027 19028 19029 19030 19031 19032 19033 19034 19035 19036 19037 19038 19039 19040 19041 19042 19043 19044 19045 19046 19047 19048 19049 19050 19051 19052 19053 19054 19055 19056 19057 19058 19059 19060 19061 19062 19063 19064 19065 19066 19067 19068 19069 19070 19071 19072 19073 19074 19075 19076 19077 19078 19079 19080 19081 19082 19083 19084 19085 19086 19087 19088 19089 19090 19091 19092 19093 19094 19095 19096 19097 19098 19099 19100 19101 19102 19103 19104 19105 19106 19107 19108 19109 19110 19111 19112 19113 19114 19115 19116 19117 19118 19119 19120 19121 19122 19123 19124 19125 19126 19127 19128 19129 19130 19131 19132 19133 19134 19135 19136 19137 19138 19139 19140 19141 19142 19143 19144 19145 19146 19147 19148 19149 19150 19151 19152 19153 19154 19155 19156 19157 19158 19159 19160 19161 19162 19163 19164 19165 19166 19167 19168 19169 19170 19171 19172 19173 19174 19175 19176 19177 19178 19179 19180 19181 19182 19183 19184 19185 19186 19187 19188 19189 19190 19191 19192 19193 19194 19195 19196 19197 19198 19199 19200 19201 19202 19203 19204 19205 19206 19207 19208 19209 19210 19211 19212 19213 19214 19215 19216 19217 19218 19219 19220 19221 19222 19223 19224 19225 19226 19227 19228 19229 19230 19231 19232 19233 19234 19235 19236 19237 19238 19239 19240 19241 19242 19243 19244 19245 19246 19247 19248 19249 19250 19251 19252 19253 19254 19255 19256 19257 19258 19259 19260 19261 19262 19263 19264 19265 19266 19267 19268 19269 19270 19271 19272 19273 19274 19275 19276 19277 19278 19279 19280 19281 19282 19283 19284 19285 19286 19287 19288 19289 19290 19291 19292 19293 19294 19295 19296 19297 19298 19299 19300 19301 19302 19303 19304 19305 19306 19307 19308 19309 19310 19311 19312 19313 19314 19315 19316 19317 19318 19319 19320 19321 19322 19323 19324 19325 19326 19327 19328 19329 19330 19331 19332 19333 19334 19335 19336 19337 19338 19339 19340 19341 19342 19343 19344 19345 19346 19347 19348 19349 19350 19351 19352 19353 19354 19355 19356 19357 19358 19359 19360 19361 19362 19363 19364 19365 19366 19367 19368 19369 19370 19371 19372 19373 19374 19375 19376 19377 19378 19379 19380 19381 19382 19383 19384 19385 19386 19387 19388 19389 19390 19391 19392 19393 19394 19395 19396 19397 19398 19399 19400 19401 19402 19403 19404 19405 19406 19407 19408 19409 19410 19411 19412 19413 19414 19415 19416 19417 19418 19419 19420 19421 19422 19423 19424 19425 19426 19427 19428 19429 19430 19431 19432 19433 19434 19435 19436 19437 19438 19439 19440 19441 19442 19443 19444 19445 19446 19447 19448 19449 19450 19451 19452 19453 19454 19455 19456 19457 19458 19459 19460 19461 19462 19463 19464 19465 19466 19467 19468 19469 19470 19471 19472 19473 19474 19475 19476 19477 19478 19479 19480 19481 19482 19483 19484 19485 19486 19487 19488 19489 19490 19491 19492 19493 19494 19495 19496 19497 19498 19499 19500 19501 19502 19503 19504 19505 19506 19507 19508 19509 19510 19511 19512 19513 19514 19515 19516 19517 19518 19519 19520 19521 19522 19523 19524 19525 19526 19527 19528 19529 19530 19531 19532 19533 19534 19535 19536 19537 19538 19539 19540 19541 19542 19543 19544 19545 19546 19547 19548 19549 19550 19551 19552 19553 19554 19555 19556 19557 19558 19559 19560 19561 19562 19563 19564 19565 19566 19567 19568 19569 19570 19571 19572 19573 19574 19575 19576 19577 19578 19579 19580 19581 19582 19583 19584 19585 19586 19587 19588 19589 19590 19591 19592 19593 19594 19595 19596 19597 19598 19599 19600 19601 19602 19603 19604 19605 19606 19607 19608 19609 19610 19611 19612 19613 19614 19615 19616 19617 19618 19619 19620 19621 19622 19623 19624 19625 19626 19627 19628 19629 19630 19631 19632 19633 19634 19635 19636 19637 19638 19639 19640 19641 19642 19643 19644 19645 19646 19647 19648 19649 19650 19651 19652 19653 19654 19655 19656 19657 19658 19659 19660 19661 19662 19663 19664 19665 19666 19667 19668 19669 19670 19671 19672 19673 19674 19675 19676 19677 19678 19679 19680 19681 19682 19683 19684 19685 19686 19687 19688 19689 19690 19691 19692 19693 19694 19695 19696 19697 19698 19699 19700 19701 19702 19703 19704 19705 19706 19707 19708 19709 19710 19711 19712 19713 19714 19715 19716 19717 19718 19719 19720 19721 19722 19723 19724 19725 19726 19727 19728 19729 19730 19731 19732 19733 19734 19735 19736 19737 19738 19739 19740 19741 19742 19743 19744 19745 19746 19747 19748 19749 19750 19751 19752 19753 19754 19755 19756 19757 19758 19759 19760 19761 19762 19763 19764 19765 19766 19767 19768 19769 19770 19771 19772 19773 19774 19775 19776 19777 19778 19779 19780 19781 19782 19783 19784 19785 19786 19787 19788 19789 19790 19791 19792 19793 19794 19795 19796 19797 19798 19799 19800 19801 19802 19803 19804 19805 19806 19807 19808 19809 19810 19811 19812 19813 19814 19815 19816 19817 19818 19819 19820 19821 19822 19823 19824 19825 19826 19827 19828 19829 19830 19831 19832 19833 19834 19835 19836 19837 19838 19839 19840 19841 19842 19843 19844 19845 19846 19847 19848 19849 19850 19851 19852 19853 19854 19855 19856 19857 19858 19859 19860 19861 19862 19863 19864 19865 19866 19867 19868 19869 19870 19871 19872 19873 19874 19875 19876 19877 19878 19879 19880 19881 19882 19883 19884 19885 19886 19887 19888 19889 19890 19891 19892 19893 19894 19895 19896 19897 19898 19899 19900 19901 19902 19903 19904 19905 19906 19907 19908 19909 19910 19911 19912 19913 19914 19915 19916 19917 19918 19919 19920 19921 19922 19923 19924 19925 19926 19927 19928 19929 19930 19931 19932 19933 19934 19935 19936 19937 19938 19939 19940 19941 19942 19943 19944 19945 19946 19947 19948 19949 19950 19951 19952 19953 19954 19955 19956 19957 19958 19959 19960 19961 19962 19963 19964 19965 19966 19967 19968 19969 19970 19971 19972 19973 19974 19975 19976 19977 19978 19979 19980 19981 19982 19983 19984 19985 19986 19987 19988 19989 19990 19991 19992 19993 19994 19995 19996 19997 19998 19999 20000 20001 20002 20003 20004 20005 20006 20007 20008 20009 20010 20011 20012 20013 20014 20015 20016 20017 20018 20019 20020 20021 20022 20023 20024 20025 20026 20027 20028 20029 20030 20031 20032 20033 20034 20035 20036 20037 20038 20039 20040 20041 20042 20043 20044 20045 20046 20047 20048 20049 20050 20051 20052 20053 20054 20055 20056 20057 20058 20059 20060 20061 20062 20063 20064 20065 20066 20067 20068 20069 20070 20071 20072 20073 20074 20075 20076 20077 20078 20079 20080 20081 20082 20083 20084 20085 20086 20087 20088 20089 20090 20091 20092 20093 20094 20095 20096 20097 20098 20099 20100 20101 20102 20103 20104 20105 20106 20107 20108 20109 20110 20111 20112 20113 20114 20115 20116 20117 20118 20119 20120 20121 20122 20123 20124 20125 20126 20127 20128 20129 20130 20131 20132 20133 20134 20135 20136 20137 20138 20139 20140 20141 20142 20143 20144 20145 20146 20147 20148 20149 20150 20151 20152 20153 20154 20155 20156 20157 20158 20159 20160 20161 20162 20163 20164 20165 20166 20167 20168 20169 20170 20171 20172 20173 20174 20175 20176 20177 20178 20179 20180 20181 20182 20183 20184 20185 20186 20187 20188 20189 20190 20191 20192 20193 20194 20195 20196 20197 20198 20199 20200 20201 20202 20203 20204 20205 20206 20207 20208 20209 20210 20211 20212 20213 20214 20215 20216 20217 20218 20219 20220 20221 20222 20223 20224 20225 20226 20227 20228 20229 20230 20231 20232 20233 20234 20235 20236 20237 20238 20239 20240 20241 20242 20243 20244 20245 20246 20247 20248 20249 20250 20251 20252 20253 20254 20255 20256 20257 20258 20259 20260 20261 20262 20263 20264 20265 20266 20267 20268 20269 20270 20271 20272 20273 20274 20275 20276 20277 20278 20279 20280 20281 20282 20283 20284 20285 20286 20287 20288 20289 20290 20291 20292 20293 20294 20295 20296 20297 20298 20299 20300 20301 20302 20303 20304 20305 20306 20307 20308 20309 20310 20311 20312 20313 20314 20315 20316 20317 20318 20319 20320 20321 20322 20323 20324 20325 20326 20327 20328 20329 20330 20331 20332 20333 20334 20335 20336 20337 20338 20339 20340 20341 20342 20343 20344 20345 20346 20347 20348 20349 20350 20351 20352 20353 20354 20355 20356 20357 20358 20359 20360 20361 20362 20363 20364 20365 20366 20367 20368 20369 20370 20371 20372 20373 20374 20375 20376 20377 20378 20379 20380 20381 20382 20383 20384 20385 20386 20387 20388 20389 20390 20391 20392 20393 20394 20395 20396 20397 20398 20399 20400 20401 20402 20403 20404 20405 20406 20407 20408 20409 20410 20411 20412 20413 20414 20415 20416 20417 20418 20419 20420 20421 20422 20423 20424 20425 20426 20427 20428 20429 20430 20431 20432 20433 20434 20435 20436 20437 20438 20439 20440 20441 20442 20443 20444 20445 20446 20447 20448 20449 20450 20451 20452 20453 20454 20455 20456 20457 20458 20459 20460 20461 20462 20463 20464 20465 20466 20467 20468 20469 20470 20471 20472 20473 20474 20475 20476 20477 20478 20479 20480 20481 20482 20483 20484 20485 20486 20487 20488 20489 20490 20491 20492 20493 20494 20495 20496 20497 20498 20499 20500 20501 20502 20503 20504 20505 20506 20507 20508 20509 20510 20511 20512 20513 20514 20515 20516 20517 20518 20519 20520 20521 20522 20523 20524 20525 20526 20527 20528 20529 20530 20531 20532 20533 20534 20535 20536 20537 20538 20539 20540 20541 20542 20543 20544 20545 20546 20547 20548 20549 20550 20551 20552 20553 20554 20555 20556 20557 20558 20559 20560 20561 20562 20563 20564 20565 20566 20567 20568 20569 20570 20571 20572 20573 20574 20575 20576 20577 20578 20579 20580 20581 20582 20583 20584 20585 20586 20587 20588 20589 20590 20591 20592 20593 20594 20595 20596 20597 20598 20599 20600 20601 20602 20603 20604 20605 20606 20607 20608 20609 20610 20611 20612 20613 20614 20615 20616 20617 20618 20619 20620 20621 20622 20623 20624 20625 20626 20627 20628 20629 20630 20631 20632 20633 20634 20635 20636 20637 20638 20639 20640 20641 20642 20643 20644 20645 20646 20647 20648 20649 20650 20651 20652 20653 20654 20655 20656 20657 20658 20659 20660 20661 20662 20663 20664 20665 20666 20667 20668 20669 20670 20671 20672 20673 20674 20675 20676 20677 20678 20679 20680 20681 20682 20683 20684 20685 20686 20687 20688 20689 20690 20691 20692 20693 20694 20695 20696 20697 20698 20699 20700 20701 20702 20703 20704 20705 20706 20707 20708 20709 20710 20711 20712 20713 20714 20715 20716 20717 20718 20719 20720 20721 20722 20723 20724 20725 20726 20727 20728 20729 20730 20731 20732 20733 20734 20735 20736 20737 20738 20739 20740 20741 20742 20743 20744 20745 20746 20747 20748 20749 20750 20751 20752 20753 20754 20755 20756 20757 20758 20759 20760 20761 20762 20763 20764 20765 20766 20767 20768 20769 20770 20771 20772 20773 20774 20775 20776 20777 20778 20779 20780 20781 20782 20783 20784 20785 20786 20787 20788 20789 20790 20791 20792 20793 20794 20795 20796 20797 20798 20799 20800 20801 20802 20803 20804 20805 20806 20807 20808 20809 20810 20811 20812 20813 20814 20815 20816 20817 20818 20819 20820 20821 20822 20823 20824 20825 20826 20827 20828 20829 20830 20831 20832 20833 20834 20835 20836 20837 20838 20839 20840 20841 20842 20843 20844 20845 20846 20847 20848 20849 20850 20851 20852 20853 20854 20855 20856 20857 20858 20859 20860 20861 20862 20863 20864 20865 20866 20867 20868 20869 20870 20871 20872 20873 20874 20875 20876 20877 20878 20879 20880 20881 20882 20883 20884 20885 20886 20887 20888 20889 20890 20891 20892 20893 20894 20895 20896 20897 20898 20899 20900 20901 20902 20903 20904 20905 20906 20907 20908 20909 20910 20911 20912 20913 20914 20915 20916 20917 20918 20919 20920 20921 20922 20923 20924 20925 20926 20927 20928 20929 20930 20931 20932 20933 20934 20935 20936 20937 20938 20939 20940 20941 20942 20943 20944 20945 20946 20947 20948 20949 20950 20951 20952 20953 20954 20955 20956 20957 20958 20959 20960 20961 20962 20963 20964 20965 20966 20967 20968 20969 20970 20971 20972 20973 20974 20975 20976 20977 20978 20979 20980 20981 20982 20983 20984 20985 20986 20987 20988 20989 20990 20991 20992 20993 20994 20995 20996 20997 20998 20999 21000 21001 21002 21003 21004 21005 21006 21007 21008 21009 21010 21011 21012 21013 21014 21015 21016 21017 21018 21019 21020 21021 21022 21023 21024 21025 21026 21027 21028 21029 21030 21031 21032 21033 21034 21035 21036 21037 21038 21039 21040 21041 21042 21043 21044 21045 21046 21047 21048 21049 21050 21051 21052 21053 21054 21055 21056 21057 21058 21059 21060 21061 21062 21063 21064 21065 21066 21067 21068 21069 21070 21071 21072 21073 21074 21075 21076 21077 21078 21079 21080 21081 21082 21083 21084 21085 21086 21087 21088 21089 21090 21091 21092 21093 21094 21095 21096 21097 21098 21099 21100 21101 21102 21103 21104 21105 21106 21107 21108 21109 21110 21111 21112 21113 21114 21115 21116 21117 21118 21119 21120 21121 21122 21123 21124 21125 21126 21127 21128 21129 21130 21131 21132 21133 21134 21135 21136 21137 21138 21139 21140 21141 21142 21143 21144 21145 21146 21147 21148 21149 21150 21151 21152 21153 21154 21155 21156 21157 21158 21159 21160 21161 21162 21163 21164 21165 21166 21167 21168 21169 21170 21171 21172 21173 21174 21175 21176 21177 21178 21179 21180 21181 21182 21183 21184 21185 21186 21187 21188 21189 21190 21191 21192 21193 21194 21195 21196 21197 21198 21199 21200 21201 21202 21203 21204 21205 21206 21207 21208 21209 21210 21211 21212 21213 21214 21215 21216 21217 21218 21219 21220 21221 21222 21223 21224 21225 21226 21227 21228 21229 21230 21231 21232 21233 21234 21235 21236 21237 21238 21239 21240 21241 21242 21243 21244 21245 21246 21247 21248 21249 21250 21251 21252 21253 21254 21255 21256 21257 21258 21259 21260 21261 21262 21263 21264 21265 21266 21267 21268 21269 21270 21271 21272 21273 21274 21275 21276 21277 21278 21279 21280 21281 21282 21283 21284 21285 21286 21287 21288 21289 21290 21291 21292 21293 21294 21295 21296 21297 21298 21299 21300 21301 21302 21303 21304 21305 21306 21307 21308 21309 21310 21311 21312 21313 21314 21315 21316 21317 21318 21319 21320 21321 21322 21323 21324 21325 21326 21327 21328 21329 21330 21331 21332 21333 21334 21335 21336 21337 21338 21339 21340 21341 21342 21343 21344 21345 21346 21347 21348 21349 21350 21351 21352 21353 21354 21355 21356 21357 21358 21359 21360 21361 21362 21363 21364 21365 21366 21367 21368 21369 21370 21371 21372 21373 21374 21375 21376 21377 21378 21379 21380 21381 21382 21383 21384 21385 21386 21387 21388 21389 21390 21391 21392 21393 21394 21395 21396 21397 21398 21399 21400 21401 21402 21403 21404 21405 21406 21407 21408 21409 21410 21411 21412 21413 21414 21415 21416 21417 21418 21419 21420 21421 21422 21423 21424 21425 21426 21427 21428 21429 21430 21431 21432 21433 21434 21435 21436 21437 21438 21439 21440 21441 21442 21443 21444 21445 21446 21447 21448 21449 21450 21451 21452 21453 21454 21455 21456 21457 21458 21459 21460 21461 21462 21463 21464 21465 21466 21467 21468 21469 21470 21471 21472 21473 21474 21475 21476 21477 21478 21479 21480 21481 21482 21483 21484 21485 21486 21487 21488 21489 21490 21491 21492 21493 21494 21495 21496 21497 21498 21499 21500 21501 21502 21503 21504 21505 21506 21507 21508 21509 21510 21511 21512 21513 21514 21515 21516 21517 21518 21519 21520 21521 21522 21523 21524 21525 21526 21527 21528 21529 21530 21531 21532 21533 21534 21535 21536 21537 21538 21539 21540 21541 21542 21543 21544 21545 21546 21547 21548 21549 21550 21551 21552 21553 21554 21555 21556 21557 21558 21559 21560 21561 21562 21563 21564 21565 21566 21567 21568 21569 21570 21571 21572 21573 21574 21575 21576 21577 21578 21579 21580 21581 21582 21583 21584 21585 21586 21587 21588 21589 21590 21591 21592 21593 21594 21595 21596 21597 21598 21599 21600 21601 21602 21603 21604 21605 21606 21607 21608 21609 21610 21611 21612 21613 21614 21615 21616 21617 21618 21619 21620 21621 21622 21623 21624 21625 21626 21627 21628 21629 21630 21631 21632 21633 21634 21635 21636 21637 21638 21639 21640 21641 21642 21643 21644 21645 21646 21647 21648 21649 21650 21651 21652 21653 21654 21655 21656 21657 21658 21659 21660 21661 21662 21663 21664 21665 21666 21667 21668 21669 21670 21671 21672 21673 21674 21675 21676 21677 21678 21679 21680 21681 21682 21683 21684 21685 21686 21687 21688 21689 21690 21691 21692 21693 21694 21695 21696 21697 21698 21699 21700 21701 21702 21703 21704 21705 21706 21707 21708 21709 21710 21711 21712 21713 21714 21715 21716 21717 21718 21719 21720 21721 21722 21723 21724 21725 21726 21727 21728 21729 21730 21731 21732 21733 21734 21735 21736 21737 21738 21739 21740 21741 21742 21743 21744 21745 21746 21747 21748 21749 21750 21751 21752 21753 21754 21755 21756 21757 21758 21759 21760 21761 21762 21763 21764 21765 21766 21767 21768 21769 21770 21771 21772 21773 21774 21775 21776 21777 21778 21779 21780 21781 21782 21783 21784 21785 21786 21787 21788 21789 21790 21791 21792 21793 21794 21795 21796 21797 21798 21799 21800 21801 21802 21803 21804 21805 21806 21807 21808 21809 21810 21811 21812 21813 21814 21815 21816 21817 21818 21819 21820 21821 21822 21823 21824 21825 21826 21827 21828 21829 21830 21831 21832 21833 21834 21835 21836 21837 21838 21839 21840 21841 21842 21843 21844 21845 21846 21847 21848 21849 21850 21851 21852 21853 21854 21855 21856 21857 21858 21859 21860 21861 21862 21863 21864 21865 21866 21867 21868 21869 21870 21871 21872 21873 21874 21875 21876 21877 21878 21879 21880 21881 21882 21883 21884 21885 21886 21887 21888 21889 21890 21891 21892 21893 21894 21895 21896 21897 21898 21899 21900 21901 21902 21903 21904 21905 21906 21907 21908 21909 21910 21911 21912 21913 21914 21915 21916 21917 21918 21919 21920 21921 21922 21923 21924 21925 21926 21927 21928 21929 21930 21931 21932 21933 21934 21935 21936 21937 21938 21939 21940 21941 21942 21943 21944 21945 21946 21947 21948 21949 21950 21951 21952 21953 21954 21955 21956 21957 21958 21959 21960 21961 21962 21963 21964 21965 21966 21967 21968 21969 21970 21971 21972 21973 21974 21975 21976 21977 21978 21979 21980 21981 21982 21983 21984 21985 21986 21987 21988 21989 21990 21991 21992 21993 21994 21995 21996 21997 21998 21999 22000 22001 22002 22003 22004 22005 22006 22007 22008 22009 22010 22011 22012 22013 22014 22015 22016 22017 22018 22019 22020 22021 22022 22023 22024 22025 22026 22027 22028 22029 22030 22031 22032 22033 22034 22035 22036 22037 22038 22039 22040 22041 22042 22043 22044 22045 22046 22047 22048 22049 22050 22051 22052 22053 22054 22055 22056 22057 22058 22059 22060 22061 22062 22063 22064 22065 22066 22067 22068 22069 22070 22071 22072 22073 22074 22075 22076 22077 22078 22079 22080 22081 22082 22083 22084 22085 22086 22087 22088 22089 22090 22091 22092 22093 22094 22095 22096 22097 22098 22099 22100 22101 22102 22103 22104 22105 22106 22107 22108 22109 22110 22111 22112 22113 22114 22115 22116 22117 22118 22119 22120 22121 22122 22123 22124 22125 22126 22127 22128 22129 22130 22131 22132 22133 22134 22135 22136 22137 22138 22139 22140 22141 22142 22143 22144 22145 22146 22147 22148 22149 22150 22151 22152 22153 22154 22155 22156 22157 22158 22159 22160 22161 22162 22163 22164 22165 22166 22167 22168 22169 22170 22171 22172 22173 22174 22175 22176 22177 22178 22179 22180 22181 22182 22183 22184 22185 22186 22187 22188 22189 22190 22191 22192 22193 22194 22195 22196 22197 22198 22199 22200 22201 22202 22203 22204 22205 22206 22207 22208 22209 22210 22211 22212 22213 22214 22215 22216 22217 22218 22219 22220 22221 22222 22223 22224 22225 22226 22227 22228 22229 22230 22231 22232 22233 22234 22235 22236 22237 22238 22239 22240 22241 22242 22243 22244 22245 22246 22247 22248 22249 22250 22251 22252 22253 22254 22255 22256 22257 22258 22259 22260 22261 22262 22263 22264 22265 22266 22267 22268 22269 22270 22271 22272 22273 22274 22275 22276 22277 22278 22279 22280 22281 22282 22283 22284 22285 22286 22287 22288 22289 22290 22291 22292 22293 22294 22295 22296 22297 22298 22299 22300 22301 22302 22303 22304 22305 22306 22307 22308 22309 22310 22311 22312 22313 22314 22315 22316 22317 22318 22319 22320 22321 22322 22323 22324 22325 22326 22327 22328 22329 22330 22331 22332 22333 22334 22335 22336 22337 22338 22339 22340 22341 22342 22343 22344 22345 22346 22347 22348 22349 22350 22351 22352 22353 22354 22355 22356 22357 22358 22359 22360 22361 22362 22363 22364 22365 22366 22367 22368 22369 22370 22371 22372 22373 22374 22375 22376 22377 22378 22379 22380 22381 22382 22383 22384 22385 22386 22387 22388 22389 22390 22391 22392 22393 22394 22395 22396 22397 22398 22399 22400 22401 22402 22403 22404 22405 22406 22407 22408 22409 22410 22411 22412 22413 22414 22415 22416 22417 22418 22419 22420 22421 22422 22423 22424 22425 22426 22427 22428 22429 22430 22431 22432 22433 22434 22435 22436 22437 22438 22439 22440 22441 22442 22443 22444 22445 22446 22447 22448 22449 22450 22451 22452 22453 22454 22455 22456 22457 22458 22459 22460 22461 22462 22463 22464 22465 22466 22467 22468 22469 22470 22471 22472 22473 22474 22475 22476 22477 22478 22479 22480 22481 22482 22483 22484 22485 22486 22487 22488 22489 22490 22491 22492 22493 22494 22495 22496 22497 22498 22499 22500 22501 22502 22503 22504 22505 22506 22507 22508 22509 22510 22511 22512 22513 22514 22515 22516 22517 22518 22519 22520 22521 22522 22523 22524 22525 22526 22527 22528 22529 22530 22531 22532 22533 22534 22535 22536 22537 22538 22539 22540 22541 22542 22543 22544 22545 22546 22547 22548 22549 22550 22551 22552 22553 22554 22555 22556 22557 22558 22559 22560 22561 22562 22563 22564 22565 22566 22567 22568 22569 22570 22571 22572 22573 22574 22575 22576 22577 22578 22579 22580 22581 22582 22583 22584 22585 22586 22587 22588 22589 22590 22591 22592 22593 22594 22595 22596 22597 22598 22599 22600 22601 22602 22603 22604 22605 22606 22607 22608 22609 22610 22611 22612 22613 22614 22615 22616 22617 22618 22619 22620 22621 22622 22623 22624 22625 22626 22627 22628 22629 22630 22631 22632 22633 22634 22635 22636 22637 22638 22639 22640 22641 22642 22643 22644 22645 22646 22647 22648 22649 22650 22651 22652 22653 22654 22655 22656 22657 22658 22659 22660 22661 22662 22663 22664 22665 22666 22667 22668 22669 22670 22671 22672 22673 22674 22675 22676 22677 22678 22679 22680 22681 22682 22683 22684 22685 22686 22687 22688 22689 22690 22691 22692 22693 22694 22695 22696 22697 22698 22699 22700 22701 22702 22703 22704 22705 22706 22707 22708 22709 22710 22711 22712 22713 22714 22715 22716 22717 22718 22719 22720 22721 22722 22723 22724 22725 22726 22727 22728 22729 22730 22731 22732 22733 22734 22735 22736 22737 22738 22739 22740 22741 22742 22743 22744 22745 22746 22747 22748 22749 22750 22751 22752 22753 22754 22755 22756 22757 22758 22759 22760 22761 22762 22763 22764 22765 22766 22767 22768 22769 22770 22771 22772 22773 22774 22775 22776 22777 22778 22779 22780 22781 22782 22783 22784 22785 22786 22787 22788 22789 22790 22791 22792 22793 22794 22795 22796 22797 22798 22799 22800 22801 22802 22803 22804 22805 22806 22807 22808 22809 22810 22811 22812 22813 22814 22815 22816 22817 22818 22819 22820 22821 22822 22823 22824 22825 22826 22827 22828 22829 22830 22831 22832 22833 22834 22835 22836 22837 22838 22839 22840 22841 22842 22843 22844 22845 22846 22847 22848 22849 22850 22851 22852 22853 22854 22855 22856 22857 22858 22859 22860 22861 22862 22863 22864 22865 22866 22867 22868 22869 22870 22871 22872 22873 22874 22875 22876 22877 22878 22879 22880 22881 22882 22883 22884 22885 22886 22887 22888 22889 22890 22891 22892 22893 22894 22895 22896 22897 22898 22899 22900 22901 22902 22903 22904 22905 22906 22907 22908 22909 22910 22911 22912 22913 22914 22915 22916 22917 22918 22919 22920 22921 22922 22923 22924 22925 22926 22927 22928 22929 22930 22931 22932 22933 22934 22935 22936 22937 22938 22939 22940 22941 22942 22943 22944 22945 22946 22947 22948 22949 22950 22951 22952 22953 22954 22955 22956 22957 22958 22959 22960 22961 22962 22963 22964 22965 22966 22967 22968 22969 22970 22971 22972 22973 22974 22975 22976 22977 22978 22979 22980 22981 22982 22983 22984 22985 22986 22987 22988 22989 22990 22991 22992 22993 22994 22995 22996 22997 22998 22999 23000 23001 23002 23003 23004 23005 23006 23007 23008 23009 23010 23011 23012 23013 23014 23015 23016 23017 23018 23019 23020 23021 23022 23023 23024 23025 23026 23027 23028 23029 23030 23031 23032 23033 23034 23035 23036 23037 23038 23039 23040 23041 23042 23043 23044 23045 23046 23047 23048 23049 23050 23051 23052 23053 23054 23055 23056 23057 23058 23059 23060 23061 23062 23063 23064 23065 23066 23067 23068 23069 23070 23071 23072 23073 23074 23075 23076 23077 23078 23079 23080 23081 23082 23083 23084 23085 23086 23087 23088 23089 23090 23091 23092 23093 23094 23095 23096 23097 23098 23099 23100 23101 23102 23103 23104 23105 23106 23107 23108 23109 23110 23111 23112 23113 23114 23115 23116 23117 23118 23119 23120 23121 23122 23123 23124 23125 23126 23127 23128 23129 23130 23131 23132 23133 23134 23135 23136 23137 23138 23139 23140 23141 23142 23143 23144 23145 23146 23147 23148 23149 23150 23151 23152 23153 23154 23155 23156 23157 23158 23159 23160 23161 23162 23163 23164 23165 23166 23167 23168 23169 23170 23171 23172 23173 23174 23175 23176 23177 23178 23179 23180 23181 23182 23183 23184 23185 23186 23187 23188 23189 23190 23191 23192 23193 23194 23195 23196 23197 23198 23199 23200 23201 23202 23203 23204 23205 23206 23207 23208 23209 23210 23211 23212 23213 23214 23215 23216 23217 23218 23219 23220 23221 23222 23223 23224 23225 23226 23227 23228 23229 23230 23231 23232 23233 23234 23235 23236 23237 23238 23239 23240 23241 23242 23243 23244 23245 23246 23247 23248 23249 23250 23251 23252 23253 23254 23255 23256 23257 23258 23259 23260 23261 23262 23263 23264 23265 23266 23267 23268 23269 23270 23271 23272 23273 23274 23275 23276 23277 23278 23279 23280 23281 23282 23283 23284 23285 23286 23287 23288 23289 23290 23291 23292 23293 23294 23295 23296 23297 23298 23299 23300 23301 23302 23303 23304 23305 23306 23307 23308 23309 23310 23311 23312 23313 23314 23315 23316 23317 23318 23319 23320 23321 23322 23323 23324 23325 23326 23327 23328 23329 23330 23331 23332 23333 23334 23335 23336 23337 23338 23339 23340 23341 23342 23343 23344 23345 23346 23347 23348 23349 23350 23351 23352 23353 23354 23355 23356 23357 23358 23359 23360 23361 23362 23363 23364 23365 23366 23367 23368 23369 23370 23371 23372 23373 23374 23375 23376 23377 23378 23379 23380 23381 23382 23383 23384 23385 23386 23387 23388 23389 23390 23391 23392 23393 23394 23395 23396 23397 23398 23399 23400 23401 23402 23403 23404 23405 23406 23407 23408 23409 23410 23411 23412 23413 23414 23415 23416 23417 23418 23419 23420 23421 23422 23423 23424 23425 23426 23427 23428 23429 23430 23431 23432 23433 23434 23435 23436 23437 23438 23439 23440 23441 23442 23443 23444 23445 23446 23447 23448 23449 23450 23451 23452 23453 23454 23455 23456 23457 23458 23459 23460 23461 23462 23463 23464 23465 23466 23467 23468 23469 23470 23471 23472 23473 23474 23475 23476 23477 23478 23479 23480 23481 23482 23483 23484 23485 23486 23487 23488 23489 23490 23491 23492 23493 23494 23495 23496 23497 23498 23499 23500 23501 23502 23503 23504 23505 23506 23507 23508 23509 23510 23511 23512 23513 23514 23515 23516 23517 23518 23519 23520 23521 23522 23523 23524 23525 23526 23527 23528 23529 23530 23531 23532 23533 23534 23535 23536 23537 23538 23539 23540 23541 23542 23543 23544 23545 23546 23547 23548 23549 23550 23551 23552 23553 23554 23555 23556 23557 23558 23559 23560 23561 23562 23563 23564 23565 23566 23567 23568 23569 23570 23571 23572 23573 23574 23575 23576 23577 23578 23579 23580 23581 23582 23583 23584 23585 23586 23587 23588 23589 23590 23591 23592 23593 23594 23595 23596 23597 23598 23599 23600 23601 23602 23603 23604 23605 23606 23607 23608 23609 23610 23611 23612 23613 23614 23615 23616 23617 23618 23619 23620 23621 23622 23623 23624 23625 23626 23627 23628 23629 23630 23631 23632 23633 23634 23635 23636 23637 23638 23639 23640 23641 23642 23643 23644 23645 23646 23647 23648 23649 23650 23651 23652 23653 23654 23655 23656 23657 23658 23659 23660 23661 23662 23663 23664 23665 23666 23667 23668 23669 23670 23671 23672 23673 23674 23675 23676 23677 23678 23679 23680 23681 23682 23683 23684 23685 23686 23687 23688 23689 23690 23691 23692 23693 23694 23695 23696 23697 23698 23699 23700 23701 23702 23703 23704 23705 23706 23707 23708 23709 23710 23711 23712 23713 23714 23715 23716 23717 23718 23719 23720 23721 23722 23723 23724 23725 23726 23727 23728 23729 23730 23731 23732 23733 23734 23735 23736 23737 23738 23739 23740 23741 23742 23743 23744 23745 23746 23747 23748 23749 23750 23751 23752 23753 23754 23755 23756 23757 23758 23759 23760 23761 23762 23763 23764 23765 23766 23767 23768 23769 23770 23771 23772 23773 23774 23775 23776 23777 23778 23779 23780 23781 23782 23783 23784 23785 23786 23787 23788 23789 23790 23791 23792 23793 23794 23795 23796 23797 23798 23799 23800 23801 23802 23803 23804 23805 23806 23807 23808 23809 23810 23811 23812 23813 23814 23815 23816 23817 23818 23819 23820 23821 23822 23823 23824 23825 23826 23827 23828 23829 23830 23831 23832 23833 23834 23835 23836 23837 23838 23839 23840 23841 23842 23843 23844 23845 23846 23847 23848 23849 23850 23851 23852 23853 23854 23855 23856 23857 23858 23859 23860 23861 23862 23863 23864 23865 23866 23867 23868 23869 23870 23871 23872 23873 23874 23875 23876 23877 23878 23879 23880 23881 23882 23883 23884 23885 23886 23887 23888 23889 23890 23891 23892 23893 23894 23895 23896 23897 23898 23899 23900 23901 23902 23903 23904 23905 23906 23907 23908 23909 23910 23911 23912 23913 23914 23915 23916 23917 23918 23919 23920 23921 23922 23923 23924 23925 23926 23927 23928 23929 23930 23931 23932 23933 23934 23935 23936 23937 23938 23939 23940 23941 23942 23943 23944 23945 23946 23947 23948 23949 23950 23951 23952 23953 23954 23955 23956 23957 23958 23959 23960 23961 23962 23963 23964 23965 23966 23967 23968 23969 23970 23971 23972 23973 23974 23975 23976 23977 23978 23979 23980 23981 23982 23983 23984 23985 23986 23987 23988 23989 23990 23991 23992 23993 23994 23995 23996 23997 23998 23999 24000 24001 24002 24003 24004 24005 24006 24007 24008 24009 24010 24011 24012 24013 24014 24015 24016 24017 24018 24019 24020 24021 24022 24023 24024 24025 24026 24027 24028 24029 24030 24031 24032 24033 24034 24035 24036 24037 24038 24039 24040 24041 24042 24043 24044 24045 24046 24047 24048 24049 24050 24051 24052 24053 24054 24055 24056 24057 24058 24059 24060 24061 24062 24063 24064 24065 24066 24067 24068 24069 24070 24071 24072 24073 24074 24075 24076 24077 24078 24079 24080 24081 24082 24083 24084 24085 24086 24087 24088 24089 24090 24091 24092 24093 24094 24095 24096 24097 24098 24099 24100 24101 24102 24103 24104 24105 24106 24107 24108 24109 24110 24111 24112 24113 24114 24115 24116 24117 24118 24119 24120 24121 24122 24123 24124 24125 24126 24127 24128 24129 24130 24131 24132 24133 24134 24135 24136 24137 24138 24139 24140 24141 24142 24143 24144 24145 24146 24147 24148 24149 24150 24151 24152 24153 24154 24155 24156 24157 24158 24159 24160 24161 24162 24163 24164 24165 24166 24167 24168 24169 24170 24171 24172 24173 24174 24175 24176 24177 24178 24179 24180 24181 24182 24183 24184 24185 24186 24187 24188 24189 24190 24191 24192 24193 24194 24195 24196 24197 24198 24199 24200 24201 24202 24203 24204 24205 24206 24207 24208 24209 24210 24211 24212 24213 24214 24215 24216 24217 24218 24219 24220 24221 24222 24223 24224 24225 24226 24227 24228 24229 24230 24231 24232 24233 24234 24235 24236 24237 24238 24239 24240 24241 24242 24243 24244 24245 24246 24247 24248 24249 24250 24251 24252 24253 24254 24255 24256 24257 24258 24259 24260 24261 24262 24263 24264 24265 24266 24267 24268 24269 24270 24271 24272 24273 24274 24275 24276 24277 24278 24279 24280 24281 24282 24283 24284 24285 24286 24287 24288 24289 24290 24291 24292 24293 24294 24295 24296 24297 24298 24299 24300 24301 24302 24303 24304 24305 24306 24307 24308 24309 24310 24311 24312 24313 24314 24315 24316 24317 24318 24319 24320 24321 24322 24323 24324 24325 24326 24327 24328 24329 24330 24331 24332 24333 24334 24335 24336 24337 24338 24339 24340 24341 24342 24343 24344 24345 24346 24347 24348 24349 24350 24351 24352 24353 24354 24355 24356 24357 24358 24359 24360 24361 24362 24363 24364 24365 24366 24367 24368 24369 24370 24371 24372 24373 24374 24375 24376 24377 24378 24379 24380 24381 24382 24383 24384 24385 24386 24387 24388 24389 24390 24391 24392 24393 24394 24395 24396 24397 24398 24399 24400 24401 24402 24403 24404 24405 24406 24407 24408 24409 24410 24411 24412 24413 24414 24415 24416 24417 24418 24419 24420 24421 24422 24423 24424 24425 24426 24427 24428 24429 24430 24431 24432 24433 24434 24435 24436 24437 24438 24439 24440 24441 24442 24443 24444 24445 24446 24447 24448 24449 24450 24451 24452 24453 24454 24455 24456 24457 24458 24459 24460 24461 24462 24463 24464 24465 24466 24467 24468 24469 24470 24471 24472 24473 24474 24475 24476 24477 24478 24479 24480 24481 24482 24483 24484 24485 24486 24487 24488 24489 24490 24491 24492 24493 24494 24495 24496 24497 24498 24499 24500 24501 24502 24503 24504 24505 24506 24507 24508 24509 24510 24511 24512 24513 24514 24515 24516 24517 24518 24519 24520 24521 24522 24523 24524 24525 24526 24527 24528 24529 24530 24531 24532 24533 24534 24535 24536 24537 24538 24539 24540 24541 24542 24543 24544 24545 24546 24547 24548 24549 24550 24551 24552 24553 24554 24555 24556 24557 24558 24559 24560 24561 24562 24563 24564 24565 24566 24567 24568 24569 24570 24571 24572 24573 24574 24575 24576 24577 24578 24579 24580 24581 24582 24583 24584 24585 24586 24587 24588 24589 24590 24591 24592 24593 24594 24595 24596 24597 24598 24599 24600 24601 24602 24603 24604 24605 24606 24607 24608 24609 24610 24611 24612 24613 24614 24615 24616 24617 24618 24619 24620 24621 24622 24623 24624 24625 24626 24627 24628 24629 24630 24631 24632 24633 24634 24635 24636 24637 24638 24639 24640 24641 24642 24643 24644 24645 24646 24647 24648 24649 24650 24651 24652 24653 24654 24655 24656 24657 24658 24659 24660 24661 24662 24663 24664 24665 24666 24667 24668 24669 24670 24671 24672 24673 24674 24675 24676 24677 24678 24679 24680 24681 24682 24683 24684 24685 24686 24687 24688 24689 24690 24691 24692 24693 24694 24695 24696 24697 24698 24699 24700 24701 24702 24703 24704 24705 24706 24707 24708 24709 24710 24711 24712 24713 24714 24715 24716 24717 24718 24719 24720 24721 24722 24723 24724 24725 24726 24727 24728 24729 24730 24731 24732 24733 24734 24735 24736 24737 24738 24739 24740 24741 24742 24743 24744 24745 24746 24747 24748 24749 24750 24751 24752 24753 24754 24755 24756 24757 24758 24759 24760 24761 24762 24763 24764 24765 24766 24767 24768 24769 24770 24771 24772 24773 24774 24775 24776 24777 24778 24779 24780 24781 24782 24783 24784 24785 24786 24787 24788 24789 24790 24791 24792 24793 24794 24795 24796 24797 24798 24799 24800 24801 24802 24803 24804 24805 24806 24807 24808 24809 24810 24811 24812 24813 24814 24815 24816 24817 24818 24819 24820 24821 24822 24823 24824 24825 24826 24827 24828 24829 24830 24831 24832 24833 24834 24835 24836 24837 24838 24839 24840 24841 24842 24843 24844 24845 24846 24847 24848 24849 24850 24851 24852 24853 24854 24855 24856 24857 24858 24859 24860 24861 24862 24863 24864 24865 24866 24867 24868 24869 24870 24871 24872 24873 24874 24875 24876 24877 24878 24879 24880 24881 24882 24883 24884 24885 24886 24887 24888 24889 24890 24891 24892 24893 24894 24895 24896 24897 24898 24899 24900 24901 24902 24903 24904 24905 24906 24907 24908 24909 24910 24911 24912 24913 24914 24915 24916 24917 24918 24919 24920 24921 24922 24923 24924 24925 24926 24927 24928 24929 24930 24931 24932 24933 24934 24935 24936 24937 24938 24939 24940 24941 24942 24943 24944 24945 24946 24947 24948 24949 24950 24951 24952 24953 24954 24955 24956 24957 24958 24959 24960 24961 24962 24963 24964 24965 24966 24967 24968 24969 24970 24971 24972 24973 24974 24975 24976 24977 24978 24979 24980 24981 24982 24983 24984 24985 24986 24987 24988 24989 24990 24991 24992 24993 24994 24995 24996 24997 24998 24999 25000 25001 25002 25003 25004 25005 25006 25007 25008 25009 25010 25011 25012 25013 25014 25015 25016 25017 25018 25019 25020 25021 25022 25023 25024 25025 25026 25027 25028 25029 25030 25031 25032 25033 25034 25035 25036 25037 25038 25039 25040 25041 25042 25043 25044 25045 25046 25047 25048 25049 25050 25051 25052 25053 25054 25055 25056 25057 25058 25059 25060 25061 25062 25063 25064 25065 25066 25067 25068 25069 25070 25071 25072 25073 25074 25075 25076 25077 25078 25079 25080 25081 25082 25083 25084 25085 25086 25087 25088 25089 25090 25091 25092 25093 25094 25095 25096 25097 25098 25099 25100 25101 25102 25103 25104 25105 25106 25107 25108 25109 25110 25111 25112 25113 25114 25115 25116 25117 25118 25119 25120 25121 25122 25123 25124 25125 25126 25127 25128 25129 25130 25131 25132 25133 25134 25135 25136 25137 25138 25139 25140 25141 25142 25143 25144 25145 25146 25147 25148 25149 25150 25151 25152 25153 25154 25155 25156 25157 25158 25159 25160 25161 25162 25163 25164 25165 25166 25167 25168 25169 25170 25171 25172 25173 25174 25175 25176 25177 25178 25179 25180 25181 25182 25183 25184 25185 25186 25187 25188 25189 25190 25191 25192 25193 25194 25195 25196 25197 25198 25199 25200 25201 25202 25203 25204 25205 25206 25207 25208 25209 25210 25211 25212 25213 25214 25215 25216 25217 25218 25219 25220 25221 25222 25223 25224 25225 25226 25227 25228 25229 25230 25231 25232 25233 25234 25235 25236 25237 25238 25239 25240 25241 25242 25243 25244 25245 25246 25247 25248 25249 25250 25251 25252 25253 25254 25255 25256 25257 25258 25259 25260 25261 25262 25263 25264 25265 25266 25267 25268 25269 25270 25271 25272 25273 25274 25275 25276 25277 25278 25279 25280 25281 25282 25283 25284 25285 25286 25287 25288 25289 25290 25291 25292 25293 25294 25295 25296 25297 25298 25299 25300 25301 25302 25303 25304 25305 25306 25307 25308 25309 25310 25311 25312 25313 25314 25315 25316 25317 25318 25319 25320 25321 25322 25323 25324 25325 25326 25327 25328 25329 25330 25331 25332 25333 25334 25335 25336 25337 25338 25339 25340 25341 25342 25343 25344 25345 25346 25347 25348 25349 25350 25351 25352 25353 25354 25355 25356 25357 25358 25359 25360 25361 25362 25363 25364 25365 25366 25367 25368 25369 25370 25371 25372 25373 25374 25375 25376 25377 25378 25379 25380 25381 25382 25383 25384 25385 25386 25387 25388 25389 25390 25391 25392 25393 25394 25395 25396 25397 25398 25399 25400 25401 25402 25403 25404 25405 25406 25407 25408 25409 25410 25411 25412 25413 25414 25415 25416 25417 25418 25419 25420 25421 25422 25423 25424 25425 25426 25427 25428 25429 25430 25431 25432 25433 25434 25435 25436 25437 25438 25439 25440 25441 25442 25443 25444 25445 25446 25447 25448 25449 25450 25451 25452 25453 25454 25455 25456 25457 25458 25459 25460 25461 25462 25463 25464 25465 25466 25467 25468 25469 25470 25471 25472 25473 25474 25475 25476 25477 25478 25479 25480 25481 25482 25483 25484 25485 25486 25487 25488 25489 25490 25491 25492 25493 25494 25495 25496 25497 25498 25499 25500 25501 25502 25503 25504 25505 25506 25507 25508 25509 25510 25511 25512 25513 25514 25515 25516 25517 25518 25519 25520 25521 25522 25523 25524 25525 25526 25527 25528 25529 25530 25531 25532 25533 25534 25535 25536 25537 25538 25539 25540 25541 25542 25543 25544 25545 25546 25547 25548 25549 25550 25551 25552 25553 25554 25555 25556 25557 25558 25559 25560 25561 25562 25563 25564 25565 25566 25567 25568 25569 25570 25571 25572 25573 25574 25575 25576 25577 25578 25579 25580 25581 25582 25583 25584 25585 25586 25587 25588 25589 25590 25591 25592 25593 25594 25595 25596 25597 25598 25599 25600 25601 25602 25603 25604 25605 25606 25607 25608 25609 25610 25611 25612 25613 25614 25615 25616 25617 25618 25619 25620 25621 25622 25623 25624 25625 25626 25627 25628 25629 25630 25631 25632 25633 25634 25635 25636 25637 25638 25639 25640 25641 25642 25643 25644 25645 25646 25647 25648 25649 25650 25651 25652 25653 25654 25655 25656 25657 25658 25659 25660 25661 25662 25663 25664 25665 25666 25667 25668 25669 25670 25671 25672 25673 25674 25675 25676 25677 25678 25679 25680 25681 25682 25683 25684 25685 25686 25687 25688 25689 25690 25691 25692 25693 25694 25695 25696 25697 25698 25699 25700 25701 25702 25703 25704 25705 25706 25707 25708 25709 25710 25711 25712 25713 25714 25715 25716 25717 25718 25719 25720 25721 25722 25723 25724 25725 25726 25727 25728 25729 25730 25731 25732 25733 25734 25735 25736 25737 25738 25739 25740 25741 25742 25743 25744 25745 25746 25747 25748 25749 25750 25751 25752 25753 25754 25755 25756 25757 25758 25759 25760 25761 25762 25763 25764 25765 25766 25767 25768 25769 25770 25771 25772 25773 25774 25775 25776 25777 25778 25779 25780 25781 25782 25783 25784 25785 25786 25787 25788 25789 25790 25791 25792 25793 25794 25795 25796 25797 25798 25799 25800 25801 25802 25803 25804 25805 25806 25807 25808 25809 25810 25811 25812 25813 25814 25815 25816 25817 25818 25819 25820 25821 25822 25823 25824 25825 25826 25827 25828 25829 25830 25831 25832 25833 25834 25835 25836 25837 25838 25839 25840 25841 25842 25843 25844 25845 25846 25847 25848 25849 25850 25851 25852 25853 25854 25855 25856 25857 25858 25859 25860 25861 25862 25863 25864 25865 25866 25867 25868 25869 25870 25871 25872 25873 25874 25875 25876 25877 25878 25879 25880 25881 25882 25883 25884 25885 25886 25887 25888 25889 25890 25891 25892 25893 25894 25895 25896 25897 25898 25899 25900 25901 25902 25903 25904 25905 25906 25907 25908 25909 25910 25911 25912 25913 25914 25915 25916 25917 25918 25919 25920 25921 25922 25923 25924 25925 25926 25927 25928 25929 25930 25931 25932 25933 25934 25935 25936 25937 25938 25939 25940 25941 25942 25943 25944 25945 25946 25947 25948 25949 25950 25951 25952 25953 25954 25955 25956 25957 25958 25959 25960 25961 25962 25963 25964 25965 25966 25967 25968 25969 25970 25971 25972 25973 25974 25975 25976 25977 25978 25979 25980 25981 25982 25983 25984 25985 25986 25987 25988 25989 25990 25991 25992 25993 25994 25995 25996 25997 25998 25999 26000 26001 26002 26003 26004 26005 26006 26007 26008 26009 26010 26011 26012 26013 26014 26015 26016 26017 26018 26019 26020 26021 26022 26023 26024 26025 26026 26027 26028 26029 26030 26031 26032 26033 26034 26035 26036 26037 26038 26039 26040 26041 26042 26043 26044 26045 26046 26047 26048 26049 26050 26051 26052 26053 26054 26055 26056 26057 26058 26059 26060 26061 26062 26063 26064 26065 26066 26067 26068 26069 26070 26071 26072 26073 26074 26075 26076 26077 26078 26079 26080 26081 26082 26083 26084 26085 26086 26087 26088 26089 26090 26091 26092 26093 26094 26095 26096 26097 26098 26099 26100 26101 26102 26103 26104 26105 26106 26107 26108 26109 26110 26111 26112 26113 26114 26115 26116 26117 26118 26119 26120 26121 26122 26123 26124 26125 26126 26127 26128 26129 26130 26131 26132 26133 26134 26135 26136 26137 26138 26139 26140 26141 26142 26143 26144 26145 26146 26147 26148 26149 26150 26151 26152 26153 26154 26155 26156 26157 26158 26159 26160 26161 26162 26163 26164 26165 26166 26167 26168 26169 26170 26171 26172 26173 26174 26175 26176 26177 26178 26179 26180 26181 26182 26183 26184 26185 26186 26187 26188 26189 26190 26191 26192 26193 26194 26195 26196 26197 26198 26199 26200 26201 26202 26203 26204 26205 26206 26207 26208 26209 26210 26211 26212 26213 26214 26215 26216 26217 26218 26219 26220 26221 26222 26223 26224 26225 26226 26227 26228 26229 26230 26231 26232 26233 26234 26235 26236 26237 26238 26239 26240 26241 26242 26243 26244 26245 26246 26247 26248 26249 26250 26251 26252 26253 26254 26255 26256 26257 26258 26259 26260 26261 26262 26263 26264 26265 26266 26267 26268 26269 26270 26271 26272 26273 26274 26275 26276 26277 26278 26279 26280 26281 26282 26283 26284 26285 26286 26287 26288 26289 26290 26291 26292 26293 26294 26295 26296 26297 26298 26299 26300 26301 26302 26303 26304 26305 26306 26307 26308 26309 26310 26311 26312 26313 26314 26315 26316 26317 26318 26319 26320 26321 26322 26323 26324 26325 26326 26327 26328 26329 26330 26331 26332 26333 26334 26335 26336 26337 26338 26339 26340 26341 26342 26343 26344 26345 26346 26347 26348 26349 26350 26351 26352 26353 26354 26355 26356 26357 26358 26359 26360 26361 26362 26363 26364 26365 26366 26367 26368 26369 26370 26371 26372 26373 26374 26375 26376 26377 26378 26379 26380 26381 26382 26383 26384 26385 26386 26387 26388 26389 26390 26391 26392 26393 26394 26395 26396 26397 26398 26399 26400 26401 26402 26403 26404 26405 26406 26407 26408 26409 26410 26411 26412 26413 26414 26415 26416 26417 26418 26419 26420 26421 26422 26423 26424 26425 26426 26427 26428 26429 26430 26431 26432 26433 26434 26435 26436 26437 26438 26439 26440 26441 26442 26443 26444 26445 26446 26447 26448 26449 26450 26451 26452 26453 26454 26455 26456 26457 26458 26459 26460 26461 26462 26463 26464 26465 26466 26467 26468 26469 26470 26471 26472 26473 26474 26475 26476 26477 26478 26479 26480 26481 26482 26483 26484 26485 26486 26487 26488 26489 26490 26491 26492 26493 26494 26495 26496 26497 26498 26499 26500 26501 26502 26503 26504 26505 26506 26507 26508 26509 26510 26511 26512 26513 26514 26515 26516 26517 26518 26519 26520 26521 26522 26523 26524 26525 26526 26527 26528 26529 26530 26531 26532 26533 26534 26535 26536 26537 26538 26539 26540 26541 26542 26543 26544 26545 26546 26547 26548 26549 26550 26551 26552 26553 26554 26555 26556 26557 26558 26559 26560 26561 26562 26563 26564 26565 26566 26567 26568 26569 26570 26571 26572 26573 26574 26575 26576 26577 26578 26579 26580 26581 26582 26583 26584 26585 26586 26587 26588 26589 26590 26591 26592 26593 26594 26595 26596 26597 26598 26599 26600 26601 26602 26603 26604 26605 26606 26607 26608 26609 26610 26611 26612 26613 26614 26615 26616 26617 26618 26619 26620 26621 26622 26623 26624 26625 26626 26627 26628 26629 26630 26631 26632 26633 26634 26635 26636 26637 26638 26639 26640 26641 26642 26643 26644 26645 26646 26647 26648 26649 26650 26651 26652 26653 26654 26655 26656 26657 26658 26659 26660 26661 26662 26663 26664 26665 26666 26667 26668 26669 26670 26671 26672 26673 26674 26675 26676 26677 26678 26679 26680 26681 26682 26683 26684 26685 26686 26687 26688 26689 26690 26691 26692 26693 26694 26695 26696 26697 26698 26699 26700 26701 26702 26703 26704 26705 26706 26707 26708 26709 26710 26711 26712 26713 26714 26715 26716 26717 26718 26719 26720 26721 26722 26723 26724 26725 26726 26727 26728 26729 26730 26731 26732 26733 26734 26735 26736 26737 26738 26739 26740 26741 26742 26743 26744 26745 26746 26747 26748 26749 26750 26751 26752 26753 26754 26755 26756 26757 26758 26759 26760 26761 26762 26763 26764 26765 26766 26767 26768 26769 26770 26771 26772 26773 26774 26775 26776 26777 26778 26779 26780 26781 26782 26783 26784 26785 26786 26787 26788 26789 26790 26791 26792 26793 26794 26795 26796 26797 26798 26799 26800 26801 26802 26803 26804 26805 26806 26807 26808 26809 26810 26811 26812 26813 26814 26815 26816 26817 26818 26819 26820 26821 26822 26823 26824 26825 26826 26827 26828 26829 26830 26831 26832 26833 26834 26835 26836 26837 26838 26839 26840 26841 26842 26843 26844 26845 26846 26847 26848 26849 26850 26851 26852 26853 26854 26855 26856 26857 26858 26859 26860 26861 26862 26863 26864 26865 26866 26867 26868 26869 26870 26871 26872 26873 26874 26875 26876 26877 26878 26879 26880 26881 26882 26883 26884 26885 26886 26887 26888 26889 26890 26891 26892 26893 26894 26895 26896 26897 26898 26899 26900 26901 26902 26903 26904 26905 26906 26907 26908 26909 26910 26911 26912 26913 26914 26915 26916 26917 26918 26919 26920 26921 26922 26923 26924 26925 26926 26927 26928 26929 26930 26931 26932 26933 26934 26935 26936 26937 26938 26939 26940 26941 26942 26943 26944 26945 26946 26947 26948 26949 26950 26951 26952 26953 26954 26955 26956 26957 26958 26959 26960 26961 26962 26963 26964 26965 26966 26967 26968 26969 26970 26971 26972 26973 26974 26975 26976 26977 26978 26979 26980 26981 26982 26983 26984 26985 26986 26987 26988 26989 26990 26991 26992 26993 26994 26995 26996 26997 26998 26999 27000 27001 27002 27003 27004 27005 27006 27007 27008 27009 27010 27011 27012 27013 27014 27015 27016 27017 27018 27019 27020 27021 27022 27023 27024 27025 27026 27027 27028 27029 27030 27031 27032 27033 27034 27035 27036 27037 27038 27039 27040 27041 27042 27043 27044 27045 27046 27047 27048 27049 27050 27051 27052 27053 27054 27055 27056 27057 27058 27059 27060 27061 27062 27063 27064 27065 27066 27067 27068 27069 27070 27071 27072 27073 27074 27075 27076 27077 27078 27079 27080 27081 27082 27083 27084 27085 27086 27087 27088 27089 27090 27091 27092 27093 27094 27095 27096 27097 27098 27099 27100 27101 27102 27103 27104 27105 27106 27107 27108 27109 27110 27111 27112 27113 27114 27115 27116 27117 27118 27119 27120 27121 27122 27123 27124 27125 27126 27127 27128 27129 27130 27131 27132 27133 27134 27135 27136 27137 27138 27139 27140 27141 27142 27143 27144 27145 27146 27147 27148 27149 27150 27151 27152 27153 27154 27155 27156 27157 27158 27159 27160 27161 27162 27163 27164 27165 27166 27167 27168 27169 27170 27171 27172 27173 27174 27175 27176 27177 27178 27179 27180 27181 27182 27183 27184 27185 27186 27187 27188 27189 27190 27191 27192 27193 27194 27195 27196 27197 27198 27199 27200 27201 27202 27203 27204 27205 27206 27207 27208 27209 27210 27211 27212 27213 27214 27215 27216 27217 27218 27219 27220 27221 27222 27223 27224 27225 27226 27227 27228 27229 27230 27231 27232 27233 27234 27235 27236 27237 27238 27239 27240 27241 27242 27243 27244 27245 27246 27247 27248 27249 27250 27251 27252 27253 27254 27255 27256 27257 27258 27259 27260 27261 27262 27263 27264 27265 27266 27267 27268 27269 27270 27271 27272 27273 27274 27275 27276 27277 27278 27279 27280 27281 27282 27283 27284 27285 27286 27287 27288 27289 27290 27291 27292 27293 27294 27295 27296 27297 27298 27299 27300 27301 27302 27303 27304 27305 27306 27307 27308 27309 27310 27311 27312 27313 27314 27315 27316 27317 27318 27319 27320 27321 27322 27323 27324 27325 27326 27327 27328 27329 27330 27331 27332 27333 27334 27335 27336 27337 27338 27339 27340 27341 27342 27343 27344 27345 27346 27347 27348 27349 27350 27351 27352 27353 27354 27355 27356 27357 27358 27359 27360 27361 27362 27363 27364 27365 27366 27367 27368 27369 27370 27371 27372 27373 27374 27375 27376 27377 27378 27379 27380 27381 27382 27383 27384 27385 27386 27387 27388 27389 27390 27391 27392 27393 27394 27395 27396 27397 27398 27399 27400 27401 27402 27403 27404 27405 27406 27407 27408 27409 27410 27411 27412 27413 27414 27415 27416 27417 27418 27419 27420 27421 27422 27423 27424 27425 27426 27427 27428 27429 27430 27431 27432 27433 27434 27435 27436 27437 27438 27439 27440 27441 27442 27443 27444 27445 27446 27447 27448 27449 27450 27451 27452 27453 27454 27455 27456 27457 27458 27459 27460 27461 27462 27463 27464 27465 27466 27467 27468 27469 27470 27471 27472 27473 27474 27475 27476 27477 27478 27479 27480 27481 27482 27483 27484 27485 27486 27487 27488 27489 27490 27491 27492 27493 27494 27495 27496 27497 27498 27499 27500 27501 27502 27503 27504 27505 27506 27507 27508 27509 27510 27511 27512 27513 27514 27515 27516 27517 27518 27519 27520 27521 27522 27523 27524 27525 27526 27527 27528 27529 27530 27531 27532 27533 27534 27535 27536 27537 27538 27539 27540 27541 27542 27543 27544 27545 27546 27547 27548 27549 27550 27551 27552 27553 27554 27555 27556 27557 27558 27559 27560 27561 27562 27563 27564 27565 27566 27567 27568 27569 27570 27571 27572 27573 27574 27575 27576 27577 27578 27579 27580 27581 27582 27583 27584 27585 27586 27587 27588 27589 27590 27591 27592 27593 27594 27595 27596 27597 27598 27599 27600 27601 27602 27603 27604 27605 27606 27607 27608 27609 27610 27611 27612 27613 27614 27615 27616 27617 27618 27619 27620 27621 27622 27623 27624 27625 27626 27627 27628 27629 27630 27631 27632 27633 27634 27635 27636 27637 27638 27639 27640 27641 27642 27643 27644 27645 27646 27647 27648 27649 27650 27651 27652 27653 27654 27655 27656 27657 27658 27659 27660 27661 27662 27663 27664 27665 27666 27667 27668 27669 27670 27671 27672 27673 27674 27675 27676 27677 27678 27679 27680 27681 27682 27683 27684 27685 27686 27687 27688 27689 27690 27691 27692 27693 27694 27695 27696 27697 27698 27699 27700 27701 27702 27703 27704 27705 27706 27707 27708 27709 27710 27711 27712 27713 27714 27715 27716 27717 27718 27719 27720 27721 27722 27723 27724 27725 27726 27727 27728 27729 27730 27731 27732 27733 27734 27735 27736 27737 27738 27739 27740 27741 27742 27743 27744 27745 27746 27747 27748 27749 27750 27751 27752 27753 27754 27755 27756 27757 27758 27759 27760 27761 27762 27763 27764 27765 27766 27767 27768 27769 27770 27771 27772 27773 27774 27775 27776 27777 27778 27779 27780 27781 27782 27783 27784 27785 27786 27787 27788 27789 27790 27791 27792 27793 27794 27795 27796 27797 27798 27799 27800 27801 27802 27803 27804 27805 27806 27807 27808 27809 27810 27811 27812 27813 27814 27815 27816 27817 27818 27819 27820 27821 27822 27823 27824 27825 27826 27827 27828 27829 27830 27831 27832 27833 27834 27835 27836 27837 27838 27839 27840 27841 27842 27843 27844 27845 27846 27847 27848 27849 27850 27851 27852 27853 27854 27855 27856 27857 27858 27859 27860 27861 27862 27863 27864 27865 27866 27867 27868 27869 27870 27871 27872 27873 27874 27875 27876 27877 27878 27879 27880 27881 27882 27883 27884 27885 27886 27887 27888 27889 27890 27891 27892 27893 27894 27895 27896 27897 27898 27899 27900 27901 27902 27903 27904 27905 27906 27907 27908 27909 27910 27911 27912 27913 27914 27915 27916 27917 27918 27919 27920 27921 27922 27923 27924 27925 27926 27927 27928 27929 27930 27931 27932 27933 27934 27935 27936 27937 27938 27939 27940 27941 27942 27943 27944 27945 27946 27947 27948 27949 27950 27951 27952 27953 27954 27955 27956 27957 27958 27959 27960 27961 27962 27963 27964 27965 27966 27967 27968 27969 27970 27971 27972 27973 27974 27975 27976 27977 27978 27979 27980 27981 27982 27983 27984 27985 27986 27987 27988 27989 27990 27991 27992 27993 27994 27995 27996 27997 27998 27999 28000 28001 28002 28003 28004 28005 28006 28007 28008 28009 28010 28011 28012 28013 28014 28015 28016 28017 28018 28019 28020 28021 28022 28023 28024 28025 28026 28027 28028 28029 28030 28031 28032 28033 28034 28035 28036 28037 28038 28039 28040 28041 28042 28043 28044 28045 28046 28047 28048 28049 28050 28051 28052 28053 28054 28055 28056 28057 28058 28059 28060 28061 28062 28063 28064 28065 28066 28067 28068 28069 28070 28071 28072 28073 28074 28075 28076 28077 28078 28079 28080 28081 28082 28083 28084 28085 28086 28087 28088 28089 28090 28091 28092 28093 28094 28095 28096 28097 28098 28099 28100 28101 28102 28103 28104 28105 28106 28107 28108 28109 28110 28111 28112 28113 28114 28115 28116 28117 28118 28119 28120 28121 28122 28123 28124 28125 28126 28127 28128 28129 28130 28131 28132 28133 28134 28135 28136 28137 28138 28139 28140 28141 28142 28143 28144 28145 28146 28147 28148 28149 28150 28151 28152 28153 28154 28155 28156 28157 28158 28159 28160 28161 28162 28163 28164 28165 28166 28167 28168 28169 28170 28171 28172 28173 28174 28175 28176 28177 28178 28179 28180 28181 28182 28183 28184 28185 28186 28187 28188 28189 28190 28191 28192 28193 28194 28195 28196 28197 28198 28199 28200 28201 28202 28203 28204 28205 28206 28207 28208 28209 28210 28211 28212 28213 28214 28215 28216 28217 28218 28219 28220 28221 28222 28223 28224 28225 28226 28227 28228 28229 28230 28231 28232 28233 28234 28235 28236 28237 28238 28239 28240 28241 28242 28243 28244 28245 28246 28247 28248 28249 28250 28251 28252 28253 28254 28255 28256 28257 28258 28259 28260 28261 28262 28263 28264 28265 28266 28267 28268 28269 28270 28271 28272 28273 28274 28275 28276 28277 28278 28279 28280 28281 28282 28283 28284 28285 28286 28287 28288 28289 28290 28291 28292 28293 28294 28295 28296 28297 28298 28299 28300 28301 28302 28303 28304 28305 28306 28307 28308 28309 28310 28311 28312 28313 28314 28315 28316 28317 28318 28319 28320 28321 28322 28323 28324 28325 28326 28327 28328 28329 28330 28331 28332 28333 28334 28335 28336 28337 28338 28339 28340 28341 28342 28343 28344 28345 28346 28347 28348 28349 28350 28351 28352 28353 28354 28355 28356 28357 28358 28359 28360 28361 28362 28363 28364 28365 28366 28367 28368 28369 28370 28371 28372 28373 28374 28375 28376 28377 28378 28379 28380 28381 28382 28383 28384 28385 28386 28387 28388 28389 28390 28391 28392 28393 28394 28395 28396 28397 28398 28399 28400 28401 28402 28403 28404 28405 28406 28407 28408 28409 28410 28411 28412 28413 28414 28415 28416 28417 28418 28419 28420 28421 28422 28423 28424 28425 28426 28427 28428 28429 28430 28431 28432 28433 28434 28435 28436 28437 28438 28439 28440 28441 28442 28443 28444 28445 28446 28447 28448 28449 28450 28451 28452 28453 28454 28455 28456 28457 28458 28459 28460 28461 28462 28463 28464 28465 28466 28467 28468 28469 28470 28471 28472 28473 28474 28475 28476 28477 28478 28479 28480 28481 28482 28483 28484 28485 28486 28487 28488 28489 28490 28491 28492 28493 28494 28495 28496 28497 28498 28499 28500 28501 28502 28503 28504 28505 28506 28507 28508 28509 28510 28511 28512 28513 28514 28515 28516 28517 28518 28519 28520 28521 28522 28523 28524 28525 28526 28527 28528 28529 28530 28531 28532 28533 28534 28535 28536 28537 28538 28539 28540 28541 28542 28543 28544 28545 28546 28547 28548 28549 28550 28551 28552 28553 28554 28555 28556 28557 28558 28559 28560 28561 28562 28563 28564 28565 28566 28567 28568 28569 28570 28571 28572 28573 28574 28575 28576 28577 28578 28579 28580 28581 28582 28583 28584 28585 28586 28587 28588 28589 28590 28591 28592 28593 28594 28595 28596 28597 28598 28599 28600 28601 28602 28603 28604 28605 28606 28607 28608 28609 28610 28611 28612 28613 28614 28615 28616 28617 28618 28619 28620 28621 28622 28623 28624 28625 28626 28627 28628 28629 28630 28631 28632 28633 28634 28635 28636 28637 28638 28639 28640 28641 28642 28643 28644 28645 28646 28647 28648 28649 28650 28651 28652 28653 28654 28655 28656 28657 28658 28659 28660 28661 28662 28663 28664 28665 28666 28667 28668 28669 28670 28671 28672 28673 28674 28675 28676 28677 28678 28679 28680 28681 28682 28683 28684 28685 28686 28687 28688 28689 28690 28691 28692 28693 28694 28695 28696 28697 28698 28699 28700 28701 28702 28703 28704 28705 28706 28707 28708 28709 28710 28711 28712 28713 28714 28715 28716 28717 28718 28719 28720 28721 28722 28723 28724 28725 28726 28727 28728 28729 28730 28731 28732 28733 28734 28735 28736 28737 28738 28739 28740 28741 28742 28743 28744 28745 28746 28747 28748 28749 28750 28751 28752 28753 28754 28755 28756 28757 28758 28759 28760 28761 28762 28763 28764 28765 28766 28767 28768 28769 28770 28771 28772 28773 28774 28775 28776 28777 28778 28779 28780 28781 28782 28783 28784 28785 28786 28787 28788 28789 28790 28791 28792 28793 28794 28795 28796 28797 28798 28799 28800 28801 28802 28803 28804 28805 28806 28807 28808 28809 28810 28811 28812 28813 28814 28815 28816 28817 28818 28819 28820 28821 28822 28823 28824 28825 28826 28827 28828 28829 28830 28831 28832 28833 28834 28835 28836 28837 28838 28839 28840 28841 28842 28843 28844 28845 28846 28847 28848 28849 28850 28851 28852 28853 28854 28855 28856 28857 28858 28859 28860 28861 28862 28863 28864 28865 28866 28867 28868 28869 28870 28871 28872 28873 28874 28875 28876 28877 28878 28879 28880 28881 28882 28883 28884 28885 28886 28887 28888 28889 28890 28891 28892 28893 28894 28895 28896 28897 28898 28899 28900 28901 28902 28903 28904 28905 28906 28907 28908 28909 28910 28911 28912 28913 28914 28915 28916 28917 28918 28919 28920 28921 28922 28923 28924 28925 28926 28927 28928 28929 28930 28931 28932 28933 28934 28935 28936 28937 28938 28939 28940 28941 28942 28943 28944 28945 28946 28947 28948 28949 28950 28951 28952 28953 28954 28955 28956 28957 28958 28959 28960 28961 28962 28963 28964 28965 28966 28967 28968 28969 28970 28971 28972 28973 28974 28975 28976 28977 28978 28979 28980 28981 28982 28983 28984 28985 28986 28987 28988 28989 28990 28991 28992 28993 28994 28995 28996 28997 28998 28999 29000 29001 29002 29003 29004 29005 29006 29007 29008 29009 29010 29011 29012 29013 29014 29015 29016 29017 29018 29019 29020 29021 29022 29023 29024 29025 29026 29027 29028 29029 29030 29031 29032 29033 29034 29035 29036 29037 29038 29039 29040 29041 29042 29043 29044 29045 29046 29047 29048 29049 29050 29051 29052 29053 29054 29055 29056 29057 29058 29059 29060 29061 29062 29063 29064 29065 29066 29067 29068 29069 29070 29071 29072 29073 29074 29075 29076 29077 29078 29079 29080 29081 29082 29083 29084 29085 29086 29087 29088 29089 29090 29091 29092 29093 29094 29095 29096 29097 29098 29099 29100 29101 29102 29103 29104 29105 29106 29107 29108 29109 29110 29111 29112 29113 29114 29115 29116 29117 29118 29119 29120 29121 29122 29123 29124 29125 29126 29127 29128 29129 29130 29131 29132 29133 29134 29135 29136 29137 29138 29139 29140 29141 29142 29143 29144 29145 29146 29147 29148 29149 29150 29151 29152 29153 29154 29155 29156 29157 29158 29159 29160 29161 29162 29163 29164 29165 29166 29167 29168 29169 29170 29171 29172 29173 29174 29175 29176 29177 29178 29179 29180 29181 29182 29183 29184 29185 29186 29187 29188 29189 29190 29191 29192 29193 29194 29195 29196 29197 29198 29199 29200 29201 29202 29203 29204 29205 29206 29207 29208 29209 29210 29211 29212 29213 29214 29215 29216 29217 29218 29219 29220 29221 29222 29223 29224 29225 29226 29227 29228 29229 29230 29231 29232 29233 29234 29235 29236 29237 29238 29239 29240 29241 29242 29243 29244 29245 29246 29247 29248 29249 29250 29251 29252 29253 29254 29255 29256 29257 29258 29259 29260 29261 29262 29263 29264 29265 29266 29267 29268 29269 29270 29271 29272 29273 29274 29275 29276 29277 29278 29279 29280 29281 29282 29283 29284 29285 29286 29287 29288 29289 29290 29291 29292 29293 29294 29295 29296 29297 29298 29299 29300 29301 29302 29303 29304 29305 29306 29307 29308 29309 29310 29311 29312 29313 29314 29315 29316 29317 29318 29319 29320 29321 29322 29323 29324 29325 29326 29327 29328 29329 29330 29331 29332 29333 29334 29335 29336 29337 29338 29339 29340 29341 29342 29343 29344 29345 29346 29347 29348 29349 29350 29351 29352 29353 29354 29355 29356 29357 29358 29359 29360 29361 29362 29363 29364 29365 29366 29367 29368 29369 29370 29371 29372 29373 29374 29375 29376 29377 29378 29379 29380 29381 29382 29383 29384 29385 29386 29387 29388 29389 29390 29391 29392 29393 29394 29395 29396 29397 29398 29399 29400 29401 29402 29403 29404 29405 29406 29407 29408 29409 29410 29411 29412 29413 29414 29415 29416 29417 29418 29419 29420 29421 29422 29423 29424 29425 29426 29427 29428 29429 29430 29431 29432 29433 29434 29435 29436 29437 29438 29439 29440 29441 29442 29443 29444 29445 29446 29447 29448 29449 29450 29451 29452 29453 29454 29455 29456 29457 29458 29459 29460 29461 29462 29463 29464 29465 29466 29467 29468 29469 29470 29471 29472 29473 29474 29475 29476 29477 29478 29479 29480 29481 29482 29483 29484 29485 29486 29487 29488 29489 29490 29491 29492 29493 29494 29495 29496 29497 29498 29499 29500 29501 29502 29503 29504 29505 29506 29507 29508 29509 29510 29511 29512 29513 29514 29515 29516 29517 29518 29519 29520 29521 29522 29523 29524 29525 29526 29527 29528 29529 29530 29531 29532 29533 29534 29535 29536 29537 29538 29539 29540 29541 29542 29543 29544 29545 29546 29547 29548 29549 29550 29551 29552 29553 29554 29555 29556 29557 29558 29559 29560 29561 29562 29563 29564 29565 29566 29567 29568 29569 29570 29571 29572 29573 29574 29575 29576 29577 29578 29579 29580 29581 29582 29583 29584 29585 29586 29587 29588 29589 29590 29591 29592 29593 29594 29595 29596 29597 29598 29599 29600 29601 29602 29603 29604 29605 29606 29607 29608 29609 29610 29611 29612 29613 29614 29615 29616 29617 29618 29619 29620 29621 29622 29623 29624 29625 29626 29627 29628 29629 29630 29631 29632 29633 29634 29635 29636 29637 29638 29639 29640 29641 29642 29643 29644 29645 29646 29647 29648 29649 29650 29651 29652 29653 29654 29655 29656 29657 29658 29659 29660 29661 29662 29663 29664 29665 29666 29667 29668 29669 29670 29671 29672 29673 29674 29675 29676 29677 29678 29679 29680 29681 29682 29683 29684 29685 29686 29687 29688 29689 29690 29691 29692 29693 29694 29695 29696 29697 29698 29699 29700 29701 29702 29703 29704 29705 29706 29707 29708 29709 29710 29711 29712 29713 29714 29715 29716 29717 29718 29719 29720 29721 29722 29723 29724 29725 29726 29727 29728 29729 29730 29731 29732 29733 29734 29735 29736 29737 29738 29739 29740 29741 29742 29743 29744 29745 29746 29747 29748 29749 29750 29751 29752 29753 29754 29755 29756 29757 29758 29759 29760 29761 29762 29763 29764 29765 29766 29767 29768 29769 29770 29771 29772 29773 29774 29775 29776 29777 29778 29779 29780 29781 29782 29783 29784 29785 29786 29787 29788 29789 29790 29791 29792 29793 29794 29795 29796 29797 29798 29799 29800 29801 29802 29803 29804 29805 29806 29807 29808 29809 29810 29811 29812 29813 29814 29815 29816 29817 29818 29819 29820 29821 29822 29823 29824 29825 29826 29827 29828 29829 29830 29831 29832 29833 29834 29835 29836 29837 29838 29839 29840 29841 29842 29843 29844 29845 29846 29847 29848 29849 29850 29851 29852 29853 29854 29855 29856 29857 29858 29859 29860 29861 29862 29863 29864 29865 29866 29867 29868 29869 29870 29871 29872 29873 29874 29875 29876 29877 29878 29879 29880 29881 29882 29883 29884 29885 29886 29887 29888 29889 29890 29891 29892 29893 29894 29895 29896 29897 29898 29899 29900 29901 29902 29903 29904 29905 29906 29907 29908 29909 29910 29911 29912 29913 29914 29915 29916 29917 29918 29919 29920 29921 29922 29923 29924 29925 29926 29927 29928 29929 29930 29931 29932 29933 29934 29935 29936 29937 29938 29939 29940 29941 29942 29943 29944 29945 29946 29947 29948 29949 29950 29951 29952 29953 29954 29955 29956 29957 29958 29959 29960 29961 29962 29963 29964 29965 29966 29967 29968 29969 29970 29971 29972 29973 29974 29975 29976 29977 29978 29979 29980 29981 29982 29983 29984 29985 29986 29987 29988 29989 29990 29991 29992 29993 29994 29995 29996 29997 29998 29999 30000 30001 30002 30003 30004 30005 30006 30007 30008 30009 30010 30011 30012 30013 30014 30015 30016 30017 30018 30019 30020 30021 30022 30023 30024 30025 30026 30027 30028 30029 30030 30031 30032 30033 30034 30035 30036 30037 30038 30039 30040 30041 30042 30043 30044 30045 30046 30047 30048 30049 30050 30051 30052 30053 30054 30055 30056 30057 30058 30059 30060 30061 30062 30063 30064 30065 30066 30067 30068 30069 30070 30071 30072 30073 30074 30075 30076 30077 30078 30079 30080 30081 30082 30083 30084 30085 30086 30087 30088 30089 30090 30091 30092 30093 30094 30095 30096 30097 30098 30099 30100 30101 30102 30103 30104 30105 30106 30107 30108 30109 30110 30111 30112 30113 30114 30115 30116 30117 30118 30119 30120 30121 30122 30123 30124 30125 30126 30127 30128 30129 30130 30131 30132 30133 30134 30135 30136 30137 30138 30139 30140 30141 30142 30143 30144 30145 30146 30147 30148 30149 30150 30151 30152 30153 30154 30155 30156 30157 30158 30159 30160 30161 30162 30163 30164 30165 30166 30167 30168 30169 30170 30171 30172 30173 30174 30175 30176 30177 30178 30179 30180 30181 30182 30183 30184 30185 30186 30187 30188 30189 30190 30191 30192 30193 30194 30195 30196 30197 30198 30199 30200 30201 30202 30203 30204 30205 30206 30207 30208 30209 30210 30211 30212 30213 30214 30215 30216 30217 30218 30219 30220 30221 30222 30223 30224 30225 30226 30227 30228 30229 30230 30231 30232 30233 30234 30235 30236 30237 30238 30239 30240 30241 30242 30243 30244 30245 30246 30247 30248 30249 30250 30251 30252 30253 30254 30255 30256 30257 30258 30259 30260 30261 30262 30263 30264 30265 30266 30267 30268 30269 30270 30271 30272 30273 30274 30275 30276 30277 30278 30279 30280 30281 30282 30283 30284 30285 30286 30287 30288 30289 30290 30291 30292 30293 30294 30295 30296 30297 30298 30299 30300 30301 30302 30303 30304 30305 30306 30307 30308 30309 30310 30311 30312 30313 30314 30315 30316 30317 30318 30319 30320 30321 30322 30323 30324 30325 30326 30327 30328 30329 30330 30331 30332 30333 30334 30335 30336 30337 30338 30339 30340 30341 30342 30343 30344 30345 30346 30347 30348 30349 30350 30351 30352 30353 30354 30355 30356 30357 30358 30359 30360 30361 30362 30363 30364 30365 30366 30367 30368 30369 30370 30371 30372 30373 30374 30375 30376 30377 30378 30379 30380 30381 30382 30383 30384 30385 30386 30387 30388 30389 30390 30391 30392 30393 30394 30395 30396 30397 30398 30399 30400 30401 30402 30403 30404 30405 30406 30407 30408 30409 30410 30411 30412 30413 30414 30415 30416 30417 30418 30419 30420 30421 30422 30423 30424 30425 30426 30427 30428 30429 30430 30431 30432 30433 30434 30435 30436 30437 30438 30439 30440 30441 30442 30443 30444 30445 30446 30447 30448 30449 30450 30451 30452 30453 30454 30455 30456 30457 30458 30459 30460 30461 30462 30463 30464 30465 30466 30467 30468 30469 30470 30471 30472 30473 30474 30475 30476 30477 30478 30479 30480 30481 30482 30483 30484 30485 30486 30487 30488 30489 30490 30491 30492 30493 30494 30495 30496 30497 30498 30499 30500 30501 30502 30503 30504 30505 30506 30507 30508 30509 30510 30511 30512 30513 30514 30515 30516 30517 30518 30519 30520 30521 30522 30523 30524 30525 30526 30527 30528 30529 30530 30531 30532 30533 30534 30535 30536 30537 30538 30539 30540 30541 30542 30543 30544 30545 30546 30547 30548 30549 30550 30551 30552 30553 30554 30555 30556 30557 30558 30559 30560 30561 30562 30563 30564 30565 30566 30567 30568 30569 30570 30571 30572 30573 30574 30575 30576 30577 30578 30579 30580 30581 30582 30583 30584 30585 30586 30587 30588 30589 30590 30591 30592 30593 30594 30595 30596 30597 30598 30599 30600 30601 30602 30603 30604 30605 30606 30607 30608 30609 30610 30611 30612 30613 30614 30615 30616 30617 30618 30619 30620 30621 30622 30623 30624 30625 30626 30627 30628 30629 30630 30631 30632 30633 30634 30635 30636 30637 30638 30639 30640 30641 30642 30643 30644 30645 30646 30647 30648 30649 30650 30651 30652 30653 30654 30655 30656 30657 30658 30659 30660 30661 30662 30663 30664 30665 30666 30667 30668 30669 30670 30671 30672 30673 30674 30675 30676 30677 30678 30679 30680 30681 30682 30683 30684 30685 30686 30687 30688 30689 30690 30691 30692 30693 30694 30695 30696 30697 30698 30699 30700 30701 30702 30703 30704 30705 30706 30707 30708 30709 30710 30711 30712 30713 30714 30715 30716 30717 30718 30719 30720 30721 30722 30723 30724 30725 30726 30727 30728 30729 30730 30731 30732 30733 30734 30735 30736 30737 30738 30739 30740 30741 30742 30743 30744 30745 30746 30747 30748 30749 30750 30751 30752 30753 30754 30755 30756 30757 30758 30759 30760 30761 30762 30763 30764 30765 30766 30767 30768 30769 30770 30771 30772 30773 30774 30775 30776 30777 30778 30779 30780 30781 30782 30783 30784 30785 30786 30787 30788 30789 30790 30791 30792 30793 30794 30795 30796 30797 30798 30799 30800 30801 30802 30803 30804 30805 30806 30807 30808 30809 30810 30811 30812 30813 30814 30815 30816 30817 30818 30819 30820 30821 30822 30823 30824 30825 30826 30827 30828 30829 30830 30831 30832 30833 30834 30835 30836 30837 30838 30839 30840 30841 30842 30843 30844 30845 30846 30847 30848 30849 30850 30851 30852 30853 30854 30855 30856 30857 30858 30859 30860 30861 30862 30863 30864 30865 30866 30867 30868 30869 30870 30871 30872 30873 30874 30875 30876 30877 30878 30879 30880 30881 30882 30883 30884 30885 30886 30887 30888 30889 30890 30891 30892 30893 30894 30895 30896 30897 30898 30899 30900 30901 30902 30903 30904 30905 30906 30907 30908 30909 30910 30911 30912 30913 30914 30915 30916 30917 30918 30919 30920 30921 30922 30923 30924 30925 30926 30927 30928 30929 30930 30931 30932 30933 30934 30935 30936 30937 30938 30939 30940 30941 30942 30943 30944 30945 30946 30947 30948 30949 30950 30951 30952 30953 30954 30955 30956 30957 30958 30959 30960 30961 30962 30963 30964 30965 30966 30967 30968 30969 30970 30971 30972 30973 30974 30975 30976 30977 30978 30979 30980 30981 30982 30983 30984 30985 30986 30987 30988 30989 30990 30991 30992 30993 30994 30995 30996 30997 30998 30999 31000 31001 31002 31003 31004 31005 31006 31007 31008 31009 31010 31011 31012 31013 31014 31015 31016 31017 31018 31019 31020 31021 31022 31023 31024 31025 31026 31027 31028 31029 31030 31031 31032 31033 31034 31035 31036 31037 31038 31039 31040 31041 31042 31043 31044 31045 31046 31047 31048 31049 31050 31051 31052 31053 31054 31055 31056 31057 31058 31059 31060 31061 31062 31063 31064 31065 31066 31067 31068 31069 31070 31071 31072 31073 31074 31075 31076 31077 31078 31079 31080 31081 31082 31083 31084 31085 31086 31087 31088 31089 31090 31091 31092 31093 31094 31095 31096 31097 31098 31099 31100 31101 31102 31103 31104 31105 31106 31107 31108 31109 31110 31111 31112 31113 31114 31115 31116 31117 31118 31119 31120 31121 31122 31123 31124 31125 31126 31127 31128 31129 31130 31131 31132 31133 31134 31135 31136 31137 31138 31139 31140 31141 31142 31143 31144 31145 31146 31147 31148 31149 31150 31151 31152 31153 31154 31155 31156 31157 31158 31159 31160 31161 31162 31163 31164 31165 31166 31167 31168 31169 31170 31171 31172 31173 31174 31175 31176 31177 31178 31179 31180 31181 31182 31183 31184 31185 31186 31187 31188 31189 31190 31191 31192 31193 31194 31195 31196 31197 31198 31199 31200 31201 31202 31203 31204 31205 31206 31207 31208 31209 31210 31211 31212 31213 31214 31215 31216 31217 31218 31219 31220 31221 31222 31223 31224 31225 31226 31227 31228 31229 31230 31231 31232 31233 31234 31235 31236 31237 31238 31239 31240 31241 31242 31243 31244 31245 31246 31247 31248 31249 31250 31251 31252 31253 31254 31255 31256 31257 31258 31259 31260 31261 31262 31263 31264 31265 31266 31267 31268 31269 31270 31271 31272 31273 31274 31275 31276 31277 31278 31279 31280 31281 31282 31283 31284 31285 31286 31287 31288 31289 31290 31291 31292 31293 31294 31295 31296 31297 31298 31299 31300 31301 31302 31303 31304 31305 31306 31307 31308 31309 31310 31311 31312 31313 31314 31315 31316 31317 31318 31319 31320 31321 31322 31323 31324 31325 31326 31327 31328 31329 31330 31331 31332 31333 31334 31335 31336 31337 31338 31339 31340 31341 31342 31343 31344 31345 31346 31347 31348 31349 31350 31351 31352 31353 31354 31355 31356 31357 31358 31359 31360 31361 31362 31363 
</DataArray>
<DataArray type="UInt32" Name="offsets" format="ascii">
3 6 9 12 15 18 21 23 26 28 31 34 37 40 43 46 49 52 55 57 60 63 66 69 72 75 78 81 84 87 90 92 95 98 100 103 106 108 111 114 117 120 123 126 129 132 135 138 141 143 146 149 152 155 158 161 164 167 170 173 176 179 182 184 187 190 193 196 199 202 205 208 211 214 217 220 223 226 229 231 234 237 240 242 245 248 251 254 257 259 262 265 268 271 274 277 280 283 286 289 292 295 298 301 304 307 310 313 316 319 322 324 327 329 332 335 338 341 344 347 350 353 356 359 362 365 368 370 373 375 378 380 383 386 389 391 394 397 400 403 406 409 412 414 417 420 423 426 429 432 435 438 441 444 447 450 453 456 459 462 465 468 471 474 477 480 483 486 489 492 495 498 501 504 507 510 513 515 518 520 523 525 528 531 533 536 539 542 545 548 551 554 556 559 562 565 568 571 574 577 579 582 585 588 591 594 597 600 603 606 609 612 614 617 620 622 625 628 631 634 637 640 643 646 649 652 655 658 661 664 667 670 673 676 679 682 685 688 691 694 697 700 703 706 709 712 715 718 721 724 727 729 732 735 738 741 744 746 749 752 755 758 761 764 767 770 773 776 779 782 785 788 791 794 796 799 802 805 808 811 814 817 820 822 825 828 831 834 837 839 842 845 848 851 854 857 860 863 866 869 872 875 877 880 883 886 889 891 894 897 900 902 905 908 911 914 917 920 923 926 929 932 935 938 941 944 947 950 953 956 959 962 965 968 971 974 977 980 983 986 989 992 995 998 1001 1004 1007 1009 1012 1014 1017 1020 1023 1026 1029 1032 1035 1038 1041 1044 1047 1050 1053 1056 1059 1062 1065 1068 1070 1073 1076 1079 1082 1085 1088 1091 1094 1097 1100 1103 1106 1109 1112 1115 1118 1121 1124 1127 1129 1131 1134 1137 1139 1142 1145 1148 1151 1154 1157 1159 1162 1165 1168 1171 1174 1177 1179 1182 1185 1187 1190 1192 1195 1198 1201 1204 1207 1210 1212 1215 1218 1220 1223 1226 1229 1232 1235 1238 1241 1244 1247 1250 1253 1256 1259 1262 1265 1268 1271 1274 1277 1280 1283 1286 1288 1291 1294 1297 1300 1303 1305 1308 1311 1314 1317 1320 1323 1326 1329 1332 1335 1338 1341 1344 1347 1350 1353 1356 1359 1362 1365 1368 1371 1373 1376 1379 1382 1384 1387 1390 1393 1396 1399 1402 1405 1408 1411 1413 1416 1418 1421 1424 1426 1429 1432 1435 1437 1440 1442 1445 1448 1451 1454 1457 1459 1462 1465 1468 1471 1473 1476 1478 1480 1483 1486 1489 1492 1495 1498 1501 1504 1507 1509 1512 1515 1517 1520 1523 1526 1529 1532 1534 1537 1540 1543 1546 1548 1551 1554 1557 1559 1562 1564 1567 1569 1572 1575 1578 1581 1584 1587 1590 1593 1596 1599 1602 1605 1607 1610 1613 1616 1618 1621 1624 1627 1630 1633 1636 1639 1642 1645 1648 1651 1654 1656 1659 1662 1665 1668 1671 1673 1676 1679 1681 1684 1687 1689 1692 1695 1698 1701 1704 1707 1710 1713 1716 1719 1722 1725 1728 1731 1734 1737 1740 1742 1745 1747 1750 1752 1755 1757 1760 1763 1766 1769 1771 1774 1777 1780 1783 1785 1788 1791 1794 1797 1799 1802 1805 1808 1811 1814 1816 1819 1822 1824 1827 1829 1831 1833 1836 1839 1842 1845 1848 1851 1854 1857 1860 1863 1866 1869 1872 1875 1878 1881 1884 1887 1889 1892 1895 1898 1901 1904 1907 1910 1913 1916 1918 1921 1924 1927 1930 1933 1935 1938 1941 1944 1947 1950 1953 1956 1958 1961 1964 1966 1968 1971 1974 1977 1980 1983 1985 1988 1990 1993 1996 1999 2002 2005 2008 2011 2013 2016 2019 2021 2024 2027 2030 2033 2036 2039 2041 2044 2046 2049 2052 2054 2057 2060 2063 2066 2069 2072 2075 2078 2081 2084 2087 2090 2093 2096 2099 2102 2105 2108 2111 2114 2117 2120 2122 2125 2128 2131 2134 2137 2140 2143 2145 2148 2151 2154 2156 2159 2161 2164 2167 2170 2172 2175 2178 2181 2183 2186 2189 2192 2195 2198 2201 2204 2207 2210 2212 2215 2218 2221 2224 2227 2230 2233 2236 2238 2241 2243 2245 2247 2250 2253 2255 2258 2260 2263 2266 2269 2272 2275 2278 2281 2284 2287 2290 2293 2296 2299 2302 2305 2308 2311 2314 2317 2320 2323 2326 2329 2332 2335 2337 2339 2341 2344 2347 2350 2353 2356 2359 2362 2365 2368 2371 2374 2377 2380 2383 2386 2389 2392 2395 2398 2401 2404 2407 2410 2413 2416 2419 2422 2425 2428 2430 2433 2436 2439 2442 2445 2447 2450 2453 2456 2458 2461 2464 2466 2468 2471 2473 2476 2479 2482 2485 2488 2491 2493 2496 2499 2502 2505 2508 2510 2513 2515 2518 2521 2524 2526 2529 2531 2534 2536 2539 2542 2545 2548 2551 2553 2556 2559 2562 2564 2567 2570 2573 2576 2579 2582 2585 2588 2590 2593 2596 2599 2602 2605 2608 2610 2613 2616 2619 2622 2625 2628 2631 2634 2636 2639 2642 2644 2647 2650 2653 2656 2659 2662 2664 2667 2669 2672 2674 2677 2680 2683 2686 2689 2692 2695 2698 2701 2704 2707 2709 2711 2713 2716 2719 2721 2724 2727 2730 2733 2736 2738 2740 2743 2746 2748 2750 2752 2755 2758 2761 2764 2767 2770 2773 2776 2779 2782 2785 2788 2791 2794 2797 2800 2803 2806 2809 2812 2815 2818 2821 2824 2827 2830 2833 2836 2839 2842 2845 2848 2851 2853 2856 2859 2862 2865 2868 2871 2874 2876 2879 2882 2885 2888 2891 2894 2896 2899 2902 2905 2908 2911 2914 2917 2920 2923 2926 2929 2932 2935 2938 2941 2944 2947 2950 2953 2956 2959 2962 2965 2968 2971 2974 2977 2980 2983 2986 2989 2992 2995 2998 3001 3004 3007 3010 3013 3016 3019 3022 3025 3028 3031 3034 3037 3040 3043 3046 3049 3052 3055 3058 3060 3063 3066 3069 3071 3074 3077 3079 3082 3085 3088 3091 3094 3097 3099 3102 3105 3108 3111 3114 3117 3120 3123 3126 3129 3131 3134 3137 3140 3143 3145 3148 3151 3154 3157 3160 3163 3166 3169 3172 3175 3178 3181 3184 3187 3190 3193 3196 3199 3202 3205 3208 3211 3214 3217 3219 3222 3225 3228 3231 3233 3236 3239 3242 3245 3248 3251 3254 3257 3260 3263 3266 3269 3272 3275 3278 3281 3284 3287 3290 3293 3296 3299 3302 3305 3308 3311 3314 3317 3320 3323 3326 3329 3332 3335 3338 3341 3344 3347 3349 3352 3355 3358 3361 3364 3366 3369 3372 3375 3377 3379 3382 3385 3388 3391 3394 3397 3400 3403 3406 3408 3411 3414 3417 3419 3422 3425 3428 3431 3434 3437 3439 3442 3445 3448 3451 3454 3457 3460 3463 3466 3469 3471 3473 3476 3479 3482 3485 3488 3491 3494 3497 3500 3502 3505 3508 3510 3513 3516 3519 3521 3523 3526 3529 3531 3534 3537 3539 3541 3544 3547 3550 3552 3555 3558 3561 3564 3567 3569 3572 3575 3578 3581 3584 3587 3590 3593 3596 3598 3601 3604 3607 3610 3613 3616 3619 3622 3625 3628 3631 3634 3637 3640 3643 3645 3648 3651 3654 3657 3660 3663 3665 3668 3671 3674 3677 3680 3683 3686 3689 3692 3695 3698 3701 3704 3707 3710 3713 3715 3717 3720 3723 3726 3729 3732 3735 3738 3741 3744 3747 3750 3753 3756 3759 3762 3765 3768 3771 3774 3777 3780 3783 3786 3789 3792 3795 3798 3801 3804 3807 3810 3813 3816 3819 3822 3825 3828 3831 3834 3837 3840 3843 3846 3849 3851 3854 3856 3859 3862 3865 3867 3870 3873 3876 3879 3882 3885 3888 3891 3894 3896 3899 3902 3904 3907 3910 3913 3916 3919 3921 3924 3927 3930 3933 3936 3939 3942 3944 3947 3950 3952 3955 3958 3961 3964 3967 3970 3972 3975 3978 3981 3984 3987 3990 3993 3996 3999 4002 4005 4008 4010 4013 4016 4019 4022 4025 4028 4031 4034 4037 4040 4043 4046 4049 4052 4055 4058 4061 4064 4067 4070 4073 4076 4079 4082 4085 4088 4091 4094 4097 4100 4103 4106 4109 4112 4115 4118 4121 4124 4127 4130 4133 4136 4139 4142 4145 4148 4151 4154 4157 4160 4163 4166 4169 4172 4175 4178 4181 4184 4187 4190 4193 4196 4199 4202 4205 4208 4211 4214 4217 4220 4223 4226 4229 4232 4235 4238 4241 4244 4247 4250 4253 4256 4259 4262 4265 4268 4271 4274 4277 4279 4282 4285 4288 4291 4294 4297 4300 4303 4306 4309 4312 4314 4317 4320 4323 4325 4328 4331 4334 4337 4340 4343 4346 4349 4352 4355 4358 4361 4364 4367 4370 4373 4376 4379 4382 4385 4388 4391 4394 4397 4400 4403 4406 4409 4412 4415 4418 4421 4424 4427 4430 4433 4436 4439 4442 4445 4448 4451 4454 4457 4460 4463 4466 4469 4472 4475 4478 4481 4484 4487 4490 4493 4496 4499 4502 4505 4508 4511 4514 4517 4520 4523 4526 4529 4532 4535 4538 4541 4544 4547 4550 4553 4556 4559 4562 4565 4568 4571 4574 4577 4580 4583 4586 4589 4592 4595 4598 4601 4604 4607 4610 4613 4616 4619 4622 4625 4628 4631 4634 4637 4640 4643 4646 4649 4652 4655 4658 4661 4663 4666 4669 4672 4675 4678 4681 4684 4687 4690 4693 4695 4698 4701 4704 4707 4709 4712 4715 4718 4720 4722 4725 4728 4731 4734 4737 4740 4743 4746 4749 4752 4755 4758 4761 4764 4767 4770 4773 4776 4779 4781 4783 4786 4789 4791 4794 4797 4800 4803 4806 4809 4811 4814 4817 4820 4823 4826 4828 4831 4834 4837 4840 4843 4846 4848 4851 4854 4857 4860 4863 4866 4868 4871 4873 4876 4879 4882 4885 4888 4891 4894 4897 4900 4903 4906 4909 4912 4915 4918 4921 4924 4926 4929 4932 4935 4938 4941 4944 4947 4949 4952 4955 4958 4961 4964 4966 4969 4972 4975 4978 4981 4984 4987 4989 4992 4995 4998 5000 5003 5006 5008 5011 5014 5017 5020 5023 5026 5029 5032 5035 5038 5041 5044 5047 5050 5052 5055 5058 5061 5064 5067 5070 5073 5076 5078 5081 5084 5087 5090 5093 5096 5098 5101 5104 5107 5110 5113 5115 5118 5121 5124 5127 5130 5133 5136 5139 5142 5145 5148 5151 5154 5157 5160 5163 5166 5169 5172 5174 5177 5180 5183 5185 5188 5190 5193 5196 5199 5202 5205 5208 5211 5214 5217 5220 5223 5226 5229 5232 5235 5238 5241 5244 5247 5250 5253 5256 5259 5262 5265 5267 5270 5273 5275 5278 5281 5284 5287 5290 5293 5296 5299 5301 5304 5307 5310 5313 5316 5319 5322 5325 5328 5331 5334 5336 5339 5342 5345 5348 5351 5354 5357 5360 5363 5366 5369 5372 5375 5378 5381 5384 5387 5389 5392 5395 5398 5401 5404 5407 5410 5413 5416 5419 5421 5424 5427 5430 5433 5436 5439 5442 5445 5447 5450 5453 5456 5459 5462 5465 5467 5470 5473 5476 5479 5482 5485 5488 5491 5494 5497 5500 5503 5506 5509 5512 5515 5518 5521 5524 5527 5530 5533 5536 5539 5542 5545 5548 5551 5554 5556 5559 5561 5564 5567 5570 5573 5576 5579 5582 5584 5587 5589 5592 5595 5598 5601 5604 5607 5610 5613 5616 5619 5622 5625 5628 5631 5633 5636 5638 5641 5644 5647 5650 5653 5656 5658 5661 5664 5667 5670 5673 5676 5679 5682 5685 5687 5690 5692 5695 5698 5701 5704 5707 5710 5713 5716 5718 5721 5724 5726 5729 5732 5735 5738 5741 5743 5746 5749 5752 5755 5757 5759 5762 5764 5766 5769 5772 5775 5778 5780 5783 5786 5789 5792 5795 5798 5801 5804 5807 5810 5813 5816 5819 5822 5825 5828 5831 5834 5837 5840 5843 5845 5847 5850 5853 5856 5859 5862 5864 5867 5870 5873 5875 5878 5881 5884 5887 5890 5893 5896 5898 5901 5904 5907 5910 5913 5915 5918 5921 5924 5926 5929 5932 5935 5938 5941 5944 5947 5950 5953 5955 5958 5961 5964 5967 5970 5973 5975 5977 5980 5983 5986 5989 5992 5995 5997 6000 6003 6006 6009 6012 6015 6018 6021 6024 6027 6030 6033 6036 6038 6041 6044 6047 6050 6053 6055 6058 6061 6063 6066 6069 6072 6075 6078 6081 6084 6086 6089 6092 6095 6098 6100 6103 6106 6109 6112 6115 6118 6121 6124 6127 6130 6133 6136 6139 6142 6145 6148 6151 6154 6157 6160 6163 6166 6169 6172 6175 6178 6181 6184 6187 6190 6193 6195 6198 6201 6204 6206 6209 6212 6214 6217 6220 6223 6226 6229 6232 6234 6236 6239 6242 6245 6248 6250 6253 6256 6259 6262 6265 6268 6271 6273 6276 6279 6282 6285 6288 6291 6294 6296 6299 6302 6305 6308 6311 6314 6317 6320 6323 6326 6329 6332 6335 6338 6341 6343 6346 6349 6351 6354 6357 6360 6363 6366 6369 6372 6375 6378 6380 6383 6385 6388 6391 6393 6396 6399 6402 6405 6408 6411 6414 6417 6420 6423 6426 6429 6432 6435 6438 6441 6443 6446 6449 6452 6455 6458 6460 6463 6466 6469 6472 6475 6478 6481 6484 6487 6490 6493 6495 6498 6501 6504 6507 6510 6513 6516 6518 6521 6524 6527 6530 6532 6535 6538 6541 6544 6547 6549 6552 6555 6557 6560 6563 6566 6569 6572 6575 6577 6580 6582 6584 6587 6589 6592 6595 6597 6599 6602 6604 6607 6609 6612 6615 6618 6621 6624 6627 6630 6632 6635 6638 6641 6644 6647 6650 6653 6656 6659 6662 6665 6668 6671 6674 6677 6680 6683 6686 6689 6692 6695 6698 6701 6703 6706 6709 6712 6715 6718 6721 6724 6727 6730 6733 6736 6739 6742 6745 6747 6750 6752 6755 6758 6761 6764 6767 6770 6773 6776 6779 6782 6785 6788 6791 6794 6797 6800 6803 6806 6809 6812 6815 6818 6821 6824 6827 6830 6833 6836 6839 6842 6845 6848 6851 6854 6857 6860 6863 6866 6869 6871 6874 6877 6880 6883 6886 6889 6892 6895 6898 6901 6904 6906 6909 6912 6915 6918 6921 6924 6927 6930 6933 6936 6939 6942 6945 6948 6951 6954 6957 6960 6963 6966 6969 6972 6975 6978 6981 6984 6987 6989 6992 6995 6998 7001 7004 7007 7010 7013 7016 7018 7021 7024 7027 7030 7032 7035 7038 7041 7044 7047 7050 7053 7056 7059 7062 7065 7068 7071 7074 7076 7079 7082 7085 7088 7090 7093 7096 7099 7102 7105 7108 7111 7114 7117 7120 7123 7126 7128 7131 7134 7137 7140 7143 7146 7148 7151 7154 7157 7160 7163 7166 7169 7172 7175 7178 7180 7183 7186 7189 7192 7195 7198 7201 7204 7207 7210 7213 7216 7219 7222 7225 7228 7231 7234 7237 7240 7243 7246 7249 7252 7255 7258 7261 7264 7267 7270 7273 7276 7279 7282 7284 7287 7290 7293 7296 7298 7300 7303 7306 7308 7311 7314 7317 7320 7322 7325 7328 7331 7334 7337 7340 7343 7346 7349 7352 7355 7358 7361 7364 7367 7370 7372 7375 7378 7381 7383 7386 7389 7392 7395 7398 7400 7403 7406 7408 7411 7414 7417 7420 7423 7426 7429 7432 7435 7438 7441 7444 7447 7450 7453 7456 7459 7461 7464 7467 7470 7473 7476 7479 7482 7485 7488 7491 7494 7496 7499 7502 7505 7507 7510 7513 7516 7519 7521 7523 7526 7529 7532 7535 7538 7541 7544 7547 7550 7553 7556 7559 7562 7565 7568 7570 7573 7576 7579 7582 7585 7588 7591 7594 7597 7600 7603 7605 7608 7611 7614 7617 7620 7622 7625 7628 7631 7634 7637 7640 7643 7646 7649 7651 7654 7657 7660 7663 7666 7669 7672 7675 7678 7681 7684 7687 7690 7693 7696 7699 7702 7705 7708 7711 7714 7717 7720 7723 7726 7728 7731 7734 7737 7740 7743 7746 7748 7751 7754 7757 7760 7763 7766 7769 7772 7775 7778 7781 7784 7787 7790 7793 7796 7799 7802 7805 7808 7811 7814 7817 7820 7823 7826 7829 7832 7835 7838 7841 7844 7847 7850 7853 7856 7859 7862 7865 7868 7871 7874 7877 7880 7883 7886 7889 7892 7895 7898 7901 7904 7907 7910 7913 7916 7919 7922 7925 7927 7930 7933 7936 7939 7942 7945 7948 7950 7953 7956 7959 7961 7964 7966 7969 7972 7975 7978 7981 7983 7985 7988 7991 7994 7997 8000 8003 8006 8009 8011 8014 8017 8020 8023 8026 8029 8032 8034 8037 8039 8042 8045 8047 8049 8052 8055 8058 8060 8063 8066 8069 8072 8075 8078 8081 8084 8086 8089 8092 8095 8098 8100 8103 8106 8109 8112 8115 8118 8121 8124 8127 8130 8133 8136 8139 8142 8145 8147 8150 8153 8156 8159 8161 8163 8166 8169 8172 8175 8177 8180 8183 8186 8189 8192 8194 8197 8200 8203 8206 8209 8212 8215 8218 8221 8224 8227 8230 8232 8235 8238 8241 8244 8247 8250 8253 8256 8258 8261 8263 8266 8269 8272 8275 8278 8281 8284 8287 8290 8293 8296 8299 8302 8305 8308 8311 8313 8316 8319 8322 8325 8328 8331 8334 8336 8339 8341 8344 8347 8350 8352 8355 8358 8361 8364 8367 8370 8373 8376 8379 8382 8385 8388 8391 8394 8397 8400 8403 8406 8409 8412 8415 8418 8421 8424 8427 8430 8433 8436 8439 8442 8445 8447 8450 8453 8456 8459 8462 8465 8468 8470 8473 8476 8479 8481 8484 8487 8490 8493 8496 8498 8501 8504 8507 8510 8513 8515 8518 8521 8524 8527 8529 8532 8535 8538 8540 8543 8546 8548 8551 8554 8557 8560 8562 8565 8568 8570 8573 8576 8579 8581 8584 8587 8590 8593 8596 8598 8601 8604 8607 8610 8613 8616 8619 8621 8624 8627 8630 8633 8636 8639 8642 8645 8648 8651 8654 8657 8659 8662 8665 8668 8670 8673 8676 8678 8681 8684 8686 8689 8692 8695 8697 8700 8703 8705 8707 8710 8713 8716 8719 8721 8724 8727 8730 8733 8736 8739 8742 8745 8747 8750 8753 8756 8759 8762 8764 8766 8769 8772 8775 8778 8780 8783 8786 8789 8792 8795 8798 8801 8803 8806 8809 8812 8815 8818 8821 8824 8827 8830 8832 8835 8838 8840 8843 8846 8849 8852 8854 8856 8859 8861 8864 8867 8870 8873 8876 8878 8881 8884 8886 8889 8892 8894 8897 8899 8902 8905 8908 8911 8914 8917 8919 8922 8925 8928 8931 8934 8937 8940 8943 8946 8949 8952 8955 8958 8961 8963 8966 8969 8972 8975 8978 8981 8984 8987 8989 8992 8995 8998 9001 9004 9007 9010 9013 9016 9019 9022 9025 9028 9030 9033 9036 9039 9042 9045 9048 9051 9054 9057 9060 9062 9065 9068 9071 9073 9076 9078 9081 9084 9087 9090 9092 9095 9098 9101 9104 9107 9109 9112 9115 9118 9121 9124 9127 9130 9133 9136 9139 9142 9145 9148 9151 9154 9157 9160 9163 9166 9169 9172 9174 9177 9180 9183 9186 9189 9192 9195 9198 9201 9204 9207 9210 9213 9216 9218 9221 9223 9226 9229 9231 9234 9237 9239 9242 9244 9247 9250 9253 9256 9259 9261 9264 9266 9269 9272 9274 9277 9279 9282 9285 9288 9291 9293 9295 9298 9301 9304 9307 9310 9313 9316 9319 9321 9324 9327 9330 9333 9335 9338 9340 9343 9346 9349 9352 9355 9358 9361 9364 9367 9370 9372 9375 9378 9380 9382 9385 9388 9391 9394 9396 9399 9402 9405 9408 9411 9414 9417 9420 9423 9426 9429 9432 9435 9437 9440 9442 9445 9448 9451 9453 9456 9459 9462 9464 9467 9470 9473 9476 9479 9482 9484 9487 9490 9493 9496 9499 9502 9505 9507 9510 9513 9516 9518 9521 9524 9527 9530 9533 9536 9539 9542 9545 9548 9551 9554 9557 9560 9563 9566 9569 9572 9575 9577 9580 9583 9585 9588 9591 9594 9597 9600 9603 9606 9609 9612 9615 9618 9621 9624 9627 9630 9633 9636 9639 9642 9645 9648 9651 9654 9657 9659 9662 9664 9666 9669 9672 9675 9677 9680 9682 9685 9688 9690 9693 9696 9699 9702 9705 9707 9710 9713 9716 9719 9722 9724 9727 9729 9732 9735 9738 9741 9744 9746 9749 9752 9755 9758 9761 9764 9767 9770 9773 9775 9778 9781 9783 9786 9789 9791 9794 9797 9799 9802 9804 9807 9810 9813 9816 9819 9822 9824 9826 9829 9832 9835 9837 9839 9841 9843 9846 9849 9852 9854 9857 9860 9863 9866 9869 9872 9875 9877 9880 9883 9886 9889 9892 9895 9898 9901 9904 9906 9909 9912 9915 9917 9920 9923 9926 9929 9932 9935 9938 9941 9944 9946 9949 9952 9954 9957 9960 9962 9965 9968 9971 9974 9977 9980 9983 9986 9989 9992 9995 9998 10001 10004 10007 10010 10013 10016 10019 10022 10025 10028 10031 10034 10037 10040 10043 10046 10049 10052 10055 10058 10061 10064 10067 10070 10073 10076 10079 10082 10085 10087 10090 10092 10095 10098 10101 10104 10107 10110 10113 10115 10117 10120 10123 10126 10129 10132 10135 10137 10140 10143 10146 10149 10152 10155 10158 10161 10164 10167 10170 10173 10176 10179 10182 10185 10188 10191 10193 10196 10198 10200 10203 10206 10209 10212 10215 10217 10220 10223 10226 10229 10231 10234 10237 10240 10243 10246 10249 10252 10255 10258 10261 10263 10266 10269 10271 10274 10276 10279 10282 10284 10286 10289 10292 10294 10297 10300 10303 10306 10309 10312 10315 10318 10320 10323 10326 10328 10331 10333 10336 10338 10341 10344 10347 10349 10352 10355 10357 10360 10362 10365 10368 10371 10374 10377 10380 10383 10386 10389 10392 10395 10398 10400 10402 10405 10407 10410 10413 10416 10419 10422 10425 10428 10431 10434 10437 10440 10443 10446 10449 10452 10455 10458 10461 10464 10467 10470 10472 10475 10478 10481 10484 10487 10490 10493 10496 10499 10501 10504 10507 10510 10513 10515 10518 10521 10524 10527 10530 10533 10536 10539 10542 10545 10548 10551 10554 10557 10560 10563 10566 10569 10572 10575 10578 10581 10584 10587 10590 10593 10596 10599 10602 10605 10608 10610 10613 10616 10619 10621 10624 10626 10629 10632 10635 10638 10640 10643 10645 10648 10651 10653 10655 10657 10659 10662 10665 10668 10670 10672 10675 10678 10681 10684 10687 10690 10693 10695 10698 10701 10704 10707 10710 10713 10716 10719 10722 10725 10727 10730 10733 10736 10739 10742 10745 10748 10751 10754 10757 10760 10763 10766 10769 10772 10775 10778 10781 10784 10787 10790 10793 10796 10798 10801 10803 10806 10809 10812 10815 10818 10821 10823 10826 10829 10832 10835 10838 10841 10844 10846 10849 10851 10853 10856 10859 10862 10864 10867 10869 10871 10874 10876 10879 10882 10885 10888 10891 10894 10897 10900 10903 10906 10909 10912 10915 10918 10921 10924 10927 10930 10933 10936 10939 10942 10945 10948 10951 10954 10957 10960 10963 10966 10969 10972 10975 10978 10981 10984 10987 10989 10992 10994 10997 10999 11002 11005 11008 11011 11013 11016 11019 11022 11024 11027 11029 11031 11033 11036 11039 11041 11044 11047 11050 11053 11055 11058 11061 11063 11066 11068 11070 11073 11076 11079 11082 11085 11088 11091 11094 11097 11100 11103 11106 11109 11112 11115 11117 11120 11123 11126 11129 11131 11134 11137 11140 11142 11145 11148 11150 11153 11155 11158 11160 11162 11165 11167 11170 11172 11175 11178 11181 11184 11186 11188 11191 11193 11195 11198 11201 11204 11207 11210 11212 11215 11218 11221 11224 11226 11229 11232 11234 11237 11239 11242 11245 11247 11250 11253 11256 11258 11261 11263 11265 11267 11270 11272 11275 11278 11280 11283 11286 11289 11292 11295 11298 11301 11304 11307 11309 11312 11315 11318 11321 11324 11327 11330 11333 11336 11339 11342 11344 11347 11350 11353 11355 11358 11361 11364 11366 11368 11371 11373 11376 11378 11381 11383 11386 11389 11391 11394 11396 11399 11402 11404 11407 11410 11413 11415 11418 11420 11423 11426 11429 11432 11435 11438 11441 11444 11447 11450 11452 11454 11456 11458 11461 11464 11466 11469 11472 11475 11478 11481 11484 11487 11490 11493 11496 11499 11502 11505 11507 11510 11513 11516 11519 11522 11524 11527 11530 11533 11536 11539 11542 11545 11548 11551 11553 11555 11558 11561 11564 11567 11570 11572 11575 11578 11581 11584 11586 11589 11591 11594 11597 11600 11602 11604 11607 11610 11613 11616 11619 11622 11625 11628 11631 11634 11637 11640 11643 11646 11649 11652 11655 11658 11661 11664 11667 11670 11673 11676 11679 11682 11685 11688 11691 11693 11695 11698 11701 11704 11707 11710 11713 11716 11719 11722 11725 11727 11730 11733 11735 11738 11741 11743 11746 11749 11751 11754 11757 11760 11763 11765 11767 11770 11773 11776 11779 11782 11784 11787 11790 11793 11796 11799 11802 11805 11808 11811 11814 11816 11819 11822 11825 11827 11830 11833 11836 11839 11842 11845 11847 11849 11852 11855 11858 11861 11864 11867 11870 11873 11876 11879 11882 11885 11888 11891 11894 11897 11900 11903 11906 11909 11912 11915 11918 11921 11924 11927 11930 11933 11936 11939 11942 11945 11948 11951 11954 11956 11959 11962 11965 11968 11971 11974 11977 11980 11983 11986 11989 11992 11995 11998 12001 12004 12007 12010 12013 12016 12019 12022 12025 12027 12030 12033 12036 12039 12042 12045 12048 12051 12053 12056 12059 12062 12065 12068 12071 12074 12076 12078 12081 12083 12086 12089 12092 12094 12097 12100 12103 12105 12108 12111 12114 12117 12120 12123 12126 12128 12131 12134 12137 12140 12143 12146 12149 12152 12155 12158 12161 12164 12167 12170 12173 12176 12179 12182 12185 12188 12191 12194 12197 12200 12203 12206 12209 12212 12215 12218 12220 12223 12226 12229 12232 12234 12237 12240 12243 12245 12248 12251 12254 12257 12260 12263 12266 12268 12271 12273 12276 12279 12282 12285 12288 12291 12294 12297 12300 12302 12305 12308 12311 12314 12317 12320 12323 12326 12329 12332 12335 12338 12341 12344 12347 12350 12353 12355 12358 12361 12364 12367 12370 12372 12375 12378 12380 12383 12385 12388 12391 12394 12396 12399 12402 12405 12407 12410 12413 12416 12419 12421 12424 12427 12430 12432 12435 12438 12441 12444 12446 12449 12452 12455 12458 12461 12464 12467 12470 12472 12475 12477 12480 12483 12486 12489 12492 12495 12498 12501 12504 12507 12510 12513 12516 12519 12522 12525 12528 12531 12534 12537 12540 12543 12546 12549 12552 12555 12558 12561 12564 12567 12570 12573 12576 12579 12582 12585 12588 12591 12593 12596 12599 12601 12604 12607 12610 12612 12614 12617 12620 12623 12626 12629 12632 12635 12637 12640 12643 12646 12649 12651 12654 12657 12660 12663 12666 12669 12672 12675 12678 12681 12684 12687 12690 12693 12696 12699 12702 12705 12708 12711 12714 12717 12720 12723 12726 12729 12732 12735 12738 12741 12744 12747 12750 12753 12756 12759 12761 12764 12767 12769 12772 12775 12778 12781 12784 12787 12790 12793 12796 12799 12802 12805 12808 12810 12813 12816 12819 12822 12825 12828 12831 12833 12836 12838 12841 12844 12847 12850 12853 12856 12859 12862 12865 12868 12871 12874 12877 12880 12883 12886 12889 12892 12895 12898 12901 12904 12907 12910 12913 12916 12919 12922 12925 12928 12931 12934 12937 12940 12943 12946 12949 12952 12955 12958 12961 12964 12967 12970 12973 12976 12979 12982 12985 12988 12991 12994 12997 13000 13003 13006 13009 13012 13015 13018 13021 13024 13027 13030 13033 13036 13039 13042 13045 13048 13051 13054 13057 13060 13063 13066 13069 13072 13075 13077 13079 13082 13085 13088 13091 13094 13097 13100 13103 13106 13109 13112 13115 13118 13121 13124 13126 13129 13131 13134 13137 13139 13142 13145 13148 13151 13154 13156 13159 13162 13165 13168 13171 13174 13177 13180 13183 13186 13189 13192 13195 13198 13201 13204 13207 13210 13213 13216 13219 13222 13225 13228 13231 13234 13237 13240 13243 13246 13249 13252 13255 13258 13261 13264 13267 13270 13273 13276 13279 13282 13285 13288 13291 13294 13297 13300 13302 13305 13308 13311 13314 13316 13318 13321 13324 13327 13330 13333 13336 13339 13342 13344 13347 13350 13353 13356 13359 13362 13364 13367 13370 13373 13376 13379 13382 13385 13388 13391 13394 13397 13400 13403 13406 13409 13412 13415 13418 13421 13424 13427 13430 13433 13435 13438 13441 13444 13447 13450 13453 13456 13459 13462 13465 13468 13471 13474 13476 13478 13481 13484 13487 13490 13493 13496 13498 13501 13503 13506 13509 13512 13515 13518 13521 13524 13527 13530 13533 13536 13539 13542 13545 13548 13551 13554 13557 13560 13563 13566 13569 13572 13575 13578 13581 13584 13587 13589 13592 13594 13597 13600 13603 13606 13609 13612 13615 13618 13621 13624 13627 13630 13632 13635 13638 13641 13644 13647 13650 13653 13656 13659 13662 13665 13668 13671 13674 13677 13680 13683 13686 13689 13692 13695 13698 13701 13704 13707 13710 13713 13716 13719 13722 13725 13728 13731 13734 13737 13740 13743 13746 13749 13752 13755 13758 13761 13764 13767 13770 13773 13776 13779 13782 13785 13788 13791 13794 13797 13800 13803 13805 13808 13810 13813 13816 13819 13822 13825 13828 13831 13834 13837 13840 13842 13845 13848 13851 13854 13857 13860 13863 13866 13869 13872 13875 13878 13881 13884 13887 13890 13893 13896 13899 13902 13905 13908 13911 13914 13917 13920 13923 13926 13929 13932 13935 13938 13941 13944 13947 13950 13953 13956 13959 13962 13965 13967 13970 13973 13976 13978 13981 13984 13987 13990 13993 13996 13999 14002 14005 14008 14011 14014 14017 14020 14023 14026 14029 14032 14035 14038 14041 14044 14047 14050 14053 14056 14059 14062 14065 14068 14071 14074 14077 14080 14083 14086 14089 14092 14095 14097 14100 14103 14106 14109 14112 14114 14116 14119 14122 14125 14128 14131 14134 14137 14140 14143 14146 14149 14152 14154 14157 14160 14163 14165 14168 14171 14174 14177 14180 14183 14186 14189 14192 14195 14198 14201 14204 14207 14210 14213 14216 14219 14222 14225 14228 14231 14234 14237 14240 14243 14246 14249 14252 14255 14258 14261 14264 14267 14270 14273 14276 14279 14282 14285 14288 14291 14294 14297 14300 14303 14306 14309 14312 14315 14318 14321 14324 14327 14330 14333 14336 14339 14342 14345 14348 14351 14354 14357 14360 14363 14366 14369 14372 14375 14378 14381 14384 14387 14390 14392 14395 14398 14401 14404 14407 14409 14412 14415 14418 14421 14424 14427 14430 14433 14436 14439 14442 14445 14448 14451 14453 14456 14459 14461 14464 14467 14469 14471 14474 14477 14479 14481 14484 14487 14490 14493 14496 14499 14502 14505 14507 14510 14513 14516 14519 14522 14525 14528 14531 14534 14537 14540 14543 14546 14549 14552 14555 14558 14561 14564 14567 14570 14573 14576 14579 14582 14585 14588 14591 14594 14597 14600 14603 14606 14609 14612 14615 14618 14621 14624 14627 14630 14633 14636 14639 14642 14645 14648 14651 14654 14656 14659 14662 14665 14667 14670 14673 14676 14679 14682 14685 14688 14690 14693 14696 14698 14701 14704 14707 14709 14712 14715 14718 14721 14724 14727 14730 14732 14735 14737 14740 14742 14745 14748 14751 14754 14757 14760 14763 14766 14769 14772 14775 14777 14780 14783 14786 14788 14791 14793 14796 14799 14802 14804 14807 14810 14813 14816 14819 14822 14825 14828 14831 14833 14836 14839 14842 14845 14848 14851 14853 14856 14859 14862 14865 14867 14870 14873 14876 14879 14882 14885 14888 14891 14893 14896 14899 14902 14905 14908 14911 14914 14917 14920 14923 14926 14929 14931 14934 14937 14940 14943 14946 14949 14952 14955 14958 14961 14964 14967 14970 14973 14976 14979 14982 14985 14988 14991 14994 14997 15000 15002 15005 15008 15011 15014 15017 15020 15023 15026 15029 15032 15035 15038 15041 15044 15047 15050 15053 15056 15059 15062 15065 15068 15071 15074 15077 15080 15083 15086 15089 15092 15095 15098 15101 15104 15107 15110 15113 15116 15119 15122 15125 15128 15131 15134 15137 15140 15143 15146 15149 15152 15155 15158 15161 15164 15167 15169 15172 15175 15178 15181 15184 15187 15190 15192 15195 15198 15201 15204 15207 15210 15213 15216 15218 15220 15223 15226 15228 15231 15234 15236 15239 15242 15245 15247 15250 15252 15255 15257 15260 15263 15265 15268 15271 15274 15277 15280 15283 15286 15289 15292 15295 15298 15301 15304 15307 15310 15313 15315 15318 15321 15324 15327 15330 15333 15336 15338 15341 15344 15347 15350 15353 15356 15359 15362 15364 15367 15369 15372 15375 15377 15379 15382 15384 15387 15390 15393 15396 15399 15402 15405 15408 15411 15413 15415 15418 15421 15424 15427 15430 15433 15436 15439 15442 15445 15448 15451 15454 15456 15459 15461 15464 15467 15470 15472 15475 15478 15481 15484 15486 15489 15491 15494 15496 15499 15502 15505 15508 15510 15513 15516 15519 15522 15525 15528 15530 15533 15536 15539 15542 15545 15547 15550 15553 15556 15558 15561 15564 15567 15570 15573 15576 15579 15582 15585 15588 15591 15593 15596 15599 15602 15605 15608 15611 15613 15616 15619 15622 15625 15628 15631 15634 15637 15640 15642 15644 15647 15650 15653 15655 15657 15660 15663 15666 15669 15672 15675 15678 15681 15684 15687 15690 15693 15696 15699 15702 15705 15708 15711 15714 15717 15720 15723 15726 15729 15732 15735 15738 15741 15744 15747 15750 15753 15756 15759 15762 15765 15768 15771 15774 15777 15780 15783 15785 15788 15791 15794 15797 15799 15802 15805 15808 15811 15814 15817 15820 15823 15826 15828 15831 15834 15836 15839 15841 15844 15847 15850 15853 15856 15859 15862 15865 15868 15871 15874 15877 15880 15883 15886 15889 15892 15894 15897 15900 15903 15906 15909 15912 15915 15918 15921 15924 15927 15929 15932 15934 15936 15939 15942 15944 15947 15950 15952 15955 15958 15960 15963 15966 15969 15972 15975 15978 15981 15984 15987 15990 15993 15996 15999 16002 16004 16007 16010 16013 16016 16019 16022 16025 16028 16031 16033 16036 16039 16041 16044 16047 16050 16053 16056 16059 16062 16065 16068 16070 16072 16075 16078 16081 16084 16087 16089 16092 16095 16098 16101 16104 16106 16108 16111 16114 16117 16120 16123 16126 16129 16132 16135 16138 16141 16144 16147 16150 16153 16156 16159 16162 16165 16168 16171 16174 16177 16180 16183 16186 16189 16192 16195 16197 16200 16203 16205 16208 16211 16213 16216 16218 16221 16224 16226 16229 16231 16234 16237 16240 16243 16246 16249 16252 16255 16258 16261 16264 16267 16270 16273 16276 16279 16282 16285 16288 16291 16294 16297 16300 16303 16306 16309 16312 16315 16318 16321 16323 16326 16329 16332 16335 16338 16341 16344 16347 16350 16353 16356 16359 16362 16365 16367 16370 16373 16375 16378 16381 16384 16387 16390 16393 16396 16399 16402 16405 16408 16411 16414 16417 16420 16423 16426 16429 16432 16435 16438 16441 16444 16447 16450 16452 16455 16457 16460 16463 16466 16469 16472 16475 16478 16480 16483 16486 16488 16491 16494 16497 16499 16502 16505 16508 16511 16514 16517 16520 16523 16526 16529 16532 16535 16538 16541 16544 16546 16549 16552 16555 16558 16561 16564 16567 16570 16572 16575 16578 16580 16583 16586 16589 16592 16594 16597 16600 16602 16605 16608 16611 16614 16616 16619 16622 16625 16627 16630 16633 16635 16638 16640 16643 16646 16649 16652 16655 16658 16661 16664 16667 16670 16673 16676 16679 16682 16685 16688 16691 16694 16696 16699 16702 16705 16708 16711 16714 16717 16720 16723 16725 16728 16731 16733 16736 16739 16742 16745 16748 16750 16753 16756 16758 16761 16764 16767 16770 16773 16776 16779 16782 16784 16787 16790 16792 16795 16797 16800 16803 16805 16808 16811 16814 16817 16820 16823 16826 16828 16831 16834 16836 16839 16842 16844 16846 16848 16851 16854 16857 16859 16862 16865 16867 16870 16873 16876 16878 16881 16883 16886 16889 16891 16893 16895 16898 16900 16903 16905 16908 16911 16914 16917 16920 16923 16926 16929 16931 16933 16936 16939 16942 16945 16948 16951 16954 16956 16959 16962 16964 16967 16970 16972 16975 16978 16981 16984 16986 16989 16992 16995 16998 17001 17004 17007 17010 17013 17016 17019 17022 17025 17028 17031 17033 17036 17039 17041 17044 17047 17049 17052 17055 17058 17060 17063 17066 17068 17071 17073 17076 17079 17082 17085 17088 17091 17094 17097 17100 17103 17106 17108 17111 17114 17117 17120 17123 17125 17128 17131 17134 17136 17139 17142 17145 17147 17150 17153 17155 17158 17160 17163 17166 17169 17172 17175 17178 17181 17184 17187 17190 17192 17195 17198 17201 17203 17206 17208 17211 17214 17216 17218 17221 17223 17226 17229 17232 17234 17237 17240 17243 17245 17248 17251 17253 17256 17259 17262 17264 17267 17269 17272 17275 17278 17281 17284 17287 17290 17293 17296 17298 17301 17304 17306 17309 17312 17314 17317 17320 17323 17326 17329 17331 17334 17337 17340 17343 17346 17349 17351 17354 17357 17360 17363 17366 17369 17372 17375 17377 17380 17383 17385 17388 17391 17394 17397 17400 17403 17406 17409 17411 17414 17416 17418 17421 17424 17427 17429 17432 17435 17438 17441 17444 17447 17450 17453 17456 17459 17462 17465 17468 17470 17473 17476 17478 17481 17484 17486 17489 17492 17495 17497 17499 17502 17505 17508 17511 17513 17515 17518 17521 17524 17527 17530 17533 17535 17538 17540 17543 17546 17549 17552 17555 17558 17561 17564 17566 17569 17572 17575 17578 17581 17584 17587 17590 17593 17596 17599 17602 17605 17608 17611 17614 17617 17620 17623 17626 17629 17632 17635 17638 17641 17644 17647 17650 17653 17656 17659 17662 17665 17668 17671 17674 17677 17680 17683 17686 17688 17690 17693 17696 17699 17702 17704 17707 17710 17713 17716 17719 17722 17725 17728 17731 17734 17736 17739 17742 17745 17748 17751 17754 17757 17760 17762 17765 17768 17771 17774 17777 17780 17783 17786 17789 17792 17795 17798 17801 17804 17807 17809 17812 17815 17818 17821 17824 17827 17830 17833 17836 17839 17841 17844 17847 17850 17853 17855 17858 17861 17864 17866 17869 17872 17874 17877 17880 17882 17885 17887 17889 17892 17894 17897 17900 17903 17906 17908 17910 17913 17916 17919 17922 17925 17928 17931 17934 17937 17940 17943 17946 17949 17952 17955 17958 17961 17964 17967 17970 17973 17976 17979 17982 17985 17988 17991 17994 17997 18000 18003 18006 18008 18011 18014 18017 18020 18023 18026 18029 18032 18035 18038 18041 18044 18047 18050 18053 18056 18059 18062 18065 18068 18071 18074 18076 18078 18081 18084 18087 18090 18093 18096 18099 18102 18104 18107 18110 18113 18116 18119 18122 18125 18127 18130 18133 18136 18139 18142 18144 18147 18150 18153 18156 18159 18162 18165 18168 18171 18174 18177 18180 18183 18186 18189 18192 18195 18198 18201 18204 18207 18210 18213 18216 18219 18222 18225 18228 18231 18234 18237 18239 18242 18245 18248 18251 18254 18257 18259 18262 18265 18267 18270 18273 18276 18279 18282 18285 18288 18291 18294 18297 18299 18302 18305 18308 18311 18314 18317 18319 18322 18325 18328 18330 18333 18336 18339 18342 18345 18348 18351 18353 18356 18359 18362 18364 18366 18369 18372 18375 18378 18381 18384 18386 18389 18392 18395 18398 18401 18403 18406 18409 18412 18414 18417 18420 18423 18426 18428 18431 18434 18437 18439 18442 18445 18448 18451 18454 18457 18460 18463 18466 18469 18472 18475 18478 18481 18484 18486 18489 18491 18494 18497 18500 18503 18506 18509 18512 18515 18517 18520 18523 18526 18528 18530 18533 18536 18539 18542 18545 18548 18550 18552 18555 18558 18561 18564 18567 18570 18573 18576 18578 18581 18584 18587 18590 18593 18596 18599 18602 18605 18608 18610 18613 18616 18618 18621 18624 18626 18628 18631 18634 18637 18640 18643 18646 18649 18651 18654 18657 18660 18662 18664 18666 18669 18672 18675 18678 18681 18684 18687 18690 18693 18695 18698 18701 18704 18707 18710 18712 18715 18718 18721 18724 18727 18730 18733 18735 18738 18741 18744 18746 18749 18752 18755 18758 18761 18764 18767 18770 18773 18776 18779 18782 18785 18788 18790 18793 18796 18799 18802 18805 18808 18811 18814 18816 18819 18822 18824 18827 18830 18832 18835 18838 18841 18844 18847 18850 18852 18855 18858 18860 18863 18866 18869 18872 18875 18878 18881 18884 18887 18890 18893 18896 18898 18901 18904 18906 18909 18912 18915 18918 18921 18923 18925 18928 18931 18934 18936 18939 18942 18945 18948 18950 18953 18956 18958 18961 18964 18967 18970 18973 18976 18979 18982 18985 18988 18991 18994 18996 18999 19002 19005 19008 19011 19014 19016 19019 19022 19024 19027 19029 19031 19034 19037 19040 19043 19046 19049 19052 19055 19058 19061 19064 19067 19070 19073 19076 19078 19081 19083 19086 19089 19092 19095 19098 19100 19103 19106 19109 19112 19114 19117 19119 19122 19125 19128 19131 19134 19137 19140 19143 19146 19149 19152 19155 19158 19161 19164 19167 19169 19172 19175 19177 19180 19183 19186 19189 19192 19195 19198 19201 19204 19207 19210 19213 19215 19218 19221 19224 19227 19230 19233 19235 19238 19241 19244 19247 19249 19252 19255 19258 19261 19264 19266 19269 19272 19274 19277 19280 19283 19286 19289 19292 19295 19298 19300 19303 19306 19308 19311 19314 19317 19320 19323 19326 19329 19332 19335 19338 19341 19344 19347 19350 19353 19356 19358 19361 19364 19367 19370 19373 19376 19379 19382 19385 19387 19390 19392 19395 19398 19401 19404 19407 19410 19413 19415 19418 19420 19423 19426 19429 19431 19433 19436 19439 19442 19445 19448 19451 19453 19456 19459 19462 19464 19466 19469 19472 19475 19478 19481 19484 19487 19490 19493 19496 19499 19502 19505 19508 19511 19513 19516 19519 19522 19525 19527 19530 19533 19535 19538 19541 19544 19547 19550 19553 19556 19559 19561 19564 19567 19570 19573 19576 19578 19581 19584 19586 19589 19592 19595 19598 19601 19603 19606 19609 19612 19615 19618 19621 19624 19627 19630 19633 19636 19639 19642 19644 19647 19650 19653 19656 19658 19661 19664 19666 19668 19671 19674 19677 19680 19683 19685 19688 19691 19693 19696 19699 19701 19704 19707 19709 19712 19715 19718 19721 19724 19727 19730 19733 19736 19739 19742 19745 19748 19751 19754 19756 19759 19762 19765 19768 19771 19774 19776 19779 19782 19785 19788 19791 19793 19796 19799 19802 19805 19808 19811 19814 19816 19819 19821 19824 19827 19830 19832 19835 19838 19841 19844 19846 19849 19852 19855 19858 19861 19864 19867 19870 19872 19875 19878 19881 19884 19886 19889 19892 19895 19898 19901 19904 19907 19909 19912 19915 19918 19921 19924 19927 19930 19933 19936 19939 19942 19945 19948 19951 19953 19956 19959 19962 19965 19968 19971 19973 19976 19979 19982 19985 19988 19991 19994 19996 19999 20002 20005 20008 20011 20014 20016 20019 20022 20025 20027 20030 20033 20035 20038 20041 20044 20047 20049 20052 20055 20058 20061 20063 20066 20069 20072 20075 20078 20081 20084 20086 20088 20091 20094 20097 20100 20103 20105 20108 20111 20114 20117 20120 20123 20126 20129 20131 20134 20137 20140 20143 20146 20149 20152 20155 20157 20160 20163 20166 20169 20172 20175 20178 20181 20184 20187 20190 20193 20196 20199 20202 20205 20208 20211 20214 20217 20220 20223 20226 20228 20231 20233 20236 20239 20242 20245 20247 20249 20252 20255 20258 20261 20264 20267 20270 20273 20276 20279 20281 20284 20287 20289 20292 20294 20297 20299 20302 20305 20307 20310 20313 20315 20318 20320 20323 20325 20327 20330 20332 20334 20337 20339 20342 20345 20348 20351 20353 20356 20359 20361 20364 20367 20369 20372 20374 20377 20380 20383 20385 20388 20391 20394 20396 20399 20402 20405 20408 20411 20414 20417 20420 20423 20426 20429 20432 20435 20438 20441 20444 20447 20450 20453 20456 20459 20462 20465 20468 20471 20474 20477 20480 20483 20486 20489 20492 20495 20498 20501 20504 20507 20510 20513 20516 20519 20522 20524 20527 20530 20533 20536 20538 20541 20544 20547 20550 20553 20556 20559 20562 20565 20567 20570 20573 20576 20579 20582 20585 20588 20591 20594 20597 20600 20603 20606 20609 20612 20615 20618 20621 20624 20627 20630 20633 20636 20639 20642 20645 20648 20651 20654 20657 20660 20663 20666 20669 20672 20675 20678 20681 20684 20687 20690 20693 20696 20699 20702 20705 20708 20711 20714 20717 20720 20723 20725 20728 20731 20734 20737 20740 20743 20746 20749 20752 20755 20758 20760 20763 20766 20769 20772 20775 20777 20779 20782 20785 20788 20790 20793 20795 20798 20801 20803 20806 20809 20812 20815 20818 20821 20824 20827 20830 20833 20836 20838 20841 20843 20846 20849 20852 20855 20858 20861 20863 20866 20869 20872 20875 20878 20881 20884 20887 20890 20893 20896 20899 20901 20904 20907 20910 20913 20915 20918 20921 20924 20927 20930 20933 20936 20939 20942 20944 20947 20950 20952 20955 20958 20961 20963 20966 20969 20972 20975 20978 20980 20983 20986 20989 20992 20995 20998 21001 21004 21007 21010 21013 21016 21018 21021 21024 21027 21030 21033 21036 21039 21042 21045 21048 21051 21054 21056 21059 21062 21065 21068 21071 21074 21077 21080 21083 21086 21089 21092 21095 21098 21101 21104 21107 21110 21112 21115 21118 21121 21123 21126 21129 21132 21135 21138 21141 21144 21147 21150 21153 21156 21158 21161 21164 21166 21169 21172 21175 21178 21181 21184 21187 21190 21193 21196 21199 21202 21205 21208 21211 21214 21217 21220 21223 21226 21229 21232 21235 21238 21241 21244 21247 21250 21253 21256 21259 21262 21265 21268 21271 21273 21276 21279 21282 21285 21288 21290 21293 21295 21298 21301 21304 21307 21310 21313 21316 21318 21320 21323 21326 21329 21332 21335 21338 21340 21343 21345 21348 21351 21354 21357 21360 21363 21366 21369 21372 21375 21378 21381 21384 21387 21390 21392 21395 21398 21400 21403 21406 21409 21411 21414 21417 21420 21423 21425 21427 21430 21433 21436 21439 21442 21445 21447 21450 21453 21456 21459 21461 21464 21467 21470 21473 21476 21479 21482 21485 21488 21491 21494 21497 21500 21503 21506 21509 21512 21515 21518 21521 21524 21527 21530 21533 21536 21539 21542 21544 21547 21550 21553 21556 21558 21561 21563 21566 21569 21572 21575 21578 21581 21584 21587 21590 21593 21596 21599 21602 21604 21607 21610 21612 21615 21618 21621 21624 21627 21630 21633 21636 21639 21642 21645 21648 21651 21653 21656 21659 21662 21664 21667 21669 21672 21675 21678 21681 21684 21687 21689 21692 21694 21697 21700 21703 21706 21709 21712 21715 21717 21720 21723 21726 21729 21732 21734 21737 21740 21743 21746 21749 21752 21755 21758 21761 21763 21766 21769 21772 21774 21777 21779 21782 21785 21788 21791 21793 21796 21799 21802 21805 21807 21809 21812 21815 21818 21821 21823 21826 21829 21831 21834 21837 21840 21843 21846 21849 21852 21854 21857 21860 21863 21865 21868 21871 21874 21877 21880 21883 21886 21889 21892 21894 21897 21900 21902 21905 21908 21910 21913 21916 21919 21921 21924 21926 21928 21931 21934 21936 21938 21941 21944 21947 21949 21952 21955 21958 21960 21963 21965 21967 21969 21972 21975 21978 21981 21984 21987 21990 21992 21995 21998 22001 22003 22006 22009 22012 22015 22017 22020 22023 22026 22029 22031 22034 22037 22040 22042 22044 22047 22050 22053 22056 22058 22061 22064 22067 22070 22073 22076 22079 22082 22085 22088 22091 22094 22097 22099 22102 22105 22108 22111 22113 22116 22119 22121 22124 22127 22130 22133 22136 22139 22142 22144 22147 22149 22152 22155 22158 22161 22164 22167 22170 22172 22175 22178 22180 22183 22186 22189 22192 22194 22196 22198 22201 22204 22207 22210 22213 22216 22219 22222 22225 22228 22231 22233 22236 22239 22242 22245 22247 22250 22253 22256 22259 22262 22265 22268 22271 22274 22277 22280 22283 22286 22289 22292 22295 22298 22301 22304 22307 22310 22313 22316 22319 22322 22325 22328 22331 22334 22337 22340 22343 22346 22349 22352 22355 22358 22360 22362 22365 22367 22370 22373 22376 22379 22382 22385 22388 22391 22393 22395 22398 22401 22404 22407 22410 22413 22416 22419 22422 22425 22428 22430 22432 22434 22437 22439 22442 22445 22448 22450 22452 22455 22458 22460 22462 22465 22468 22471 22474 22476 22479 22482 22485 22488 22490 22493 22496 22499 22502 22505 22507 22510 22513 22516 22518 22521 22523 22526 22529 22532 22535 22537 22540 22543 22546 22549 22552 22554 22557 22559 22562 22565 22568 22571 22574 22576 22579 22581 22584 22587 22590 22593 22596 22599 22602 22604 22607 22609 22612 22615 22618 22621 22624 22627 22630 22633 22636 22639 22642 22645 22648 22651 22654 22657 22660 22663 22666 22669 22672 22675 22678 22681 22683 22686 22689 22692 22695 22698 22700 22702 22705 22708 22711 22714 22717 22719 22722 22725 22728 22731 22734 22737 22739 22742 22745 22748 22751 22754 22757 22760 22763 22766 22769 22772 22775 22778 22781 22784 22787 22790 22793 22796 22799 22802 22805 22808 22810 22813 22816 22819 22821 22824 22826 22829 22832 22835 22838 22840 22842 22845 22847 22850 22852 22855 22858 22861 22864 22867 22870 22873 22876 22879 22882 22885 22888 22891 22894 22897 22900 22903 22906 22909 22912 22915 22918 22920 22923 22926 22929 22932 22934 22937 22940 22943 22946 22949 22952 22955 22958 22961 22963 22966 22969 22972 22975 22978 22981 22984 22987 22990 22993 22996 22999 23002 23005 23008 23011 23014 23017 23020 23023 23026 23029 23031 23034 23037 23040 23043 23046 23048 23051 23054 23057 23060 23062 23065 23068 23071 23073 23076 23079 23081 23084 23087 23090 23093 23096 23098 23101 23103 23105 23108 23111 23114 23117 23120 23123 23125 23128 23131 23133 23136 23138 23141 23144 23146 23149 23152 23155 23157 23160 23163 23166 23169 23172 23174 23177 23180 23182 23185 23188 23190 23193 23196 23199 23202 23205 23207 23210 23213 23216 23219 23222 23225 23228 23231 23234 23237 23240 23242 23244 23247 23249 23252 23255 23257 23260 23263 23266 23268 23271 23273 23276 23279 23281 23284 23287 23290 23292 23295 23298 23301 23304 23306 23308 23311 23314 23317 23320 23323 23326 23329 23331 23334 23337 23340 23343 23346 23349 23351 23354 23357 23360 23363 23366 23369 23372 23375 23378 23381 23384 23387 23390 23393 23396 23399 23402 23405 23408 23411 23414 23417 23420 23423 23426 23429 23432 23435 23438 23441 23444 23446 23448 23451 23454 23457 23460 23463 23466 23469 23472 23475 23478 23481 23484 23487 23490 23493 23496 23499 23502 23505 23508 23511 23514 23517 23520 23523 23526 23529 23532 23535 23538 23541 23544 23547 23550 23553 23556 23559 23562 23565 23568 23571 23574 23577 23580 23583 23585 23588 23591 23594 23597 23600 23603 23606 23609 23612 23615 23618 23621 23624 23627 23630 23632 23635 23638 23641 23644 23647 23650 23652 23654 23657 23660 23663 23666 23669 23672 23674 23676 23678 23681 23684 23687 23689 23692 23694 23697 23700 23703 23706 23709 23712 23715 23718 23721 23724 23727 23730 23733 23736 23738 23741 23744 23747 23750 23753 23755 23758 23760 23763 23765 23768 23771 23774 23777 23780 23783 23786 23789 23792 23795 23798 23801 23804 23807 23809 23812 23815 23817 23820 23823 23826 23829 23832 23835 23838 23841 23844 23847 23850 23852 23855 23858 23860 23863 23866 23868 23871 23874 23877 23880 23883 23886 23889 23892 23895 23898 23901 23904 23907 23910 23913 23916 23919 23922 23925 23928 23931 23934 23936 23939 23942 23944 23946 23949 23951 23954 23956 23959 23962 23965 23967 23969 23972 23975 23977 23980 23982 23985 23988 23990 23992 23995 23998 24001 24004 24007 24010 24012 24015 24018 24021 24024 24027 24030 24032 24035 24038 24040 24043 24045 24048 24051 24054 24057 24060 24063 24066 24069 24071 24074 24077 24080 24082 24085 24088 24091 24094 24096 24099 24102 24105 24108 24111 24114 24117 24120 24123 24126 24128 24131 24134 24137 24140 24142 24145 24148 24150 24153 24156 24158 24161 24164 24166 24169 24172 24175 24178 24181 24184 24187 24190 24192 24195 24198 24200 24203 24206 24209 24212 24215 24218 24221 24224 24227 24230 24232 24235 24237 24240 24243 24246 24249 24251 24254 24257 24260 24263 24266 24269 24272 24275 24278 24281 24284 24287 24290 24293 24296 24299 24302 24305 24308 24311 24313 24316 24318 24321 24324 24327 24330 24333 24336 24339 24342 24345 24348 24351 24353 24356 24358 24360 24363 24366 24369 24372 24375 24378 24381 24384 24387 24390 24393 24395 24398 24401 24404 24407 24410 24413 24415 24418 24420 24423 24425 24428 24431 24434 24436 24438 24441 24443 24446 24448 24451 24454 24456 24459 24462 24465 24467 24470 24473 24476 24479 24481 24484 24487 24490 24493 24495 24497 24500 24503 24506 24509 24512 24514 24517 24520 24523 24526 24529 24532 24535 24538 24541 24544 24547 24550 24552 24555 24558 24561 24564 24567 24570 24573 24576 24579 24582 24585 24587 24590 24593 24596 24599 24602 24604 24607 24610 24613 24616 24619 24621 24624 24627 24630 24633 24636 24638 24641 24644 24646 24649 24652 24655 24657 24660 24662 24665 24667 24670 24673 24676 24678 24681 24684 24686 24688 24691 24694 24697 24700 24703 24706 24708 24711 24714 24717 24720 24722 24725 24728 24731 24734 24737 24740 24743 24746 24749 24752 24755 24758 24761 24764 24767 24770 24772 24775 24778 24780 24783 24786 24789 24792 24795 24797 24800 24803 24806 24809 24811 24814 24816 24819 24822 24825 24828 24831 24834 24837 24840 24843 24846 24848 24850 24852 24855 24857 24860 24863 24866 24869 24872 24875 24878 24881 24884 24887 24890 24893 24896 24898 24901 24904 24907 24910 24913 24916 24919 24922 24925 24928 24931 24934 24936 24938 24941 24944 24947 24949 24952 24954 24957 24960 24963 24966 24969 24972 24975 24978 24981 24984 24987 24990 24993 24995 24998 25000 25003 25006 25009 25012 25015 25018 25021 25023 25026 25029 25032 25035 25038 25041 25044 25046 25049 25052 25055 25058 25061 25064 25067 25070 25073 25076 25079 25082 25085 25088 25091 25094 25097 25100 25103 25106 25109 25112 25115 25118 25121 25123 25125 25128 25131 25134 25137 25140 25143 25146 25149 25152 25155 25158 25161 25164 25167 25169 25172 25175 25177 25180 25183 25186 25189 25192 25195 25198 25201 25204 25207 25210 25213 25216 25219 25222 25225 25228 25231 25234 25237 25240 25243 25246 25248 25251 25253 25256 25259 25262 25265 25268 25270 25273 25276 25279 25282 25285 25288 25291 25294 25297 25300 25303 25306 25309 25312 25315 25318 25321 25324 25327 25330 25333 25336 25339 25341 25344 25347 25350 25353 25356 25359 25361 25364 25367 25370 25373 25376 25379 25382 25384 25387 25390 25393 25395 25398 25401 25404 25407 25410 25413 25415 25418 25421 25424 25427 25430 25432 25435 25438 25441 25444 25447 25450 25453 25456 25459 25461 25464 25467 25470 25472 25475 25478 25481 25484 25487 25490 25492 25495 25498 25501 25503 25506 25509 25512 25515 25518 25521 25524 25527 25530 25533 25536 25538 25541 25543 25546 25549 25552 25554 25557 25560 25562 25564 25567 25570 25573 25576 25579 25582 25585 25587 25590 25593 25596 25598 25601 25604 25606 25608 25611 25613 25616 25619 25622 25624 25627 25630 25633 25636 25639 25642 25645 25648 25650 25652 25655 25658 25661 25664 25666 25669 25672 25675 25678 25681 25684 25687 25690 25693 25696 25699 25702 25705 25708 25711 25714 25717 25720 25723 25726 25729 25732 25735 25738 25741 25744 25747 25750 25753 25756 25759 25762 25764 25767 25770 25773 25776 25779 25782 25784 25787 25790 25793 25796 25799 25802 25805 25808 25811 25813 25816 25819 25822 25825 25828 25831 25834 25837 25840 25843 25846 25849 25852 25855 25858 25861 25864 25867 25870 25873 25876 25879 25882 25885 25888 25890 25893 25896 25899 25902 25905 25908 25911 25914 25917 25920 25923 25926 25928 25931 25934 25937 25939 25942 25945 25948 25951 25954 25957 25960 25963 25966 25969 25972 25975 25978 25981 25984 25987 25990 25993 25996 25999 26002 26005 26007 26010 26013 26015 26018 26020 26023 26026 26029 26032 26035 26038 26040 26043 26046 26049 26052 26055 26058 26061 26064 26067 26070 26073 26076 26079 26082 26085 26088 26091 26094 26097 26100 26102 26105 26108 26111 26113 26116 26119 26122 26125 26128 26130 26133 26136 26139 26142 26144 26147 26150 26152 26155 26158 26161 26164 26167 26170 26173 26176 26179 26182 26185 26188 26191 26194 26197 26200 26203 26205 26207 26210 26213 26216 26219 26222 26225 26228 26231 26234 26237 26240 26243 26246 26248 26251 26253 26256 26259 26262 26265 26268 26271 26274 26277 26280 26283 26286 26289 26292 26295 26298 26301 26304 26307 26310 26313 26316 26319 26322 26325 26328 26331 26334 26336 26339 26342 26345 26348 26351 26354 26356 26359 26362 26365 26368 26371 26374 26377 26380 26383 26385 26388 26391 26394 26397 26399 26402 26405 26408 26411 26414 26417 26420 26423 26426 26429 26432 26435 26438 26441 26444 26447 26450 26453 26456 26459 26462 26465 26468 26471 26473 26476 26479 26481 26483 26486 26489 26492 26495 26498 26501 26504 26507 26510 26512 26515 26518 26521 26524 26526 26529 26532 26535 26538 26541 26543 26546 26549 26552 26554 26557 26560 26562 26564 26566 26569 26572 26575 26578 26580 26583 26586 26588 26590 26593 26595 26598 26601 26604 26606 26609 26612 26614 26616 26619 26622 26625 26628 26631 26634 26637 26640 26643 26646 26649 26652 26655 26657 26660 26663 26666 26669 26672 26675 26678 26680 26683 26686 26689 26692 26695 26698 26701 26704 26706 26709 26712 26715 26718 26721 26724 26727 26730 26733 26736 26739 26742 26745 26748 26751 26754 26757 26760 26763 26766 26769 26772 26775 26778 26781 26784 26786 26789 26792 26795 26798 26801 26804 26807 26810 26813 26816 26819 26822 26824 26827 26830 26833 26836 26839 26842 26845 26848 26851 26854 26857 26860 26862 26865 26868 26871 26874 26877 26880 26883 26886 26889 26892 26895 26898 26901 26904 26907 26910 26913 26916 26919 26922 26925 26928 26931 26934 26937 26940 26943 26946 26949 26952 26955 26958 26961 26964 26967 26970 26972 26975 26978 26981 26984 26987 26989 26992 26994 26997 26999 27001 27004 27007 27010 27013 27016 27019 27022 27024 27027 27030 27033 27036 27039 27042 27045 27048 27051 27054 27057 27060 27063 27066 27069 27072 27075 27078 27081 27084 27086 27089 27092 27095 27098 27100 27103 27105 27108 27111 27114 27117 27120 27123 27126 27129 27132 27134 27137 27140 27143 27146 27149 27152 27154 27157 27160 27162 27165 27168 27171 27174 27177 27180 27182 27185 27188 27191 27194 27197 27200 27203 27206 27209 27212 27215 27218 27221 27224 27227 27230 27233 27236 27239 27242 27245 27248 27251 27254 27257 27260 27263 27266 27269 27272 27275 27278 27281 27284 27287 27290 27292 27295 27298 27301 27304 27306 27309 27312 27315 27318 27321 27323 27326 27328 27331 27334 27337 27340 27343 27346 27349 27352 27355 27358 27361 27364 27367 27370 27373 27376 27379 27382 27385 27388 27391 27394 27397 27400 27403 27406 27409 27412 27414 27416 27419 27422 27425 27428 27431 27434 27437 27440 27443 27446 27449 27452 27454 27457 27460 27463 27466 27469 27472 27475 27478 27481 27484 27487 27490 27493 27496 27498 27501 27504 27506 27509 27512 27515 27518 27521 27524 27526 27529 27532 27535 27538 27541 27543 27546 27549 27552 27555 27557 27560 27562 27565 27568 27571 27574 27577 27580 27583 27586 27589 27592 27594 27597 27599 27601 27604 27607 27610 27613 27615 27618 27621 27623 27626 27629 27632 27634 27637 27640 27643 27646 27649 27652 27655 27658 27661 27663 27666 27668 27671 27674 27677 27680 27683 27686 27688 27691 27693 27696 27699 27702 27704 27707 27710 27713 27716 27719 27722 27725 27728 27730 27733 27736 27739 27742 27745 27747 27749 27752 27755 27758 27761 27763 27765 27767 27770 27773 27775 27778 27781 27784 27787 27790 27793 27796 27799 27802 27804 27807 27810 27813 27816 27818 27820 27822 27825 27828 27831 27834 27837 27840 27842 27845 27848 27850 27853 27856 27859 27862 27865 27868 27871 27874 27877 27879 27882 27884 27887 27889 27892 27895 27898 27901 27904 27907 27909 27912 27915 27918 27920 27922 27925 27928 27931 27934 27937 27940 27943 27946 27949 27952 27955 27958 27961 27964 27967 27970 27973 27976 27979 27982 27984 27987 27990 27993 27996 27999 28002 28005 28008 28010 28013 28015 28018 28020 28023 28026 28029 28031 28034 28037 28040 28043 28046 28049 28051 28054 28057 28060 28062 28065 28068 28071 28074 28077 28079 28082 28085 28088 28091 28093 28096 28099 28102 28104 28107 28110 28112 28115 28118 28120 28123 28126 28129 28132 28135 28137 28140 28142 28145 28148 28151 28154 28157 28160 28163 28166 28169 28172 28175 28178 28181 28184 28186 28189 28192 28194 28196 28199 28202 28205 28208 28211 28214 28217 28220 28223 28226 28229 28232 28235 28238 28241 28243 28246 28249 28252 28255 28258 28261 28264 28267 28270 28273 28276 28279 28282 28285 28288 28291 28294 28297 28300 28303 28306 28309 28312 28315 28318 28321 28324 28327 28330 28332 28335 28338 28341 28344 28347 28350 28353 28355 28358 28361 28364 28367 28370 28372 28375 28378 28381 28384 28387 28389 28392 28395 28398 28401 28404 28407 28410 28413 28416 28419 28421 28424 28426 28429 28432 28435 28438 28441 28444 28447 28450 28453 28456 28459 28462 28465 28467 28470 28473 28476 28479 28482 28485 28487 28490 28493 28496 28499 28502 28505 28508 28511 28514 28517 28520 28523 28526 28529 28532 28535 28538 28541 28544 28547 28550 28553 28556 28559 28561 28563 28566 28569 28571 28574 28577 28579 28582 28585 28588 28591 28594 28597 28599 28602 28605 28608 28611 28614 28617 28620 28622 28624 28627 28630 28633 28636 28639 28642 28645 28648 28651 28654 28657 28660 28663 28666 28669 28672 28675 28678 28681 28684 28687 28690 28693 28696 28699 28702 28705 28708 28711 28714 28717 28720 28723 28726 28729 28732 28735 28738 28741 28744 28747 28750 28753 28756 28758 28761 28764 28767 28770 28773 28776 28779 28782 28785 28788 28791 28793 28796 28799 28802 28805 28808 28811 28814 28817 28820 28823 28826 28829 28832 28835 28838 28841 28844 28847 28850 28853 28856 28859 28862 28865 28868 28871 28874 28877 28880 28883 28886 28889 28892 28895 28898 28900 28903 28905 28908 28911 28914 28917 28920 28923 28926 28928 28931 28933 28936 28939 28942 28945 28947 28950 28953 28956 28959 28962 28965 28968 28971 28974 28977 28980 28983 28986 28989 28992 28995 28998 29001 29004 29007 29010 29013 29016 29019 29021 29024 29027 29030 29033 29036 29039 29042 29045 29048 29051 29054 29057 29060 29063 29066 29069 29072 29075 29078 29081 29084 29087 29090 29093 29096 29099 29102 29105 29108 29111 29114 29117 29120 29123 29126 29129 29132 29135 29138 29141 29144 29147 29150 29153 29156 29159 29162 29165 29168 29171 29174 29177 29180 29182 29185 29188 29191 29194 29197 29200 29203 29206 29209 29212 29215 29217 29219 29222 29225 29228 29231 29234 29237 29240 29243 29246 29249 29252 29255 29258 29261 29264 29267 29270 29273 29276 29279 29281 29284 29287 29290 29292 29295 29297 29299 29302 29305 29308 29311 29314 29317 29320 29323 29326 29329 29331 29334 29337 29340 29343 29346 29349 29352 29355 29358 29361 29364 29367 29370 29373 29376 29379 29382 29385 29388 29391 29394 29397 29400 29403 29406 29409 29412 29415 29418 29421 29424 29427 29430 29433 29436 29439 29442 29445 29448 29451 29454 29457 29460 29462 29465 29468 29471 29474 29477 29479 29482 29485 29487 29490 29493 29496 29499 29502 29505 29508 29511 29514 29517 29520 29523 29526 29528 29531 29534 29537 29540 29543 29546 29549 29552 29555 29558 29561 29564 29566 29569 29572 29575 29578 29581 29584 29587 29590 29593 29595 29598 29600 29603 29606 29609 29611 29614 29617 29619 29622 29625 29628 29631 29634 29637 29640 29643 29646 29649 29652 29655 29658 29661 29664 29667 29670 29673 29676 29679 29682 29685 29688 29691 29694 29697 29700 29703 29706 29709 29712 29715 29718 29721 29724 29727 29729 29732 29734 29737 29740 29743 29746 29748 29751 29753 29756 29759 29762 29765 29767 29770 29773 29776 29779 29781 29784 29787 29790 29792 29795 29798 29801 29804 29806 29809 29812 29815 29818 29821 29824 29826 29829 29832 29834 29837 29839 29841 29844 29847 29849 29852 29855 29857 29860 29863 29865 29868 29870 29873 29876 29879 29882 29885 29887 29889 29891 29894 29897 29900 29902 29905 29908 29911 29914 29916 29918 29921 29924 29927 29930 29933 29936 29939 29942 29945 29948 29951 29954 29957 29960 29963 29965 29968 29970 29973 29975 29978 29980 29982 29985 29987 29990 29993 29996 29999 30001 30004 30007 30010 30013 30015 30017 30020 30023 30026 30029 30032 30035 30038 30041 30044 30047 30050 30053 30056 30059 30062 30065 30068 30071 30074 30077 30080 30083 30085 30087 30090 30093 30096 30099 30102 30104 30107 30110 30113 30116 30119 30121 30124 30127 30130 30133 30136 30139 30142 30145 30148 30151 30154 30157 30160 30163 30165 30168 30171 30174 30176 30179 30181 30183 30185 30188 30191 30194 30197 30199 30201 30204 30207 30210 30213 30215 30217 30219 30222 30225 30228 30231 30233 30236 30239 30242 30245 30248 30251 30254 30257 30260 30263 30266 30269 30272 30274 30277 30280 30282 30285 30287 30290 30293 30295 30298 30301 30304 30307 30310 30313 30315 30318 30321 30324 30327 30330 30333 30336 30339 30342 30345 30348 30351 30353 30356 30359 30362 30365 30368 30371 30374 30377 30380 30382 30385 30388 30391 30393 30396 30399 30402 30404 30407 30410 30413 30415 30417 30420 30423 30425 30428 30430 30433 30436 30438 30441 30444 30447 30450 30453 30456 30459 30462 30464 30467 30470 30473 30476 30479 30482 30484 30487 30490 30493 30496 30499 30501 30504 30507 30510 30513 30516 30519 30522 30525 30528 30531 30534 30537 30540 30543 30546 30548 30551 30554 30556 30559 30562 30565 30567 30570 30573 30576 30578 30581 30584 30587 30590 30593 30596 30599 30601 30604 30606 30609 30612 30615 30618 30621 30624 30627 30630 30633 30636 30639 30642 30645 30648 30651 30654 30657 30660 30663 30666 30668 30671 30674 30677 30680 30683 30686 30689 30692 30695 30698 30700 30703 30705 30708 30711 30714 30717 30720 30722 30725 30727 30730 30733 30736 30739 30742 30745 30747 30750 30753 30756 30759 30762 30765 30767 30770 30773 30776 30779 30782 30785 30788 30791 30794 30796 30798 30801 30804 30807 30810 30813 30816 30819 30821 30824 30827 30829 30832 30835 30838 30841 30844 30847 30850 30852 30855 30858 30861 30864 30867 30870 30873 30876 30878 30881 30883 30886 30889 30892 30895 30898 30901 30904 30907 30910 30913 30916 30919 30922 30925 30928 30931 30934 30937 30940 30943 30946 30949 30952 30955 30958 30961 30964 30967 30970 30973 30976 30979 30982 30985 30988 30991 30994 30997 31000 31003 31006 31009 31012 31015 31018 31021 31024 31027 31030 31033 31036 31039 31042 31045 31048 31051 31053 31056 31059 31062 31065 31068 31071 31074 31077 31079 31082 31085 31088 31091 31094 31097 31100 31103 31105 31108 31111 31114 31117 31120 31122 31125 31127 31130 31133 31136 31139 31142 31144 31147 31150 31153 31156 31158 31161 31164 31167 31170 31173 31176 31179 31182 31184 31187 31190 31193 31195 31197 31200 31203 31205 31208 31211 31214 31217 31220 31223 31225 31228 31230 31233 31236 31239 31242 31245 31248 31251 31254 31257 31260 31263 31266 31269 31272 31275 31278 31281 31284 31287 31290 31293 31296 31299 31302 31305 31308 31311 31314 31317 31320 31323 31326 31329 31332 31335 31338 31341 31344 31347 31349 31352 31355 31358 31361 31364 
</DataArray>
<DataArray type="UInt32" Name="types" format="ascii">
5 5 5 5 5 5 5 3 5 3 5 5 5 5 5 5 5 5 5 3 5 5 5 5 5 5 5 5 5 5 5 3 5 5 3 5 5 3 5 5 5 5 5 5 5 5 5 5 5 3 5 5 5 5 5 5 5 5 5 5 5 5 5 3 5 5 5 5 5 5 5 5 5 5 5 5 5 5 5 3 5 5 5 3 5 5 5 5 5 3 5 5 5 5 5 5 5 5 5 5 5 5 5 5 5 5 5 5 5 5 5 3 5 3 5 5 5 5 5 5 5 5 5 5 5 5 5 3 5 3 5 3 5 5 5 3 5 5 5 5 5 5 5 3 5 5 5 5 5 5 5 5 5 5 5 5 5 5 5 5 5 5 5 5 5 5 5 5 5 5 5 5 5 5 5 5 5 3 5 3 5 3 5 5 3 5 5 5 5 5 5 5 3 5 5 5 5 5 5 5 3 5 5 5 5 5 5 5 5 5 5 5 3 5 5 3 5 5 5 5 5 5 5 5 5 5 5 5 5 5 5 5 5 5 5 5 5 5 5 5 5 5 5 5 5 5 5 5 5 5 5 3 5 5 5 5 5 3 5 5 5 5 5 5 5 5 5 5 5 5 5 5 5 5 3 5 5 5 5 5 5 5 5 3 5 5 5 5 5 3 5 5 5 5 5 5 5 5 5 5 5 5 3 5 5 5 5 3 5 5 5 3 5 5 5 5 5 5 5 5 5 5 5 5 5 5 5 5 5 5 5 5 5 5 5 5 5 5 5 5 5 5 5 5 5 5 5 3 5 3 5 5 5 5 5 5 5 5 5 5 5 5 5 5 5 5 5 5 3 5 5 5 5 5 5 5 5 5 5 5 5 5 5 5 5 5 5 5 3 3 5 5 3 5 5 5 5 5 5 3 5 5 5 5 5 5 3 5 5 3 5 3 5 5 5 5 5 5 3 5 5 3 5 5 5 5 5 5 5 5 5 5 5 5 5 5 5 5 5 5 5 5 5 5 3 5 5 5 5 5 3 5 5 5 5 5 5 5 5 5 5 5 5 5 5 5 5 5 5 5 5 5 5 3 5 5 5 3 5 5 5 5 5 5 5 5 5 3 5 3 5 5 3 5 5 5 3 5 3 5 5 5 5 5 3 5 5 5 5 3 5 3 3 5 5 5 5 5 5 5 5 5 3 5 5 3 5 5 5 5 5 3 5 5 5 5 3 5 5 5 3 5 3 5 3 5 5 5 5 5 5 5 5 5 5 5 5 3 5 5 5 3 5 5 5 5 5 5 5 5 5 5 5 5 3 5 5 5 5 5 3 5 5 3 5 5 3 5 5 5 5 5 5 5 5 5 5 5 5 5 5 5 5 5 3 5 3 5 3 5 3 5 5 5 5 3 5 5 5 5 3 5 5 5 5 3 5 5 5 5 5 3 5 5 3 5 3 3 3 5 5 5 5 5 5 5 5 5 5 5 5 5 5 5 5 5 5 3 5 5 5 5 5 5 5 5 5 3 5 5 5 5 5 3 5 5 5 5 5 5 5 3 5 5 3 3 5 5 5 5 5 3 5 3 5 5 5 5 5 5 5 3 5 5 3 5 5 5 5 5 5 3 5 3 5 5 3 5 5 5 5 5 5 5 5 5 5 5 5 5 5 5 5 5 5 5 5 5 5 3 5 5 5 5 5 5 5 3 5 5 5 3 5 3 5 5 5 3 5 5 5 3 5 5 5 5 5 5 5 5 5 3 5 5 5 5 5 5 5 5 3 5 3 3 3 5 5 3 5 3 5 5 5 5 5 5 5 5 5 5 5 5 5 5 5 5 5 5 5 5 5 5 5 5 5 3 3 3 5 5 5 5 5 5 5 5 5 5 5 5 5 5 5 5 5 5 5 5 5 5 5 5 5 5 5 5 5 3 5 5 5 5 5 3 5 5 5 3 5 5 3 3 5 3 5 5 5 5 5 5 3 5 5 5 5 5 3 5 3 5 5 5 3 5 3 5 3 5 5 5 5 5 3 5 5 5 3 5 5 5 5 5 5 5 5 3 5 5 5 5 5 5 3 5 5 5 5 5 5 5 5 3 5 5 3 5 5 5 5 5 5 3 5 3 5 3 5 5 5 5 5 5 5 5 5 5 5 3 3 3 5 5 3 5 5 5 5 5 3 3 5 5 3 3 3 5 5 5 5 5 5 5 5 5 5 5 5 5 5 5 5 5 5 5 5 5 5 5 5 5 5 5 5 5 5 5 5 5 3 5 5 5 5 5 5 5 3 5 5 5 5 5 5 3 5 5 5 5 5 5 5 5 5 5 5 5 5 5 5 5 5 5 5 5 5 5 5 5 5 5 5 5 5 5 5 5 5 5 5 5 5 5 5 5 5 5 5 5 5 5 5 5 5 5 5 5 5 5 3 5 5 5 3 5 5 3 5 5 5 5 5 5 3 5 5 5 5 5 5 5 5 5 5 3 5 5 5 5 3 5 5 5 5 5 5 5 5 5 5 5 5 5 5 5 5 5 5 5 5 5 5 5 5 3 5 5 5 5 3 5 5 5 5 5 5 5 5 5 5 5 5 5 5 5 5 5 5 5 5 5 5 5 5 5 5 5 5 5 5 5 5 5 5 5 5 5 5 3 5 5 5 5 5 3 5 5 5 3 3 5 5 5 5 5 5 5 5 5 3 5 5 5 3 5 5 5 5 5 5 3 5 5 5 5 5 5 5 5 5 5 3 3 5 5 5 5 5 5 5 5 5 3 5 5 3 5 5 5 3 3 5 5 3 5 5 3 3 5 5 5 3 5 5 5 5 5 3 5 5 5 5 5 5 5 5 5 3 5 5 5 5 5 5 5 5 5 5 5 5 5 5 5 3 5 5 5 5 5 5 3 5 5 5 5 5 5 5 5 5 5 5 5 5 5 5 5 3 3 5 5 5 5 5 5 5 5 5 5 5 5 5 5 5 5 5 5 5 5 5 5 5 5 5 5 5 5 5 5 5 5 5 5 5 5 5 5 5 5 5 5 5 5 3 5 3 5 5 5 3 5 5 5 5 5 5 5 5 5 3 5 5 3 5 5 5 5 5 3 5 5 5 5 5 5 5 3 5 5 3 5 5 5 5 5 5 3 5 5 5 5 5 5 5 5 5 5 5 5 3 5 5 5 5 5 5 5 5 5 5 5 5 5 5 5 5 5 5 5 5 5 5 5 5 5 5 5 5 5 5 5 5 5 5 5 5 5 5 5 5 5 5 5 5 5 5 5 5 5 5 5 5 5 5 5 5 5 5 5 5 5 5 5 5 5 5 5 5 5 5 5 5 5 5 5 5 5 5 5 5 5 5 5 5 5 5 5 5 5 3 5 5 5 5 5 5 5 5 5 5 5 3 5 5 5 3 5 5 5 5 5 5 5 5 5 5 5 5 5 5 5 5 5 5 5 5 5 5 5 5 5 5 5 5 5 5 5 5 5 5 5 5 5 5 5 5 5 5 5 5 5 5 5 5 5 5 5 5 5 5 5 5 5 5 5 5 5 5 5 5 5 5 5 5 5 5 5 5 5 5 5 5 5 5 5 5 5 5 5 5 5 5 5 5 5 5 5 5 5 5 5 5 5 5 5 5 5 5 5 5 5 5 5 5 5 5 5 5 3 5 5 5 5 5 5 5 5 5 5 3 5 5 5 5 3 5 5 5 3 3 5 5 5 5 5 5 5 5 5 5 5 5 5 5 5 5 5 5 5 3 3 5 5 3 5 5 5 5 5 5 3 5 5 5 5 5 3 5 5 5 5 5 5 3 5 5 5 5 5 5 3 5 3 5 5 5 5 5 5 5 5 5 5 5 5 5 5 5 5 5 3 5 5 5 5 5 5 5 3 5 5 5 5 5 3 5 5 5 5 5 5 5 3 5 5 5 3 5 5 3 5 5 5 5 5 5 5 5 5 5 5 5 5 5 3 5 5 5 5 5 5 5 5 3 5 5 5 5 5 5 3 5 5 5 5 5 3 5 5 5 5 5 5 5 5 5 5 5 5 5 5 5 5 5 5 5 3 5 5 5 3 5 3 5 5 5 5 5 5 5 5 5 5 5 5 5 5 5 5 5 5 5 5 5 5 5 5 5 3 5 5 3 5 5 5 5 5 5 5 5 3 5 5 5 5 5 5 5 5 5 5 5 3 5 5 5 5 5 5 5 5 5 5 5 5 5 5 5 5 5 3 5 5 5 5 5 5 5 5 5 5 3 5 5 5 5 5 5 5 5 3 5 5 5 5 5 5 3 5 5 5 5 5 5 5 5 5 5 5 5 5 5 5 5 5 5 5 5 5 5 5 5 5 5 5 5 5 3 5 3 5 5 5 5 5 5 5 3 5 3 5 5 5 5 5 5 5 5 5 5 5 5 5 5 3 5 3 5 5 5 5 5 5 3 5 5 5 5 5 5 5 5 5 3 5 3 5 5 5 5 5 5 5 5 3 5 5 3 5 5 5 5 5 3 5 5 5 5 3 3 5 3 3 5 5 5 5 3 5 5 5 5 5 5 5 5 5 5 5 5 5 5 5 5 5 5 5 5 5 3 3 5 5 5 5 5 3 5 5 5 3 5 5 5 5 5 5 5 3 5 5 5 5 5 3 5 5 5 3 5 5 5 5 5 5 5 5 5 3 5 5 5 5 5 5 3 3 5 5 5 5 5 5 3 5 5 5 5 5 5 5 5 5 5 5 5 5 3 5 5 5 5 5 3 5 5 3 5 5 5 5 5 5 5 3 5 5 5 5 3 5 5 5 5 5 5 5 5 5 5 5 5 5 5 5 5 5 5 5 5 5 5 5 5 5 5 5 5 5 5 5 3 5 5 5 3 5 5 3 5 5 5 5 5 5 3 3 5 5 5 5 3 5 5 5 5 5 5 5 3 5 5 5 5 5 5 5 3 5 5 5 5 5 5 5 5 5 5 5 5 5 5 5 3 5 5 3 5 5 5 5 5 5 5 5 5 3 5 3 5 5 3 5 5 5 5 5 5 5 5 5 5 5 5 5 5 5 5 3 5 5 5 5 5 3 5 5 5 5 5 5 5 5 5 5 5 3 5 5 5 5 5 5 5 3 5 5 5 5 3 5 5 5 5 5 3 5 5 3 5 5 5 5 5 5 3 5 3 3 5 3 5 5 3 3 5 3 5 3 5 5 5 5 5 5 5 3 5 5 5 5 5 5 5 5 5 5 5 5 5 5 5 5 5 5 5 5 5 5 5 3 5 5 5 5 5 5 5 5 5 5 5 5 5 5 3 5 3 5 5 5 5 5 5 5 5 5 5 5 5 5 5 5 5 5 5 5 5 5 5 5 5 5 5 5 5 5 5 5 5 5 5 5 5 5 5 5 3 5 5 5 5 5 5 5 5 5 5 5 3 5 5 5 5 5 5 5 5 5 5 5 5 5 5 5 5 5 5 5 5 5 5 5 5 5 5 5 3 5 5 5 5 5 5 5 5 5 3 5 5 5 5 3 5 5 5 5 5 5 5 5 5 5 5 5 5 5 3 5 5 5 5 3 5 5 5 5 5 5 5 5 5 5 5 5 3 5 5 5 5 5 5 3 5 5 5 5 5 5 5 5 5 5 3 5 5 5 5 5 5 5 5 5 5 5 5 5 5 5 5 5 5 5 5 5 5 5 5 5 5 5 5 5 5 5 5 5 5 3 5 5 5 5 3 3 5 5 3 5 5 5 5 3 5 5 5 5 5 5 5 5 5 5 5 5 5 5 5 5 3 5 5 5 3 5 5 5 5 5 3 5 5 3 5 5 5 5 5 5 5 5 5 5 5 5 5 5 5 5 5 3 5 5 5 5 5 5 5 5 5 5 5 3 5 5 5 3 5 5 5 5 3 3 5 5 5 5 5 5 5 5 5 5 5 5 5 5 5 3 5 5 5 5 5 5 5 5 5 5 5 3 5 5 5 5 5 3 5 5 5 5 5 5 5 5 5 3 5 5 5 5 5 5 5 5 5 5 5 5 5 5 5 5 5 5 5 5 5 5 5 5 5 3 5 5 5 5 5 5 3 5 5 5 5 5 5 5 5 5 5 5 5 5 5 5 5 5 5 5 5 5 5 5 5 5 5 5 5 5 5 5 5 5 5 5 5 5 5 5 5 5 5 5 5 5 5 5 5 5 5 5 5 5 5 5 5 5 5 5 3 5 5 5 5 5 5 5 3 5 5 5 3 5 3 5 5 5 5 5 3 3 5 5 5 5 5 5 5 5 3 5 5 5 5 5 5 5 3 5 3 5 5 3 3 5 5 5 3 5 5 5 5 5 5 5 5 3 5 5 5 5 3 5 5 5 5 5 5 5 5 5 5 5 5 5 5 5 3 5 5 5 5 3 3 5 5 5 5 3 5 5 5 5 5 3 5 5 5 5 5 5 5 5 5 5 5 5 3 5 5 5 5 5 5 5 5 3 5 3 5 5 5 5 5 5 5 5 5 5 5 5 5 5 5 5 3 5 5 5 5 5 5 5 3 5 3 5 5 5 3 5 5 5 5 5 5 5 5 5 5 5 5 5 5 5 5 5 5 5 5 5 5 5 5 5 5 5 5 5 5 5 3 5 5 5 5 5 5 5 3 5 5 5 3 5 5 5 5 5 3 5 5 5 5 5 3 5 5 5 5 3 5 5 5 3 5 5 3 5 5 5 5 3 5 5 3 5 5 5 3 5 5 5 5 5 3 5 5 5 5 5 5 5 3 5 5 5 5 5 5 5 5 5 5 5 5 3 5 5 5 3 5 5 3 5 5 3 5 5 5 3 5 5 3 3 5 5 5 5 3 5 5 5 5 5 5 5 5 3 5 5 5 5 5 3 3 5 5 5 5 3 5 5 5 5 5 5 5 3 5 5 5 5 5 5 5 5 5 3 5 5 3 5 5 5 5 3 3 5 3 5 5 5 5 5 3 5 5 3 5 5 3 5 3 5 5 5 5 5 5 3 5 5 5 5 5 5 5 5 5 5 5 5 5 5 3 5 5 5 5 5 5 5 5 3 5 5 5 5 5 5 5 5 5 5 5 5 5 3 5 5 5 5 5 5 5 5 5 5 3 5 5 5 3 5 3 5 5 5 5 3 5 5 5 5 5 3 5 5 5 5 5 5 5 5 5 5 5 5 5 5 5 5 5 5 5 5 5 3 5 5 5 5 5 5 5 5 5 5 5 5 5 5 3 5 3 5 5 3 5 5 3 5 3 5 5 5 5 5 3 5 3 5 5 3 5 3 5 5 5 5 3 3 5 5 5 5 5 5 5 5 3 5 5 5 5 3 5 3 5 5 5 5 5 5 5 5 5 5 3 5 5 3 3 5 5 5 5 3 5 5 5 5 5 5 5 5 5 5 5 5 5 3 5 3 5 5 5 3 5 5 5 3 5 5 5 5 5 5 3 5 5 5 5 5 5 5 3 5 5 5 3 5 5 5 5 5 5 5 5 5 5 5 5 5 5 5 5 5 5 5 3 5 5 3 5 5 5 5 5 5 5 5 5 5 5 5 5 5 5 5 5 5 5 5 5 5 5 5 3 5 3 3 5 5 5 3 5 3 5 5 3 5 5 5 5 5 3 5 5 5 5 5 3 5 3 5 5 5 5 5 3 5 5 5 5 5 5 5 5 5 3 5 5 3 5 5 3 5 5 3 5 3 5 5 5 5 5 5 3 3 5 5 5 3 3 3 3 5 5 5 3 5 5 5 5 5 5 5 3 5 5 5 5 5 5 5 5 5 3 5 5 5 3 5 5 5 5 5 5 5 5 5 3 5 5 3 5 5 3 5 5 5 5 5 5 5 5 5 5 5 5 5 5 5 5 5 5 5 5 5 5 5 5 5 5 5 5 5 5 5 5 5 5 5 5 5 5 5 5 5 3 5 3 5 5 5 5 5 5 5 3 3 5 5 5 5 5 5 3 5 5 5 5 5 5 5 5 5 5 5 5 5 5 5 5 5 5 3 5 3 3 5 5 5 5 5 3 5 5 5 5 3 5 5 5 5 5 5 5 5 5 5 3 5 5 3 5 3 5 5 3 3 5 5 3 5 5 5 5 5 5 5 5 3 5 5 3 5 3 5 3 5 5 5 3 5 5 3 5 3 5 5 5 5 5 5 5 5 5 5 5 5 3 3 5 3 5 5 5 5 5 5 5 5 5 5 5 5 5 5 5 5 5 5 5 5 5 3 5 5 5 5 5 5 5 5 5 3 5 5 5 5 3 5 5 5 5 5 5 5 5 5 5 5 5 5 5 5 5 5 5 5 5 5 5 5 5 5 5 5 5 5 5 5 3 5 5 5 3 5 3 5 5 5 5 3 5 3 5 5 3 3 3 3 5 5 5 3 3 5 5 5 5 5 5 5 3 5 5 5 5 5 5 5 5 5 5 3 5 5 5 5 5 5 5 5 5 5 5 5 5 5 5 5 5 5 5 5 5 5 5 3 5 3 5 5 5 5 5 5 3 5 5 5 5 5 5 5 3 5 3 3 5 5 5 3 5 3 3 5 3 5 5 5 5 5 5 5 5 5 5 5 5 5 5 5 5 5 5 5 5 5 5 5 5 5 5 5 5 5 5 5 5 5 5 5 5 5 3 5 3 5 3 5 5 5 5 3 5 5 5 3 5 3 3 3 5 5 3 5 5 5 5 3 5 5 3 5 3 3 5 5 5 5 5 5 5 5 5 5 5 5 5 5 5 3 5 5 5 5 3 5 5 5 3 5 5 3 5 3 5 3 3 5 3 5 3 5 5 5 5 3 3 5 3 3 5 5 5 5 5 3 5 5 5 5 3 5 5 3 5 3 5 5 3 5 5 5 3 5 3 3 3 5 3 5 5 3 5 5 5 5 5 5 5 5 5 3 5 5 5 5 5 5 5 5 5 5 5 3 5 5 5 3 5 5 5 3 3 5 3 5 3 5 3 5 5 3 5 3 5 5 3 5 5 5 3 5 3 5 5 5 5 5 5 5 5 5 5 3 3 3 3 5 5 3 5 5 5 5 5 5 5 5 5 5 5 5 5 3 5 5 5 5 5 3 5 5 5 5 5 5 5 5 5 3 3 5 5 5 5 5 3 5 5 5 5 3 5 3 5 5 5 3 3 5 5 5 5 5 5 5 5 5 5 5 5 5 5 5 5 5 5 5 5 5 5 5 5 5 5 5 5 5 3 3 5 5 5 5 5 5 5 5 5 5 3 5 5 3 5 5 3 5 5 3 5 5 5 5 3 3 5 5 5 5 5 3 5 5 5 5 5 5 5 5 5 5 3 5 5 5 3 5 5 5 5 5 5 3 3 5 5 5 5 5 5 5 5 5 5 5 5 5 5 5 5 5 5 5 5 5 5 5 5 5 5 5 5 5 5 5 5 5 5 5 3 5 5 5 5 5 5 5 5 5 5 5 5 5 5 5 5 5 5 5 5 5 5 5 3 5 5 5 5 5 5 5 5 3 5 5 5 5 5 5 5 3 3 5 3 5 5 5 3 5 5 5 3 5 5 5 5 5 5 5 3 5 5 5 5 5 5 5 5 5 5 5 5 5 5 5 5 5 5 5 5 5 5 5 5 5 5 5 5 5 5 3 5 5 5 5 3 5 5 5 3 5 5 5 5 5 5 5 3 5 3 5 5 5 5 5 5 5 5 5 3 5 5 5 5 5 5 5 5 5 5 5 5 5 5 5 5 5 3 5 5 5 5 5 3 5 5 3 5 3 5 5 5 3 5 5 5 3 5 5 5 5 3 5 5 5 3 5 5 5 5 3 5 5 5 5 5 5 5 5 3 5 3 5 5 5 5 5 5 5 5 5 5 5 5 5 5 5 5 5 5 5 5 5 5 5 5 5 5 5 5 5 5 5 5 5 5 5 5 5 5 3 5 5 3 5 5 5 3 3 5 5 5 5 5 5 5 3 5 5 5 5 3 5 5 5 5 5 5 5 5 5 5 5 5 5 5 5 5 5 5 5 5 5 5 5 5 5 5 5 5 5 5 5 5 5 5 5 5 3 5 5 3 5 5 5 5 5 5 5 5 5 5 5 5 5 3 5 5 5 5 5 5 5 3 5 3 5 5 5 5 5 5 5 5 5 5 5 5 5 5 5 5 5 5 5 5 5 5 5 5 5 5 5 5 5 5 5 5 5 5 5 5 5 5 5 5 5 5 5 5 5 5 5 5 5 5 5 5 5 5 5 5 5 5 5 5 5 5 5 5 5 5 5 5 5 5 5 5 5 5 5 5 5 5 5 3 3 5 5 5 5 5 5 5 5 5 5 5 5 5 5 5 3 5 3 5 5 3 5 5 5 5 5 3 5 5 5 5 5 5 5 5 5 5 5 5 5 5 5 5 5 5 5 5 5 5 5 5 5 5 5 5 5 5 5 5 5 5 5 5 5 5 5 5 5 5 5 5 5 5 5 5 3 5 5 5 5 3 3 5 5 5 5 5 5 5 5 3 5 5 5 5 5 5 3 5 5 5 5 5 5 5 5 5 5 5 5 5 5 5 5 5 5 5 5 5 5 5 3 5 5 5 5 5 5 5 5 5 5 5 5 5 3 3 5 5 5 5 5 5 3 5 3 5 5 5 5 5 5 5 5 5 5 5 5 5 5 5 5 5 5 5 5 5 5 5 5 5 5 5 5 3 5 3 5 5 5 5 5 5 5 5 5 5 5 5 3 5 5 5 5 5 5 5 5 5 5 5 5 5 5 5 5 5 5 5 5 5 5 5 5 5 5 5 5 5 5 5 5 5 5 5 5 5 5 5 5 5 5 5 5 5 5 5 5 5 5 5 5 5 5 5 5 5 3 5 3 5 5 5 5 5 5 5 5 5 5 3 5 5 5 5 5 5 5 5 5 5 5 5 5 5 5 5 5 5 5 5 5 5 5 5 5 5 5 5 5 5 5 5 5 5 5 5 5 5 5 5 5 3 5 5 5 3 5 5 5 5 5 5 5 5 5 5 5 5 5 5 5 5 5 5 5 5 5 5 5 5 5 5 5 5 5 5 5 5 5 5 5 5 5 5 5 3 5 5 5 5 5 3 3 5 5 5 5 5 5 5 5 5 5 5 5 3 5 5 5 3 5 5 5 5 5 5 5 5 5 5 5 5 5 5 5 5 5 5 5 5 5 5 5 5 5 5 5 5 5 5 5 5 5 5 5 5 5 5 5 5 5 5 5 5 5 5 5 5 5 5 5 5 5 5 5 5 5 5 5 5 5 5 5 5 5 5 5 5 5 5 5 5 5 5 5 3 5 5 5 5 5 3 5 5 5 5 5 5 5 5 5 5 5 5 5 5 3 5 5 3 5 5 3 3 5 5 3 3 5 5 5 5 5 5 5 5 3 5 5 5 5 5 5 5 5 5 5 5 5 5 5 5 5 5 5 5 5 5 5 5 5 5 5 5 5 5 5 5 5 5 5 5 5 5 5 5 5 5 5 5 5 5 5 5 5 5 3 5 5 5 3 5 5 5 5 5 5 5 3 5 5 3 5 5 5 3 5 5 5 5 5 5 5 3 5 3 5 3 5 5 5 5 5 5 5 5 5 5 5 3 5 5 5 3 5 3 5 5 5 3 5 5 5 5 5 5 5 5 5 3 5 5 5 5 5 5 3 5 5 5 5 3 5 5 5 5 5 5 5 5 3 5 5 5 5 5 5 5 5 5 5 5 5 3 5 5 5 5 5 5 5 5 5 5 5 5 5 5 5 5 5 5 5 5 5 5 5 3 5 5 5 5 5 5 5 5 5 5 5 5 5 5 5 5 5 5 5 5 5 5 5 5 5 5 5 5 5 5 5 5 5 5 5 5 5 5 5 5 5 5 5 5 5 5 5 5 5 5 5 5 5 5 5 3 5 5 5 5 5 5 5 3 5 5 5 5 5 5 5 5 3 3 5 5 3 5 5 3 5 5 5 3 5 3 5 3 5 5 3 5 5 5 5 5 5 5 5 5 5 5 5 5 5 5 5 3 5 5 5 5 5 5 5 3 5 5 5 5 5 5 5 5 3 5 3 5 5 3 3 5 3 5 5 5 5 5 5 5 5 5 3 3 5 5 5 5 5 5 5 5 5 5 5 5 5 3 5 3 5 5 5 3 5 5 5 5 3 5 3 5 3 5 5 5 5 3 5 5 5 5 5 5 3 5 5 5 5 5 3 5 5 5 3 5 5 5 5 5 5 5 5 5 5 5 3 5 5 5 5 5 5 3 5 5 5 5 5 5 5 5 5 3 3 5 5 5 3 3 5 5 5 5 5 5 5 5 5 5 5 5 5 5 5 5 5 5 5 5 5 5 5 5 5 5 5 5 5 5 5 5 5 5 5 5 5 5 5 5 5 5 3 5 5 5 5 3 5 5 5 5 5 5 5 5 5 3 5 5 3 5 3 5 5 5 5 5 5 5 5 5 5 5 5 5 5 5 5 5 3 5 5 5 5 5 5 5 5 5 5 5 3 5 3 3 5 5 3 5 5 3 5 5 3 5 5 5 5 5 5 5 5 5 5 5 5 5 5 3 5 5 5 5 5 5 5 5 5 3 5 5 3 5 5 5 5 5 5 5 5 5 3 3 5 5 5 5 5 3 5 5 5 5 5 3 3 5 5 5 5 5 5 5 5 5 5 5 5 5 5 5 5 5 5 5 5 5 5 5 5 5 5 5 5 5 3 5 5 3 5 5 3 5 3 5 5 3 5 3 5 5 5 5 5 5 5 5 5 5 5 5 5 5 5 5 5 5 5 5 5 5 5 5 5 5 5 5 5 5 3 5 5 5 5 5 5 5 5 5 5 5 5 5 5 3 5 5 3 5 5 5 5 5 5 5 5 5 5 5 5 5 5 5 5 5 5 5 5 5 5 5 5 5 3 5 3 5 5 5 5 5 5 5 3 5 5 3 5 5 5 3 5 5 5 5 5 5 5 5 5 5 5 5 5 5 5 3 5 5 5 5 5 5 5 5 3 5 5 3 5 5 5 5 3 5 5 3 5 5 5 5 3 5 5 5 3 5 5 3 5 3 5 5 5 5 5 5 5 5 5 5 5 5 5 5 5 5 5 5 3 5 5 5 5 5 5 5 5 5 3 5 5 3 5 5 5 5 5 3 5 5 3 5 5 5 5 5 5 5 5 3 5 5 3 5 3 5 5 3 5 5 5 5 5 5 5 3 5 5 3 5 5 3 3 3 5 5 5 3 5 5 3 5 5 5 3 5 3 5 5 3 3 3 5 3 5 3 5 5 5 5 5 5 5 5 3 3 5 5 5 5 5 5 5 3 5 5 3 5 5 3 5 5 5 5 3 5 5 5 5 5 5 5 5 5 5 5 5 5 5 5 3 5 5 3 5 5 3 5 5 5 3 5 5 3 5 3 5 5 5 5 5 5 5 5 5 5 5 3 5 5 5 5 5 3 5 5 5 3 5 5 5 3 5 5 3 5 3 5 5 5 5 5 5 5 5 5 5 3 5 5 5 3 5 3 5 5 3 3 5 3 5 5 5 3 5 5 5 3 5 5 3 5 5 5 3 5 3 5 5 5 5 5 5 5 5 5 3 5 5 3 5 5 3 5 5 5 5 5 3 5 5 5 5 5 5 3 5 5 5 5 5 5 5 5 3 5 5 3 5 5 5 5 5 5 5 5 3 5 3 3 5 5 5 3 5 5 5 5 5 5 5 5 5 5 5 5 5 3 5 5 3 5 5 3 5 5 5 3 3 5 5 5 5 3 3 5 5 5 5 5 5 3 5 3 5 5 5 5 5 5 5 5 3 5 5 5 5 5 5 5 5 5 5 5 5 5 5 5 5 5 5 5 5 5 5 5 5 5 5 5 5 5 5 5 5 5 5 5 5 5 5 5 5 3 3 5 5 5 5 3 5 5 5 5 5 5 5 5 5 5 3 5 5 5 5 5 5 5 5 3 5 5 5 5 5 5 5 5 5 5 5 5 5 5 5 3 5 5 5 5 5 5 5 5 5 5 3 5 5 5 5 3 5 5 5 3 5 5 3 5 5 3 5 3 3 5 3 5 5 5 5 3 3 5 5 5 5 5 5 5 5 5 5 5 5 5 5 5 5 5 5 5 5 5 5 5 5 5 5 5 5 5 5 5 5 3 5 5 5 5 5 5 5 5 5 5 5 5 5 5 5 5 5 5 5 5 5 5 3 3 5 5 5 5 5 5 5 5 3 5 5 5 5 5 5 5 3 5 5 5 5 5 3 5 5 5 5 5 5 5 5 5 5 5 5 5 5 5 5 5 5 5 5 5 5 5 5 5 5 5 5 5 5 5 3 5 5 5 5 5 5 3 5 5 3 5 5 5 5 5 5 5 5 5 5 3 5 5 5 5 5 5 3 5 5 5 3 5 5 5 5 5 5 5 3 5 5 5 3 3 5 5 5 5 5 5 3 5 5 5 5 5 3 5 5 5 3 5 5 5 5 3 5 5 5 3 5 5 5 5 5 5 5 5 5 5 5 5 5 5 5 3 5 3 5 5 5 5 5 5 5 5 3 5 5 5 3 3 5 5 5 5 5 5 3 3 5 5 5 5 5 5 5 5 3 5 5 5 5 5 5 5 5 5 5 3 5 5 3 5 5 3 3 5 5 5 5 5 5 5 3 5 5 5 3 3 3 5 5 5 5 5 5 5 5 5 3 5 5 5 5 5 3 5 5 5 5 5 5 5 3 5 5 5 3 5 5 5 5 5 5 5 5 5 5 5 5 5 5 3 5 5 5 5 5 5 5 5 3 5 5 3 5 5 3 5 5 5 5 5 5 3 5 5 3 5 5 5 5 5 5 5 5 5 5 5 5 3 5 5 3 5 5 5 5 5 3 3 5 5 5 3 5 5 5 5 3 5 5 3 5 5 5 5 5 5 5 5 5 5 5 5 3 5 5 5 5 5 5 3 5 5 3 5 3 3 5 5 5 5 5 5 5 5 5 5 5 5 5 5 5 3 5 3 5 5 5 5 5 3 5 5 5 5 3 5 3 5 5 5 5 5 5 5 5 5 5 5 5 5 5 5 5 3 5 5 3 5 5 5 5 5 5 5 5 5 5 5 5 3 5 5 5 5 5 5 3 5 5 5 5 3 5 5 5 5 5 3 5 5 3 5 5 5 5 5 5 5 5 3 5 5 3 5 5 5 5 5 5 5 5 5 5 5 5 5 5 5 5 3 5 5 5 5 5 5 5 5 5 3 5 3 5 5 5 5 5 5 5 3 5 3 5 5 5 3 3 5 5 5 5 5 5 3 5 5 5 3 3 5 5 5 5 5 5 5 5 5 5 5 5 5 5 5 3 5 5 5 5 3 5 5 3 5 5 5 5 5 5 5 5 3 5 5 5 5 5 3 5 5 3 5 5 5 5 5 3 5 5 5 5 5 5 5 5 5 5 5 5 5 3 5 5 5 5 3 5 5 3 3 5 5 5 5 5 3 5 5 3 5 5 3 5 5 3 5 5 5 5 5 5 5 5 5 5 5 5 5 5 5 3 5 5 5 5 5 5 3 5 5 5 5 5 3 5 5 5 5 5 5 5 3 5 3 5 5 5 3 5 5 5 5 3 5 5 5 5 5 5 5 5 3 5 5 5 5 3 5 5 5 5 5 5 5 3 5 5 5 5 5 5 5 5 5 5 5 5 5 5 3 5 5 5 5 5 5 3 5 5 5 5 5 5 5 3 5 5 5 5 5 5 3 5 5 5 3 5 5 3 5 5 5 5 3 5 5 5 5 3 5 5 5 5 5 5 5 3 3 5 5 5 5 5 3 5 5 5 5 5 5 5 5 3 5 5 5 5 5 5 5 5 3 5 5 5 5 5 5 5 5 5 5 5 5 5 5 5 5 5 5 5 5 5 5 5 3 5 3 5 5 5 5 3 3 5 5 5 5 5 5 5 5 5 5 3 5 5 3 5 3 5 3 5 5 3 5 5 3 5 3 5 3 3 5 3 3 5 3 5 5 5 5 3 5 5 3 5 5 3 5 3 5 5 5 3 5 5 5 3 5 5 5 5 5 5 5 5 5 5 5 5 5 5 5 5 5 5 5 5 5 5 5 5 5 5 5 5 5 5 5 5 5 5 5 5 5 5 5 5 5 5 3 5 5 5 5 3 5 5 5 5 5 5 5 5 5 3 5 5 5 5 5 5 5 5 5 5 5 5 5 5 5 5 5 5 5 5 5 5 5 5 5 5 5 5 5 5 5 5 5 5 5 5 5 5 5 5 5 5 5 5 5 5 5 5 5 5 5 5 3 5 5 5 5 5 5 5 5 5 5 5 3 5 5 5 5 5 3 3 5 5 5 3 5 3 5 5 3 5 5 5 5 5 5 5 5 5 5 5 3 5 3 5 5 5 5 5 5 3 5 5 5 5 5 5 5 5 5 5 5 5 3 5 5 5 5 3 5 5 5 5 5 5 5 5 5 3 5 5 3 5 5 5 3 5 5 5 5 5 3 5 5 5 5 5 5 5 5 5 5 5 5 3 5 5 5 5 5 5 5 5 5 5 5 5 3 5 5 5 5 5 5 5 5 5 5 5 5 5 5 5 5 5 5 3 5 5 5 3 5 5 5 5 5 5 5 5 5 5 5 3 5 5 3 5 5 5 5 5 5 5 5 5 5 5 5 5 5 5 5 5 5 5 5 5 5 5 5 5 5 5 5 5 5 5 5 5 5 5 3 5 5 5 5 5 3 5 3 5 5 5 5 5 5 5 3 3 5 5 5 5 5 5 3 5 3 5 5 5 5 5 5 5 5 5 5 5 5 5 5 5 3 5 5 3 5 5 5 3 5 5 5 5 3 3 5 5 5 5 5 5 3 5 5 5 5 3 5 5 5 5 5 5 5 5 5 5 5 5 5 5 5 5 5 5 5 5 5 5 5 5 5 5 5 3 5 5 5 5 3 5 3 5 5 5 5 5 5 5 5 5 5 5 5 5 3 5 5 3 5 5 5 5 5 5 5 5 5 5 5 5 5 3 5 5 5 3 5 3 5 5 5 5 5 5 3 5 3 5 5 5 5 5 5 5 3 5 5 5 5 5 3 5 5 5 5 5 5 5 5 5 3 5 5 5 3 5 3 5 5 5 5 3 5 5 5 5 3 3 5 5 5 5 3 5 5 3 5 5 5 5 5 5 5 3 5 5 5 3 5 5 5 5 5 5 5 5 5 3 5 5 3 5 5 3 5 5 5 3 5 3 3 5 5 3 3 5 5 5 3 5 5 5 3 5 3 3 3 5 5 5 5 5 5 5 3 5 5 5 3 5 5 5 5 3 5 5 5 5 3 5 5 5 3 3 5 5 5 5 3 5 5 5 5 5 5 5 5 5 5 5 5 5 3 5 5 5 5 3 5 5 3 5 5 5 5 5 5 5 3 5 3 5 5 5 5 5 5 5 3 5 5 3 5 5 5 5 3 3 3 5 5 5 5 5 5 5 5 5 5 5 3 5 5 5 5 3 5 5 5 5 5 5 5 5 5 5 5 5 5 5 5 5 5 5 5 5 5 5 5 5 5 5 5 5 5 5 5 5 5 5 5 5 5 3 3 5 3 5 5 5 5 5 5 5 5 3 3 5 5 5 5 5 5 5 5 5 5 5 3 3 3 5 3 5 5 5 3 3 5 5 3 3 5 5 5 5 3 5 5 5 5 3 5 5 5 5 5 3 5 5 5 3 5 3 5 5 5 5 3 5 5 5 5 5 3 5 3 5 5 5 5 5 3 5 3 5 5 5 5 5 5 5 3 5 3 5 5 5 5 5 5 5 5 5 5 5 5 5 5 5 5 5 5 5 5 5 5 5 5 3 5 5 5 5 5 3 3 5 5 5 5 5 3 5 5 5 5 5 5 3 5 5 5 5 5 5 5 5 5 5 5 5 5 5 5 5 5 5 5 5 5 5 5 3 5 5 5 3 5 3 5 5 5 5 3 3 5 3 5 3 5 5 5 5 5 5 5 5 5 5 5 5 5 5 5 5 5 5 5 5 5 5 3 5 5 5 5 3 5 5 5 5 5 5 5 5 5 3 5 5 5 5 5 5 5 5 5 5 5 5 5 5 5 5 5 5 5 5 5 5 3 5 5 5 5 5 3 5 5 5 5 3 5 5 5 3 5 5 3 5 5 5 5 5 3 5 3 3 5 5 5 5 5 5 3 5 5 3 5 3 5 5 3 5 5 5 3 5 5 5 5 5 3 5 5 3 5 5 3 5 5 5 5 5 3 5 5 5 5 5 5 5 5 5 5 5 3 3 5 3 5 5 3 5 5 5 3 5 3 5 5 3 5 5 5 3 5 5 5 5 3 3 5 5 5 5 5 5 5 3 5 5 5 5 5 5 3 5 5 5 5 5 5 5 5 5 5 5 5 5 5 5 5 5 5 5 5 5 5 5 5 5 5 5 5 5 5 5 3 3 5 5 5 5 5 5 5 5 5 5 5 5 5 5 5 5 5 5 5 5 5 5 5 5 5 5 5 5 5 5 5 5 5 5 5 5 5 5 5 5 5 5 5 5 5 3 5 5 5 5 5 5 5 5 5 5 5 5 5 5 5 3 5 5 5 5 5 5 3 3 5 5 5 5 5 5 3 3 3 5 5 5 3 5 3 5 5 5 5 5 5 5 5 5 5 5 5 5 5 3 5 5 5 5 5 3 5 3 5 3 5 5 5 5 5 5 5 5 5 5 5 5 5 5 3 5 5 3 5 5 5 5 5 5 5 5 5 5 5 3 5 5 3 5 5 3 5 5 5 5 5 5 5 5 5 5 5 5 5 5 5 5 5 5 5 5 5 5 3 5 5 3 3 5 3 5 3 5 5 5 3 3 5 5 3 5 3 5 5 3 3 5 5 5 5 5 5 3 5 5 5 5 5 5 3 5 5 3 5 3 5 5 5 5 5 5 5 5 3 5 5 5 3 5 5 5 5 3 5 5 5 5 5 5 5 5 5 5 3 5 5 5 5 3 5 5 3 5 5 3 5 5 3 5 5 5 5 5 5 5 5 3 5 5 3 5 5 5 5 5 5 5 5 5 5 3 5 3 5 5 5 5 3 5 5 5 5 5 5 5 5 5 5 5 5 5 5 5 5 5 5 5 5 3 5 3 5 5 5 5 5 5 5 5 5 5 5 3 5 3 3 5 5 5 5 5 5 5 5 5 5 5 3 5 5 5 5 5 5 3 5 3 5 3 5 5 5 3 3 5 3 5 3 5 5 3 5 5 5 3 5 5 5 5 3 5 5 5 5 3 3 5 5 5 5 5 3 5 5 5 5 5 5 5 5 5 5 5 5 3 5 5 5 5 5 5 5 5 5 5 5 3 5 5 5 5 5 3 5 5 5 5 5 3 5 5 5 5 5 3 5 5 3 5 5 5 3 5 3 5 3 5 5 5 3 5 5 3 3 5 5 5 5 5 5 3 5 5 5 5 3 5 5 5 5 5 5 5 5 5 5 5 5 5 5 5 5 3 5 5 3 5 5 5 5 5 3 5 5 5 5 3 5 3 5 5 5 5 5 5 5 5 5 5 3 3 3 5 3 5 5 5 5 5 5 5 5 5 5 5 5 5 3 5 5 5 5 5 5 5 5 5 5 5 5 3 3 5 5 5 3 5 3 5 5 5 5 5 5 5 5 5 5 5 5 5 3 5 3 5 5 5 5 5 5 5 3 5 5 5 5 5 5 5 3 5 5 5 5 5 5 5 5 5 5 5 5 5 5 5 5 5 5 5 5 5 5 5 5 5 3 3 5 5 5 5 5 5 5 5 5 5 5 5 5 5 3 5 5 3 5 5 5 5 5 5 5 5 5 5 5 5 5 5 5 5 5 5 5 5 5 5 5 3 5 3 5 5 5 5 5 3 5 5 5 5 5 5 5 5 5 5 5 5 5 5 5 5 5 5 5 5 5 5 5 3 5 5 5 5 5 5 3 5 5 5 5 5 5 5 3 5 5 5 3 5 5 5 5 5 5 3 5 5 5 5 5 3 5 5 5 5 5 5 5 5 5 3 5 5 5 3 5 5 5 5 5 5 3 5 5 5 3 5 5 5 5 5 5 5 5 5 5 5 3 5 3 5 5 5 3 5 5 3 3 5 5 5 5 5 5 5 3 5 5 5 3 5 5 3 3 5 3 5 5 5 3 5 5 5 5 5 5 5 5 3 3 5 5 5 5 3 5 5 5 5 5 5 5 5 5 5 5 5 5 5 5 5 5 5 5 5 5 5 5 5 5 5 5 5 5 5 5 5 3 5 5 5 5 5 5 3 5 5 5 5 5 5 5 5 5 3 5 5 5 5 5 5 5 5 5 5 5 5 5 5 5 5 5 5 5 5 5 5 5 5 5 3 5 5 5 5 5 5 5 5 5 5 5 5 3 5 5 5 3 5 5 5 5 5 5 5 5 5 5 5 5 5 5 5 5 5 5 5 5 5 5 3 5 5 3 5 3 5 5 5 5 5 5 3 5 5 5 5 5 5 5 5 5 5 5 5 5 5 5 5 5 5 5 5 3 5 5 5 3 5 5 5 5 5 3 5 5 5 5 3 5 5 3 5 5 5 5 5 5 5 5 5 5 5 5 5 5 5 5 5 3 3 5 5 5 5 5 5 5 5 5 5 5 5 5 3 5 3 5 5 5 5 5 5 5 5 5 5 5 5 5 5 5 5 5 5 5 5 5 5 5 5 5 5 5 3 5 5 5 5 5 5 3 5 5 5 5 5 5 5 5 5 3 5 5 5 5 3 5 5 5 5 5 5 5 5 5 5 5 5 5 5 5 5 5 5 5 5 5 5 5 5 3 5 5 3 3 5 5 5 5 5 5 5 5 5 3 5 5 5 5 3 5 5 5 5 5 3 5 5 5 3 5 5 3 3 3 5 5 5 5 3 5 5 3 3 5 3 5 5 5 3 5 5 3 3 5 5 5 5 5 5 5 5 5 5 5 5 5 3 5 5 5 5 5 5 5 3 5 5 5 5 5 5 5 5 3 5 5 5 5 5 5 5 5 5 5 5 5 5 5 5 5 5 5 5 5 5 5 5 5 5 5 3 5 5 5 5 5 5 5 5 5 5 5 5 3 5 5 5 5 5 5 5 5 5 5 5 5 3 5 5 5 5 5 5 5 5 5 5 5 5 5 5 5 5 5 5 5 5 5 5 5 5 5 5 5 5 5 5 5 5 5 5 5 5 3 5 5 5 5 5 3 5 3 5 3 3 5 5 5 5 5 5 5 3 5 5 5 5 5 5 5 5 5 5 5 5 5 5 5 5 5 5 5 5 3 5 5 5 5 3 5 3 5 5 5 5 5 5 5 5 5 3 5 5 5 5 5 5 3 5 5 3 5 5 5 5 5 5 3 5 5 5 5 5 5 5 5 5 5 5 5 5 5 5 5 5 5 5 5 5 5 5 5 5 5 5 5 5 5 5 5 5 5 5 5 3 5 5 5 5 3 5 5 5 5 5 3 5 3 5 5 5 5 5 5 5 5 5 5 5 5 5 5 5 5 5 5 5 5 5 5 5 5 5 5 5 5 3 3 5 5 5 5 5 5 5 5 5 5 5 5 3 5 5 5 5 5 5 5 5 5 5 5 5 5 5 3 5 5 3 5 5 5 5 5 5 3 5 5 5 5 5 3 5 5 5 5 3 5 3 5 5 5 5 5 5 5 5 5 5 3 5 3 3 5 5 5 5 3 5 5 3 5 5 5 3 5 5 5 5 5 5 5 5 5 3 5 3 5 5 5 5 5 5 3 5 3 5 5 5 3 5 5 5 5 5 5 5 5 3 5 5 5 5 5 3 3 5 5 5 5 3 3 3 5 5 3 5 5 5 5 5 5 5 5 5 3 5 5 5 5 3 3 3 5 5 5 5 5 5 3 5 5 3 5 5 5 5 5 5 5 5 5 3 5 3 5 3 5 5 5 5 5 5 3 5 5 5 3 3 5 5 5 5 5 5 5 5 5 5 5 5 5 5 5 5 5 5 5 5 3 5 5 5 5 5 5 5 5 3 5 3 5 3 5 5 5 3 5 5 5 5 5 5 3 5 5 5 3 5 5 5 5 5 3 5 5 5 5 3 5 5 5 3 5 5 3 5 5 3 5 5 5 5 5 3 5 3 5 5 5 5 5 5 5 5 5 5 5 5 5 5 3 5 5 3 3 5 5 5 5 5 5 5 5 5 5 5 5 5 5 5 3 5 5 5 5 5 5 5 5 5 5 5 5 5 5 5 5 5 5 5 5 5 5 5 5 5 5 5 5 5 3 5 5 5 5 5 5 5 3 5 5 5 5 5 3 5 5 5 5 5 3 5 5 5 5 5 5 5 5 5 5 3 5 3 5 5 5 5 5 5 5 5 5 5 5 5 5 3 5 5 5 5 5 5 3 5 5 5 5 5 5 5 5 5 5 5 5 5 5 5 5 5 5 5 5 5 5 5 5 3 3 5 5 3 5 5 3 5 5 5 5 5 5 3 5 5 5 5 5 5 5 3 3 5 5 5 5 5 5 5 5 5 5 5 5 5 5 5 5 5 5 5 5 5 5 5 5 5 5 5 5 5 5 5 5 5 5 5 5 5 5 5 5 5 5 5 5 3 5 5 5 5 5 5 5 5 5 5 5 3 5 5 5 5 5 5 5 5 5 5 5 5 5 5 5 5 5 5 5 5 5 5 5 5 5 5 5 5 5 5 5 5 5 5 5 3 5 3 5 5 5 5 5 5 5 3 5 3 5 5 5 5 3 5 5 5 5 5 5 5 5 5 5 5 5 5 5 5 5 5 5 5 5 5 5 5 5 3 5 5 5 5 5 5 5 5 5 5 5 5 5 5 5 5 5 5 5 5 5 5 5 5 5 5 5 5 5 5 5 5 5 5 5 5 5 5 5 5 5 5 5 5 5 5 5 5 5 5 5 5 5 3 5 5 5 5 5 5 5 5 5 5 5 3 3 5 5 5 5 5 5 5 5 5 5 5 5 5 5 5 5 5 5 5 5 3 5 5 5 3 5 3 3 5 5 5 5 5 5 5 5 5 5 3 5 5 5 5 5 5 5 5 5 5 5 5 5 5 5 5 5 5 5 5 5 5 5 5 5 5 5 5 5 5 5 5 5 5 5 5 5 5 5 5 5 5 5 3 5 5 5 5 5 3 5 5 3 5 5 5 5 5 5 5 5 5 5 5 5 5 3 5 5 5 5 5 5 5 5 5 5 5 5 3 5 5 5 5 5 5 5 5 5 3 5 3 5 5 5 3 5 5 3 5 5 5 5 5 5 5 5 5 5 5 5 5 5 5 5 5 5 5 5 5 5 5 5 5 5 5 5 5 5 5 5 5 5 5 5 3 5 3 5 5 5 5 3 5 3 5 5 5 5 3 5 5 5 5 3 5 5 5 3 5 5 5 5 3 5 5 5 5 5 5 3 5 5 3 5 3 3 5 5 3 5 5 3 5 5 3 5 3 5 5 5 5 5 3 3 3 5 5 5 3 5 5 5 5 3 3 5 5 5 5 5 5 5 5 5 5 5 5 5 5 5 3 5 3 5 3 5 3 3 5 3 5 5 5 5 3 5 5 5 5 3 3 5 5 5 5 5 5 5 5 5 5 5 5 5 5 5 5 5 5 5 5 5 5 3 3 5 5 5 5 5 3 5 5 5 5 5 3 5 5 5 5 5 5 5 5 5 5 5 5 5 5 3 5 5 5 3 5 3 3 3 5 5 5 5 3 3 5 5 5 5 3 3 3 5 5 5 5 3 5 5 5 5 5 5 5 5 5 5 5 5 5 3 5 5 3 5 3 5 5 3 5 5 5 5 5 5 3 5 5 5 5 5 5 5 5 5 5 5 5 3 5 5 5 5 5 5 5 5 5 3 5 5 5 3 5 5 5 3 5 5 5 3 3 5 5 3 5 3 5 5 3 5 5 5 5 5 5 5 5 3 5 5 5 5 5 5 3 5 5 5 5 5 3 5 5 5 5 5 5 5 5 5 5 5 5 5 5 5 3 5 5 3 5 5 5 3 5 5 5 3 5 5 5 5 5 5 5 3 5 3 5 5 5 5 5 5 5 5 5 5 5 5 5 5 5 5 5 5 5 5 3 5 5 5 5 5 5 5 5 5 5 3 5 3 5 5 5 5 5 3 5 3 5 5 5 5 5 5 3 5 5 5 5 5 5 3 5 5 5 5 5 5 5 5 5 3 3 5 5 5 5 5 5 5 3 5 5 3 5 5 5 5 5 5 5 3 5 5 5 5 5 5 5 5 3 5 3 5 5 5 5 5 5 5 5 5 5 5 5 5 5 5 5 5 5 5 5 5 5 5 5 5 5 5 5 5 5 5 5 5 5 5 5 5 5 5 5 5 5 5 5 5 5 5 5 5 5 5 5 5 5 5 5 3 5 5 5 5 5 5 5 5 3 5 5 5 5 5 5 5 5 3 5 5 5 5 5 3 5 3 5 5 5 5 5 3 5 5 5 5 3 5 5 5 5 5 5 5 5 3 5 5 5 3 3 5 5 3 5 5 5 5 5 5 3 5 3 5 5 5 5 5 5 5 5 5 5 5 5 5 5 5 5 5 5 5 5 5 5 5 5 5 5 5 5 5 5 5 5 5 5 5 5 5 5 5 3 5 5 5 5 5 
</DataArray>
</Cells>
<PointData Scalars="" Vectors="displacement," Tensors="">
<DataArray type="Float64" Name="displacement" NumberOfComponents="3" format="ascii">
-0.034996136437001411 1.7113355528708668e-07 0 -0.034355111715677934 -6.7228663603842952e-05 0 -0.034999305190650136 -3.1484531508921072e-07 0 -0.034996136437001411 1.7113355528708668e-07 0 -0.032617429019453109 0.00020558582591048702 0 -0.034355111715677934 -6.7228663603842952e-05 0 -0.034996136437001411 1.7113355528708668e-07 0 -0.031180372675361605 3.3887917442625753e-06 0 -0.028525461027020582 -1.1538721530105296e-06 0 -0.034996136437001411 1.7113355528708668e-07 0 -0.031180372675361605 3.3887917442625753e-06 0 -0.032617429019453109 0.00020558582591048702 0 -0.031180372675361605 3.3887917442625753e-06 0 -0.032617429019453109 0.00020558582591048702 0 -0.030282350853690378 -0.00030101331195097556 0 -0.033640636359504469 0.00097109462757693577 0 -0.034302433659719855 0.00041394990350840843 0 -0.034332447379012671 0.0013432917782484123 0 -0.030484929048945335 0.00010605733510795129 0 -0.029861580530409128 -0.00017708581399449559 0 -0.030282350853690378 -0.00030101331195097556 0 -0.032164673180460665 0.00054698003778076243 0 -0.03211287301094487 -0.00041463939528511048 0 -0.030484929048945335 0.00010605733510795129 0 -0.032617429019453109 0.00020558582591048702 0 -0.030282350853690378 -0.00030101331195097556 0 -0.032164673180460665 0.00054698003778076243 0 -0.03238906220112478 0.00024786823904229035 0 -0.033640636359504469 0.00097109462757693577 0 -0.032617429019453109 0.00020558582591048702 0 -0.034302433659719855 0.00041394990350840843 0 -0.032617429019453109 0.00020558582591048702 0 -0.034302433659719855 0.00041394990350840843 0 -0.034355111715677934 -6.7228663603842952e-05 0 -0.034355111715677934 -6.7228663603842952e-05 0 -0.034876520450617204 0.00014947813730486922 0 -0.034999305190650136 -3.1484531508921072e-07 0 -0.034302433659719855 0.00041394990350840843 0 -0.034355111715677934 -6.7228663603842952e-05 0 -0.034876520450617204 0.00014947813730486922 0 -0.034898121840808906 -2.8460149231239452e-05 0 -0.034999305190650136 -3.1484531508921072e-07 0 -0.034897631583913132 -4.2280233679595451e-05 0 -0.034876520450617204 0.00014947813730486922 0 -0.034999305190650136 -3.1484531508921072e-07 0 -0.034950451130455154 9.410485536156746e-06 0 -0.034898121840808906 -2.8460149231239452e-05 0 -0.034999305190650136 -3.1484531508921072e-07 0 -0.034950451130455154 9.410485536156746e-06 0 -0.034898121840808906 -2.8460149231239452e-05 0 -0.034950451130455154 9.410485536156746e-06 0 -0.034824848408695479 -4.8071131697252646e-05 0 -0.034755875652471804 -6.073885013507021e-05 0 -0.034950451130455154 9.410485536156746e-06 0 -0.034824848408695479 -4.8071131697252646e-05 0 -0.034796798178654061 7.4647713887464204e-05 0 -0.034926605742162518 5.9171537738877589e-06 0 -0.034755875652471804 -6.073885013507021e-05 0 -0.034824848408695479 -4.8071131697252646e-05 0 -0.034693228180503077 -7.8461508019997156e-05 0 -0.034898121840808906 -2.8460149231239452e-05 0 -0.034777328388684817 -6.8464765389431441e-05 0 -0.034775805407671431 -8.4406345946225664e-05 0 -0.034898121840808906 -2.8460149231239452e-05 0 -0.034824848408695479 -4.8071131697252646e-05 0 -0.034777328388684817 -6.8464765389431441e-05 0 -0.034777328388684817 -6.8464765389431441e-05 0 -0.034666256945147016 -0.00011284177620158562 0 -0.034693228180503077 -7.8461508019997156e-05 0 -0.034777328388684817 -6.8464765389431441e-05 0 -0.034666256945147016 -0.00011284177620158562 0 -0.034775805407671431 -8.4406345946225664e-05 0 -0.034824848408695479 -4.8071131697252646e-05 0 -0.034777328388684817 -6.8464765389431441e-05 0 -0.034693228180503077 -7.8461508019997156e-05 0 -0.034666256945147016 -0.00011284177620158562 0 -0.034693228180503077 -7.8461508019997156e-05 0 -0.034531830067740896 -0.00014718079122942712 0 -0.034693228180503077 -7.8461508019997156e-05 0 -0.034531830067740896 -0.00014718079122942712 0 -0.034610563508179086 -0.00012935366091386348 0 -0.034666256945147016 -0.00011284177620158562 0 -0.034531830067740896 -0.00014718079122942712 0 -0.034542057906827059 -0.0001724273292017775 0 -0.034302433659719855 0.00041394990350840843 0 -0.034876520450617204 0.00014947813730486922 0 -0.034703263740089779 0.00061211875467817741 0 -0.034755875652471804 -6.073885013507021e-05 0 -0.034693228180503077 -7.8461508019997156e-05 0 -0.034684342876241565 -7.9750252893233373e-05 0 -0.034796798178654061 7.4647713887464204e-05 0 -0.034903361913180032 0.00029974424762696267 0 -0.034693228180503077 -7.8461508019997156e-05 0 -0.034684342876241565 -7.9750252893233373e-05 0 -0.034610563508179086 -0.00012935366091386348 0 -0.034302433659719855 0.00041394990350840843 0 -0.034703263740089779 0.00061211875467817741 0 -0.034332447379012671 0.0013432917782484123 0 -0.034903361913180032 0.00029974424762696267 0 -0.03211287301094487 -0.00041463939528511048 0 -0.034684342876241565 -7.9750252893233373e-05 0 -0.034610563508179086 -0.00012935366091386348 0 -0.034722308978008341 -0.00015764704347980994 0 -0.02955606426293406 -0.0026832300139661802 0 -0.031049853146395141 -0.0019766992982369782 0 -0.029883247207099714 -0.0017722362444104578 0 -0.03211287301094487 -0.00041463939528511048 0 -0.032814144123339765 -0.0012661404215328432 0 -0.034610563508179086 -0.00012935366091386348 0 -0.034596471705016771 -0.00028057154504246789 0 -0.034414767206029699 -0.00019759253210915252 0 -0.034610563508179086 -0.00012935366091386348 0 -0.034722308978008341 -0.00015764704347980994 0 -0.034596471705016771 -0.00028057154504246789 0 -0.031049853146395141 -0.0019766992982369782 0 -0.032204056649170226 -0.00026992008107934798 0 -0.031059625352950985 -0.00070178491542850752 0 -0.031049853146395141 -0.0019766992982369782 0 -0.030352734654502538 -0.0012930205267987706 0 -0.031059625352950985 -0.00070178491542850752 0 -0.030352734654502538 -0.0012930205267987706 0 -0.029630029602186907 -0.0011802059780518918 0 -0.030337583782666204 -0.000606814180569048 0 -0.030352734654502538 -0.0012930205267987706 0 -0.029630029602186907 -0.0011802059780518918 0 -0.029883247207099714 -0.0017722362444104578 0 -0.029630029602186907 -0.0011802059780518918 0 -0.029883247207099714 -0.0017722362444104578 0 -0.028984989829611386 -0.0016511131317956669 0 -0.031049853146395141 -0.0019766992982369782 0 -0.030352734654502538 -0.0012930205267987706 0 -0.029883247207099714 -0.0017722362444104578 0 -0.034531830067740896 -0.00014718079122942712 0 -0.034334650319029887 -0.00023844338667073647 0 -0.034542057906827059 -0.0001724273292017775 0 -0.034531830067740896 -0.00014718079122942712 0 -0.034334650319029887 -0.00023844338667073647 0 -0.034414767206029699 -0.00019759253210915252 0 -0.034531830067740896 -0.00014718079122942712 0 -0.034610563508179086 -0.00012935366091386348 0 -0.034414767206029699 -0.00019759253210915252 0 -0.032814144123339765 -0.0012661404215328432 0 -0.033838899991378048 -0.00035677764037532012 0 -0.034596471705016771 -0.00028057154504246789 0 -0.034414767206029699 -0.00019759253210915252 0 -0.034204478793371441 -0.00027621343277404716 0 -0.034334650319029887 -0.00023844338667073647 0 -0.034414767206029699 -0.00019759253210915252 0 -0.034204478793371441 -0.00027621343277404716 0 -0.031049853146395141 -0.0019766992982369782 0 -0.03383119194795714 -0.00040279023614046285 0 -0.032204056649170226 -0.00026992008107934798 0 -0.034596471705016771 -0.00028057154504246789 0 -0.034204478793371441 -0.00027621343277404716 0 -0.03383119194795714 -0.00040279023614046285 0 -0.034334650319029887 -0.00023844338667073647 0 -0.034204478793371441 -0.00027621343277404716 0 -0.034171196736262205 -0.00027624908659079465 0 -0.034204478793371441 -0.00027621343277404716 0 -0.034171196736262205 -0.00027624908659079465 0 -0.03383119194795714 -0.00040279023614046285 0 -0.034334650319029887 -0.00023844338667073647 0 -0.034171196736262205 -0.00027624908659079465 0 -0.034391224681798414 -0.00014689319054838322 0 -0.034264546248446118 -4.5981381940379523e-05 0 -0.034050957519087099 0.00041098490274099359 0 -0.034474473832872651 0.00011585144926561767 0 -0.034171196736262205 -0.00027624908659079465 0 -0.034264546248446118 -4.5981381940379523e-05 0 -0.034391224681798414 -0.00014689319054838322 0 -0.034171196736262205 -0.00027624908659079465 0 -0.034264546248446118 -4.5981381940379523e-05 0 -0.03383119194795714 -0.00040279023614046285 0 -0.034264546248446118 -4.5981381940379523e-05 0 -0.03383119194795714 -0.00040279023614046285 0 -0.034050957519087099 0.00041098490274099359 0 -0.032204056649170226 -0.00026992008107934798 0 -0.034050957519087099 0.00041098490274099359 0 -0.031668478838745726 0.00039249190666917379 0 -0.03383119194795714 -0.00040279023614046285 0 -0.032204056649170226 -0.00026992008107934798 0 -0.034050957519087099 0.00041098490274099359 0 -0.029128686631314619 -0.0007235873776799788 0 -0.028962133688401243 -0.00010300466036409481 0 -0.024854986904597615 -0.0016576371830287851 0 -0.024809824266680477 -0.001683652400945644 0 -0.02477226348349219 -0.0016839713001246387 0 -0.024854986904597615 -0.0016576371830287851 0 -0.02477226348349219 -0.0016839713001246387 0 -0.024899307513947335 -0.001601554169303381 0 -0.024854986904597615 -0.0016576371830287851 0 -0.024809824266680477 -0.001683652400945644 0 -0.024864524156132328 -0.0017057197189217646 0 -0.024733440740537939 -0.0016869575226087 0 -0.024887645614583863 -0.0017712256554040036 0 -0.024662618293075009 -0.0016992325132778744 0 -0.02477226348349219 -0.0016839713001246387 0 -0.024733440740537939 -0.0016869575226087 0 -0.024887645614583863 -0.0017712256554040036 0 -0.024809824266680477 -0.001683652400945644 0 -0.02477226348349219 -0.0016839713001246387 0 -0.024733440740537939 -0.0016869575226087 0 -0.030029281769905544 -0.00027384080234291874 0 -0.029504685625904758 -0.00049705707969863546 0 -0.030337583782666204 -0.000606814180569048 0 -0.030029281769905544 -0.00027384080234291874 0 -0.030337583782666204 -0.000606814180569048 0 -0.030548879439586688 -0.00022910749278571622 0 -0.030029281769905544 -0.00027384080234291874 0 -0.029504685625904758 -0.00049705707969863546 0 -0.029537993900309444 -6.4030268290663511e-05 0 -0.029630029602186907 -0.0011802059780518918 0 -0.029504685625904758 -0.00049705707969863546 0 -0.030337583782666204 -0.000606814180569048 0 -0.030337583782666204 -0.000606814180569048 0 -0.031059625352950985 -0.00070178491542850752 0 -0.030877670991284488 -0.00034094596140997067 0 -0.030352734654502538 -0.0012930205267987706 0 -0.030337583782666204 -0.000606814180569048 0 -0.031059625352950985 -0.00070178491542850752 0 -0.032204056649170226 -0.00026992008107934798 0 -0.031059625352950985 -0.00070178491542850752 0 -0.031326596773531903 -0.00021761460299084877 0 -0.031059625352950985 -0.00070178491542850752 0 -0.031326596773531903 -0.00021761460299084877 0 -0.030877670991284488 -0.00034094596140997067 0 -0.031151411397906625 1.6746807135994944e-05 0 -0.031248774969645489 3.9108981007652837e-05 0 -0.030373168473819885 1.5471270344473304e-05 0 -0.031083136502898911 -0.00088189403728045177 0 -0.028962133688401243 -0.00010300466036409481 0 -0.032204056649170226 -0.00026992008107934798 0 -0.031326596773531903 -0.00021761460299084877 0 -0.031346641013521942 9.2572143447689295e-05 0 -0.031326596773531903 -0.00021761460299084877 0 -0.031151411397906625 1.6746807135994944e-05 0 -0.030877670991284488 -0.00034094596140997067 0 -0.031326596773531903 -0.00021761460299084877 0 -0.031151411397906625 1.6746807135994944e-05 0 -0.031346641013521942 9.2572143447689295e-05 0 -0.029188059632124168 -7.5549940264208932e-05 0 -0.028962133688401243 -0.00010300466036409481 0 -0.031151411397906625 1.6746807135994944e-05 0 -0.030877670991284488 -0.00034094596140997067 0 -0.030548879439586688 -0.00022910749278571622 0 -0.031151411397906625 1.6746807135994944e-05 0 -0.030548879439586688 -0.00022910749278571622 0 -0.030373168473819885 1.5471270344473304e-05 0 -0.030337583782666204 -0.000606814180569048 0 -0.030877670991284488 -0.00034094596140997067 0 -0.030548879439586688 -0.00022910749278571622 0 -0.030029281769905544 -0.00027384080234291874 0 -0.030548879439586688 -0.00022910749278571622 0 -0.030373168473819885 1.5471270344473304e-05 0 -0.031248774969645489 3.9108981007652837e-05 0 -0.030373168473819885 1.5471270344473304e-05 0 -0.029838736739403664 0.00052052016178905211 0 -0.028962133688401243 -0.00010300466036409481 0 -0.027668347593539956 -0.00076837505883095526 0 -0.024899307513947335 -0.001601554169303381 0 -0.024901322937098291 -0.0016792736775291446 0 -0.024968660876563631 -0.001703091406656672 0 -0.024854986904597615 -0.0016576371830287851 0 -0.024899307513947335 -0.001601554169303381 0 -0.024901322937098291 -0.0016792736775291446 0 -0.024854986904597615 -0.0016576371830287851 0 -0.024901322937098291 -0.0016792736775291446 0 -0.024864524156132328 -0.0017057197189217646 0 -0.030373168473819885 1.5471270344473304e-05 0 -0.029537993900309444 -6.4030268290663511e-05 0 -0.029838736739403664 0.00052052016178905211 0 -0.030029281769905544 -0.00027384080234291874 0 -0.030373168473819885 1.5471270344473304e-05 0 -0.029537993900309444 -6.4030268290663511e-05 0 -0.029537993900309444 -6.4030268290663511e-05 0 -0.028987339547453361 0.00014874475783394601 0 -0.029838736739403664 0.00052052016178905211 0 -0.029537993900309444 -6.4030268290663511e-05 0 -0.028987339547453361 0.00014874475783394601 0 -0.028718907730692581 -0.00029887739852867032 0 -0.027685518222993127 -0.00014567887449998506 0 -0.028525461027020582 -1.1538721530105296e-06 0 -0.023869334896652036 1.458908906863642e-06 0 -0.028987339547453361 0.00014874475783394601 0 -0.028718907730692581 -0.00029887739852867032 0 -0.028028806374399987 5.5919073312682745e-05 0 -0.029504685625904758 -0.00049705707969863546 0 -0.028718907730692581 -0.00029887739852867032 0 -0.029110849765579441 -0.00076445705883404112 0 -0.029504685625904758 -0.00049705707969863546 0 -0.029537993900309444 -6.4030268290663511e-05 0 -0.028718907730692581 -0.00029887739852867032 0 -0.028718907730692581 -0.00029887739852867032 0 -0.029110849765579441 -0.00076445705883404112 0 -0.02889733279413597 -0.00053059737043449867 0 -0.029630029602186907 -0.0011802059780518918 0 -0.029504685625904758 -0.00049705707969863546 0 -0.029110849765579441 -0.00076445705883404112 0 -0.028718907730692581 -0.00029887739852867032 0 -0.02889733279413597 -0.00053059737043449867 0 -0.027685518222993127 -0.00014567887449998506 0 -0.028718907730692581 -0.00029887739852867032 0 -0.028028806374399987 5.5919073312682745e-05 0 -0.027685518222993127 -0.00014567887449998506 0 -0.027685518222993127 -0.00014567887449998506 0 -0.029342476608250331 -0.00029069854916387631 0 -0.028525461027020582 -1.1538721530105296e-06 0 -0.02889733279413597 -0.00053059737043449867 0 -0.027685518222993127 -0.00014567887449998506 0 -0.029342476608250331 -0.00029069854916387631 0 -0.031180372675361605 3.3887917442625753e-06 0 -0.029342476608250331 -0.00029069854916387631 0 -0.028525461027020582 -1.1538721530105296e-06 0 -0.031180372675361605 3.3887917442625753e-06 0 -0.029342476608250331 -0.00029069854916387631 0 -0.030282350853690378 -0.00030101331195097556 0 -0.029861580530409128 -0.00017708581399449559 0 -0.030282350853690378 -0.00030101331195097556 0 -0.029822121125718231 -0.00044531606131919876 0 -0.02955606426293406 -0.0026832300139661802 0 -0.029883247207099714 -0.0017722362444104578 0 -0.028984989829611386 -0.0016511131317956669 0 -0.03211287301094487 -0.00041463939528511048 0 -0.029287769352769638 -0.001051888528315827 0 -0.029110849765579441 -0.00076445705883404112 0 -0.02889733279413597 -0.00053059737043449867 0 -0.028984989829611386 -0.0016511131317956669 0 -0.029050820714919007 -0.00067918039536971888 0 -0.029287769352769638 -0.001051888528315827 0 -0.029630029602186907 -0.0011802059780518918 0 -0.029110849765579441 -0.00076445705883404112 0 -0.028984989829611386 -0.0016511131317956669 0 -0.02889733279413597 -0.00053059737043449867 0 -0.030282350853690378 -0.00030101331195097556 0 -0.029822121125718231 -0.00044531606131919876 0 -0.02889733279413597 -0.00053059737043449867 0 -0.029342476608250331 -0.00029069854916387631 0 -0.030282350853690378 -0.00030101331195097556 0 -0.034433546598220309 -0.00034465380821800218 0 -0.03403394203685435 -0.00065491947536694059 0 -0.03428721784189067 -0.00023462506578571246 0 -0.034433546598220309 -0.00034465380821800218 0 -0.034704773862140964 -0.0002603939399949188 0 -0.034487532247419427 -0.00059917466330799377 0 -0.034704773862140964 -0.0002603939399949188 0 -0.034646550326497619 -0.00011986343123526595 0 -0.034873903883425303 -9.0105820223778673e-05 0 -0.034433546598220309 -0.00034465380821800218 0 -0.034704773862140964 -0.0002603939399949188 0 -0.034646550326497619 -0.00011986343123526595 0 -0.034433546598220309 -0.00034465380821800218 0 -0.034646550326497619 -0.00011986343123526595 0 -0.03428721784189067 -0.00023462506578571246 0 -0.034646550326497619 -0.00011986343123526595 0 -0.03499968556817664 1.0696107148645094e-08 0 -0.034548064581346551 -6.0331833111440263e-05 0 -0.034646550326497619 -0.00011986343123526595 0 -0.03499968556817664 1.0696107148645094e-08 0 -0.034873903883425303 -9.0105820223778673e-05 0 -0.03499968556817664 1.0696107148645094e-08 0 -0.03497957301496965 -1.419794244240562e-05 0 -0.035000057773350163 -4.5422524963815705e-08 0 -0.03499968556817664 1.0696107148645094e-08 0 -0.034873903883425303 -9.0105820223778673e-05 0 -0.03497957301496965 -1.419794244240562e-05 0 -0.034999882843004246 -2.7794295585323277e-08 0 -0.034828700547594155 -6.9652186790147928e-05 0 -0.034906464501873444 -4.105091781081826e-05 0 -0.035617426171137972 0.00015289835672410783 0 -0.032519518287251137 -0.00044715430549281074 0 -0.03497957301496965 -1.419794244240562e-05 0 -0.035000057773350163 -4.5422524963815705e-08 0 -0.034947757886830091 -4.787416560680449e-05 0 -0.03533085467132626 -8.8695503338608969e-05 0 -0.032519518287251137 -0.00044715430549281074 0 -0.034873903883425303 -9.0105820223778673e-05 0 -0.03497957301496965 -1.419794244240562e-05 0 -0.034999942521412711 -0.00012767160116805145 0 -0.032519518287251137 -0.00044715430549281074 0 -0.030230865241744526 -0.00099164869626227887 0 -0.026135726397939558 -0.0014095309570027054 0 -0.025928522202204946 -0.0013927970994492033 0 -0.025947483603337339 -0.001396304343682254 0 -0.034999942521412711 -0.00012767160116805145 0 -0.034879355324906602 -0.00024956049410618518 0 -0.035019481585691341 -0.00042155431857411266 0 -0.034873903883425303 -9.0105820223778673e-05 0 -0.034999942521412711 -0.00012767160116805145 0 -0.034879355324906602 -0.00024956049410618518 0 -0.032519518287251137 -0.00044715430549281074 0 -0.030151236779824113 -0.00073151981340418323 0 -0.034704773862140964 -0.0002603939399949188 0 -0.034873903883425303 -9.0105820223778673e-05 0 -0.034879355324906602 -0.00024956049410618518 0 -0.034704773862140964 -0.0002603939399949188 0 -0.034879355324906602 -0.00024956049410618518 0 -0.034815005280226588 -0.0004235453821236211 0 -0.034704773862140964 -0.0002603939399949188 0 -0.034815005280226588 -0.0004235453821236211 0 -0.034487532247419427 -0.00059917466330799377 0 -0.034815005280226588 -0.0004235453821236211 0 -0.035019481585691341 -0.00042155431857411266 0 -0.034909503855232872 -0.00060733783579130726 0 -0.034879355324906602 -0.00024956049410618518 0 -0.034815005280226588 -0.0004235453821236211 0 -0.035019481585691341 -0.00042155431857411266 0 -0.034999305190650136 -3.1484531508921072e-07 0 -0.034999785550575216 -9.388370916387181e-09 0 -0.034897631583913132 -4.2280233679595451e-05 0 -0.025928522202204946 -0.0013927970994492033 0 -0.025947483603337339 -0.001396304343682254 0 -0.025807027973817013 -0.0014121130602943763 0 -0.030151236779824113 -0.00073151981340418323 0 -0.030252047520774653 -0.00078630632078130285 0 -0.034747813132890833 -0.00011631715227255083 0 -0.034716709030008341 -0.00012876851373706672 0 -0.034777382384845346 -0.00010665496335913546 0 -0.034747813132890833 -0.00011631715227255083 0 -0.034716709030008341 -0.00012876851373706672 0 -0.03468735468640502 -0.00012875002295764684 0 -0.034706512766239865 -0.00013412551753370387 0 -0.034716709030008341 -0.00012876851373706672 0 -0.034777382384845346 -0.00010665496335913546 0 -0.034706512766239865 -0.00013412551753370387 0 -0.034777382384845346 -0.00010665496335913546 0 -0.034762591328426649 -0.00010857700934138837 0 -0.034777382384845346 -0.00010665496335913546 0 -0.03486339249360719 -6.4484742904236773e-05 0 -0.034762591328426649 -0.00010857700934138837 0 -0.034777382384845346 -0.00010665496335913546 0 -0.034839591675371935 -7.4344261238996288e-05 0 -0.03486339249360719 -6.4484742904236773e-05 0 -0.034828700547594155 -6.9652186790147928e-05 0 -0.034747813132890833 -0.00011631715227255083 0 -0.034799665786446443 -9.2743645771474939e-05 0 -0.034777382384845346 -0.00010665496335913546 0 -0.034799665786446443 -9.2743645771474939e-05 0 -0.034839591675371935 -7.4344261238996288e-05 0 -0.034747813132890833 -0.00011631715227255083 0 -0.034777382384845346 -0.00010665496335913546 0 -0.034799665786446443 -9.2743645771474939e-05 0 -0.034828700547594155 -6.9652186790147928e-05 0 -0.034799665786446443 -9.2743645771474939e-05 0 -0.034839591675371935 -7.4344261238996288e-05 0 -0.034999785550575216 -9.388370916387181e-09 0 -0.03486339249360719 -6.4484742904236773e-05 0 -0.034897631583913132 -4.2280233679595451e-05 0 -0.034828700547594155 -6.9652186790147928e-05 0 -0.034839591675371935 -7.4344261238996288e-05 0 -0.034906464501873444 -4.105091781081826e-05 0 -0.034839591675371935 -7.4344261238996288e-05 0 -0.034906464501873444 -4.105091781081826e-05 0 -0.03486339249360719 -6.4484742904236773e-05 0 -0.034999882843004246 -2.7794295585323277e-08 0 -0.034906464501873444 -4.105091781081826e-05 0 -0.034999785550575216 -9.388370916387181e-09 0 -0.034906464501873444 -4.105091781081826e-05 0 -0.034999785550575216 -9.388370916387181e-09 0 -0.03486339249360719 -6.4484742904236773e-05 0 -0.03486339249360719 -6.4484742904236773e-05 0 -0.034897631583913132 -4.2280233679595451e-05 0 -0.034762591328426649 -0.00010857700934138837 0 -0.034897631583913132 -4.2280233679595451e-05 0 -0.034775805407671431 -8.4406345946225664e-05 0 -0.034762591328426649 -0.00010857700934138837 0 -0.034898121840808906 -2.8460149231239452e-05 0 -0.034897631583913132 -4.2280233679595451e-05 0 -0.034775805407671431 -8.4406345946225664e-05 0 -0.034666256945147016 -0.00011284177620158562 0 -0.034775805407671431 -8.4406345946225664e-05 0 -0.034673842574878787 -0.00013141288511719804 0 -0.034775805407671431 -8.4406345946225664e-05 0 -0.034762591328426649 -0.00010857700934138837 0 -0.034673842574878787 -0.00013141288511719804 0 -0.034706512766239865 -0.00013412551753370387 0 -0.034762591328426649 -0.00010857700934138837 0 -0.034635351438246788 -0.00015265574984274331 0 -0.034762591328426649 -0.00010857700934138837 0 -0.034635351438246788 -0.00015265574984274331 0 -0.034673842574878787 -0.00013141288511719804 0 -0.034666256945147016 -0.00011284177620158562 0 -0.034542057906827059 -0.0001724273292017775 0 -0.034673842574878787 -0.00013141288511719804 0 -0.034635351438246788 -0.00015265574984274331 0 -0.034542057906827059 -0.0001724273292017775 0 -0.034673842574878787 -0.00013141288511719804 0 -0.034635351438246788 -0.00015265574984274331 0 -0.034542057906827059 -0.0001724273292017775 0 -0.034517512795107425 -0.00017256698241847613 0 -0.034334650319029887 -0.00023844338667073647 0 -0.034542057906827059 -0.0001724273292017775 0 -0.034517512795107425 -0.00017256698241847613 0 -0.034706512766239865 -0.00013412551753370387 0 -0.034635351438246788 -0.00015265574984274331 0 -0.034645869930882499 -0.00013681765297196536 0 -0.034635351438246788 -0.00015265574984274331 0 -0.034517512795107425 -0.00017256698241847613 0 -0.034645869930882499 -0.00013681765297196536 0 -0.034517512795107425 -0.00017256698241847613 0 -0.034557241101157959 -6.7358427212507152e-05 0 -0.034645869930882499 -0.00013681765297196536 0 -0.034334650319029887 -0.00023844338667073647 0 -0.034517512795107425 -0.00017256698241847613 0 -0.034391224681798414 -0.00014689319054838322 0 -0.034517512795107425 -0.00017256698241847613 0 -0.034391224681798414 -0.00014689319054838322 0 -0.034557241101157959 -6.7358427212507152e-05 0 -0.034264546248446118 -4.5981381940379523e-05 0 -0.034391224681798414 -0.00014689319054838322 0 -0.034474473832872651 0.00011585144926561767 0 -0.034391224681798414 -0.00014689319054838322 0 -0.034474473832872651 0.00011585144926561767 0 -0.034557241101157959 -6.7358427212507152e-05 0 -0.029128686631314619 -0.0007235873776799788 0 -0.030138906259436965 -0.00069084605912206277 0 -0.024887645614583863 -0.0017712256554040036 0 -0.02518434299401269 -0.0017737554570533695 0 -0.024930808259118253 -0.0016504788231879927 0 -0.030138906259436965 -0.00069084605912206277 0 -0.027876157103262494 -0.0016711783765387628 0 -0.034474473832872651 0.00011585144926561767 0 -0.034557241101157959 -6.7358427212507152e-05 0 -0.034574010482721039 7.3973533040746882e-05 0 -0.03038316332667259 -0.00067530493925828437 0 -0.027876157103262494 -0.0016711783765387628 0 -0.025717404007418263 -0.0014774557379323185 0 -0.025754495735573681 -0.0016436952782083883 0 -0.025599786555067464 -0.0015578724237657775 0 -0.034557241101157959 -6.7358427212507152e-05 0 -0.03463936620811707 -6.5394324957395442e-05 0 -0.034574010482721039 7.3973533040746882e-05 0 -0.027876157103262494 -0.0016711783765387628 0 -0.024504747314268209 -0.0017234829042343186 0 -0.025754495735573681 -0.0016436952782083883 0 -0.025435067818246161 -0.0016229356113722007 0 -0.025599786555067464 -0.0015578724237657775 0 -0.025435067818246161 -0.0016229356113722007 0 -0.025532003583095 -0.0016066540069912597 0 -0.025335178424556789 -0.0015131263226618921 0 -0.025070335174572952 -0.0016968488515191993 0 -0.025435067818246161 -0.0016229356113722007 0 -0.025213856131264627 -0.001489980833836683 0 -0.025435067818246161 -0.0016229356113722007 0 -0.025599786555067464 -0.0015578724237657775 0 -0.025532003583095 -0.0016066540069912597 0 -0.025599786555067464 -0.0015578724237657775 0 -0.025685394300230355 -0.0014839628674621619 0 -0.025532003583095 -0.0016066540069912597 0 -0.025685394300230355 -0.0014839628674621619 0 -0.025731924599754392 -0.0014314403692091749 0 -0.025532003583095 -0.0016066540069912597 0 -0.025717404007418263 -0.0014774557379323185 0 -0.025599786555067464 -0.0015578724237657775 0 -0.025685394300230355 -0.0014839628674621619 0 -0.03038316332667259 -0.00067530493925828437 0 -0.030252047520774653 -0.00078630632078130285 0 -0.025717404007418263 -0.0014774557379323185 0 -0.025685394300230355 -0.0014839628674621619 0 -0.025807027973817013 -0.0014121130602943763 0 -0.025685394300230355 -0.0014839628674621619 0 -0.025807027973817013 -0.0014121130602943763 0 -0.025731924599754392 -0.0014314403692091749 0 -0.034557241101157959 -6.7358427212507152e-05 0 -0.03463936620811707 -6.5394324957395442e-05 0 -0.034645869930882499 -0.00013681765297196536 0 -0.03463936620811707 -6.5394324957395442e-05 0 -0.034645869930882499 -0.00013681765297196536 0 -0.03468735468640502 -0.00012875002295764684 0 -0.034706512766239865 -0.00013412551753370387 0 -0.034716709030008341 -0.00012876851373706672 0 -0.034645869930882499 -0.00013681765297196536 0 -0.034716709030008341 -0.00012876851373706672 0 -0.034645869930882499 -0.00013681765297196536 0 -0.03468735468640502 -0.00012875002295764684 0 -0.025928522202204946 -0.0013927970994492033 0 -0.025807027973817013 -0.0014121130602943763 0 -0.025731924599754392 -0.0014314403692091749 0 -0.030230865241744526 -0.00099164869626227887 0 -0.030436625355332793 -0.0011742166291723373 0 -0.035019481585691341 -0.00042155431857411266 0 -0.034909503855232872 -0.00060733783579130726 0 -0.03507909659411753 -0.00091516020839136041 0 -0.034909503855232872 -0.00060733783579130726 0 -0.034752901907071129 -0.00070519204468957918 0 -0.03507909659411753 -0.00091516020839136041 0 -0.034752901907071129 -0.00070519204468957918 0 -0.034541573322875642 -0.00089691582897089104 0 -0.034487532247419427 -0.00059917466330799377 0 -0.034815005280226588 -0.0004235453821236211 0 -0.034909503855232872 -0.00060733783579130726 0 -0.034752901907071129 -0.00070519204468957918 0 -0.034815005280226588 -0.0004235453821236211 0 -0.034752901907071129 -0.00070519204468957918 0 -0.034487532247419427 -0.00059917466330799377 0 -0.034752901907071129 -0.00070519204468957918 0 -0.034758267236301897 -0.00098524012284505625 0 -0.034541573322875642 -0.00089691582897089104 0 -0.034758267236301897 -0.00098524012284505625 0 -0.034541573322875642 -0.00089691582897089104 0 -0.034559471479593866 -0.0012267622199300754 0 -0.034758267236301897 -0.00098524012284505625 0 -0.03486150188941254 -0.0012571156800885092 0 -0.034559471479593866 -0.0012267622199300754 0 -0.034758267236301897 -0.00098524012284505625 0 -0.03507909659411753 -0.00091516020839136041 0 -0.03486150188941254 -0.0012571156800885092 0 -0.034752901907071129 -0.00070519204468957918 0 -0.034758267236301897 -0.00098524012284505625 0 -0.03507909659411753 -0.00091516020839136041 0 -0.03507909659411753 -0.00091516020839136041 0 -0.03486150188941254 -0.0012571156800885092 0 -0.035158890119941298 -0.0016271007646911884 0 -0.030436625355332793 -0.0011742166291723373 0 -0.030343031335016944 -0.0016293664190235705 0 -0.03486150188941254 -0.0012571156800885092 0 -0.035158890119941298 -0.0016271007646911884 0 -0.034726200402335844 -0.0016247647414802055 0 -0.035158890119941298 -0.0016271007646911884 0 -0.034843514284065909 -0.0020786662610404781 0 -0.035227124464537372 -0.0025520228994193599 0 -0.030343031335016944 -0.0016293664190235705 0 -0.030268660294798435 -0.0020499754612898404 0 -0.035158890119941298 -0.0016271007646911884 0 -0.034843514284065909 -0.0020786662610404781 0 -0.034726200402335844 -0.0016247647414802055 0 -0.034843514284065909 -0.0020786662610404781 0 -0.034377211549630055 -0.0020864908474020056 0 -0.034726200402335844 -0.0016247647414802055 0 -0.034377211549630055 -0.0020864908474020056 0 -0.034726200402335844 -0.0016247647414802055 0 -0.034315095417800853 -0.0015981410669384563 0 -0.034726200402335844 -0.0016247647414802055 0 -0.034559471479593866 -0.0012267622199300754 0 -0.034315095417800853 -0.0015981410669384563 0 -0.03486150188941254 -0.0012571156800885092 0 -0.034726200402335844 -0.0016247647414802055 0 -0.034559471479593866 -0.0012267622199300754 0 -0.034315095417800853 -0.0015981410669384563 0 -0.033821947629563524 -0.0016631808543637152 0 -0.034141839449747413 -0.0010380238165436156 0 -0.034559471479593866 -0.0012267622199300754 0 -0.034315095417800853 -0.0015981410669384563 0 -0.034141839449747413 -0.0010380238165436156 0 -0.034377211549630055 -0.0020864908474020056 0 -0.034315095417800853 -0.0015981410669384563 0 -0.033821947629563524 -0.0016631808543637152 0 -0.034377211549630055 -0.0020864908474020056 0 -0.033821947629563524 -0.0016631808543637152 0 -0.033719435579240217 -0.0023809016610923566 0 -0.033821947629563524 -0.0016631808543637152 0 -0.033719435579240217 -0.0023809016610923566 0 -0.032905567053291541 -0.0019667291387669224 0 -0.033821947629563524 -0.0016631808543637152 0 -0.034141839449747413 -0.0010380238165436156 0 -0.033550650967774369 -0.0011405370426610061 0 -0.034141839449747413 -0.0010380238165436156 0 -0.03403394203685435 -0.00065491947536694059 0 -0.033550650967774369 -0.0011405370426610061 0 -0.034541573322875642 -0.00089691582897089104 0 -0.034141839449747413 -0.0010380238165436156 0 -0.034487532247419427 -0.00059917466330799377 0 -0.034541573322875642 -0.00089691582897089104 0 -0.034559471479593866 -0.0012267622199300754 0 -0.034141839449747413 -0.0010380238165436156 0 -0.034141839449747413 -0.0010380238165436156 0 -0.034487532247419427 -0.00059917466330799377 0 -0.03403394203685435 -0.00065491947536694059 0 -0.034433546598220309 -0.00034465380821800218 0 -0.034487532247419427 -0.00059917466330799377 0 -0.03403394203685435 -0.00065491947536694059 0 -0.033644546355224778 -0.003704319598917186 0 -0.032850844703593868 -0.0038620126244595264 0 -0.033536596751078306 -0.0046742643656000199 0 -0.032850844703593868 -0.0038620126244595264 0 -0.033536596751078306 -0.0046742643656000199 0 -0.03254543754548074 -0.004909149503649941 0 -0.033644546355224778 -0.003704319598917186 0 -0.034202349729518897 -0.0042679680696539723 0 -0.033536596751078306 -0.0046742643656000199 0 -0.033644546355224778 -0.003704319598917186 0 -0.033784165094291038 -0.0030194268924356709 0 -0.034234737300475597 -0.0034268301375719552 0 -0.033644546355224778 -0.003704319598917186 0 -0.034234737300475597 -0.0034268301375719552 0 -0.034202349729518897 -0.0042679680696539723 0 -0.033644546355224778 -0.003704319598917186 0 -0.032850844703593868 -0.0038620126244595264 0 -0.033163209291497554 -0.0030048919254129038 0 -0.033163209291497554 -0.0030048919254129038 0 -0.033719435579240217 -0.0023809016610923566 0 -0.033784165094291038 -0.0030194268924356709 0 -0.033644546355224778 -0.003704319598917186 0 -0.033163209291497554 -0.0030048919254129038 0 -0.033784165094291038 -0.0030194268924356709 0 -0.033163209291497554 -0.0030048919254129038 0 -0.033719435579240217 -0.0023809016610923566 0 -0.032905567053291541 -0.0019667291387669224 0 -0.034377211549630055 -0.0020864908474020056 0 -0.033719435579240217 -0.0023809016610923566 0 -0.034238121688766048 -0.0026807426161136951 0 -0.033719435579240217 -0.0023809016610923566 0 -0.033784165094291038 -0.0030194268924356709 0 -0.034238121688766048 -0.0026807426161136951 0 -0.033784165094291038 -0.0030194268924356709 0 -0.034238121688766048 -0.0026807426161136951 0 -0.034234737300475597 -0.0034268301375719552 0 -0.034717559174277379 -0.0030813911252066052 0 -0.034238121688766048 -0.0026807426161136951 0 -0.034234737300475597 -0.0034268301375719552 0 -0.034717559174277379 -0.0030813911252066052 0 -0.034238121688766048 -0.0026807426161136951 0 -0.034719134469183302 -0.0025364859176369063 0 -0.034377211549630055 -0.0020864908474020056 0 -0.034238121688766048 -0.0026807426161136951 0 -0.034719134469183302 -0.0025364859176369063 0 -0.034843514284065909 -0.0020786662610404781 0 -0.034377211549630055 -0.0020864908474020056 0 -0.034719134469183302 -0.0025364859176369063 0 -0.034843514284065909 -0.0020786662610404781 0 -0.034719134469183302 -0.0025364859176369063 0 -0.035227124464537372 -0.0025520228994193599 0 -0.034717559174277379 -0.0030813911252066052 0 -0.035227124464537372 -0.0025520228994193599 0 -0.035258196717763542 -0.0036472654735518382 0 -0.025335178424556789 -0.0015131263226618921 0 -0.025076567022330996 -0.001368762915734548 0 -0.024870636908599156 -0.001231677612161669 0 -0.030268660294798435 -0.0020499754612898404 0 -0.030066809928095104 -0.002456381293593731 0 -0.034717559174277379 -0.0030813911252066052 0 -0.034719134469183302 -0.0025364859176369063 0 -0.035227124464537372 -0.0025520228994193599 0 -0.034717559174277379 -0.0030813911252066052 0 -0.035258196717763542 -0.0036472654735518382 0 -0.034664552548849842 -0.0037751827850269299 0 -0.034664552548849842 -0.0037751827850269299 0 -0.034234737300475597 -0.0034268301375719552 0 -0.034202349729518897 -0.0042679680696539723 0 -0.034717559174277379 -0.0030813911252066052 0 -0.034664552548849842 -0.0037751827850269299 0 -0.034234737300475597 -0.0034268301375719552 0 -0.034664552548849842 -0.0037751827850269299 0 -0.034202349729518897 -0.0042679680696539723 0 -0.035227860130774419 -0.0048462145888348599 0 -0.030066809928095104 -0.002456381293593731 0 -0.029865529568240672 -0.0028288912065767302 0 -0.035258196717763542 -0.0036472654735518382 0 -0.034664552548849842 -0.0037751827850269299 0 -0.035227860130774419 -0.0048462145888348599 0 -0.024870636908599156 -0.001231677612161669 0 -0.024482188132334933 -0.00098113527186706527 0 -0.024493411444425746 -0.00076880452838270152 0 -0.024482188132334933 -0.00098113527186706527 0 -0.024135478486427882 -0.00082919158632672638 0 -0.024493411444425746 -0.00076880452838270152 0 -0.024482188132334933 -0.00098113527186706527 0 -0.024276168941697329 -0.00098140881202355605 0 -0.024574454034253675 -0.0011557092514470355 0 -0.024135478486427882 -0.00082919158632672638 0 -0.024196813627796406 -0.0011794604107288817 0 -0.02383033334544216 -0.00080753000250554535 0 -0.024135478486427882 -0.00082919158632672638 0 -0.024276168941697329 -0.00098140881202355605 0 -0.024196813627796406 -0.0011794604107288817 0 -0.024482188132334933 -0.00098113527186706527 0 -0.024135478486427882 -0.00082919158632672638 0 -0.024276168941697329 -0.00098140881202355605 0 -0.024276168941697329 -0.00098140881202355605 0 -0.024196813627796406 -0.0011794604107288817 0 -0.024574454034253675 -0.0011557092514470355 0 -0.02506772482770496 -0.0011569280932956897 0 -0.024982059960981601 -0.0012844881925789522 0 -0.024526715112735555 -0.0010707906494277614 0 -0.024982059960981601 -0.0012844881925789522 0 -0.02504320218244244 -0.0013126489586345741 0 -0.025006540171330048 -0.0013323271638443349 0 -0.024982059960981601 -0.0012844881925789522 0 -0.025006540171330048 -0.0013323271638443349 0 -0.024951179357261443 -0.001269240001196222 0 -0.02506772482770496 -0.0011569280932956897 0 -0.024982059960981601 -0.0012844881925789522 0 -0.02504320218244244 -0.0013126489586345741 0 -0.02506772482770496 -0.0011569280932956897 0 -0.025092664791220683 -0.0013297778123991641 0 -0.02504320218244244 -0.0013126489586345741 0 -0.025076567022330996 -0.001368762915734548 0 -0.024870636908599156 -0.001231677612161669 0 -0.024574454034253675 -0.0011557092514470355 0 -0.025076567022330996 -0.001368762915734548 0 -0.02506772482770496 -0.0011569280932956897 0 -0.025092664791220683 -0.0013297778123991641 0 -0.025076567022330996 -0.001368762915734548 0 -0.024196813627796406 -0.0011794604107288817 0 -0.024574454034253675 -0.0011557092514470355 0 -0.02502329471035368 -0.0013538744259097189 0 -0.024631034211818982 -0.0011522662099543114 0 -0.024870636908599156 -0.001231677612161669 0 -0.024482188132334933 -0.00098113527186706527 0 -0.024574454034253675 -0.0011557092514470355 0 -0.025076567022330996 -0.001368762915734548 0 -0.025092664791220683 -0.0013297778123991641 0 -0.025166786883177573 -0.001402619906708138 0 -0.025092664791220683 -0.0013297778123991641 0 -0.025166786883177573 -0.001402619906708138 0 -0.025102545085092187 -0.0013796451948864894 0 -0.025166786883177573 -0.001402619906708138 0 -0.025213856131264627 -0.001489980833836683 0 -0.025102545085092187 -0.0013796451948864894 0 -0.025335178424556789 -0.0015131263226618921 0 -0.025076567022330996 -0.001368762915734548 0 -0.025166786883177573 -0.001402619906708138 0 -0.025435067818246161 -0.0016229356113722007 0 -0.025335178424556789 -0.0015131263226618921 0 -0.025213856131264627 -0.001489980833836683 0 -0.025335178424556789 -0.0015131263226618921 0 -0.025166786883177573 -0.001402619906708138 0 -0.025213856131264627 -0.001489980833836683 0 -0.025213856131264627 -0.001489980833836683 0 -0.025102545085092187 -0.0013796451948864894 0 -0.024966732439896815 -0.0014473491349698314 0 -0.027876157103262494 -0.0016711783765387628 0 -0.024831027839788907 -0.0013779357060500019 0 -0.025070335174572952 -0.0016968488515191993 0 -0.025213856131264627 -0.001489980833836683 0 -0.024966732439896815 -0.0014473491349698314 0 -0.025102545085092187 -0.0013796451948864894 0 -0.025006540171330048 -0.0013323271638443349 0 -0.024966732439896815 -0.0014473491349698314 0 -0.025102545085092187 -0.0013796451948864894 0 -0.02504320218244244 -0.0013126489586345741 0 -0.025006540171330048 -0.0013323271638443349 0 -0.025092664791220683 -0.0013297778123991641 0 -0.025102545085092187 -0.0013796451948864894 0 -0.02504320218244244 -0.0013126489586345741 0 -0.025089712130584155 -0.0015363788032022104 0 -0.024861014916662569 -0.0015087462336406637 0 -0.024914206595683313 -0.0013691666311850693 0 -0.024831027839788907 -0.0013779357060500019 0 -0.024997226794812932 -0.0013500916573525863 0 -0.025006540171330048 -0.0013323271638443349 0 -0.024966732439896815 -0.0014473491349698314 0 -0.024951179357261443 -0.001269240001196222 0 -0.025089712130584155 -0.0015363788032022104 0 -0.024914206595683313 -0.0013691666311850693 0 -0.024951179357261443 -0.001269240001196222 0 -0.024914206595683313 -0.0013691666311850693 0 -0.024901376015750144 -0.0011959698944511387 0 -0.024951179357261443 -0.001269240001196222 0 -0.02518434299401269 -0.0017737554570533695 0 -0.025089712130584155 -0.0015363788032022104 0 -0.024930808259118253 -0.0016504788231879927 0 -0.025089712130584155 -0.0015363788032022104 0 -0.024930808259118253 -0.0016504788231879927 0 -0.024861014916662569 -0.0015087462336406637 0 -0.024930808259118253 -0.0016504788231879927 0 -0.024861014916662569 -0.0015087462336406637 0 -0.024662618293075009 -0.0016992325132778744 0 -0.024887645614583863 -0.0017712256554040036 0 -0.024930808259118253 -0.0016504788231879927 0 -0.024662618293075009 -0.0016992325132778744 0 -0.024861014916662569 -0.0015087462336406637 0 -0.024753540383726798 -0.0013578598675999083 0 -0.024662618293075009 -0.0016992325132778744 0 -0.024861014916662569 -0.0015087462336406637 0 -0.024914206595683313 -0.0013691666311850693 0 -0.024753540383726798 -0.0013578598675999083 0 -0.024914206595683313 -0.0013691666311850693 0 -0.024753540383726798 -0.0013578598675999083 0 -0.024901376015750144 -0.0011959698944511387 0 -0.024753540383726798 -0.0013578598675999083 0 -0.024901376015750144 -0.0011959698944511387 0 -0.024316302622710298 -0.0010355771877067299 0 -0.024144697325875531 -0.0012932997311417397 0 -0.024180092144456464 -0.00097071995926123467 0 -0.023786450149977465 -0.00085876203888329231 0 -0.024951564129667668 -0.0012760850414652546 0 -0.024524859540499905 -0.0012347466935115504 0 -0.024982059960981601 -0.0012844881925789522 0 -0.024144697325875531 -0.0012932997311417397 0 -0.024526715112735555 -0.0010707906494277614 0 -0.024982059960981601 -0.0012844881925789522 0 -0.024901376015750144 -0.0011959698944511387 0 -0.024951179357261443 -0.001269240001196222 0 -0.024144697325875531 -0.0012932997311417397 0 -0.024526715112735555 -0.0010707906494277614 0 -0.024180092144456464 -0.00097071995926123467 0 -0.024526715112735555 -0.0010707906494277614 0 -0.024306592564190932 -0.00067588828313774505 0 -0.024180092144456464 -0.00097071995926123467 0 -0.024631034211818982 -0.0011522662099543114 0 -0.024080059024295556 -0.00075594907241911845 0 -0.02506772482770496 -0.0011569280932956897 0 -0.024526715112735555 -0.0010707906494277614 0 -0.024306592564190932 -0.00067588828313774505 0 -0.024306592564190932 -0.00067588828313774505 0 -0.024180092144456464 -0.00097071995926123467 0 -0.023786450149977465 -0.00085876203888329231 0 -0.02383033334544216 -0.00080753000250554535 0 -0.02385056129457851 -0.00058578633544758695 0 -0.023709641822229195 -0.00050368611005280361 0 -0.024080059024295556 -0.00075594907241911845 0 -0.023742192027111877 -0.00052195082479863746 0 -0.024306592564190932 -0.00067588828313774505 0 -0.023786450149977465 -0.00085876203888329231 0 -0.023709641822229195 -0.00050368611005280361 0 -0.024135478486427882 -0.00082919158632672638 0 -0.02383033334544216 -0.00080753000250554535 0 -0.02385056129457851 -0.00058578633544758695 0 -0.02385056129457851 -0.00058578633544758695 0 -0.023772669108836401 -0.00045462467315205248 0 -0.023883795431052748 -0.00050106427859510712 0 -0.02385056129457851 -0.00058578633544758695 0 -0.023883795431052748 -0.00050106427859510712 0 -0.024094585219006495 -0.00061212646656999537 0 -0.023772669108836401 -0.00045462467315205248 0 -0.023709641822229195 -0.00050368611005280361 0 -0.023686181199200494 -0.00034732716459360896 0 -0.02385056129457851 -0.00058578633544758695 0 -0.023772669108836401 -0.00045462467315205248 0 -0.023709641822229195 -0.00050368611005280361 0 -0.023772669108836401 -0.00045462467315205248 0 -0.023736138323161075 -0.00039540353882416211 0 -0.023686181199200494 -0.00034732716459360896 0 -0.023772669108836401 -0.00045462467315205248 0 -0.023736138323161075 -0.00039540353882416211 0 -0.023794565497070007 -0.00044643353572178647 0 -0.023736138323161075 -0.00039540353882416211 0 -0.023737723123917073 -0.00043468513468364957 0 -0.023794565497070007 -0.00044643353572178647 0 -0.023736138323161075 -0.00039540353882416211 0 -0.023686181199200494 -0.00034732716459360896 0 -0.023717076050456278 -0.00036033765424047643 0 -0.023736138323161075 -0.00039540353882416211 0 -0.023717356850356978 -0.00041580615632847952 0 -0.023717076050456278 -0.00036033765424047643 0 -0.023736138323161075 -0.00039540353882416211 0 -0.023717356850356978 -0.00041580615632847952 0 -0.023737723123917073 -0.00043468513468364957 0 -0.023717356850356978 -0.00041580615632847952 0 -0.023695552744637197 -0.00045881048726752075 0 -0.023706740950205175 -0.0004596422358491949 0 -0.023717356850356978 -0.00041580615632847952 0 -0.023695552744637197 -0.00045881048726752075 0 -0.023737723123917073 -0.00043468513468364957 0 -0.023717356850356978 -0.00041580615632847952 0 -0.023717076050456278 -0.00036033765424047643 0 -0.023706740950205175 -0.0004596422358491949 0 -0.023737723123917073 -0.00043468513468364957 0 -0.023828752412647387 -0.00047514809475335864 0 -0.023709334641618909 -0.00048669440404221855 0 -0.023695552744637197 -0.00045881048726752075 0 -0.023737723123917073 -0.00043468513468364957 0 -0.023709334641618909 -0.00048669440404221855 0 -0.023737723123917073 -0.00043468513468364957 0 -0.023794565497070007 -0.00044643353572178647 0 -0.023828752412647387 -0.00047514809475335864 0 -0.023772669108836401 -0.00045462467315205248 0 -0.023883795431052748 -0.00050106427859510712 0 -0.023794565497070007 -0.00044643353572178647 0 -0.023883795431052748 -0.00050106427859510712 0 -0.023794565497070007 -0.00044643353572178647 0 -0.023828752412647387 -0.00047514809475335864 0 -0.023993577050410105 -0.00052765748570117216 0 -0.023828752412647387 -0.00047514809475335864 0 -0.023910977825540091 -0.00051008467632943089 0 -0.023883795431052748 -0.00050106427859510712 0 -0.023993577050410105 -0.00052765748570117216 0 -0.023828752412647387 -0.00047514809475335864 0 -0.023828752412647387 -0.00047514809475335864 0 -0.023910977825540091 -0.00051008467632943089 0 -0.023768108596302007 -0.00050840466875905904 0 -0.023910977825540091 -0.00051008467632943089 0 -0.023768108596302007 -0.00050840466875905904 0 -0.02379767139928856 -0.00053176758896837238 0 -0.023828752412647387 -0.00047514809475335864 0 -0.023709334641618909 -0.00048669440404221855 0 -0.023768108596302007 -0.00050840466875905904 0 -0.023910977825540091 -0.00051008467632943089 0 -0.023921095358393402 -0.00053912053139606845 0 -0.02379767139928856 -0.00053176758896837238 0 -0.023910977825540091 -0.00051008467632943089 0 -0.024174772889180875 -0.00055436794092565602 0 -0.023921095358393402 -0.00053912053139606845 0 -0.023993577050410105 -0.00052765748570117216 0 -0.023910977825540091 -0.00051008467632943089 0 -0.024174772889180875 -0.00055436794092565602 0 -0.024094585219006495 -0.00061212646656999537 0 -0.024493411444425746 -0.00076880452838270152 0 -0.024174772889180875 -0.00055436794092565602 0 -0.023993577050410105 -0.00052765748570117216 0 -0.024094585219006495 -0.00061212646656999537 0 -0.024174772889180875 -0.00055436794092565602 0 -0.023883795431052748 -0.00050106427859510712 0 -0.023993577050410105 -0.00052765748570117216 0 -0.024094585219006495 -0.00061212646656999537 0 -0.024135478486427882 -0.00082919158632672638 0 -0.02385056129457851 -0.00058578633544758695 0 -0.024094585219006495 -0.00061212646656999537 0 -0.024135478486427882 -0.00082919158632672638 0 -0.024094585219006495 -0.00061212646656999537 0 -0.024493411444425746 -0.00076880452838270152 0 -0.034202349729518897 -0.0042679680696539723 0 -0.035227860130774419 -0.0048462145888348599 0 -0.034317716444153663 -0.0052681088721908895 0 -0.034317716444153663 -0.0052681088721908895 0 -0.03513724816683686 -0.0060637492926204082 0 -0.033961483264653348 -0.0062242167417114356 0 -0.029865529568240672 -0.0028288912065767302 0 -0.029614700897647818 -0.0032885727404551599 0 -0.035227860130774419 -0.0048462145888348599 0 -0.034317716444153663 -0.0052681088721908895 0 -0.03513724816683686 -0.0060637492926204082 0 -0.029614700897647818 -0.0032885727404551599 0 -0.029797326317596524 -0.0039975879707706006 0 -0.03513724816683686 -0.0060637492926204082 0 -0.035003599687415968 -0.0072029009047692195 0 -0.034477204640577248 -0.0067741343412845868 0 -0.035003599687415968 -0.0072029009047692195 0 -0.034477204640577248 -0.0067741343412845868 0 -0.034377070927141144 -0.0076136415094169262 0 -0.034477204640577248 -0.0067741343412845868 0 -0.033774593552361717 -0.0072551119430467976 0 -0.034377070927141144 -0.0076136415094169262 0 -0.034477204640577248 -0.0067741343412845868 0 -0.033961483264653348 -0.0062242167417114356 0 -0.033774593552361717 -0.0072551119430467976 0 -0.03513724816683686 -0.0060637492926204082 0 -0.034477204640577248 -0.0067741343412845868 0 -0.033961483264653348 -0.0062242167417114356 0 -0.033961483264653348 -0.0062242167417114356 0 -0.033097602974734068 -0.0066998286427479735 0 -0.033303434503067698 -0.0057083417730842577 0 -0.033961483264653348 -0.0062242167417114356 0 -0.033774593552361717 -0.0072551119430467976 0 -0.033097602974734068 -0.0066998286427479735 0 -0.033774593552361717 -0.0072551119430467976 0 -0.033029408042507723 -0.0073611602134356253 0 -0.033097602974734068 -0.0066998286427479735 0 -0.033029408042507723 -0.0073611602134356253 0 -0.033097602974734068 -0.0066998286427479735 0 -0.032006242695336626 -0.0073105696153388956 0 -0.033029408042507723 -0.0073611602134356253 0 -0.032789435643570938 -0.007789690164603064 0 -0.032006242695336626 -0.0073105696153388956 0 -0.033097602974734068 -0.0066998286427479735 0 -0.033303434503067698 -0.0057083417730842577 0 -0.032285202030803421 -0.0061694610739755794 0 -0.033303434503067698 -0.0057083417730842577 0 -0.03254543754548074 -0.004909149503649941 0 -0.032285202030803421 -0.0061694610739755794 0 -0.034317716444153663 -0.0052681088721908895 0 -0.033961483264653348 -0.0062242167417114356 0 -0.033303434503067698 -0.0057083417730842577 0 -0.034202349729518897 -0.0042679680696539723 0 -0.034317716444153663 -0.0052681088721908895 0 -0.033536596751078306 -0.0046742643656000199 0 -0.034317716444153663 -0.0052681088721908895 0 -0.033303434503067698 -0.0057083417730842577 0 -0.033536596751078306 -0.0046742643656000199 0 -0.033303434503067698 -0.0057083417730842577 0 -0.033536596751078306 -0.0046742643656000199 0 -0.03254543754548074 -0.004909149503649941 0 -0.023173959662067898 1.6328992696436734e-05 0 -0.024688198876495138 0.00051666294835797525 0 -0.022667376937222736 0.001004716988806954 0 -0.022559796273361708 -0.00089803778711308171 0 -0.022624579739118009 -0.00073837976677030486 0 -0.022645065714638885 -0.000523636183636834 0 -0.022162613333126732 -8.4430823046609168e-05 0 -0.022697182278238651 -0.00063269668412708026 0 -0.023173959662067898 1.6328992696436734e-05 0 -0.02219454145733504 0.00024678566284852619 0 -0.022645065714638885 -0.000523636183636834 0 -0.023173959662067898 1.6328992696436734e-05 0 -0.02219454145733504 0.00024678566284852619 0 -0.022667376937222736 0.001004716988806954 0 -0.022559796273361708 -0.00089803778711308171 0 -0.022748396563235115 -0.00098028034524090578 0 -0.022710621607796466 -0.0012823394533719346 0 -0.022748396563235115 -0.00098028034524090578 0 -0.022624579739118009 -0.00073837976677030486 0 -0.022912580358637594 -0.00088907512186568358 0 -0.022559796273361708 -0.00089803778711308171 0 -0.022748396563235115 -0.00098028034524090578 0 -0.022624579739118009 -0.00073837976677030486 0 -0.022624579739118009 -0.00073837976677030486 0 -0.022841660193987003 -0.00064251226443585421 0 -0.022423292930744795 -0.00057118126333917212 0 -0.022624579739118009 -0.00073837976677030486 0 -0.022645065714638885 -0.000523636183636834 0 -0.022423292930744795 -0.00057118126333917212 0 -0.022645065714638885 -0.000523636183636834 0 -0.022423292930744795 -0.00057118126333917212 0 -0.022081068393933423 -0.00040992494833510569 0 -0.023085630864240578 -0.0002684100164517311 0 -0.023869334896652036 1.458908906863642e-06 0 -0.020522632263030888 -2.264693447645424e-06 0 -0.022645065714638885 -0.000523636183636834 0 -0.023085630864240578 -0.0002684100164517311 0 -0.022081068393933423 -0.00040992494833510569 0 -0.023085630864240578 -0.0002684100164517311 0 -0.023869334896652036 1.458908906863642e-06 0 -0.024688198876495138 0.00051666294835797525 0 -0.023173959662067898 1.6328992696436734e-05 0 -0.023085630864240578 -0.0002684100164517311 0 -0.024688198876495138 0.00051666294835797525 0 -0.023173959662067898 1.6328992696436734e-05 0 -0.022645065714638885 -0.000523636183636834 0 -0.023085630864240578 -0.0002684100164517311 0 -0.024688198876495138 0.00051666294835797525 0 -0.026365103434937705 0.00023366449411804554 0 -0.027232097263551958 0.0012546822012170901 0 -0.023869334896652036 1.458908906863642e-06 0 -0.024688198876495138 0.00051666294835797525 0 -0.026365103434937705 0.00023366449411804554 0 -0.027685518222993127 -0.00014567887449998506 0 -0.023869334896652036 1.458908906863642e-06 0 -0.026365103434937705 0.00023366449411804554 0 -0.028028806374399987 5.5919073312682745e-05 0 -0.026365103434937705 0.00023366449411804554 0 -0.027893521344678967 0.00066915292558582902 0 -0.028028806374399987 5.5919073312682745e-05 0 -0.027685518222993127 -0.00014567887449998506 0 -0.026365103434937705 0.00023366449411804554 0 -0.026365103434937705 0.00023366449411804554 0 -0.027232097263551958 0.0012546822012170901 0 -0.027893521344678967 0.00066915292558582902 0 -0.024823855701253283 0.00068844787464202798 0 -0.025011146221399168 0.0010792668017506582 0 -0.025011146221399168 0.0010792668017506582 0 -0.024645195454853042 -0.00039666024592661557 0 -0.027232097263551958 0.0012546822012170901 0 -0.028730087536293154 0.001262842704325959 0 -0.027893521344678967 0.00066915292558582902 0 -0.02219454145733504 0.00024678566284852619 0 -0.022667376937222736 0.001004716988806954 0 -0.021463220408407813 0.0012186776497779045 0 -0.022162613333126732 -8.4430823046609168e-05 0 -0.024645195454853042 -0.00039666024592661557 0 -0.028730087536293154 0.001262842704325959 0 -0.027893521344678967 0.00066915292558582902 0 -0.028760821299295428 0.00054918089340214883 0 -0.028987339547453361 0.00014874475783394601 0 -0.028028806374399987 5.5919073312682745e-05 0 -0.028760821299295428 0.00054918089340214883 0 -0.028028806374399987 5.5919073312682745e-05 0 -0.027893521344678967 0.00066915292558582902 0 -0.028760821299295428 0.00054918089340214883 0 -0.028987339547453361 0.00014874475783394601 0 -0.028760821299295428 0.00054918089340214883 0 -0.029838736739403664 0.00052052016178905211 0 -0.025022337249011178 -0.0017704636458452418 0 -0.024968660876563631 -0.001703091406656672 0 -0.024940364578699442 -0.0017713992794281604 0 -0.028730087536293154 0.001262842704325959 0 -0.028760821299295428 0.00054918089340214883 0 -0.029838736739403664 0.00052052016178905211 0 -0.024645195454853042 -0.00039666024592661557 0 -0.027668347593539956 -0.00076837505883095526 0 -0.024901322937098291 -0.0016792736775291446 0 -0.024968660876563631 -0.001703091406656672 0 -0.024905348233289028 -0.0017280099570049208 0 -0.024905348233289028 -0.0017280099570049208 0 -0.024940364578699442 -0.0017713992794281604 0 -0.024821585224779289 -0.001765943444974188 0 -0.024901322937098291 -0.0016792736775291446 0 -0.024864524156132328 -0.0017057197189217646 0 -0.024905348233289028 -0.0017280099570049208 0 -0.024864524156132328 -0.0017057197189217646 0 -0.024905348233289028 -0.0017280099570049208 0 -0.024821585224779289 -0.001765943444974188 0 -0.024968660876563631 -0.001703091406656672 0 -0.024905348233289028 -0.0017280099570049208 0 -0.024940364578699442 -0.0017713992794281604 0 -0.02315140595521567 -0.0014929316732761543 0 -0.02388473244114268 -0.0016830931061554998 0 -0.023293556690010101 -0.0010728972134238883 0 -0.023940862191391632 -0.0016764290274008885 0 -0.024377047422287215 -0.0017092177554626005 0 -0.02315140595521567 -0.0014929316732761543 0 -0.022960284540062537 -0.0011446595329273064 0 -0.023293556690010101 -0.0010728972134238883 0 -0.022710621607796466 -0.0012823394533719346 0 -0.02315140595521567 -0.0014929316732761543 0 -0.022960284540062537 -0.0011446595329273064 0 -0.024645195454853042 -0.00039666024592661557 0 -0.023940862191391632 -0.0016764290274008885 0 -0.022748396563235115 -0.00098028034524090578 0 -0.022710621607796466 -0.0012823394533719346 0 -0.022960284540062537 -0.0011446595329273064 0 -0.024616652951737303 -0.0017155621212482362 0 -0.024377047422287215 -0.0017092177554626005 0 -0.024733440740537939 -0.0016869575226087 0 -0.024662618293075009 -0.0016992325132778744 0 -0.024821585224779289 -0.001765943444974188 0 -0.024809824266680477 -0.001683652400945644 0 -0.024733440740537939 -0.0016869575226087 0 -0.024821585224779289 -0.001765943444974188 0 -0.024809824266680477 -0.001683652400945644 0 -0.024864524156132328 -0.0017057197189217646 0 -0.024821585224779289 -0.001765943444974188 0 -0.02388473244114268 -0.0016830931061554998 0 -0.024316302622710298 -0.0010355771877067299 0 -0.023293556690010101 -0.0010728972134238883 0 -0.024753540383726798 -0.0013578598675999083 0 -0.024662618293075009 -0.0016992325132778744 0 -0.024316302622710298 -0.0010355771877067299 0 -0.024662618293075009 -0.0016992325132778744 0 -0.02388473244114268 -0.0016830931061554998 0 -0.024316302622710298 -0.0010355771877067299 0 -0.024524859540499905 -0.0012347466935115504 0 -0.023947321715326535 -0.0011158158615118343 0 -0.023600300124766396 -0.0011761759342025452 0 -0.023388612313839367 -0.0009828840253195911 0 -0.023786450149977465 -0.00085876203888329231 0 -0.024144697325875531 -0.0012932997311417397 0 -0.023600300124766396 -0.0011761759342025452 0 -0.023786450149977465 -0.00085876203888329231 0 -0.023947321715326535 -0.0011158158615118343 0 -0.023342366098773531 -0.0010811980019929674 0 -0.023600300124766396 -0.0011761759342025452 0 -0.023388612313839367 -0.0009828840253195911 0 -0.023293556690010101 -0.0010728972134238883 0 -0.023388612313839367 -0.0009828840253195911 0 -0.023377030634613064 -0.00074806414985800025 0 -0.023786450149977465 -0.00085876203888329231 0 -0.023377030634613064 -0.00074806414985800025 0 -0.023786450149977465 -0.00085876203888329231 0 -0.023467255101076015 -0.00051003986773209592 0 -0.022960284540062537 -0.0011446595329273064 0 -0.022912580358637594 -0.00088907512186568358 0 -0.023293556690010101 -0.0010728972134238883 0 -0.022748396563235115 -0.00098028034524090578 0 -0.022960284540062537 -0.0011446595329273064 0 -0.022912580358637594 -0.00088907512186568358 0 -0.023388612313839367 -0.0009828840253195911 0 -0.023293556690010101 -0.0010728972134238883 0 -0.023155562604686833 -0.00084083050624512198 0 -0.022912580358637594 -0.00088907512186568358 0 -0.023293556690010101 -0.0010728972134238883 0 -0.023155562604686833 -0.00084083050624512198 0 -0.023388612313839367 -0.0009828840253195911 0 -0.023377030634613064 -0.00074806414985800025 0 -0.023155562604686833 -0.00084083050624512198 0 -0.023377030634613064 -0.00074806414985800025 0 -0.023155562604686833 -0.00084083050624512198 0 -0.023152517516463692 -0.00064087908869452223 0 -0.023155562604686833 -0.00084083050624512198 0 -0.022841660193987003 -0.00064251226443585421 0 -0.023152517516463692 -0.00064087908869452223 0 -0.022624579739118009 -0.00073837976677030486 0 -0.022912580358637594 -0.00088907512186568358 0 -0.022841660193987003 -0.00064251226443585421 0 -0.022912580358637594 -0.00088907512186568358 0 -0.023155562604686833 -0.00084083050624512198 0 -0.022841660193987003 -0.00064251226443585421 0 -0.022841660193987003 -0.00064251226443585421 0 -0.023131767512900907 -0.00038329955579140967 0 -0.022602389337448157 -0.00039120766983659133 0 -0.023152517516463692 -0.00064087908869452223 0 -0.023131767512900907 -0.00038329955579140967 0 -0.023467255101076015 -0.00051003986773209592 0 -0.022841660193987003 -0.00064251226443585421 0 -0.023152517516463692 -0.00064087908869452223 0 -0.023131767512900907 -0.00038329955579140967 0 -0.023131767512900907 -0.00038329955579140967 0 -0.022834971855230986 -6.6410594735887365e-05 0 -0.022602389337448157 -0.00039120766983659133 0 -0.023786450149977465 -0.00085876203888329231 0 -0.023709641822229195 -0.00050368611005280361 0 -0.023467255101076015 -0.00051003986773209592 0 -0.023377030634613064 -0.00074806414985800025 0 -0.023152517516463692 -0.00064087908869452223 0 -0.023467255101076015 -0.00051003986773209592 0 -0.023131767512900907 -0.00038329955579140967 0 -0.023467255101076015 -0.00051003986773209592 0 -0.023540391067329011 -0.00025254773951160472 0 -0.023709641822229195 -0.00050368611005280361 0 -0.023467255101076015 -0.00051003986773209592 0 -0.023540391067329011 -0.00025254773951160472 0 -0.023709641822229195 -0.00050368611005280361 0 -0.023686181199200494 -0.00034732716459360896 0 -0.023540391067329011 -0.00025254773951160472 0 -0.023686181199200494 -0.00034732716459360896 0 -0.023540391067329011 -0.00025254773951160472 0 -0.023686421975607563 -0.00033230622326385834 0 -0.023511792479992796 -0.00032678218999238447 0 -0.023803253897718767 0.00010536346133424527 0 -0.023540391067329011 -0.00025254773951160472 0 -0.02311862746607829 -4.1264057715934486e-05 0 -0.02321655709437604 0.00025091547648253696 0 -0.023540391067329011 -0.00025254773951160472 0 -0.02346765583497356 0.00029649603144015445 0 -0.02321655709437604 0.00025091547648253696 0 -0.023540391067329011 -0.00025254773951160472 0 -0.02346765583497356 0.00029649603144015445 0 -0.023695266545652082 0.00022891758613139708 0 -0.023686181199200494 -0.00034732716459360896 0 -0.023686421975607563 -0.00033230622326385834 0 -0.023717076050456278 -0.00036033765424047643 0 -0.022834971855230986 -6.6410594735887365e-05 0 -0.02308922826577451 0.0009196865983818268 0 -0.022140002237506683 0.00013636800789154746 0 -0.022865330142331365 1.5301063654568722e-05 0 -0.02296627446917883 0.00048276151427484711 0 -0.022834971855230986 -6.6410594735887365e-05 0 -0.02311862746607829 -4.1264057715934486e-05 0 -0.022923847642184091 0.00022626768579393124 0 -0.023131767512900907 -0.00038329955579140967 0 -0.023540391067329011 -0.00025254773951160472 0 -0.02311862746607829 -4.1264057715934486e-05 0 -0.023131767512900907 -0.00038329955579140967 0 -0.022834971855230986 -6.6410594735887365e-05 0 -0.02311862746607829 -4.1264057715934486e-05 0 -0.02311862746607829 -4.1264057715934486e-05 0 -0.02321655709437604 0.00025091547648253696 0 -0.022923847642184091 0.00022626768579393124 0 -0.021297853439211013 0.00063080703296343943 0 -0.022140002237506683 0.00013636800789154746 0 -0.022117618084128734 0.0013986449123248672 0 -0.02308922826577451 0.0009196865983818268 0 -0.022140002237506683 0.00013636800789154746 0 -0.022117618084128734 0.0013986449123248672 0 -0.021297853439211013 0.00063080703296343943 0 -0.022140002237506683 0.00013636800789154746 0 -0.020959199235250608 -9.1218478039448541e-05 0 -0.022834971855230986 -6.6410594735887365e-05 0 -0.022140002237506683 0.00013636800789154746 0 -0.022602389337448157 -0.00039120766983659133 0 -0.022140002237506683 0.00013636800789154746 0 -0.022602389337448157 -0.00039120766983659133 0 -0.022014171999002786 -0.00038253527394619221 0 -0.022140002237506683 0.00013636800789154746 0 -0.022014171999002786 -0.00038253527394619221 0 -0.020959199235250608 -9.1218478039448541e-05 0 -0.022014171999002786 -0.00038253527394619221 0 -0.022423292930744795 -0.00057118126333917212 0 -0.022081068393933423 -0.00040992494833510569 0 -0.022841660193987003 -0.00064251226443585421 0 -0.022602389337448157 -0.00039120766983659133 0 -0.022423292930744795 -0.00057118126333917212 0 -0.022602389337448157 -0.00039120766983659133 0 -0.022014171999002786 -0.00038253527394619221 0 -0.022423292930744795 -0.00057118126333917212 0 -0.023085630864240578 -0.0002684100164517311 0 -0.022081068393933423 -0.00040992494833510569 0 -0.020522632263030888 -2.264693447645424e-06 0 -0.022014171999002786 -0.00038253527394619221 0 -0.022081068393933423 -0.00040992494833510569 0 -0.020959199235250608 -9.1218478039448541e-05 0 -0.022081068393933423 -0.00040992494833510569 0 -0.020522632263030888 -2.264693447645424e-06 0 -0.020959199235250608 -9.1218478039448541e-05 0 -0.020522632263030888 -2.264693447645424e-06 0 -0.020959199235250608 -9.1218478039448541e-05 0 -0.018122663709270018 3.5226196713416002e-06 0 -0.021297853439211013 0.00063080703296343943 0 -0.020959199235250608 -9.1218478039448541e-05 0 -0.020133498693930531 0.00083705205426521279 0 -0.021297853439211013 0.00063080703296343943 0 -0.020133498693930531 0.00083705205426521279 0 -0.020705189192987829 0.0019197146745385005 0 -0.020959199235250608 -9.1218478039448541e-05 0 -0.020133498693930531 0.00083705205426521279 0 -0.018122663709270018 3.5226196713416002e-06 0 -0.018117549249920786 3.597066752195972e-07 0 -0.016299675702617741 -3.7502568532553579e-07 0 -0.016190008990746411 2.6512674392533601e-05 0 -0.020133498693930531 0.00083705205426521279 0 -0.018122663709270018 3.5226196713416002e-06 0 -0.019190544243417623 0.0021880230188530184 0 -0.018117492558385628 -1.2320239809890523e-08 0 -0.017639708490521776 0.00093741471366161908 0 -0.020133498693930531 0.00083705205426521279 0 -0.020705189192987829 0.0019197146745385005 0 -0.019190544243417623 0.0021880230188530184 0 -0.020705189192987829 0.0019197146745385005 0 -0.021018931746998284 0.0033261248778353007 0 -0.019734826388164557 0.0035401707861400047 0 -0.020705189192987829 0.0019197146745385005 0 -0.019190544243417623 0.0021880230188530184 0 -0.019734826388164557 0.0035401707861400047 0 -0.017639708490521776 0.00093741471366161908 0 -0.017686414168391625 0.0018976766984859783 0 -0.016299675702617741 -3.7502568532553579e-07 0 -0.016190008990746411 2.6512674392533601e-05 0 -0.015076018780706555 -6.4959917550839032e-05 0 -0.020705189192987829 0.0019197146745385005 0 -0.022117618084128734 0.0013986449123248672 0 -0.021569872617960208 0.0022593037505514355 0 -0.021297853439211013 0.00063080703296343943 0 -0.020705189192987829 0.0019197146745385005 0 -0.022117618084128734 0.0013986449123248672 0 -0.020705189192987829 0.0019197146745385005 0 -0.021569872617960208 0.0022593037505514355 0 -0.021018931746998284 0.0033261248778353007 0 -0.022117618084128734 0.0013986449123248672 0 -0.021569872617960208 0.0022593037505514355 0 -0.022413988636254965 0.0027205457711685366 0 -0.021569872617960208 0.0022593037505514355 0 -0.022413988636254965 0.0027205457711685366 0 -0.021018931746998284 0.0033261248778353007 0 -0.022413988636254965 0.0027205457711685366 0 -0.021018931746998284 0.0033261248778353007 0 -0.022468444516141075 0.0038495885580304618 0 -0.021018931746998284 0.0033261248778353007 0 -0.021324552321301031 0.0043899885439210289 0 -0.022468444516141075 0.0038495885580304618 0 -0.021018931746998284 0.0033261248778353007 0 -0.021324552321301031 0.0043899885439210289 0 -0.020148471554665374 0.0049071421240593398 0 -0.017753173965619391 0.0029101144660979685 0 -0.015897708934635869 0.0023821097611038595 0 -0.013906158943740431 0.001390081946070232 0 -0.014644893674540837 0.0010533817073317148 0 -0.014573466622657454 0.0019834121352133292 0 -0.017753173965619391 0.0029101144660979685 0 -0.018328291357901236 0.0026199129618201542 0 -0.016299675702617741 -3.7502568532553579e-07 0 -0.015076018780706555 -6.4959917550839032e-05 0 -0.014486429371499389 4.6909811111882937e-07 0 -0.015076018780706555 -6.4959917550839032e-05 0 -0.014967621169648625 0.0010756584058107363 0 -0.015369653270423271 0.00090600908234422957 0 -0.017686414168391625 0.0018976766984859783 0 -0.015897708934635869 0.0023821097611038595 0 -0.021018931746998284 0.0033261248778353007 0 -0.019734826388164557 0.0035401707861400047 0 -0.020148471554665374 0.0049071421240593398 0 -0.015076018780706555 -6.4959917550839032e-05 0 -0.014486429371499389 4.6909811111882937e-07 0 -0.014967621169648625 0.0010756584058107363 0 -0.014482537933463043 -3.9521733027918506e-09 0 -0.013376068946503315 6.2551518550441648e-09 0 -0.012663250073874756 3.2954115394207029e-06 0 -0.014483910374830008 -4.2491709324844319e-07 0 -0.013051557612972126 0.00090252635786155198 0 -0.013376068946503315 6.2551518550441648e-09 0 -0.012663250073874756 3.2954115394207029e-06 0 -0.012269594278861829 3.7596360302219677e-09 0 -0.013051557612972126 0.00090252635786155198 0 -0.012268007414106686 4.9662735283421411e-07 0 -0.011339853403747232 0.00040502097008814455 0 -0.012265350387465016 6.3319877903581557e-07 0 -0.011322331278539741 -8.6303007531286321e-05 0 -0.012265350387465016 6.3319877903581557e-07 0 -0.011322331278539741 -8.6303007531286321e-05 0 -0.010861403898626436 7.4273699491167156e-08 0 -0.011339853403747232 0.00040502097008814455 0 -0.011322331278539741 -8.6303007531286321e-05 0 -0.011045061193790829 -7.2077073829846365e-05 0 -0.011322331278539741 -8.6303007531286321e-05 0 -0.011045061193790829 -7.2077073829846365e-05 0 -0.010930053571408662 5.1195994024778092e-05 0 -0.011322331278539741 -8.6303007531286321e-05 0 -0.010861403898626436 7.4273699491167156e-08 0 -0.010930053571408662 5.1195994024778092e-05 0 -0.012887488716636081 0.0017729104912386341 0 -0.010934235280841 0.0025083472854920299 0 -0.012760529584241006 0.0014963092747664122 0 -0.012568859484215907 0.0015720623449089375 0 -0.012533282309715874 0.001087663091128663 0 -0.012760529584241006 0.0014963092747664122 0 -0.012568859484215907 0.0015720623449089375 0 -0.012763722443727336 0.0017604222720991156 0 -0.012568859484215907 0.0015720623449089375 0 -0.012763722443727336 0.0017604222720991156 0 -0.01273563500000733 0.0020318418087191788 0 -0.013363337654089116 0.0023626705632796086 0 -0.013193004322775067 0.0017171948410593606 0 -0.013772886104475419 0.0020051186786512821 0 -0.013051557612972126 0.00090252635786155198 0 -0.011904397897309595 0.00066098052983402456 0 -0.012984171568799663 0.0019148494748386894 0 -0.012760529584241006 0.0014963092747664122 0 -0.012763722443727336 0.0017604222720991156 0 -0.012887488716636081 0.0017729104912386341 0 -0.015897708934635869 0.0023821097611038595 0 -0.013051557612972126 0.00090252635786155198 0 -0.015897708934635869 0.0023821097611038595 0 -0.012984171568799663 0.0019148494748386894 0 -0.012763722443727336 0.0017604222720991156 0 -0.01273563500000733 0.0020318418087191788 0 -0.013906158943740431 0.001390081946070232 0 -0.013193004322775067 0.0017171948410593606 0 -0.013772886104475419 0.0020051186786512821 0 -0.013772886104475419 0.0020051186786512821 0 -0.014573466622657454 0.0019834121352133292 0 -0.013926804587198289 0.0024679389740909561 0 -0.013906158943740431 0.001390081946070232 0 -0.013772886104475419 0.0020051186786512821 0 -0.014573466622657454 0.0019834121352133292 0 -0.014573466622657454 0.0019834121352133292 0 -0.013926804587198289 0.0024679389740909561 0 -0.014569218055378348 0.0027570927053911344 0 -0.013926804587198289 0.0024679389740909561 0 -0.013530926860972859 0.003016631737543591 0 -0.014569218055378348 0.0027570927053911344 0 -0.013363337654089116 0.0023626705632796086 0 -0.013926804587198289 0.0024679389740909561 0 -0.013530926860972859 0.003016631737543591 0 -0.013363337654089116 0.0023626705632796086 0 -0.013772886104475419 0.0020051186786512821 0 -0.013926804587198289 0.0024679389740909561 0 -0.0073938736786245338 0.0035201724907536636 0 -0.0072472157047766802 0.003048208738570569 0 -0.0057868666908405661 0.0024594205410260633 0 -0.010934235280841 0.0025083472854920299 0 -0.010168622356423225 0.0025025742370884318 0 -0.0073978412493085283 0.0035092244947590606 0 -0.0072472157047766802 0.003048208738570569 0 -0.0079241037442995162 0.0033715806850999242 0 -0.0057868666908405661 0.0024594205410260633 0 -0.0039052012050390839 0.002177067229564129 0 -0.0043874773391463775 0.0042313784714402723 0 -0.010934235280841 0.0025083472854920299 0 -0.0082682001025022843 0.0040082999529300134 0 -0.0073938736786245338 0.0035201724907536636 0 -0.0057868666908405661 0.0024594205410260633 0 -0.0043874773391463775 0.0042313784714402723 0 -0.0057868666908405661 0.0024594205410260633 0 -0.0039052012050390839 0.002177067229564129 0 -0.0047623086966942464 0.00067529444295265915 0 -0.0057868666908405661 0.0024594205410260633 0 -0.0067109962097679724 0.0008282414509793247 0 -0.0047623086966942464 0.00067529444295265915 0 -0.0072472157047766802 0.003048208738570569 0 -0.0079241037442995162 0.0033715806850999242 0 -0.0067109962097679724 0.0008282414509793247 0 -0.0072472157047766802 0.003048208738570569 0 -0.0057868666908405661 0.0024594205410260633 0 -0.0067109962097679724 0.0008282414509793247 0 -0.01024552869368873 0.0017184725121947031 0 -0.0070252658487315496 0.00029457755313236984 0 -0.0095376131763602982 0.00023638633781379608 0 -0.0093444471198437639 0.0011454130287117377 0 -0.00790456312867455 -0.00017403803469337933 0 -0.0095376131763602982 0.00023638633781379608 0 -0.010520015493348141 0.00026419560907278564 0 -0.01058562849768023 0.00045434742532755737 0 -0.0087304132897264679 9.7547555789687934e-05 0 -0.0087641073379986518 2.6163887894842312e-07 0 -0.010858563434384102 3.5993294673710577e-07 0 -0.010520015493348141 0.00026419560907278564 0 -0.01058562849768023 0.00045434742532755737 0 -0.010861403898626436 7.4273699491167156e-08 0 -0.0095975863357770693 5.3305763868936521e-05 0 -0.010858847896656995 -6.3146127267206455e-08 0 -0.01058562849768023 0.00045434742532755737 0 -0.010861403898626436 7.4273699491167156e-08 0 -0.010930053571408662 5.1195994024778092e-05 0 -0.011045061193790829 -7.2077073829846365e-05 0 -0.010930053571408662 5.1195994024778092e-05 0 -0.011201468284903241 0.00027010953303219031 0 -0.012568859484215907 0.0015720623449089375 0 -0.012402111021878284 0.0011236564010337624 0 -0.012533282309715874 0.001087663091128663 0 -0.011904397897309595 0.00066098052983402456 0 -0.01024552869368873 0.0017184725121947031 0 -0.01058562849768023 0.00045434742532755737 0 -0.010930053571408662 5.1195994024778092e-05 0 -0.011201468284903241 0.00027010953303219031 0 -0.010934235280841 0.0025083472854920299 0 -0.01024552869368873 0.0017184725121947031 0 -0.0095376131763602982 0.00023638633781379608 0 -0.01058562849768023 0.00045434742532755737 0 -0.0093444471198437639 0.0011454130287117377 0 -0.010615988901908017 0.00061133607298925426 0 -0.01024552869368873 0.0017184725121947031 0 -0.0012904054700170892 0.0032900901142701041 0 -0.0011735527370947635 0.0019781363201375893 0 -0.0015570701262307112 0.0029087883428895603 0 -0.020407848352297302 0.0013020732870800112 0 -0.020226252949011848 0.00063500035470814918 0 -0.020600795919052502 0.00096041817339357098 0 -0.02077034326145254 0.001535318826288145 0 -0.020761144595250098 0.0012606228241506955 0 -0.02109352243356143 0.001426572436864065 0 -0.02077034326145254 0.001535318826288145 0 -0.020407848352297302 0.0013020732870800112 0 -0.020761144595250098 0.0012606228241506955 0 -0.020407848352297302 0.0013020732870800112 0 -0.020761144595250098 0.0012606228241506955 0 -0.020600795919052502 0.00096041817339357098 0 -0.020994557011453533 0.0010278085916605034 0 -0.020761144595250098 0.0012606228241506955 0 -0.02109352243356143 0.001426572436864065 0 -0.020994557011453533 0.0010278085916605034 0 -0.020761144595250098 0.0012606228241506955 0 -0.020600795919052502 0.00096041817339357098 0 -0.020994557011453533 0.0010278085916605034 0 -0.021648986022027368 0.0010607670598930384 0 -0.02109352243356143 0.001426572436864065 0 -0.021648986022027368 0.0010607670598930384 0 -0.02109352243356143 0.001426572436864065 0 -0.021591405232382219 0.0018044163456773278 0 -0.021051537247585763 0.0018385979138416482 0 -0.021591405232382219 0.0018044163456773278 0 -0.021223211311124958 0.0020357737654351778 0 -0.02109352243356143 0.001426572436864065 0 -0.021051537247585763 0.0018385979138416482 0 -0.021591405232382219 0.0018044163456773278 0 -0.021051537247585763 0.0018385979138416482 0 -0.020621906398039517 0.0018232984118247096 0 -0.021030778048557373 0.0021796809397993189 0 -0.010903217000462061 0.0024665567820841032 0 -0.0080169857942747925 0.001961265500634188 0 -0.02077034326145254 0.001535318826288145 0 -0.020407848352297302 0.0013020732870800112 0 -0.020621906398039517 0.0018232984118247096 0 -0.02077034326145254 0.001535318826288145 0 -0.02109352243356143 0.001426572436864065 0 -0.021051537247585763 0.0018385979138416482 0 -0.02077034326145254 0.001535318826288145 0 -0.021051537247585763 0.0018385979138416482 0 -0.020621906398039517 0.0018232984118247096 0 -0.0080169857942747925 0.001961265500634188 0 -0.001995065789834233 0.0014266969486744368 0 -0.0024795510186593657 0.0016123428686143804 0 -0.0016663711755863274 0.0019580793308763625 0 -0.0015104649726877725 0.00057430384542172207 0 -0.00077998183718721019 0.0016675789940415208 0 -0.0016663711755863274 0.0019580793308763625 0 -0.0015104649726877725 0.00057430384542172207 0 -0.0024795510186593657 0.0016123428686143804 0 -0.0025199221775397155 0.0025931061710779365 0 -0.0016663711755863274 0.0019580793308763625 0 -0.00077998183718721019 0.0016675789940415208 0 -0.0016663711755863274 0.0019580793308763625 0 -0.0015570701262307112 0.0029087883428895603 0 -0.0025199221775397155 0.0025931061710779365 0 -0.0016663711755863274 0.0019580793308763625 0 -0.0015570701262307112 0.0029087883428895603 0 -0.0039052012050390839 0.002177067229564129 0 -0.0047623086966942464 0.00067529444295265915 0 -0.0031283411950781413 0.00070277899404061082 0 -0.0024795510186593657 0.0016123428686143804 0 -0.0039052012050390839 0.002177067229564129 0 -0.0031283411950781413 0.00070277899404061082 0 -0.0024795510186593657 0.0016123428686143804 0 -0.0025199221775397155 0.0025931061710779365 0 -0.0039052012050390839 0.002177067229564129 0 -0.0032330564286954422 0.0031881646611779872 0 -0.0023279524025358344 0.003652581271612193 0 -0.0043874773391463775 0.0042313784714402723 0 -0.0039052012050390839 0.002177067229564129 0 -0.0032330564286954422 0.0031881646611779872 0 -0.0043874773391463775 0.0042313784714402723 0 -0.0025199221775397155 0.0025931061710779365 0 -0.0039052012050390839 0.002177067229564129 0 -0.0032330564286954422 0.0031881646611779872 0 -0.0012904054700170892 0.0032900901142701041 0 -0.0023279524025358344 0.003652581271612193 0 -0.0016359080209711781 0.0048506214781525361 0 -0.010903217000462061 0.0024665567820841032 0 -0.013594937721801842 0.0015989343619875003 0 -0.0012904054700170892 0.0032900901142701041 0 -0.0015570701262307112 0.0029087883428895603 0 -0.0023279524025358344 0.003652581271612193 0 -0.0025199221775397155 0.0025931061710779365 0 -0.0032330564286954422 0.0031881646611779872 0 -0.0023279524025358344 0.003652581271612193 0 -0.0025199221775397155 0.0025931061710779365 0 -0.0015570701262307112 0.0029087883428895603 0 -0.0023279524025358344 0.003652581271612193 0 -0.0023279524025358344 0.003652581271612193 0 -0.0016359080209711781 0.0048506214781525361 0 -0.0043874773391463775 0.0042313784714402723 0 -0.014573466622657454 0.0019834121352133292 0 -0.015645168948010022 0.0024713657306551346 0 -0.014569218055378348 0.0027570927053911344 0 -0.013594937721801842 0.0015989343619875003 0 -0.0082682001025022843 0.0040082999529300134 0 -0.014573466622657454 0.0019834121352133292 0 -0.015645168948010022 0.0024713657306551346 0 -0.015522984571889784 0.001598063414435303 0 -0.020150560422902475 0.00065892357596134953 0 -0.020526142470914568 4.5440919914951125e-05 0 -0.019983489058357493 -0.00045016879823323144 0 -0.013594937721801842 0.0015989343619875003 0 -0.017897570022668261 0.00039273055231227896 0 -0.020526142470914568 4.5440919914951125e-05 0 -0.021017894574460263 0.00043111685080181853 0 -0.020954775316852563 -0.00045162179116474719 0 -0.020526142470914568 4.5440919914951125e-05 0 -0.020954775316852563 -0.00045162179116474719 0 -0.019983489058357493 -0.00045016879823323144 0 -0.013594937721801842 0.0015989343619875003 0 -0.023196235611192623 -0.00010832383582481019 0 -0.020150560422902475 0.00065892357596134953 0 -0.020526142470914568 4.5440919914951125e-05 0 -0.021017894574460263 0.00043111685080181853 0 -0.020226252949011848 0.00063500035470814918 0 -0.021017894574460263 0.00043111685080181853 0 -0.020600795919052502 0.00096041817339357098 0 -0.020994557011453533 0.0010278085916605034 0 -0.021017894574460263 0.00043111685080181853 0 -0.020600795919052502 0.00096041817339357098 0 -0.021648986022027368 0.0010607670598930384 0 -0.021017894574460263 0.00043111685080181853 0 -0.022295423312608115 0.00039439934322725741 0 -0.020994557011453533 0.0010278085916605034 0 -0.021648986022027368 0.0010607670598930384 0 -0.021017894574460263 0.00043111685080181853 0 -0.021017894574460263 0.00043111685080181853 0 -0.021574694093025832 -0.00031054124152673894 0 -0.022295423312608115 0.00039439934322725741 0 -0.021017894574460263 0.00043111685080181853 0 -0.021574694093025832 -0.00031054124152673894 0 -0.020954775316852563 -0.00045162179116474719 0 -0.021574694093025832 -0.00031054124152673894 0 -0.021416615535204696 -0.0008956034433522653 0 -0.022075526185539374 -0.0009218734485206859 0 -0.021416615535204696 -0.0008956034433522653 0 -0.021490110306128303 -0.0014987646804738854 0 -0.022075526185539374 -0.0009218734485206859 0 -0.021574694093025832 -0.00031054124152673894 0 -0.021416615535204696 -0.0008956034433522653 0 -0.020954775316852563 -0.00045162179116474719 0 -0.020954775316852563 -0.00045162179116474719 0 -0.020763457296265459 -0.0011493674541870813 0 -0.019983489058357493 -0.00045016879823323144 0 -0.021416615535204696 -0.0008956034433522653 0 -0.020954775316852563 -0.00045162179116474719 0 -0.020763457296265459 -0.0011493674541870813 0 -0.020763457296265459 -0.0011493674541870813 0 -0.019799408766523398 -0.0015335322683260326 0 -0.020826450510932973 -0.0019885208680483729 0 -0.020763457296265459 -0.0011493674541870813 0 -0.021490110306128303 -0.0014987646804738854 0 -0.020826450510932973 -0.0019885208680483729 0 -0.021416615535204696 -0.0008956034433522653 0 -0.020763457296265459 -0.0011493674541870813 0 -0.021490110306128303 -0.0014987646804738854 0 -0.014644893674540837 0.0010533817073317148 0 -0.015522984571889784 0.001598063414435303 0 -0.015404539518144036 0.00071719551029026155 0 -0.014644893674540837 0.0010533817073317148 0 -0.014573466622657454 0.0019834121352133292 0 -0.015522984571889784 0.001598063414435303 0 -0.017897570022668261 0.00039273055231227896 0 -0.02027239605408359 0.00061703220324748763 0 -0.020763457296265459 -0.0011493674541870813 0 -0.019983489058357493 -0.00045016879823323144 0 -0.019799408766523398 -0.0015335322683260326 0 -0.02027239605408359 0.00061703220324748763 0 -0.022372559922996707 -0.00077761128315429276 0 -0.022413988636254965 0.0027205457711685366 0 -0.022468444516141075 0.0038495885580304618 0 -0.023565033479922514 0.0033157875172654372 0 -0.018328291357901236 0.0026199129618201542 0 -0.02027239605408359 0.00061703220324748763 0 -0.022413988636254965 0.0027205457711685366 0 -0.023565033479922514 0.0033157875172654372 0 -0.023341941991871912 0.0020908078098786274 0 -0.02027239605408359 0.00061703220324748763 0 -0.023452605295024975 0.0017366109785143559 0 -0.023036540753294234 0.00099403951399035825 0 -0.022984097210109383 0.0006074325346921356 0 -0.023281962196075163 0.00057620311595714695 0 -0.023036540753294234 0.00099403951399035825 0 -0.023445177647688761 0.00081935202385889367 0 -0.023281962196075163 0.00057620311595714695 0 -0.02321655709437604 0.00025091547648253696 0 -0.022984097210109383 0.0006074325346921356 0 -0.023281962196075163 0.00057620311595714695 0 -0.02321655709437604 0.00025091547648253696 0 -0.022923847642184091 0.00022626768579393124 0 -0.022984097210109383 0.0006074325346921356 0 -0.02296627446917883 0.00048276151427484711 0 -0.023452605295024975 0.0017366109785143559 0 -0.02308922826577451 0.0009196865983818268 0 -0.022117618084128734 0.0013986449123248672 0 -0.023341941991871912 0.0020908078098786274 0 -0.022117618084128734 0.0013986449123248672 0 -0.022413988636254965 0.0027205457711685366 0 -0.023341941991871912 0.0020908078098786274 0 -0.020826450510932973 -0.0019885208680483729 0 -0.021835521691712625 -0.0024205271000788675 0 -0.021936753599776395 -0.0021798913279339324 0 -0.023445177647688761 0.00081935202385889367 0 -0.023560825923730697 0.00052539528650646385 0 -0.023844568351877246 0.0006393082317527704 0 -0.022372559922996707 -0.00077761128315429276 0 -0.023005190603408845 -0.00042028123059743649 0 -0.021490110306128303 -0.0014987646804738854 0 -0.020826450510932973 -0.0019885208680483729 0 -0.021936753599776395 -0.0021798913279339324 0 -0.023445177647688761 0.00081935202385889367 0 -0.023281962196075163 0.00057620311595714695 0 -0.023560825923730697 0.00052539528650646385 0 -0.02346765583497356 0.00029649603144015445 0 -0.02321655709437604 0.00025091547648253696 0 -0.023281962196075163 0.00057620311595714695 0 -0.02346765583497356 0.00029649603144015445 0 -0.023281962196075163 0.00057620311595714695 0 -0.023560825923730697 0.00052539528650646385 0 -0.023803253897718767 0.00010536346133424527 0 -0.023005190603408845 -0.00042028123059743649 0 -0.02346765583497356 0.00029649603144015445 0 -0.023695266545652082 0.00022891758613139708 0 -0.023560825923730697 0.00052539528650646385 0 -0.023686421975607563 -0.00033230622326385834 0 -0.023717076050456278 -0.00036033765424047643 0 -0.02371416015503984 -0.00025946427341190119 0 -0.023686421975607563 -0.00033230622326385834 0 -0.02371416015503984 -0.00025946427341190119 0 -0.02370865645145891 -0.00025714622731156126 0 -0.023695266545652082 0.00022891758613139708 0 -0.023560825923730697 0.00052539528650646385 0 -0.023844568351877246 0.0006393082317527704 0 -0.023717076050456278 -0.00036033765424047643 0 -0.023706740950205175 -0.0004596422358491949 0 -0.023754675702081628 -0.00056703123691921598 0 -0.023842433985798009 -0.00031447486934176771 0 -0.023291855993858263 -0.00051785625697628858 0 -0.023695552744637197 -0.00045881048726752075 0 -0.023706740950205175 -0.0004596422358491949 0 -0.023619855477217615 -0.00052563969772466217 0 -0.023706740950205175 -0.0004596422358491949 0 -0.023754675702081628 -0.00056703123691921598 0 -0.023619855477217615 -0.00052563969772466217 0 -0.023291855993858263 -0.00051785625697628858 0 -0.023692916003314565 -0.00057591482973659667 0 -0.023468841782828282 -0.00054977076105901831 0 -0.023527695666025351 -0.00052710208411712396 0 -0.023474511550202647 -0.00052332181865446397 0 -0.023291855993858263 -0.00051785625697628858 0 -0.023005190603408845 -0.00042028123059743649 0 -0.023005190603408845 -0.00042028123059743649 0 -0.022776972951573625 -0.0012948794117397754 0 -0.023291855993858263 -0.00051785625697628858 0 -0.022776972951573625 -0.0012948794117397754 0 -0.02299366394747716 -0.00036108005573304812 0 -0.023209791127318382 -0.00045747220639642854 0 -0.022908603059067053 -0.0011660293323409164 0 -0.023468841782828282 -0.00054977076105901831 0 -0.023527695666025351 -0.00052710208411712396 0 -0.023619855477217615 -0.00052563969772466217 0 -0.023527695666025351 -0.00052710208411712396 0 -0.023468715718647355 -0.00052485301646407537 0 -0.023474511550202647 -0.00052332181865446397 0 -0.023468715718647355 -0.00052485301646407537 0 -0.023474511550202647 -0.00052332181865446397 0 -0.023386256838891242 -0.00052997406344564891 0 -0.023547823492361203 -0.00053113272140584687 0 -0.023619855477217615 -0.00052563969772466217 0 -0.02365656570128399 -0.00053133666822675007 0 -0.023542110199177371 -0.00053620095887837332 0 -0.023547823492361203 -0.00053113272140584687 0 -0.02343091717859044 -0.00053067900185025665 0 -0.023468715718647355 -0.00052485301646407537 0 -0.023547823492361203 -0.00053113272140584687 0 -0.02343091717859044 -0.00053067900185025665 0 -0.023527695666025351 -0.00052710208411712396 0 -0.023468715718647355 -0.00052485301646407537 0 -0.023547823492361203 -0.00053113272140584687 0 -0.023527695666025351 -0.00052710208411712396 0 -0.023547823492361203 -0.00053113272140584687 0 -0.023619855477217615 -0.00052563969772466217 0 -0.023542110199177371 -0.00053620095887837332 0 -0.023547823492361203 -0.00053113272140584687 0 -0.02365656570128399 -0.00053133666822675007 0 -0.023619855477217615 -0.00052563969772466217 0 -0.023709334641618909 -0.00048669440404221855 0 -0.02365656570128399 -0.00053133666822675007 0 -0.023695552744637197 -0.00045881048726752075 0 -0.023619855477217615 -0.00052563969772466217 0 -0.023709334641618909 -0.00048669440404221855 0 -0.023768108596302007 -0.00050840466875905904 0 -0.02379767139928856 -0.00053176758896837238 0 -0.02365656570128399 -0.00053133666822675007 0 -0.023709334641618909 -0.00048669440404221855 0 -0.023768108596302007 -0.00050840466875905904 0 -0.02365656570128399 -0.00053133666822675007 0 -0.023921095358393402 -0.00053912053139606845 0 -0.02379767139928856 -0.00053176758896837238 0 -0.023815769455133494 -0.00053057557921263568 0 -0.02379767139928856 -0.00053176758896837238 0 -0.023703414056464579 -0.00053251543385649967 0 -0.023815769455133494 -0.00053057557921263568 0 -0.023703414056464579 -0.00053251543385649967 0 -0.023608919820727783 -0.00053674950178260591 0 -0.023670019660764277 -0.00054077893766186992 0 -0.023703414056464579 -0.00053251543385649967 0 -0.023670019660764277 -0.00054077893766186992 0 -0.023710834840947482 -0.00057639201520727555 0 -0.022896533784873895 -0.00091641849218540724 0 -0.026765384274594992 -0.0038331508428528244 0 -0.023703414056464579 -0.00053251543385649967 0 -0.02365656570128399 -0.00053133666822675007 0 -0.023608919820727783 -0.00053674950178260591 0 -0.02379767139928856 -0.00053176758896837238 0 -0.023703414056464579 -0.00053251543385649967 0 -0.02365656570128399 -0.00053133666822675007 0 -0.023542110199177371 -0.00053620095887837332 0 -0.02365656570128399 -0.00053133666822675007 0 -0.023608919820727783 -0.00053674950178260591 0 -0.023542110199177371 -0.00053620095887837332 0 -0.023608919820727783 -0.00053674950178260591 0 -0.023455583574909521 -0.00051945967391900188 0 -0.023608919820727783 -0.00053674950178260591 0 -0.023608033023678508 -0.00050065259164404829 0 -0.023670019660764277 -0.00054077893766186992 0 -0.023608919820727783 -0.00053674950178260591 0 -0.023608033023678508 -0.00050065259164404829 0 -0.023455583574909521 -0.00051945967391900188 0 -0.023608033023678508 -0.00050065259164404829 0 -0.023523496194077908 -0.00044976601795593084 0 -0.023455583574909521 -0.00051945967391900188 0 -0.023608033023678508 -0.00050065259164404829 0 -0.023670019660764277 -0.00054077893766186992 0 -0.023708226787967007 -0.00050932251992132766 0 -0.023670019660764277 -0.00054077893766186992 0 -0.023710834840947482 -0.00057639201520727555 0 -0.023708226787967007 -0.00050932251992132766 0 -0.023581133104103612 -0.0038709535714926465 0 -0.023570305079123503 -0.0042114009159718484 0 -0.023608033023678508 -0.00050065259164404829 0 -0.023637218062077841 -0.00042114321601949061 0 -0.023708226787967007 -0.00050932251992132766 0 -0.023637218062077841 -0.00042114321601949061 0 -0.023708226787967007 -0.00050932251992132766 0 -0.023702893906856318 -0.00035652638993148572 0 -0.023523496194077908 -0.00044976601795593084 0 -0.023320255435536112 -0.0004491389728091392 0 -0.023455583574909521 -0.00051945967391900188 0 -0.023608033023678508 -0.00050065259164404829 0 -0.023637218062077841 -0.00042114321601949061 0 -0.023523496194077908 -0.00044976601795593084 0 -0.023637218062077841 -0.00042114321601949061 0 -0.023523496194077908 -0.00044976601795593084 0 -0.023528243837905669 -0.0003402113499532891 0 -0.023308050268679919 -0.00046728859254675971 0 -0.023624837003654843 -0.00014235309900072972 0 -0.023523496194077908 -0.00044976601795593084 0 -0.023320255435536112 -0.0004491389728091392 0 -0.023528243837905669 -0.0003402113499532891 0 -0.023320255435536112 -0.0004491389728091392 0 -0.023116577841281991 -6.7212420751215532e-05 0 -0.023547842352695809 -0.00011031194513129162 0 -0.023320255435536112 -0.0004491389728091392 0 -0.023034245532446127 -0.00045089426915075395 0 -0.023308132787700941 -0.00052357419478539871 0 -0.023320255435536112 -0.0004491389728091392 0 -0.023034245532446127 -0.00045089426915075395 0 -0.023116577841281991 -6.7212420751215532e-05 0 -0.023034245532446127 -0.00045089426915075395 0 -0.022675479345550403 -0.00050790661857434162 0 -0.022295423312608115 0.00039439934322725741 0 -0.023034245532446127 -0.00045089426915075395 0 -0.022675479345550403 -0.00050790661857434162 0 -0.022798817873771977 -0.00097941043556151091 0 -0.023034245532446127 -0.00045089426915075395 0 -0.023386256838891242 -0.00052997406344564891 0 -0.023308132787700941 -0.00052357419478539871 0 -0.022776972951573625 -0.0012948794117397754 0 -0.02228069811956129 -0.00082615102780103037 0 -0.022580849872941122 -0.0015029352853784706 0 -0.022675479345550403 -0.00050790661857434162 0 -0.022798817873771977 -0.00097941043556151091 0 -0.021490110306128303 -0.0014987646804738854 0 -0.021936753599776395 -0.0021798913279339324 0 -0.022075526185539374 -0.0009218734485206859 0 -0.023083129207704441 -0.00049377133874825368 0 -0.023100736025222245 -0.00067048434960316082 0 -0.022776972951573625 -0.0012948794117397754 0 -0.023100736025222245 -0.00067048434960316082 0 -0.023468715718647355 -0.00052485301646407537 0 -0.023386256838891242 -0.00052997406344564891 0 -0.02343091717859044 -0.00053067900185025665 0 -0.023386256838891242 -0.00052997406344564891 0 -0.02343091717859044 -0.00053067900185025665 0 -0.023308132787700941 -0.00052357419478539871 0 -0.023542110199177371 -0.00053620095887837332 0 -0.02343091717859044 -0.00053067900185025665 0 -0.023455583574909521 -0.00051945967391900188 0 -0.023320255435536112 -0.0004491389728091392 0 -0.023455583574909521 -0.00051945967391900188 0 -0.023308132787700941 -0.00052357419478539871 0 -0.02343091717859044 -0.00053067900185025665 0 -0.023455583574909521 -0.00051945967391900188 0 -0.023308132787700941 -0.00052357419478539871 0 -0.031430940291322922 -0.0074831520947740426 0 -0.028587996206480195 -0.0080837815979041116 0 -0.02541390629462472 -0.008063088343867585 0 -0.024921658997011143 -0.0079761652824431265 0 -0.025191724716994122 -0.0077983406338424741 0 -0.027009755427073769 -0.0077355368147715101 0 -0.028587996206480195 -0.0080837815979041116 0 -0.02906413450387996 -0.00743310499851094 0 -0.029174966997286365 -0.0068772669250817611 0 -0.029744036191345538 -0.0074221349332376793 0 -0.033029408042507723 -0.0073611602134356253 0 -0.032789435643570938 -0.007789690164603064 0 -0.033408104244101962 -0.007736507476277678 0 -0.032789435643570938 -0.007789690164603064 0 -0.033408104244101962 -0.007736507476277678 0 -0.03345483321080981 -0.0083315571329154701 0 -0.033408104244101962 -0.007736507476277678 0 -0.03345483321080981 -0.0083315571329154701 0 -0.03386700037658387 -0.0079008071112097698 0 -0.033774593552361717 -0.0072551119430467976 0 -0.033029408042507723 -0.0073611602134356253 0 -0.033408104244101962 -0.007736507476277678 0 -0.033774593552361717 -0.0072551119430467976 0 -0.033408104244101962 -0.007736507476277678 0 -0.03386700037658387 -0.0079008071112097698 0 -0.024921658997011143 -0.0079761652824431265 0 -0.024964582846749971 -0.0077133926768859391 0 -0.025191724716994122 -0.0077983406338424741 0 -0.028587996206480195 -0.0080837815979041116 0 -0.02492797083630683 -0.0069786187590576282 0 -0.024921658997011143 -0.0079761652824431265 0 -0.024729512341648458 -0.0077622238254382555 0 -0.024964582846749971 -0.0077133926768859391 0 -0.03345483321080981 -0.0083315571329154701 0 -0.034198171455155364 -0.0082832918516783337 0 -0.03386700037658387 -0.0079008071112097698 0 -0.028587996206480195 -0.0080837815979041116 0 -0.029915969646640211 -0.0082704904363680061 0 -0.024981075551174091 -0.0079748071670699729 0 -0.024454906950478732 -0.0079510852776338917 0 -0.024729512341648458 -0.0077622238254382555 0 -0.024454906950478732 -0.0079510852776338917 0 -0.024478183634565314 -0.0076989343762625768 0 -0.024729512341648458 -0.0077622238254382555 0 -0.024454906950478732 -0.0079510852776338917 0 -0.024222600473823679 -0.0076710865644220912 0 -0.024478183634565314 -0.0076989343762625768 0 -0.034198171455155364 -0.0082832918516783337 0 -0.03386700037658387 -0.0079008071112097698 0 -0.034377070927141144 -0.0076136415094169262 0 -0.033774593552361717 -0.0072551119430467976 0 -0.03386700037658387 -0.0079008071112097698 0 -0.034377070927141144 -0.0076136415094169262 0 -0.035003599687415968 -0.0072029009047692195 0 -0.034377070927141144 -0.0076136415094169262 0 -0.034901458394420347 -0.0082304999429136608 0 -0.029797326317596524 -0.0039975879707706006 0 -0.026765384274594992 -0.0038331508428528244 0 -0.034198171455155364 -0.0082832918516783337 0 -0.034377070927141144 -0.0076136415094169262 0 -0.034901458394420347 -0.0082304999429136608 0 -0.029915969646640211 -0.0082704904363680061 0 -0.026765384274594992 -0.0038331508428528244 0 -0.024454906950478732 -0.0079510852776338917 0 -0.023960641027975352 -0.0079203400797254655 0 -0.024222600473823679 -0.0076710865644220912 0 -0.023960641027975352 -0.0079203400797254655 0 -0.023901488625874091 -0.0073510503614468469 0 -0.024222600473823679 -0.0076710865644220912 0 -0.026765384274594992 -0.0038331508428528244 0 -0.023581133104103612 -0.0038709535714926465 0 -0.023901488625874091 -0.0073510503614468469 0 -0.024222600473823679 -0.0076710865644220912 0 -0.024312029105048628 -0.0074095507962588644 0 -0.023901488625874091 -0.0073510503614468469 0 -0.024070811058479264 -0.0071583197065623726 0 -0.024312029105048628 -0.0074095507962588644 0 -0.023901488625874091 -0.0073510503614468469 0 -0.024070811058479264 -0.0071583197065623726 0 -0.023845820626812547 -0.0067450488964737312 0 -0.024070811058479264 -0.0071583197065623726 0 -0.024051274874148529 -0.0069146038086784715 0 -0.023845820626812547 -0.0067450488964737312 0 -0.024070811058479264 -0.0071583197065623726 0 -0.024297780813837825 -0.0071184426398636881 0 -0.024051274874148529 -0.0069146038086784715 0 -0.024297780813837825 -0.0071184426398636881 0 -0.024390919913021624 -0.0068244984709964433 0 -0.024051274874148529 -0.0069146038086784715 0 -0.024070811058479264 -0.0071583197065623726 0 -0.024297780813837825 -0.0071184426398636881 0 -0.024312029105048628 -0.0074095507962588644 0 -0.024616935920407857 -0.007201921043609864 0 -0.024596858131548216 -0.0075139681324828886 0 -0.024312029105048628 -0.0074095507962588644 0 -0.024297780813837825 -0.0071184426398636881 0 -0.024616935920407857 -0.007201921043609864 0 -0.024312029105048628 -0.0074095507962588644 0 -0.024297780813837825 -0.0071184426398636881 0 -0.024616935920407857 -0.007201921043609864 0 -0.024390919913021624 -0.0068244984709964433 0 -0.024596858131548216 -0.0075139681324828886 0 -0.024729512341648458 -0.0077622238254382555 0 -0.024832999411884184 -0.0074706646094115526 0 -0.024616935920407857 -0.007201921043609864 0 -0.024596858131548216 -0.0075139681324828886 0 -0.024832999411884184 -0.0074706646094115526 0 -0.024596858131548216 -0.0075139681324828886 0 -0.024312029105048628 -0.0074095507962588644 0 -0.024478183634565314 -0.0076989343762625768 0 -0.024222600473823679 -0.0076710865644220912 0 -0.024312029105048628 -0.0074095507962588644 0 -0.024478183634565314 -0.0076989343762625768 0 -0.024596858131548216 -0.0075139681324828886 0 -0.024478183634565314 -0.0076989343762625768 0 -0.024729512341648458 -0.0077622238254382555 0 -0.024729512341648458 -0.0077622238254382555 0 -0.024964582846749971 -0.0077133926768859391 0 -0.024832999411884184 -0.0074706646094115526 0 -0.024964582846749971 -0.0077133926768859391 0 -0.024832999411884184 -0.0074706646094115526 0 -0.025175216717767557 -0.0075186041436845824 0 -0.024616935920407857 -0.007201921043609864 0 -0.025029813924895061 -0.0072107393746637738 0 -0.024729935808604084 -0.0068104617731051722 0 -0.024616935920407857 -0.007201921043609864 0 -0.024832999411884184 -0.0074706646094115526 0 -0.025029813924895061 -0.0072107393746637738 0 -0.024832999411884184 -0.0074706646094115526 0 -0.025029813924895061 -0.0072107393746637738 0 -0.025175216717767557 -0.0075186041436845824 0 -0.025029813924895061 -0.0072107393746637738 0 -0.025175216717767557 -0.0075186041436845824 0 -0.025514662011748297 -0.0073621078064640532 0 -0.025029813924895061 -0.0072107393746637738 0 -0.025139818966804041 -0.0068839606747484695 0 -0.025514662011748297 -0.0073621078064640532 0 -0.024323327861540948 -0.0068770760780746372 0 -0.02541021578619717 -0.0073754237177303941 0 -0.025175216717767557 -0.0075186041436845824 0 -0.025512529201636772 -0.0077043002362903665 0 -0.025514662011748297 -0.0073621078064640532 0 -0.024964582846749971 -0.0077133926768859391 0 -0.025175216717767557 -0.0075186041436845824 0 -0.025191724716994122 -0.0077983406338424741 0 -0.02541390629462472 -0.008063088343867585 0 -0.025191724716994122 -0.0077983406338424741 0 -0.025512529201636772 -0.0077043002362903665 0 -0.025175216717767557 -0.0075186041436845824 0 -0.025191724716994122 -0.0077983406338424741 0 -0.025512529201636772 -0.0077043002362903665 0 -0.020588518587374805 -0.0072908160530180894 0 -0.023049949979520624 -0.0067754769224387962 0 -0.020079046728260181 -0.006511224680851236 0 -0.012293225969882551 -0.0058205581683215503 0 -0.012748256353031385 -0.0066536211905557259 0 -0.011407308924829055 -0.0060176424329462736 0 -0.020588518587374805 -0.0072908160530180894 0 -0.023049949979520624 -0.0067754769224387962 0 -0.023065918874726078 -0.0069926865116247128 0 -0.016616209647900851 -0.006888557293609183 0 -0.017106281270609338 -0.0065194242370665264 0 -0.012293225969882551 -0.0058205581683215503 0 -0.012748256353031385 -0.0066536211905557259 0 -0.013217378437722997 -0.0060288598948687279 0 -0.023678549854742055 -0.0070750288468009606 0 -0.024782210406856266 -0.0066426414399938837 0 -0.025514662011748297 -0.0073621078064640532 0 -0.023678549854742055 -0.0070750288468009606 0 -0.023049949979520624 -0.0067754769224387962 0 -0.024782210406856266 -0.0066426414399938837 0 -0.023099361963659946 -0.006837993875578788 0 -0.022540003413258583 -0.0066616671232730086 0 -0.025029813924895061 -0.0072107393746637738 0 -0.025139818966804041 -0.0068839606747484695 0 -0.024729935808604084 -0.0068104617731051722 0 -0.024323327861540948 -0.0068770760780746372 0 -0.02393415139213978 -0.0069396467737775124 0 -0.025139818966804041 -0.0068839606747484695 0 -0.024729935808604084 -0.0068104617731051722 0 -0.024624731729851218 -0.0063387227625842793 0 -0.023678549854742055 -0.0070750288468009606 0 -0.023049949979520624 -0.0067754769224387962 0 -0.022587143800536499 -0.006921281001724712 0 -0.023049949979520624 -0.0067754769224387962 0 -0.023065918874726078 -0.0069926865116247128 0 -0.022587143800536499 -0.006921281001724712 0 -0.017106281270609338 -0.0065194242370665264 0 -0.016591321936475559 -0.0056923097710407976 0 -0.023065918874726078 -0.0069926865116247128 0 -0.022587143800536499 -0.006921281001724712 0 -0.022496984813618361 -0.0064245306297560272 0 -0.022587143800536499 -0.006921281001724712 0 -0.021633623831501126 -0.0062769319690176035 0 -0.022496984813618361 -0.0064245306297560272 0 -0.02426661114697257 -0.0062519927471916658 0 -0.024624731729851218 -0.0063387227625842793 0 -0.023993460137022853 -0.005787016864350754 0 -0.02393415139213978 -0.0069396467737775124 0 -0.021429090635157747 -0.0043202861159725939 0 -0.02426661114697257 -0.0062519927471916658 0 -0.024624731729851218 -0.0063387227625842793 0 -0.024447961717428367 -0.0065459028721101317 0 -0.02426661114697257 -0.0062519927471916658 0 -0.024447961717428367 -0.0065459028721101317 0 -0.024188838076113207 -0.0064254416607632441 0 -0.024729935808604084 -0.0068104617731051722 0 -0.024390919913021624 -0.0068244984709964433 0 -0.024447961717428367 -0.0065459028721101317 0 -0.024729935808604084 -0.0068104617731051722 0 -0.024624731729851218 -0.0063387227625842793 0 -0.024447961717428367 -0.0065459028721101317 0 -0.024616935920407857 -0.007201921043609864 0 -0.024729935808604084 -0.0068104617731051722 0 -0.024390919913021624 -0.0068244984709964433 0 -0.024390919913021624 -0.0068244984709964433 0 -0.024447961717428367 -0.0065459028721101317 0 -0.024188838076113207 -0.0064254416607632441 0 -0.024390919913021624 -0.0068244984709964433 0 -0.024038903839431299 -0.0065966761939513898 0 -0.024188838076113207 -0.0064254416607632441 0 -0.024390919913021624 -0.0068244984709964433 0 -0.024038903839431299 -0.0065966761939513898 0 -0.024051274874148529 -0.0069146038086784715 0 -0.024038903839431299 -0.0065966761939513898 0 -0.024051274874148529 -0.0069146038086784715 0 -0.023793727110056263 -0.0067358814144818776 0 -0.024558477969716316 -0.006320620196608011 0 -0.023570305079123503 -0.0042114009159718484 0 -0.024038903839431299 -0.0065966761939513898 0 -0.024188838076113207 -0.0064254416607632441 0 -0.023750414381618786 -0.0060637148080772149 0 -0.024038903839431299 -0.0065966761939513898 0 -0.023793727110056263 -0.0067358814144818776 0 -0.023750414381618786 -0.0060637148080772149 0 -0.02426661114697257 -0.0062519927471916658 0 -0.024188838076113207 -0.0064254416607632441 0 -0.024070994276883351 -0.0061369025474360267 0 -0.02426661114697257 -0.0062519927471916658 0 -0.024070994276883351 -0.0061369025474360267 0 -0.023993460137022853 -0.005787016864350754 0 -0.024188838076113207 -0.0064254416607632441 0 -0.024070994276883351 -0.0061369025474360267 0 -0.023750414381618786 -0.0060637148080772149 0 -0.024070994276883351 -0.0061369025474360267 0 -0.023993460137022853 -0.005787016864350754 0 -0.023750414381618786 -0.0060637148080772149 0 -0.021633623831501126 -0.0062769319690176035 0 -0.021807358433062862 -0.0060707455527100069 0 -0.022496984813618361 -0.0064245306297560272 0 -0.021324223217065726 -0.0024716794702084538 0 -0.020991248726888602 -0.0028426277403234136 0 -0.020968264419884228 -0.0021920956463082077 0 -0.021429090635157747 -0.0043202861159725939 0 -0.022460067653669761 -0.0023607892272271549 0 -0.016265317057817516 -0.0038883325321445498 0 -0.016546272418196149 -0.0035777496427002757 0 -0.014318292968482397 -0.0029245246744768819 0 -0.021429090635157747 -0.0043202861159725939 0 -0.017713285667808561 -0.0040242677321161912 0 -0.017713285667808561 -0.0040242677321161912 0 -0.013531101792057201 -0.0046092899919464789 0 -0.021429090635157747 -0.0043202861159725939 0 -0.019306150623968212 -0.00075671854665760045 0 -0.019279498742371757 -0.003521956549029042 0 -0.019949066371310106 -0.0027817720250338652 0 -0.017929089799658224 -0.0024611974906896873 0 -0.019949066371310106 -0.0027817720250338652 0 -0.017929089799658224 -0.0024611974906896873 0 -0.017916422690027044 -0.0017759334294073898 0 -0.017713285667808561 -0.0040242677321161912 0 -0.016900815407751558 -0.0011398233821307677 0 -0.016546272418196149 -0.0035777496427002757 0 -0.014305691486840969 -0.0022516733649271523 0 -0.014318292968482397 -0.0029245246744768819 0 -0.013531101792057201 -0.0046092899919464789 0 -0.013377588035076377 -0.0024522025516688444 0 -0.0097557441202977286 -0.0047379724914353447 0 -0.0094072293319610017 -0.00423875362928794 0 -0.0090744993198646328 -0.0042927237257560152 0 -0.0094072293319610017 -0.00423875362928794 0 -0.0090744993198646328 -0.0042927237257560152 0 -0.0090715694984917564 -0.0041294649947347653 0 -0.0094072293319610017 -0.00423875362928794 0 -0.0092625961765384849 -0.0039787377663059297 0 -0.0090715694984917564 -0.0041294649947347653 0 -0.0094072293319610017 -0.00423875362928794 0 -0.0092625961765384849 -0.0039787377663059297 0 -0.0095728957280457449 -0.003965193619343302 0 -0.0092625961765384849 -0.0039787377663059297 0 -0.0095728957280457449 -0.003965193619343302 0 -0.0092431691385694136 -0.0037219432651413374 0 -0.0092625961765384849 -0.0039787377663059297 0 -0.0089394002920038362 -0.003761962210220648 0 -0.0092431691385694136 -0.0037219432651413374 0 -0.0095728957280457449 -0.003965193619343302 0 -0.0097327514253610099 -0.0043288461896224019 0 -0.009964342639015673 -0.0041363227733327446 0 -0.0095728957280457449 -0.003965193619343302 0 -0.009964342639015673 -0.0041363227733327446 0 -0.0099170424753437184 -0.0037364449527569391 0 -0.0094072293319610017 -0.00423875362928794 0 -0.0095728957280457449 -0.003965193619343302 0 -0.0097327514253610099 -0.0043288461896224019 0 -0.0097557441202977286 -0.0047379724914353447 0 -0.0094072293319610017 -0.00423875362928794 0 -0.0097327514253610099 -0.0043288461896224019 0 -0.0097557441202977286 -0.0047379724914353447 0 -0.0097327514253610099 -0.0043288461896224019 0 -0.0099658928436319391 -0.004512594027272567 0 -0.0099658928436319391 -0.004512594027272567 0 -0.010329880049229466 -0.0043544858735760994 0 -0.01032807917028966 -0.004776774117813817 0 -0.0099658928436319391 -0.004512594027272567 0 -0.009964342639015673 -0.0041363227733327446 0 -0.010329880049229466 -0.0043544858735760994 0 -0.0097327514253610099 -0.0043288461896224019 0 -0.0099658928436319391 -0.004512594027272567 0 -0.009964342639015673 -0.0041363227733327446 0 -0.009964342639015673 -0.0041363227733327446 0 -0.010336880913580034 -0.0039380331880035594 0 -0.0099170424753437184 -0.0037364449527569391 0 -0.009964342639015673 -0.0041363227733327446 0 -0.010336880913580034 -0.0039380331880035594 0 -0.010329880049229466 -0.0043544858735760994 0 -0.010336880913580034 -0.0039380331880035594 0 -0.010660020120071646 -0.0041432073793486682 0 -0.010784926281414742 -0.0037737611597571416 0 -0.010336880913580034 -0.0039380331880035594 0 -0.010329880049229466 -0.0043544858735760994 0 -0.010660020120071646 -0.0041432073793486682 0 -0.010329880049229466 -0.0043544858735760994 0 -0.010716923352938551 -0.0045664995512704563 0 -0.010660020120071646 -0.0041432073793486682 0 -0.010329880049229466 -0.0043544858735760994 0 -0.01032807917028966 -0.004776774117813817 0 -0.010716923352938551 -0.0045664995512704563 0 -0.01032807917028966 -0.004776774117813817 0 -0.010456034866681231 -0.0054613308505994307 0 -0.010766302394349595 -0.0050114713522516601 0 -0.01032807917028966 -0.004776774117813817 0 -0.010766302394349595 -0.0050114713522516601 0 -0.010716923352938551 -0.0045664995512704563 0 -0.0096832331343051272 -0.0048395187329642684 0 -0.01032807917028966 -0.004776774117813817 0 -0.010456034866681231 -0.0054613308505994307 0 -0.0096832331343051272 -0.0048395187329642684 0 -0.0099658928436319391 -0.004512594027272567 0 -0.01032807917028966 -0.004776774117813817 0 -0.014766917626424568 -0.0046711611462069693 0 -0.015002218287459764 -0.0044110680708814264 0 -0.016779080768515038 -0.0056751452071116615 0 -0.013531101792057201 -0.0046092899919464789 0 -0.016591321936475559 -0.0056923097710407976 0 -0.013531101792057201 -0.0046092899919464789 0 -0.011349662266322487 -0.0054826491751999327 0 -0.017713285667808561 -0.0040242677321161912 0 -0.016591321936475559 -0.0056923097710407976 0 -0.010456034866681231 -0.0054613308505994307 0 -0.01109317633138672 -0.0053150220817384797 0 -0.010766302394349595 -0.0050114713522516601 0 -0.011407308924829055 -0.0060176424329462736 0 -0.010456034866681231 -0.0054613308505994307 0 -0.01109317633138672 -0.0053150220817384797 0 -0.011407308924829055 -0.0060176424329462736 0 -0.01109317633138672 -0.0053150220817384797 0 -0.011638345792787408 -0.0052659915599407442 0 -0.011638345792787408 -0.0052659915599407442 0 -0.011171047985240311 -0.0048924172066670112 0 -0.011525585213328715 -0.0045186157833997402 0 -0.01109317633138672 -0.0053150220817384797 0 -0.011638345792787408 -0.0052659915599407442 0 -0.011171047985240311 -0.0048924172066670112 0 -0.01109317633138672 -0.0053150220817384797 0 -0.011171047985240311 -0.0048924172066670112 0 -0.010766302394349595 -0.0050114713522516601 0 -0.011171047985240311 -0.0048924172066670112 0 -0.010766302394349595 -0.0050114713522516601 0 -0.010716923352938551 -0.0045664995512704563 0 -0.011171047985240311 -0.0048924172066670112 0 -0.010716923352938551 -0.0045664995512704563 0 -0.01105163278577913 -0.00420651188893256 0 -0.010716923352938551 -0.0045664995512704563 0 -0.010660020120071646 -0.0041432073793486682 0 -0.01105163278577913 -0.00420651188893256 0 -0.010660020120071646 -0.0041432073793486682 0 -0.01105163278577913 -0.00420651188893256 0 -0.010784926281414742 -0.0037737611597571416 0 -0.01105163278577913 -0.00420651188893256 0 -0.011369515601298855 -0.003840595021021282 0 -0.011525585213328715 -0.0045186157833997402 0 -0.01105163278577913 -0.00420651188893256 0 -0.011369515601298855 -0.003840595021021282 0 -0.010784926281414742 -0.0037737611597571416 0 -0.011171047985240311 -0.0048924172066670112 0 -0.01105163278577913 -0.00420651188893256 0 -0.011525585213328715 -0.0045186157833997402 0 -0.011525585213328715 -0.0045186157833997402 0 -0.012058645664697911 -0.0043455025731072372 0 -0.011986135867914787 -0.0049052545128650737 0 -0.011369515601298855 -0.003840595021021282 0 -0.011525585213328715 -0.0045186157833997402 0 -0.012058645664697911 -0.0043455025731072372 0 -0.011369515601298855 -0.003840595021021282 0 -0.012058645664697911 -0.0043455025731072372 0 -0.011984675815509613 -0.003657866317421501 0 -0.012058645664697911 -0.0043455025731072372 0 -0.011984675815509613 -0.003657866317421501 0 -0.012818988739449569 -0.0042377090034864569 0 -0.012058645664697911 -0.0043455025731072372 0 -0.012591660060424599 -0.005073178917810884 0 -0.012818988739449569 -0.0042377090034864569 0 -0.012591660060424599 -0.005073178917810884 0 -0.011986135867914787 -0.0049052545128650737 0 -0.01212812581095263 -0.0052903875406612533 0 -0.012058645664697911 -0.0043455025731072372 0 -0.012591660060424599 -0.005073178917810884 0 -0.011986135867914787 -0.0049052545128650737 0 -0.011638345792787408 -0.0052659915599407442 0 -0.011525585213328715 -0.0045186157833997402 0 -0.011986135867914787 -0.0049052545128650737 0 -0.011638345792787408 -0.0052659915599407442 0 -0.011986135867914787 -0.0049052545128650737 0 -0.01212812581095263 -0.0052903875406612533 0 -0.012293225969882551 -0.0058205581683215503 0 -0.011638345792787408 -0.0052659915599407442 0 -0.01212812581095263 -0.0052903875406612533 0 -0.012293225969882551 -0.0058205581683215503 0 -0.011407308924829055 -0.0060176424329462736 0 -0.011638345792787408 -0.0052659915599407442 0 -0.012293225969882551 -0.0058205581683215503 0 -0.012591660060424599 -0.005073178917810884 0 -0.01212812581095263 -0.0052903875406612533 0 -0.012293225969882551 -0.0058205581683215503 0 -0.012591660060424599 -0.005073178917810884 0 -0.013200989301598201 -0.0054449969857210349 0 -0.023247988706959693 0.00036407167342933366 0 -0.022295423312608115 0.00039439934322725741 0 -0.023020032176224964 0.0011226909722804816 0 -0.021648986022027368 0.0010607670598930384 0 -0.022295423312608115 0.00039439934322725741 0 -0.023020032176224964 0.0011226909722804816 0 -0.021574694093025832 -0.00031054124152673894 0 -0.022075526185539374 -0.0009218734485206859 0 -0.022295423312608115 0.00039439934322725741 0 -0.02228069811956129 -0.00082615102780103037 0 -0.022351598811148055 0.000427125489613017 0 -0.023034245532446127 -0.00045089426915075395 0 -0.022295423312608115 0.00039439934322725741 0 -0.023116577841281991 -6.7212420751215532e-05 0 -0.023247988706959693 0.00036407167342933366 0 -0.022295423312608115 0.00039439934322725741 0 -0.023116577841281991 -6.7212420751215532e-05 0 -0.023247988706959693 0.00036407167342933366 0 -0.023116577841281991 -6.7212420751215532e-05 0 -0.023547842352695809 -0.00011031194513129162 0 -0.023247988706959693 0.00036407167342933366 0 -0.023547842352695809 -0.00011031194513129162 0 -0.024023152007241581 0.00036770104713150677 0 -0.023528243837905669 -0.0003402113499532891 0 -0.023623398339089462 -0.00034900615165185715 0 -0.023620249096009009 -0.00028161203625025241 0 -0.023624837003654843 -0.00014235309900072972 0 -0.02300271329041715 -0.00014505312527248373 0 -0.023637218062077841 -0.00042114321601949061 0 -0.023702893906856318 -0.00035652638993148572 0 -0.023623398339089462 -0.00034900615165185715 0 -0.023637218062077841 -0.00042114321601949061 0 -0.023528243837905669 -0.0003402113499532891 0 -0.023623398339089462 -0.00034900615165185715 0 -0.023702893906856318 -0.00035652638993148572 0 -0.023623398339089462 -0.00034900615165185715 0 -0.023620249096009009 -0.00028161203625025241 0 -0.023570305079123503 -0.0042114009159718484 0 -0.02300271329041715 -0.00014505312527248373 0 -0.023136021612665286 -0.0027070183934381638 0 -0.022677006172542469 -0.0023441227996196354 0 -0.023115754870825365 -0.001860420182868826 0 -0.022056838821673332 0.0012835103025725272 0 -0.022084737755274191 0.0014820308657150455 0 -0.02197945671440895 0.0015821769874609405 0 -0.023570305079123503 -0.0042114009159718484 0 -0.022460067653669761 -0.0023607892272271549 0 -0.02300271329041715 -0.00014505312527248373 0 -0.022460067653669761 -0.0023607892272271549 0 -0.022056838821673332 0.0012835103025725272 0 -0.022084737755274191 0.0014820308657150455 0 -0.022194368194903644 0.0014413263714103063 0 -0.02300271329041715 -0.00014505312527248373 0 -0.022351097136530343 0.0015100484406185869 0 -0.023247988706959693 0.00036407167342933366 0 -0.024023152007241581 0.00036770104713150677 0 -0.023020032176224964 0.0011226909722804816 0 -0.022056838821673332 0.0012835103025725272 0 -0.02197945671440895 0.0015821769874609405 0 -0.021773610987395733 0.0015620085374032468 0 -0.02197945671440895 0.0015821769874609405 0 -0.021892839216602653 0.0016908241778033281 0 -0.021773610987395733 0.0015620085374032468 0 -0.02197945671440895 0.0015821769874609405 0 -0.021892839216602653 0.0016908241778033281 0 -0.022042931582871472 0.0016888227119369725 0 -0.022194368194903644 0.0014413263714103063 0 -0.022107380580289982 0.0016169246411834874 0 -0.02217534651228496 0.0016399837679991688 0 -0.022084737755274191 0.0014820308657150455 0 -0.022194368194903644 0.0014413263714103063 0 -0.022107380580289982 0.0016169246411834874 0 -0.022460067653669761 -0.0023607892272271549 0 -0.019306150623968212 -0.00075671854665760045 0 -0.022084737755274191 0.0014820308657150455 0 -0.02197945671440895 0.0015821769874609405 0 -0.022107380580289982 0.0016169246411834874 0 -0.02197945671440895 0.0015821769874609405 0 -0.022107380580289982 0.0016169246411834874 0 -0.022042931582871472 0.0016888227119369725 0 -0.022107380580289982 0.0016169246411834874 0 -0.022098414118682255 0.0016862881482463633 0 -0.022042931582871472 0.0016888227119369725 0 -0.022107380580289982 0.0016169246411834874 0 -0.022131905773217844 0.0016766810720483835 0 -0.02217534651228496 0.0016399837679991688 0 -0.022107380580289982 0.0016169246411834874 0 -0.022131905773217844 0.0016766810720483835 0 -0.022098414118682255 0.0016862881482463633 0 -0.019306150623968212 -0.00075671854665760045 0 -0.016900815407751558 -0.0011398233821307677 0 -0.022131905773217844 0.0016766810720483835 0 -0.02217534651228496 0.0016399837679991688 0 -0.022135616293254844 0.0016980736197642571 0 -0.018285676849443152 0.00055479865511533243 0 -0.020968807808553799 0.0024231819944570175 0 -0.022117300617581485 0.0017222761616621336 0 -0.022042931582871472 0.0016888227119369725 0 -0.021920659949042028 0.00185481918814198 0 -0.018601721624203951 0.003266123468252306 0 -0.018873871934621221 0.0029198574224563963 0 -0.019526668785112479 0.0029091241510298452 0 -0.016082083557452508 -0.00086983437372243819 0 -0.015529774418899783 -0.0011499713172215176 0 -0.014820927899362917 -0.00012855962841260091 0 -0.013377588035076377 -0.0024522025516688444 0 -0.012972856114540259 -0.0029923622406291695 0 -0.022167607600200784 0.0016914464430049657 0 -0.022135616293254844 0.0016980736197642571 0 -0.022117300617581485 0.0017222761616621336 0 -0.016900815407751558 -0.0011398233821307677 0 -0.018285676849443152 0.00055479865511533243 0 -0.02217534651228496 0.0016399837679991688 0 -0.022167607600200784 0.0016914464430049657 0 -0.022135616293254844 0.0016980736197642571 0 -0.013377588035076377 -0.0024522025516688444 0 -0.016900815407751558 -0.0011398233821307677 0 -0.016082083557452508 -0.00086983437372243819 0 -0.016093174548034148 -0.0014265497525182296 0 -0.015529774418899783 -0.0011499713172215176 0 -0.022135616293254844 0.0016980736197642571 0 -0.022117300617581485 0.0017222761616621336 0 -0.022118959511764111 0.0016995483701511226 0 -0.022131905773217844 0.0016766810720483835 0 -0.022118959511764111 0.0016995483701511226 0 -0.022098414118682255 0.0016862881482463633 0 -0.022131905773217844 0.0016766810720483835 0 -0.022135616293254844 0.0016980736197642571 0 -0.022118959511764111 0.0016995483701511226 0 -0.022117300617581485 0.0017222761616621336 0 -0.022118959511764111 0.0016995483701511226 0 -0.022098414118682255 0.0016862881482463633 0 -0.018285676849443152 0.00055479865511533243 0 -0.014043215004297713 -0.0003877652010891412 0 -0.022117300617581485 0.0017222761616621336 0 -0.022098414118682255 0.0016862881482463633 0 -0.022042931582871472 0.0016888227119369725 0 -0.0090800113706597345 -0.004276500955802294 0 -0.008624281833892692 -0.003992701175119677 0 -0.0090715694984917564 -0.0041294649947347653 0 -0.008624281833892692 -0.003992701175119677 0 -0.0090715694984917564 -0.0041294649947347653 0 -0.0089394002920038362 -0.003761962210220648 0 -0.013377588035076377 -0.0024522025516688444 0 -0.014043215004297713 -0.0003877652010891412 0 -0.0092625961765384849 -0.0039787377663059297 0 -0.0090715694984917564 -0.0041294649947347653 0 -0.0089394002920038362 -0.003761962210220648 0 -0.021892839216602653 0.0016908241778033281 0 -0.021920659949042028 0.00185481918814198 0 -0.021750330431483035 0.0017648374304541604 0 -0.021892839216602653 0.0016908241778033281 0 -0.022042931582871472 0.0016888227119369725 0 -0.021920659949042028 0.00185481918814198 0 -0.021750330431483035 0.0017648374304541604 0 -0.021636319741398968 0.0018698794270612217 0 -0.021735773930844648 0.0020073173747179756 0 -0.021920659949042028 0.00185481918814198 0 -0.021750330431483035 0.0017648374304541604 0 -0.021735773930844648 0.0020073173747179756 0 -0.021750330431483035 0.0017648374304541604 0 -0.021773610987395733 0.0015620085374032468 0 -0.021591405232382219 0.0018044163456773278 0 -0.021892839216602653 0.0016908241778033281 0 -0.021750330431483035 0.0017648374304541604 0 -0.021773610987395733 0.0015620085374032468 0 -0.021648986022027368 0.0010607670598930384 0 -0.023020032176224964 0.0011226909722804816 0 -0.021591405232382219 0.0018044163456773278 0 -0.022351097136530343 0.0015100484406185869 0 -0.021681286745666908 0.0017200094639033224 0 -0.021750330431483035 0.0017648374304541604 0 -0.021591405232382219 0.0018044163456773278 0 -0.021636319741398968 0.0018698794270612217 0 -0.021591405232382219 0.0018044163456773278 0 -0.021636319741398968 0.0018698794270612217 0 -0.021489096849193718 0.0019684896109346144 0 -0.021591405232382219 0.0018044163456773278 0 -0.021489096849193718 0.0019684896109346144 0 -0.021223211311124958 0.0020357737654351778 0 -0.021489096849193718 0.0019684896109346144 0 -0.021249995284627659 0.002200305442140664 0 -0.021223211311124958 0.0020357737654351778 0 -0.021489096849193718 0.0019684896109346144 0 -0.021249995284627659 0.002200305442140664 0 -0.021735773930844648 0.0020073173747179756 0 -0.020776391072786626 0.0022753546108553189 0 -0.021249995284627659 0.002200305442140664 0 -0.020433812601745538 0.0025735883781553082 0 -0.021257142796346881 0.0022014927329837104 0 -0.021038671211180936 0.0022917888282312799 0 -0.021636319741398968 0.0018698794270612217 0 -0.021489096849193718 0.0019684896109346144 0 -0.021735773930844648 0.0020073173747179756 0 -0.020776391072786626 0.0022753546108553189 0 -0.021249995284627659 0.002200305442140664 0 -0.021094600930228864 0.0021410922724355323 0 -0.01318684839084731 -0.00072030785843044554 0 -0.013184263276643429 -0.00075196665237494125 0 -0.013107134605259637 -0.00076116255519620391 0 -0.021249995284627659 0.002200305442140664 0 -0.02117920681256533 0.0021137362337317143 0 -0.021094600930228864 0.0021410922724355323 0 -0.02117920681256533 0.0021137362337317143 0 -0.021114635365591751 0.002054357328905397 0 -0.021149451811255628 0.0021104416811773929 0 -0.02117920681256533 0.0021137362337317143 0 -0.021092467942482932 0.0020201768038046863 0 -0.021114635365591751 0.002054357328905397 0 -0.02117920681256533 0.0021137362337317143 0 -0.021092467942482932 0.0020201768038046863 0 -0.021094600930228864 0.0021410922724355323 0 -0.020776391072786626 0.0022753546108553189 0 -0.021092467942482932 0.0020201768038046863 0 -0.021094600930228864 0.0021410922724355323 0 -0.016868206655199926 0.0010947532250182982 0 -0.012886579554711355 -0.00076579794611513765 0 -0.021092467942482932 0.0020201768038046863 0 -0.021114635365591751 0.002054357328905397 0 -0.021093541032407591 0.0020477482177866445 0 -0.021114635365591751 0.002054357328905397 0 -0.021093541032407591 0.0020477482177866445 0 -0.021129463966354733 0.0020882765163828423 0 -0.016868206655199926 0.0010947532250182982 0 -0.016944265951111842 0.00091233119387643504 0 -0.01318684839084731 -0.00072030785843044554 0 -0.013141526887921627 -0.00072308101171402676 0 -0.013107134605259637 -0.00076116255519620391 0 -0.01318684839084731 -0.00072030785843044554 0 -0.013141526887921627 -0.00072308101171402676 0 -0.013133261125814756 -0.00069955708723556758 0 -0.013141526887921627 -0.00072308101171402676 0 -0.013110716352512465 -0.00071161791843194627 0 -0.013107134605259637 -0.00076116255519620391 0 -0.020776391072786626 0.0022753546108553189 0 -0.021092467942482932 0.0020201768038046863 0 -0.020023228999284264 0.002384383128877547 0 -0.019526668785112479 0.0029091241510298452 0 -0.020023228999284264 0.002384383128877547 0 -0.020433812601745538 0.0025735883781553082 0 -0.020776391072786626 0.0022753546108553189 0 -0.020023228999284264 0.002384383128877547 0 -0.020433812601745538 0.0025735883781553082 0 -0.020968807808553799 0.0024231819944570175 0 -0.021038671211180936 0.0022917888282312799 0 -0.013141526887921627 -0.00072308101171402676 0 -0.013133261125814756 -0.00069955708723556758 0 -0.013110716352512465 -0.00071161791843194627 0 -0.014043215004297713 -0.0003877652010891412 0 -0.010533100068121137 -0.0020616178405527823 0 -0.018873871934621221 0.0029198574224563963 0 -0.019526668785112479 0.0029091241510298452 0 -0.020023228999284264 0.002384383128877547 0 -0.014043215004297713 -0.0003877652010891412 0 -0.016944265951111842 0.00091233119387643504 0 -0.013118231747618472 -0.00069008702031587098 0 -0.013133261125814756 -0.00069955708723556758 0 -0.013110716352512465 -0.00071161791843194627 0 -0.008624281833892692 -0.003992701175119677 0 -0.007997879012869644 -0.0030756724967097387 0 -0.0086534871531953623 -0.0033933086408188969 0 -0.0089394002920038362 -0.003761962210220648 0 -0.0090486182537233371 -0.003270600691280344 0 -0.0092431691385694136 -0.0037219432651413374 0 -0.0089394002920038362 -0.003761962210220648 0 -0.0086534871531953623 -0.0033933086408188969 0 -0.0090486182537233371 -0.003270600691280344 0 -0.008624281833892692 -0.003992701175119677 0 -0.0089394002920038362 -0.003761962210220648 0 -0.0086534871531953623 -0.0033933086408188969 0 -0.007997879012869644 -0.0030756724967097387 0 -0.0086534871531953623 -0.0033933086408188969 0 -0.0086622439117273273 -0.0028668036475371465 0 -0.0086534871531953623 -0.0033933086408188969 0 -0.0090486182537233371 -0.003270600691280344 0 -0.0086622439117273273 -0.0028668036475371465 0 -0.007997879012869644 -0.0030756724967097387 0 -0.0086622439117273273 -0.0028668036475371465 0 -0.0086435857569892739 -0.0020718176165935029 0 -0.0086622439117273273 -0.0028668036475371465 0 -0.0086435857569892739 -0.0020718176165935029 0 -0.0091606460934913498 -0.0025500138365024015 0 -0.0090486182537233371 -0.003270600691280344 0 -0.0086622439117273273 -0.0028668036475371465 0 -0.0091606460934913498 -0.0025500138365024015 0 -0.007997879012869644 -0.0030756724967097387 0 -0.0086435857569892739 -0.0020718176165935029 0 -0.0073875991417898731 -0.0021958561341025654 0 -0.010533100068121137 -0.0020616178405527823 0 -0.0077691512939085591 -0.0022117047433347485 0 -0.0055505433388997561 -0.0024272131840825002 0 -0.0019360363818072598 -0.0015569366201791596 0 -0.0055505433388997561 -0.0024272131840825002 0 -0.0077691512939085591 -0.0022117047433347485 0 -0.0050936646730474324 -0.0030847882686982661 0 -0.0039818227471873947 -0.0020482471706504981 0 -0.0036135348438394994 -0.0032344664101483303 0 -0.002022828172293482 -0.0027526080215182084 0 -0.0021379583233824195 -0.0011902409812330451 0 -0.0029834153578872152 -0.0019431051519040168 0 -0.0055505433388997561 -0.0024272131840825002 0 -0.0093487326227328447 -0.0030245217370717357 0 -0.002022828172293482 -0.0027526080215182084 0 -0.0021379583233824195 -0.0011902409812330451 0 -0.00052314293207538344 -0.0010521799209994567 0 -0.0021379583233824195 -0.0011902409812330451 0 -0.00052314293207538344 -0.0010521799209994567 0 -0.0013200037298886833 -0.0003436202630836047 0 -0.0039818227471873947 -0.0020482471706504981 0 -0.0027435220609017467 -0.0018044449671029818 0 -0.0026705024578017014 -0.0019431744729150077 0 -0.0039818227471873947 -0.0020482471706504981 0 -0.0026705024578017014 -0.0019431744729150077 0 -0.0036135348438394994 -0.0032344664101483303 0 -0.0027435220609017467 -0.0018044449671029818 0 -0.0026687036943672487 -0.0019404825396492017 0 -0.0025892239564900489 -0.0014851508021169657 0 -0.0040602190420495126 -0.0020133432553206404 0 -0.0042620011919598019 -0.0018888106337412044 0 -0.0042620011919598019 -0.0018888106337412044 0 -0.0053149559409766669 -0.0017551544822131619 0 -0.0076026543222694988 -0.0019559489631179794 0 -0.0076535435461770789 -0.0020483147737019617 0 -0.0078192996700917183 -0.0020350118677017618 0 -0.0076502964842135712 -0.0018337607083896243 0 -0.0076026543222694988 -0.0019559489631179794 0 -0.0078192996700917183 -0.0020350118677017618 0 -0.012886579554711355 -0.00076579794611513765 0 -0.0077691512939085591 -0.0022117047433347485 0 -0.0053149559409766669 -0.0017551544822131619 0 -0.012886579554711355 -0.00076579794611513765 0 -0.0042620011919598019 -0.0018888106337412044 0 -0.0077691512939085591 -0.0022117047433347485 0 -0.011450211041267686 -0.0022150597956799908 0 -0.011098554767277953 -0.0027044507148925724 0 -0.011048261575110706 -0.0019094057182077893 0 -0.011450211041267686 -0.0022150597956799908 0 -0.011683699405699946 -0.002912579901663498 0 -0.011098554767277953 -0.0027044507148925724 0 -0.011450211041267686 -0.0022150597956799908 0 -0.011683699405699946 -0.002912579901663498 0 -0.012253881723298414 -0.0026669188866135798 0 -0.011683699405699946 -0.002912579901663498 0 -0.011984675815509613 -0.003657866317421501 0 -0.012683342929693362 -0.0034112482017710187 0 -0.011369515601298855 -0.003840595021021282 0 -0.011984675815509613 -0.003657866317421501 0 -0.011386226473508079 -0.0032599019104924106 0 -0.011683699405699946 -0.002912579901663498 0 -0.011386226473508079 -0.0032599019104924106 0 -0.011098554767277953 -0.0027044507148925724 0 -0.011683699405699946 -0.002912579901663498 0 -0.011984675815509613 -0.003657866317421501 0 -0.011386226473508079 -0.0032599019104924106 0 -0.011386226473508079 -0.0032599019104924106 0 -0.010882422948689944 -0.0032655458842411164 0 -0.011098554767277953 -0.0027044507148925724 0 -0.011369515601298855 -0.003840595021021282 0 -0.011386226473508079 -0.0032599019104924106 0 -0.010882422948689944 -0.0032655458842411164 0 -0.010784926281414742 -0.0037737611597571416 0 -0.010882422948689944 -0.0032655458842411164 0 -0.010374458201100643 -0.0034863008028703803 0 -0.011369515601298855 -0.003840595021021282 0 -0.010784926281414742 -0.0037737611597571416 0 -0.010882422948689944 -0.0032655458842411164 0 -0.010882422948689944 -0.0032655458842411164 0 -0.011098554767277953 -0.0027044507148925724 0 -0.010463703052784028 -0.0029474963851836376 0 -0.011098554767277953 -0.0027044507148925724 0 -0.010497246101407242 -0.0024247619971734745 0 -0.011048261575110706 -0.0019094057182077893 0 -0.011098554767277953 -0.0027044507148925724 0 -0.010497246101407242 -0.0024247619971734745 0 -0.010463703052784028 -0.0029474963851836376 0 -0.010497246101407242 -0.0024247619971734745 0 -0.0098887630538663073 -0.00266053925567852 0 -0.0098860079979376809 -0.0019156176064765061 0 -0.0098887630538663073 -0.00266053925567852 0 -0.010463703052784028 -0.0029474963851836376 0 -0.009899814625678521 -0.0032908280690312004 0 -0.010497246101407242 -0.0024247619971734745 0 -0.0098887630538663073 -0.00266053925567852 0 -0.010463703052784028 -0.0029474963851836376 0 -0.010882422948689944 -0.0032655458842411164 0 -0.010463703052784028 -0.0029474963851836376 0 -0.010374458201100643 -0.0034863008028703803 0 -0.010463703052784028 -0.0029474963851836376 0 -0.010374458201100643 -0.0034863008028703803 0 -0.009899814625678521 -0.0032908280690312004 0 -0.010336880913580034 -0.0039380331880035594 0 -0.010784926281414742 -0.0037737611597571416 0 -0.010374458201100643 -0.0034863008028703803 0 -0.010336880913580034 -0.0039380331880035594 0 -0.010374458201100643 -0.0034863008028703803 0 -0.0099170424753437184 -0.0037364449527569391 0 -0.010374458201100643 -0.0034863008028703803 0 -0.0099170424753437184 -0.0037364449527569391 0 -0.009899814625678521 -0.0032908280690312004 0 -0.009899814625678521 -0.0032908280690312004 0 -0.0095103258824214311 -0.0030783201434415883 0 -0.0095296785229082737 -0.0035083118191358274 0 -0.0099170424753437184 -0.0037364449527569391 0 -0.009899814625678521 -0.0032908280690312004 0 -0.0095296785229082737 -0.0035083118191358274 0 -0.0095728957280457449 -0.003965193619343302 0 -0.0099170424753437184 -0.0037364449527569391 0 -0.0095296785229082737 -0.0035083118191358274 0 -0.0090486182537233371 -0.003270600691280344 0 -0.0095296785229082737 -0.0035083118191358274 0 -0.0092431691385694136 -0.0037219432651413374 0 -0.0095728957280457449 -0.003965193619343302 0 -0.0095296785229082737 -0.0035083118191358274 0 -0.0092431691385694136 -0.0037219432651413374 0 -0.0090486182537233371 -0.003270600691280344 0 -0.0095103258824214311 -0.0030783201434415883 0 -0.0095296785229082737 -0.0035083118191358274 0 -0.0098887630538663073 -0.00266053925567852 0 -0.0091606460934913498 -0.0025500138365024015 0 -0.0098860079979376809 -0.0019156176064765061 0 -0.0090486182537233371 -0.003270600691280344 0 -0.0095103258824214311 -0.0030783201434415883 0 -0.0091606460934913498 -0.0025500138365024015 0 -0.0098887630538663073 -0.00266053925567852 0 -0.0095103258824214311 -0.0030783201434415883 0 -0.0091606460934913498 -0.0025500138365024015 0 -0.0098887630538663073 -0.00266053925567852 0 -0.009899814625678521 -0.0032908280690312004 0 -0.0095103258824214311 -0.0030783201434415883 0 -0.002022828172293482 -0.0027526080215182084 0 -0.0029834153578872152 -0.0019431051519040168 0 -0.0041945605074390161 -0.0026816169207393831 0 -0.0055505433388997561 -0.0024272131840825002 0 -0.0069894316105924255 -0.0023042259070533496 0 -0.008578677713844041 -0.0020163607215591328 0 -0.0091606460934913498 -0.0025500138365024015 0 -0.0098860079979376809 -0.0019156176064765061 0 -0.0029834153578872152 -0.0019431051519040168 0 -0.0036242597025249608 -0.0011477990279428474 0 -0.0041945605074390161 -0.0026816169207393831 0 -0.0021379583233824195 -0.0011902409812330451 0 -0.0029834153578872152 -0.0019431051519040168 0 -0.0036242597025249608 -0.0011477990279428474 0 -0.0036242597025249608 -0.0011477990279428474 0 -0.0051364230847113631 -0.0011645513712992448 0 -0.0041945605074390161 -0.0026816169207393831 0 -0.0036242597025249608 -0.0011477990279428474 0 -0.0051364230847113631 -0.0011645513712992448 0 -0.0041479601891642546 0.00012177187716427197 0 -0.010497246101407242 -0.0024247619971734745 0 -0.0098860079979376809 -0.0019156176064765061 0 -0.011048261575110706 -0.0019094057182077893 0 -0.0051364230847113631 -0.0011645513712992448 0 -0.0041945605074390161 -0.0026816169207393831 0 -0.0067937366576320928 -0.0025456353576423078 0 -0.0069894316105924255 -0.0023042259070533496 0 -0.0089526022833978074 -0.0021745981092239478 0 -0.0051364230847113631 -0.0011645513712992448 0 -0.0068274615174334146 -0.00067595506524258402 0 -0.0053900346968234758 1.6846322194389276e-05 0 -0.0051364230847113631 -0.0011645513712992448 0 -0.0067937366576320928 -0.0025456353576423078 0 -0.0068274615174334146 -0.00067595506524258402 0 -0.0067937366576320928 -0.0025456353576423078 0 -0.01090936278920367 -0.0016947630267059675 0 -0.0094926078058345468 -0.00056514136313538463 0 -0.0068274615174334146 -0.00067595506524258402 0 -0.0079741539222881151 0.00018751904709766009 0 -0.0094926078058345468 -0.00056514136313538463 0 -0.0067937366576320928 -0.0025456353576423078 0 -0.0068274615174334146 -0.00067595506524258402 0 -0.0094926078058345468 -0.00056514136313538463 0 -0.011450211041267686 -0.0022150597956799908 0 -0.011048261575110706 -0.0019094057182077893 0 -0.01090936278920367 -0.0016947630267059675 0 -0.0089526022833978074 -0.0021745981092239478 0 -0.010777847681404761 -0.0017814153440334065 0 -0.0069284953813900842 0.0013812471113798079 0 -0.0069147966118123429 0.0025024835929908906 0 -0.0080003486600500103 0.0018881612784081819 0 -0.0069284953813900842 0.0013812471113798079 0 -0.0082904220697067633 0.00098234801587729023 0 -0.0080003486600500103 0.0018881612784081819 0 -0.0069284953813900842 0.0013812471113798079 0 -0.0079741539222881151 0.00018751904709766009 0 -0.006547181352997959 0.00032797807627863183 0 -0.0082904220697067633 0.00098234801587729023 0 -0.0079741539222881151 0.00018751904709766009 0 -0.0090496400243772496 0.00024319059931340018 0 -0.0069284953813900842 0.0013812471113798079 0 -0.0082904220697067633 0.00098234801587729023 0 -0.0079741539222881151 0.00018751904709766009 0 -0.0079741539222881151 0.00018751904709766009 0 -0.0090496400243772496 0.00024319059931340018 0 -0.0094926078058345468 -0.00056514136313538463 0 -0.0068274615174334146 -0.00067595506524258402 0 -0.0079741539222881151 0.00018751904709766009 0 -0.006547181352997959 0.00032797807627863183 0 -0.0068274615174334146 -0.00067595506524258402 0 -0.006547181352997959 0.00032797807627863183 0 -0.0053900346968234758 1.6846322194389276e-05 0 -0.006547181352997959 0.00032797807627863183 0 -0.0052092428877064259 0.001088037828115562 0 -0.0053900346968234758 1.6846322194389276e-05 0 -0.0069284953813900842 0.0013812471113798079 0 -0.006547181352997959 0.00032797807627863183 0 -0.0052092428877064259 0.001088037828115562 0 -0.0069284953813900842 0.0013812471113798079 0 -0.0056928997383452222 0.0021957800799742408 0 -0.0069147966118123429 0.0025024835929908906 0 -0.0069284953813900842 0.0013812471113798079 0 -0.0052092428877064259 0.001088037828115562 0 -0.0056928997383452222 0.0021957800799742408 0 -0.0052092428877064259 0.001088037828115562 0 -0.004500413988167396 0.0021313944769146527 0 -0.0056928997383452222 0.0021957800799742408 0 -0.0052092428877064259 0.001088037828115562 0 -0.0040398457264861935 0.0010957268133019783 0 -0.004500413988167396 0.0021313944769146527 0 -0.0052092428877064259 0.001088037828115562 0 -0.0041479601891642546 0.00012177187716427197 0 -0.0040398457264861935 0.0010957268133019783 0 -0.0051364230847113631 -0.0011645513712992448 0 -0.0053900346968234758 1.6846322194389276e-05 0 -0.0041479601891642546 0.00012177187716427197 0 -0.0052092428877064259 0.001088037828115562 0 -0.0053900346968234758 1.6846322194389276e-05 0 -0.0041479601891642546 0.00012177187716427197 0 -0.0036242597025249608 -0.0011477990279428474 0 -0.0041479601891642546 0.00012177187716427197 0 -0.002808807425259937 0.0003529000991168102 0 -0.0021379583233824195 -0.0011902409812330451 0 -0.0036242597025249608 -0.0011477990279428474 0 -0.002808807425259937 0.0003529000991168102 0 -0.0041479601891642546 0.00012177187716427197 0 -0.002808807425259937 0.0003529000991168102 0 -0.0040398457264861935 0.0010957268133019783 0 -0.002808807425259937 0.0003529000991168102 0 -0.0040398457264861935 0.0010957268133019783 0 -0.003466441577733485 0.001690679520175714 0 -0.0040398457264861935 0.0010957268133019783 0 -0.003466441577733485 0.001690679520175714 0 -0.004500413988167396 0.0021313944769146527 0 -0.002808807425259937 0.0003529000991168102 0 -0.003466441577733485 0.001690679520175714 0 -0.0025379963876632885 0.0015582026656959876 0 -0.003466441577733485 0.001690679520175714 0 -0.0031259226432892159 0.0027454155190459501 0 -0.0025379963876632885 0.0015582026656959876 0 -0.003466441577733485 0.001690679520175714 0 -0.0037836083030643015 0.002419226741194885 0 -0.0031259226432892159 0.0027454155190459501 0 -0.003466441577733485 0.001690679520175714 0 -0.0037836083030643015 0.002419226741194885 0 -0.004500413988167396 0.0021313944769146527 0 -0.0037836083030643015 0.002419226741194885 0 -0.0031259226432892159 0.0027454155190459501 0 -0.0040325437055637077 0.0030606968381027963 0 -0.0031259226432892159 0.0027454155190459501 0 -0.0033819022102254161 0.0035735259788796324 0 -0.0028146060177300734 0.0031592834172176325 0 -0.0033819022102254161 0.0035735259788796324 0 -0.0026527134829283212 0.0037703628609072727 0 -0.0033064920911444469 0.0042638703341528654 0 -0.0033819022102254161 0.0035735259788796324 0 -0.003957254037449405 0.0036365116045177425 0 -0.0037189143318519611 0.003963670462453054 0 -0.003957254037449405 0.0036365116045177425 0 -0.0037189143318519611 0.003963670462453054 0 -0.004132389111254367 0.0040099885394402103 0 -0.0033819022102254161 0.0035735259788796324 0 -0.003957254037449405 0.0036365116045177425 0 -0.0040325437055637077 0.0030606968381027963 0 -0.0031259226432892159 0.0027454155190459501 0 -0.0033819022102254161 0.0035735259788796324 0 -0.0040325437055637077 0.0030606968381027963 0 -0.0040325437055637077 0.0030606968381027963 0 -0.0045182038753884797 0.0035250917502433507 0 -0.0050375847913155837 0.0029696990028519931 0 -0.003957254037449405 0.0036365116045177425 0 -0.0040325437055637077 0.0030606968381027963 0 -0.0045182038753884797 0.0035250917502433507 0 -0.0045182038753884797 0.0035250917502433507 0 -0.0046396818271909291 0.0041240526022844797 0 -0.004132389111254367 0.0040099885394402103 0 -0.003957254037449405 0.0036365116045177425 0 -0.0045182038753884797 0.0035250917502433507 0 -0.004132389111254367 0.0040099885394402103 0 -0.0045182038753884797 0.0035250917502433507 0 -0.005356937435909058 0.0037035439734275826 0 -0.0046396818271909291 0.0041240526022844797 0 -0.0045182038753884797 0.0035250917502433507 0 -0.0050375847913155837 0.0029696990028519931 0 -0.005356937435909058 0.0037035439734275826 0 -0.0037836083030643015 0.002419226741194885 0 -0.0040325437055637077 0.0030606968381027963 0 -0.004500413988167396 0.0021313944769146527 0 -0.0040325437055637077 0.0030606968381027963 0 -0.0050375847913155837 0.0029696990028519931 0 -0.004500413988167396 0.0021313944769146527 0 -0.0050375847913155837 0.0029696990028519931 0 -0.004500413988167396 0.0021313944769146527 0 -0.0056928997383452222 0.0021957800799742408 0 -0.0056928997383452222 0.0021957800799742408 0 -0.0059255083458437429 0.0030016869048071957 0 -0.0069147966118123429 0.0025024835929908906 0 -0.0050375847913155837 0.0029696990028519931 0 -0.0056928997383452222 0.0021957800799742408 0 -0.0059255083458437429 0.0030016869048071957 0 -0.0050375847913155837 0.0029696990028519931 0 -0.0059255083458437429 0.0030016869048071957 0 -0.005356937435909058 0.0037035439734275826 0 -0.0059255083458437429 0.0030016869048071957 0 -0.005356937435909058 0.0037035439734275826 0 -0.0064419393072254784 0.003418312385265528 0 -0.005356937435909058 0.0037035439734275826 0 -0.0064419393072254784 0.003418312385265528 0 -0.0060260261021622017 0.0040430295609891302 0 -0.0064419393072254784 0.003418312385265528 0 -0.0070956826287382913 0.0036834147156960761 0 -0.0060260261021622017 0.0040430295609891302 0 -0.0064419393072254784 0.003418312385265528 0 -0.0076948757774413928 0.0028973574378884331 0 -0.0070956826287382913 0.0036834147156960761 0 -0.0064419393072254784 0.003418312385265528 0 -0.0069147966118123429 0.0025024835929908906 0 -0.0076948757774413928 0.0028973574378884331 0 -0.0059255083458437429 0.0030016869048071957 0 -0.0064419393072254784 0.003418312385265528 0 -0.0069147966118123429 0.0025024835929908906 0 -0.0069147966118123429 0.0025024835929908906 0 -0.0076948757774413928 0.0028973574378884331 0 -0.0080003486600500103 0.0018881612784081819 0 -0.00018348377492097758 0.00051845913819659596 0 0.00014809218905774058 0.0001389681009246125 0 -0.00057744931156579124 0.00010872202415647845 0 8.7008686624278001e-05 0.00051771425761614484 0 0.00014809218905774058 0.0001389681009246125 0 0.00016621494867824455 0.00061965527619586424 0 -0.001433103361956622 -0.00048586178076755377 0 -0.00077597531427068265 0.00021269856877140057 0 -0.0028512814264554306 -0.0010362721420544047 0 -0.0017434392786317982 -0.00011837306587372268 0 -0.0020940185226098356 -0.0011590491600453081 0 -0.00018348377492097758 0.00051845913819659596 0 8.7008686624278001e-05 0.00051771425761614484 0 0.00014809218905774058 0.0001389681009246125 0 -0.0028512814264554306 -0.0010362721420544047 0 -0.0025892239564900489 -0.0014851508021169657 0 -0.0020940185226098356 -0.0011590491600453081 0 -0.0042620011919598019 -0.0018888106337412044 0 -0.0019260205851068404 -0.0010051966866204117 0 -0.0026687036943672487 -0.0019404825396492017 0 -0.0025892239564900489 -0.0014851508021169657 0 -0.0020940185226098356 -0.0011590491600453081 0 -0.0027435220609017467 -0.0018044449671029818 0 -0.0028512814264554306 -0.0010362721420544047 0 -0.0025892239564900489 -0.0014851508021169657 0 -0.0019360363818072598 -0.0015569366201791596 0 -0.001433103361956622 -0.00048586178076755377 0 -0.0039818227471873947 -0.0020482471706504981 0 -0.0027435220609017467 -0.0018044449671029818 0 -0.0028512814264554306 -0.0010362721420544047 0 -0.00052314293207538344 -0.0010521799209994567 0 0.00014809218905774058 0.0001389681009246125 0 -0.00057744931156579124 0.00010872202415647845 0 -0.00052314293207538344 -0.0010521799209994567 0 -0.0013200037298886833 -0.0003436202630836047 0 -0.00057744931156579124 0.00010872202415647845 0 -0.0013200037298886833 -0.0003436202630836047 0 -0.00057744931156579124 0.00010872202415647845 0 -0.0013742581734634929 0.00052672126695097246 0 -0.002808807425259937 0.0003529000991168102 0 -0.0013200037298886833 -0.0003436202630836047 0 -0.0013742581734634929 0.00052672126695097246 0 -0.0021379583233824195 -0.0011902409812330451 0 -0.002808807425259937 0.0003529000991168102 0 -0.0013200037298886833 -0.0003436202630836047 0 -0.0013770081604302074 0.00060850324081948798 0 -0.0015626135987791198 0.0015636591501372373 0 -0.0013742581734634929 0.00052672126695097246 0 -0.0025379963876632885 0.0015582026656959876 0 -0.002038933287641727 0.0024903678242541392 0 -0.002808807425259937 0.0003529000991168102 0 -0.0013742581734634929 0.00052672126695097246 0 -0.0025379963876632885 0.0015582026656959876 0 -0.0013742581734634929 0.00052672126695097246 0 -0.00072885439292410224 0.00061067364901464796 0 -0.0010696740996114036 0.00086162931608571721 0 -0.00018348377492097758 0.00051845913819659596 0 -0.00057744931156579124 0.00010872202415647845 0 -0.00072885439292410224 0.00061067364901464796 0 -0.00057744931156579124 0.00010872202415647845 0 -0.0013742581734634929 0.00052672126695097246 0 -0.00072885439292410224 0.00061067364901464796 0 -0.00044428712886531449 0.00078558776578531626 0 -0.0010696740996114036 0.00086162931608571721 0 -0.00091709169782858125 0.0016937441320367249 0 -0.00018348377492097758 0.00051845913819659596 0 -0.00072885439292410224 0.00061067364901464796 0 -0.00044428712886531449 0.00078558776578531626 0 -0.00072885439292410224 0.00061067364901464796 0 -0.00044428712886531449 0.00078558776578531626 0 -0.0010696740996114036 0.00086162931608571721 0 -0.0031259226432892159 0.0027454155190459501 0 -0.0025379963876632885 0.0015582026656959876 0 -0.002038933287641727 0.0024903678242541392 0 -0.0031259226432892159 0.0027454155190459501 0 -0.002038933287641727 0.0024903678242541392 0 -0.0028146060177300734 0.0031592834172176325 0 -0.0015626135987791198 0.0015636591501372373 0 -0.0020017368516792862 0.0029915882037883537 0 -0.002038933287641727 0.0024903678242541392 0 -0.0028146060177300734 0.0031592834172176325 0 -0.0026527134829283212 0.0037703628609072727 0 -0.0010696740996114036 0.00086162931608571721 0 -0.00091709169782858125 0.0016937441320367249 0 -0.001233680989878485 0.0017043851307839894 0 -0.0033819022102254161 0.0035735259788796324 0 -0.0028146060177300734 0.0031592834172176325 0 -0.0026527134829283212 0.0037703628609072727 0 -0.00044428712886531449 0.00078558776578531626 0 8.8471850004307988e-06 0.00053442794428780872 0 -0.00010770069815712941 0.00057248393663420979 0 -0.00045991521270266991 0.00088518732657941678 0 -0.00035201030692557809 0.0009034835090594663 0 -0.00044428712886531449 0.00078558776578531626 0 -0.00010770069815712941 0.00057248393663420979 0 -8.84928736405229e-05 0.00060271797617148448 0 8.8471850004307988e-06 0.00053442794428780872 0 -0.00010770069815712941 0.00057248393663420979 0 -3.6947548814908216e-05 0.00051097962874599554 0 -0.00010770069815712941 0.00057248393663420979 0 -8.84928736405229e-05 0.00060271797617148448 0 -1.1885389631747148e-05 0.0005131384082343361 0 -8.84928736405229e-05 0.00060271797617148448 0 8.5507448096789024e-05 0.00055739801000884842 0 -2.0727907645060907e-05 0.00061081509368574006 0 8.5507448096789024e-05 0.00055739801000884842 0 -2.0727907645060907e-05 0.00061081509368574006 0 9.9061841204845302e-05 0.00057219909947321213 0 -8.84928736405229e-05 0.00060271797617148448 0 -2.0727907645060907e-05 0.00061081509368574006 0 -0.00016010426426134268 0.00066911120740171517 0 -0.00044428712886531449 0.00078558776578531626 0 -8.84928736405229e-05 0.00060271797617148448 0 -0.00016010426426134268 0.00066911120740171517 0 -2.0727907645060907e-05 0.00061081509368574006 0 -0.00016010426426134268 0.00066911120740171517 0 8.2086790827500883e-06 0.000599524581929427 0 -0.00018348377492097758 0.00051845913819659596 0 -0.00016010426426134268 0.00066911120740171517 0 8.2086790827500883e-06 0.000599524581929427 0 -0.00018348377492097758 0.00051845913819659596 0 -0.00044428712886531449 0.00078558776578531626 0 -0.00016010426426134268 0.00066911120740171517 0 8.7008686624278001e-05 0.00051771425761614484 0 0.00013034092471623384 0.00057465858254586346 0 0.00016621494867824455 0.00061965527619586424 0 8.7008686624278001e-05 0.00051771425761614484 0 8.2086790827500883e-06 0.000599524581929427 0 0.00013034092471623384 0.00057465858254586346 0 -0.00018348377492097758 0.00051845913819659596 0 8.7008686624278001e-05 0.00051771425761614484 0 8.2086790827500883e-06 0.000599524581929427 0 8.2086790827500883e-06 0.000599524581929427 0 0.00013034092471623384 0.00057465858254586346 0 9.9061841204845302e-05 0.00057219909947321213 0 0.00013034092471623384 0.00057465858254586346 0 9.9061841204845302e-05 0.00057219909947321213 0 0.00013717490497044003 0.00051611437201140066 0 -2.0727907645060907e-05 0.00061081509368574006 0 8.2086790827500883e-06 0.000599524581929427 0 9.9061841204845302e-05 0.00057219909947321213 0 8.5507448096789024e-05 0.00055739801000884842 0 9.9061841204845302e-05 0.00057219909947321213 0 0.00019896390837847566 0.00052387229149798459 0 9.9061841204845302e-05 0.00057219909947321213 0 0.00013717490497044003 0.00051611437201140066 0 0.00019896390837847566 0.00052387229149798459 0 0.00013717490497044003 0.00051611437201140066 0 0.00013892125433929219 0.00043440377662137412 0 0.00019896390837847566 0.00052387229149798459 0 8.640039419450275e-05 0.00050391615286565566 0 0.00013717490497044003 0.00051611437201140066 0 0.00013892125433929219 0.00043440377662137412 0 0.00013034092471623384 0.00057465858254586346 0 8.640039419450275e-05 0.00050391615286565566 0 0.00013717490497044003 0.00051611437201140066 0 -0.00031341459506260442 0.0004033301728826975 0 0.00013892125433929219 0.00043440377662137412 0 6.5332588434422002e-05 0.00038854547241932899 0 8.640039419450275e-05 0.00050391615286565566 0 -0.00031341459506260442 0.0004033301728826975 0 0.00013892125433929219 0.00043440377662137412 0 -0.0011207226056532563 -5.7690161661248893e-05 0 -0.00078051392318447097 -0.00022727945565424891 0 -0.00046127348266545215 0.00011159633952691927 0 -0.00038959011572926573 0.00039147002521901046 0 -0.00077597531427068265 0.00021269856877140057 0 -0.00031341459506260442 0.0004033301728826975 0 -0.0011207226056532563 -5.7690161661248893e-05 0 -0.00046127348266545215 0.00011159633952691927 0 -0.00031341459506260442 0.0004033301728826975 0 -0.0011207226056532563 -5.7690161661248893e-05 0 -0.0017434392786317982 -0.00011837306587372268 0 0.00013034092471623384 0.00057465858254586346 0 8.640039419450275e-05 0.00050391615286565566 0 0.00016621494867824455 0.00061965527619586424 0 8.640039419450275e-05 0.00050391615286565566 0 -0.00031341459506260442 0.0004033301728826975 0 0.00016621494867824455 0.00061965527619586424 0 -0.0013321939470614835 -0.00014925686563261153 0 -0.0013154579962036134 -0.0010387796676306154 0 -0.0011207226056532563 -5.7690161661248893e-05 0 -0.0017434392786317982 -0.00011837306587372268 0 -0.0017304526096247699 -0.0013058727756490556 0 -0.0017434392786317982 -0.00011837306587372268 0 -0.0020940185226098356 -0.0011590491600453081 0 -0.0017304526096247699 -0.0013058727756490556 0 -0.0011207226056532563 -5.7690161661248893e-05 0 -0.0012376388267597415 -0.00049301016581299354 0 -0.00078051392318447097 -0.00022727945565424891 0 -0.0011207226056532563 -5.7690161661248893e-05 0 -0.0014373958583893934 -0.00055945011960739372 0 -0.0018828470636355992 -0.00084917824820411852 0 -0.0011207226056532563 -5.7690161661248893e-05 0 -0.0012376388267597415 -0.00049301016581299354 0 -0.0014373958583893934 -0.00055945011960739372 0 -0.0012376388267597415 -0.00049301016581299354 0 -0.0014373958583893934 -0.00055945011960739372 0 -0.0014998634143515595 -0.00084554578265354382 0 -0.0014373958583893934 -0.00055945011960739372 0 -0.0014998634143515595 -0.00084554578265354382 0 -0.0018828470636355992 -0.00084917824820411852 0 -0.0012376388267597415 -0.00049301016581299354 0 -0.0014998634143515595 -0.00084554578265354382 0 -0.0010801984532701973 -0.00061815082981248406 0 -0.0014998634143515595 -0.00084554578265354382 0 -0.0013120593003736953 -0.00096318627426514921 0 -0.0010801984532701973 -0.00061815082981248406 0 -0.0014998634143515595 -0.00084554578265354382 0 -0.0013120593003736953 -0.00096318627426514921 0 -0.0015240293280307674 -0.0012220733325814515 0 -0.0014998634143515595 -0.00084554578265354382 0 -0.001799623224349138 -0.001103464644964137 0 -0.0015240293280307674 -0.0012220733325814515 0 -0.0014998634143515595 -0.00084554578265354382 0 -0.0018828470636355992 -0.00084917824820411852 0 -0.001799623224349138 -0.001103464644964137 0 -0.0026364518031326504 -0.0018908508335349706 0 -0.0020940185226098356 -0.0011590491600453081 0 -0.0017304526096247699 -0.0013058727756490556 0 -0.00071110940097124441 -0.00069847407901518679 0 -0.0010680489171581316 -0.00087850288653473112 0 -0.00064498762136874614 -0.00034340520062976483 0 -0.0010680489171581316 -0.00087850288653473112 0 -0.0010801984532701973 -0.00061815082981248406 0 -0.00064498762136874614 -0.00034340520062976483 0 -0.0010680489171581316 -0.00087850288653473112 0 -0.0013120593003736953 -0.00096318627426514921 0 -0.0010801984532701973 -0.00061815082981248406 0 -0.00078051392318447097 -0.00022727945565424891 0 -0.00064498762136874614 -0.00034340520062976483 0 -0.00029949285337219539 -3.0652309198427198e-06 0 -0.0010801984532701973 -0.00061815082981248406 0 -0.00078051392318447097 -0.00022727945565424891 0 -0.00064498762136874614 -0.00034340520062976483 0 -0.0012376388267597415 -0.00049301016581299354 0 -0.0010801984532701973 -0.00061815082981248406 0 -0.00078051392318447097 -0.00022727945565424891 0 -0.00071110940097124441 -0.00069847407901518679 0 -0.00064498762136874614 -0.00034340520062976483 0 -0.00024045395083169808 -2.1602756089134428e-05 0 -0.00064498762136874614 -0.00034340520062976483 0 -0.00029949285337219539 -3.0652309198427198e-06 0 -0.00024045395083169808 -2.1602756089134428e-05 0 -0.00029949285337219539 -3.0652309198427198e-06 0 -0.00046127348266545215 0.00011159633952691927 0 -0.00015844508506427266 0.00024256672499283318 0 -0.00078051392318447097 -0.00022727945565424891 0 -0.00029949285337219539 -3.0652309198427198e-06 0 -0.00046127348266545215 0.00011159633952691927 0 -0.00031341459506260442 0.0004033301728826975 0 -0.00015844508506427266 0.00024256672499283318 0 6.5332588434422002e-05 0.00038854547241932899 0 -0.00031341459506260442 0.0004033301728826975 0 -0.00046127348266545215 0.00011159633952691927 0 -0.00015844508506427266 0.00024256672499283318 0 -0.00029949285337219539 -3.0652309198427198e-06 0 -0.00015844508506427266 0.00024256672499283318 0 1.3975330358599303e-05 0.00011805942910650727 0 -0.00029949285337219539 -3.0652309198427198e-06 0 -0.00010753353735853362 -0.00010613164054670589 0 1.3975330358599303e-05 0.00011805942910650727 0 -0.00010753353735853362 -0.00010613164054670589 0 -0.00069662117966276245 -0.00023008850518646233 0 0.00017645646312097329 -0.00018510563892442373 0 -0.00010753353735853362 -0.00010613164054670589 0 -0.00069662117966276245 -0.00023008850518646233 0 -0.00024045395083169808 -2.1602756089134428e-05 0 -0.00069662117966276245 -0.00023008850518646233 0 -0.0011052035679014588 -5.6240684566723936e-05 0 -0.00024045395083169808 -2.1602756089134428e-05 0 -0.00029949285337219539 -3.0652309198427198e-06 0 -0.00010753353735853362 -0.00010613164054670589 0 -0.00024045395083169808 -2.1602756089134428e-05 0 -0.00038698400494472854 -4.8443219078191608e-07 0 -0.00069662117966276245 -0.00023008850518646233 0 0.00017645646312097329 -0.00018510563892442373 0 -0.00069662117966276245 -0.00023008850518646233 0 -0.0015835308481919423 -0.00012835347890535894 0 -0.0011052035679014588 -5.6240684566723936e-05 0 -0.00038698400494472854 -4.8443219078191608e-07 0 -0.00069662117966276245 -0.00023008850518646233 0 -0.0015835308481919423 -0.00012835347890535894 0 -0.00038698400494472854 -4.8443219078191608e-07 0 -0.0015835308481919423 -0.00012835347890535894 0 -0.0024813833439072935 4.3053002508861851e-07 0 -0.0015835308481919423 -0.00012835347890535894 0 -0.0024813833439072935 4.3053002508861851e-07 0 -0.0028099905926026879 0.00029468758181227725 0 -0.0015835308481919423 -0.00012835347890535894 0 -0.0028099905926026879 0.00029468758181227725 0 -0.0011052035679014588 -5.6240684566723936e-05 0 -0.0028099905926026879 0.00029468758181227725 0 -0.0050539121471329324 3.3973390921873243e-05 0 -0.0045936206691938614 -9.1654721039447835e-05 0 -0.0025901913130196119 0.0010498027468427678 0 -0.0033225910667629018 -0.0011960971224617284 0 -0.0028099905926026879 0.00029468758181227725 0 -0.0011052035679014588 -5.6240684566723936e-05 0 -0.00070962572372850331 0.001685056411944932 0 -0.0024813833439072935 4.3053002508861851e-07 0 -0.0028099905926026879 0.00029468758181227725 0 -0.0045756467244178062 -8.2596956458908628e-08 0 -0.0028099905926026879 0.00029468758181227725 0 -0.0045756467244178062 -8.2596956458908628e-08 0 -0.0045936206691938614 -9.1654721039447835e-05 0 -0.0011052035679014588 -5.6240684566723936e-05 0 -0.00024045395083169808 -2.1602756089134428e-05 0 -0.00070962572372850331 0.001685056411944932 0 -0.00024045395083169808 -2.1602756089134428e-05 0 -0.00035786373131799199 -0.00093849026365949587 0 0.00021928575800278654 -0.00092454586983444398 0 0.00039805884753148907 0.00040523236626292857 0 -0.0033225910667629018 -0.0011960971224617284 0 -0.00071110940097124441 -0.00069847407901518679 0 -0.00024045395083169808 -2.1602756089134428e-05 0 -0.00035786373131799199 -0.00093849026365949587 0 -0.00035786373131799199 -0.00093849026365949587 0 -0.00053027134762194438 -0.0015815721921377847 0 -0.0012297816653592968 -0.0014416258071582872 0 -0.00035786373131799199 -0.00093849026365949587 0 -0.00053027134762194438 -0.0015815721921377847 0 0.00021928575800278654 -0.00092454586983444398 0 -0.0030231783325988504 -0.0034569519642707724 0 -0.0033225910667629018 -0.0011960971224617284 0 -0.0033225910667629018 -0.0011960971224617284 0 -0.0073325578739302554 -0.0022560240032450541 0 -0.0050900906130948087 -0.0046474532031818934 0 -0.0074945209488806461 -0.0065433462691817318 0 -0.0087634361700956107 -0.003628569592461767 0 -0.0050900906130948087 -0.0046474532031818934 0 -0.0087634361700956107 -0.003628569592461767 0 -0.005662751433251477 -0.0020319244276989887 0 -0.0050900906130948087 -0.0046474532031818934 0 -0.005662751433251477 -0.0020319244276989887 0 -0.0021142040738701003 -0.0021291068478871784 0 -0.0045756467244178062 -8.2596956458908628e-08 0 -0.0045936206691938614 -9.1654721039447835e-05 0 -0.0054242692804586838 -0.00011178032928162905 0 -0.0050539121471329324 3.3973390921873243e-05 0 -0.0045936206691938614 -9.1654721039447835e-05 0 -0.0053041407196801294 -0.00018893585453963943 0 -0.0045936206691938614 -9.1654721039447835e-05 0 -0.0053041407196801294 -0.00018893585453963943 0 -0.0054242692804586838 -0.00011178032928162905 0 -0.0053041407196801294 -0.00018893585453963943 0 -0.0054242692804586838 -0.00011178032928162905 0 -0.0068063863838977185 3.0783713851628979e-05 0 -0.0045756467244178062 -8.2596956458908628e-08 0 -0.0054242692804586838 -0.00011178032928162905 0 -0.0066701685130038987 -3.3887286090829277e-07 0 -0.0054242692804586838 -0.00011178032928162905 0 -0.0066701685130038987 -3.3887286090829277e-07 0 -0.0068063863838977185 3.0783713851628979e-05 0 -0.0073325578739302554 -0.0022560240032450541 0 -0.0082103423805036119 -0.00064305957288293962 0 -0.0087634361700956107 -0.003628569592461767 0 -0.0096642516825170312 -0.001240747035603839 0 -0.0080119739622687754 -0.0016599417009872846 0 -0.0095376131763602982 0.00023638633781379608 0 -0.010520015493348141 0.00026419560907278564 0 -0.0096642516825170312 -0.001240747035603839 0 -0.0095376131763602982 0.00023638633781379608 0 -0.0096642516825170312 -0.001240747035603839 0 -0.00790456312867455 -0.00017403803469337933 0 -0.0095975863357770693 5.3305763868936521e-05 0 -0.0082103423805036119 -0.00064305957288293962 0 -0.0087304132897264679 9.7547555789687934e-05 0 -0.0087641073379986518 2.6163887894842312e-07 0 -0.0068063863838977185 3.0783713851628979e-05 0 -0.0087641073379986518 2.6163887894842312e-07 0 -0.0066701685130038987 -3.3887286090829277e-07 0 -0.0068063863838977185 3.0783713851628979e-05 0 -0.005662751433251477 -0.0020319244276989887 0 -0.0047623086966942464 0.00067529444295265915 0 -0.003583719772020984 -0.00059604593638007376 0 -0.0087634361700956107 -0.003628569592461767 0 -0.005662751433251477 -0.0020319244276989887 0 -0.0080119739622687754 -0.0016599417009872846 0 -0.005662751433251477 -0.0020319244276989887 0 -0.0080119739622687754 -0.0016599417009872846 0 -0.00790456312867455 -0.00017403803469337933 0 -0.0096642516825170312 -0.001240747035603839 0 -0.0080119739622687754 -0.0016599417009872846 0 -0.00790456312867455 -0.00017403803469337933 0 -0.0058289427659808865 -0.0020008197551930683 0 -0.0070252658487315496 0.00029457755313236984 0 -0.005662751433251477 -0.0020319244276989887 0 -0.0067109962097679724 0.0008282414509793247 0 -0.0047623086966942464 0.00067529444295265915 0 -0.0031283411950781413 0.00070277899404061082 0 -0.003583719772020984 -0.00059604593638007376 0 -0.0022078446594943103 -0.00067167019480172149 0 -0.0047623086966942464 0.00067529444295265915 0 -0.0031283411950781413 0.00070277899404061082 0 -0.003583719772020984 -0.00059604593638007376 0 -0.005662751433251477 -0.0020319244276989887 0 -0.003583719772020984 -0.00059604593638007376 0 -0.0021142040738701003 -0.0021291068478871784 0 -0.003583719772020984 -0.00059604593638007376 0 -0.0022078446594943103 -0.00067167019480172149 0 -0.0021142040738701003 -0.0021291068478871784 0 -0.0014662897296225236 -0.0017208995841409465 0 -0.0022078446594943103 -0.00067167019480172149 0 -0.0021142040738701003 -0.0021291068478871784 0 -0.0014662897296225236 -0.0017208995841409465 0 -0.0022078446594943103 -0.00067167019480172149 0 -0.0013742430721580884 -0.00069018270723565265 0 -0.0022078446594943103 -0.00067167019480172149 0 -0.0013742430721580884 -0.00069018270723565265 0 -0.0015104649726877725 0.00057430384542172207 0 -0.0031283411950781413 0.00070277899404061082 0 -0.0022078446594943103 -0.00067167019480172149 0 -0.0015104649726877725 0.00057430384542172207 0 -0.0024795510186593657 0.0016123428686143804 0 -0.0031283411950781413 0.00070277899404061082 0 -0.0015104649726877725 0.00057430384542172207 0 -0.0080169857942747925 0.001961265500634188 0 -0.015983394873680543 0.00233945105741261 0 -0.0080169857942747925 0.001961265500634188 0 -0.0046318852736682665 0.00039272986331641746 0 -0.0089764296920574124 0.0015371058763589431 0 -0.0087977175154078709 0.0011409302325783811 0 -0.0089229350580982535 0.0011539076163073726 0 -0.00077998183718721019 0.0016675789940415208 0 -0.0015104649726877725 0.00057430384542172207 0 -0.00044540530543086176 -0.00017062074284184426 0 -0.0013742430721580884 -0.00069018270723565265 0 -0.0015104649726877725 0.00057430384542172207 0 -0.00044540530543086176 -0.00017062074284184426 0 -0.021051537247585763 0.0018385979138416482 0 -0.021030778048557373 0.0021796809397993189 0 -0.021223211311124958 0.0020357737654351778 0 -0.021030778048557373 0.0021796809397993189 0 -0.021223211311124958 0.0020357737654351778 0 -0.021152698252818267 0.0021574008137107961 0 -0.021249995284627659 0.002200305442140664 0 -0.021223211311124958 0.0020357737654351778 0 -0.021152698252818267 0.0021574008137107961 0 -0.021030778048557373 0.0021796809397993189 0 -0.021152698252818267 0.0021574008137107961 0 -0.021129463966354733 0.0020882765163828423 0 -0.021152698252818267 0.0021574008137107961 0 -0.021149451811255628 0.0021104416811773929 0 -0.021129463966354733 0.0020882765163828423 0 -0.0087977175154078709 0.0011409302325783811 0 -0.0086035477341025405 0.00076115354791500642 0 -0.0088439508768559921 0.00078649933770453097 0 -0.015983394873680543 0.00233945105741261 0 -0.010680833382793993 0.0005082367996989438 0 -0.02117920681256533 0.0021137362337317143 0 -0.021152698252818267 0.0021574008137107961 0 -0.021149451811255628 0.0021104416811773929 0 -0.021249995284627659 0.002200305442140664 0 -0.02117920681256533 0.0021137362337317143 0 -0.021152698252818267 0.0021574008137107961 0 -0.010680833382793993 0.0005082367996989438 0 -0.0030252756635198194 -0.00053718153021870528 0 -0.021114635365591751 0.002054357328905397 0 -0.021149451811255628 0.0021104416811773929 0 -0.021129463966354733 0.0020882765163828423 0 -0.0013742430721580884 -0.00069018270723565265 0 -0.00044540530543086176 -0.00017062074284184426 0 -0.00018338183661708693 -0.0018354579123479372 0 -0.0087977175154078709 0.0011409302325783811 0 -0.0089229350580982535 0.0011539076163073726 0 -0.0088439508768559921 0.00078649933770453097 0 -0.0046318852736682665 0.00039272986331641746 0 -0.0030252756635198194 -0.00053718153021870528 0 -0.00080065526644474241 -0.0016354729903828333 0 -0.0030252756635198194 -0.00053718153021870528 0 -0.0014662897296225236 -0.0017208995841409465 0 -0.0013742430721580884 -0.00069018270723565265 0 -0.00018338183661708693 -0.0018354579123479372 0 -0.0014662897296225236 -0.0017208995841409465 0 -0.0016710831758259092 -0.0017453871735507501 0 -0.00156594777423987 -0.0016373060302631724 0 -0.0030252756635198194 -0.00053718153021870528 0 -0.0017827878089420645 -0.0016615106602565878 0 -0.0016710831758259092 -0.0017453871735507501 0 -0.0017595078362640545 -0.0015533909462543396 0 -0.00156594777423987 -0.0016373060302631724 0 -0.0021752979367334921 -0.0014260325916877271 0 -0.0020754857405889519 -0.0016102741574445468 0 -0.0018412750664607781 -0.0013802062837427094 0 -0.0053149559409766669 -0.0017551544822131619 0 -0.010680833382793993 0.0005082367996989438 0 -0.012886579554711355 -0.00076579794611513765 0 -0.010680833382793993 0.0005082367996989438 0 -0.0092461815048935046 -0.00115202255855199 0 -0.0089372883393234129 -0.00023275596824536346 0 -0.0098130587218028947 -0.000144052483422307 0 -0.0020754857405889519 -0.0016102741574445468 0 -0.0018381204628693027 -0.0016239211985286219 0 -0.0018412750664607781 -0.0013802062837427094 0 -0.0021752979367334921 -0.0014260325916877271 0 -0.0018828470636355992 -0.00084917824820411852 0 -0.001916174671508812 -0.0012008882603170292 0 -0.0053149559409766669 -0.0017551544822131619 0 -0.0013154579962036134 -0.0010387796676306154 0 -0.0026364518031326504 -0.0018908508335349706 0 -0.0022604516703152756 -0.0026055824711242481 0 -0.0017304526096247699 -0.0013058727756490556 0 -0.0018828470636355992 -0.00084917824820411852 0 -0.001799623224349138 -0.001103464644964137 0 -0.001916174671508812 -0.0012008882603170292 0 -0.0021752979367334921 -0.0014260325916877271 0 -0.0018412750664607781 -0.0013802062837427094 0 -0.001916174671508812 -0.0012008882603170292 0 -0.0018412750664607781 -0.0013802062837427094 0 -0.001799623224349138 -0.001103464644964137 0 -0.001916174671508812 -0.0012008882603170292 0 -0.0017595078362640545 -0.0015533909462543396 0 -0.00156594777423987 -0.0016373060302631724 0 -0.0015240293280307674 -0.0012220733325814515 0 -0.0017827878089420645 -0.0016615106602565878 0 -0.0018298131398886313 -0.0010915179668796919 0 -0.0017595078362640545 -0.0015533909462543396 0 -0.001799623224349138 -0.001103464644964137 0 -0.0015240293280307674 -0.0012220733325814515 0 -0.0010680489171581316 -0.00087850288653473112 0 -0.0013120593003736953 -0.00096318627426514921 0 -0.0014159501004555812 -0.001348565167890198 0 -0.0013120593003736953 -0.00096318627426514921 0 -0.0015240293280307674 -0.0012220733325814515 0 -0.0014159501004555812 -0.001348565167890198 0 -0.0010680489171581316 -0.00087850288653473112 0 -0.0014159501004555812 -0.001348565167890198 0 -0.0012297816653592968 -0.0014416258071582872 0 -0.00156594777423987 -0.0016373060302631724 0 -0.0015240293280307674 -0.0012220733325814515 0 -0.0014159501004555812 -0.001348565167890198 0 -0.0014159501004555812 -0.001348565167890198 0 -0.0012297816653592968 -0.0014416258071582872 0 -0.0016452674692673613 -0.0017815038345565851 0 -0.00071110940097124441 -0.00069847407901518679 0 -0.0010680489171581316 -0.00087850288653473112 0 -0.0012297816653592968 -0.0014416258071582872 0 -0.00071110940097124441 -0.00069847407901518679 0 -0.00035786373131799199 -0.00093849026365949587 0 -0.0012297816653592968 -0.0014416258071582872 0 -0.00053027134762194438 -0.0015815721921377847 0 -0.0012297816653592968 -0.0014416258071582872 0 -0.0021142040738701003 -0.0021291068478871784 0 -0.0030231783325988504 -0.0034569519642707724 0 -0.0019933573121002552 -0.0020832743072617594 0 -0.0012297816653592968 -0.0014416258071582872 0 -0.0021142040738701003 -0.0021291068478871784 0 -0.0016452674692673613 -0.0017815038345565851 0 -0.0014662897296225236 -0.0017208995841409465 0 -0.0021142040738701003 -0.0021291068478871784 0 -0.0016452674692673613 -0.0017815038345565851 0 -0.0014662897296225236 -0.0017208995841409465 0 -0.00156594777423987 -0.0016373060302631724 0 -0.0016452674692673613 -0.0017815038345565851 0 -0.00156594777423987 -0.0016373060302631724 0 -0.0014159501004555812 -0.001348565167890198 0 -0.0016452674692673613 -0.0017815038345565851 0 -0.022831341758604524 -0.00062611607244312389 0 -0.022371803396508974 -0.00033019501682689722 0 -0.021983980202230528 -0.00078590974057985493 0 -0.022831341758604524 -0.00062611607244312389 0 -0.021983980202230528 -0.00078590974057985493 0 -0.022787245654490453 -0.001473561317391212 0 -0.022831341758604524 -0.00062611607244312389 0 -0.022787245654490453 -0.001473561317391212 0 -0.023317091901505552 -0.00078634539420329341 0 -0.022831341758604524 -0.00062611607244312389 0 -0.023317091901505552 -0.00078634539420329341 0 -0.023243456954937285 -0.00020159907821991877 0 -0.022718395973555509 6.1342014097477373e-05 0 -0.023243456954937285 -0.00020159907821991877 0 -0.023148350213741762 0.00053504866131086804 0 -0.022831341758604524 -0.00062611607244312389 0 -0.022718395973555509 6.1342014097477373e-05 0 -0.022371803396508974 -0.00033019501682689722 0 -0.022831341758604524 -0.00062611607244312389 0 -0.022718395973555509 6.1342014097477373e-05 0 -0.023243456954937285 -0.00020159907821991877 0 -0.022371803396508974 -0.00033019501682689722 0 -0.022065930849462897 0.00013832916748265797 0 -0.021983980202230528 -0.00078590974057985493 0 -0.022718395973555509 6.1342014097477373e-05 0 -0.022371803396508974 -0.00033019501682689722 0 -0.022065930849462897 0.00013832916748265797 0 -0.022065930849462897 0.00013832916748265797 0 -0.021009973303711089 -6.645409443004428e-05 0 -0.021784619205863318 0.00085861729419249729 0 -0.022065930849462897 0.00013832916748265797 0 -0.021009973303711089 -6.645409443004428e-05 0 -0.021983980202230528 -0.00078590974057985493 0 -0.020858828820298991 -0.00026809890359908356 0 -0.020876824043341104 -0.0016335543773505227 0 -0.020714193202600494 -0.0005424672541072187 0 -0.020658898781924249 -0.0020370673991425016 0 -0.019559228432910383 -0.0013175791198858648 0 -0.021009973303711089 -6.645409443004428e-05 0 -0.021983980202230528 -0.00078590974057985493 0 -0.021049251680403006 -0.0011895289199250999 0 -0.021049251680403006 -0.0011895289199250999 0 -0.021566936373281841 -0.0022038355039526313 0 -0.022002612512863822 -0.0017275743738715112 0 -0.021983980202230528 -0.00078590974057985493 0 -0.021049251680403006 -0.0011895289199250999 0 -0.022002612512863822 -0.0017275743738715112 0 -0.021049251680403006 -0.0011895289199250999 0 -0.021566936373281841 -0.0022038355039526313 0 -0.021072505916147476 -0.002673832882531129 0 -0.020658898781924249 -0.0020370673991425016 0 -0.021072505916147476 -0.002673832882531129 0 -0.020531067598348808 -0.0025328520606197292 0 -0.020876824043341104 -0.0016335543773505227 0 -0.02100717418448873 -0.0026221463444748121 0 -0.021566936373281841 -0.0022038355039526313 0 -0.021072505916147476 -0.002673832882531129 0 -0.021533743617204368 -0.0025993301421063505 0 -0.021566936373281841 -0.0022038355039526313 0 -0.022070658984337476 -0.002264562432447124 0 -0.021801999432789796 -0.0025184754125265251 0 -0.021566936373281841 -0.0022038355039526313 0 -0.022002612512863822 -0.0017275743738715112 0 -0.022070658984337476 -0.002264562432447124 0 -0.022002612512863822 -0.0017275743738715112 0 -0.022070658984337476 -0.002264562432447124 0 -0.022446447958521219 -0.0021286640047931365 0 -0.022002612512863822 -0.0017275743738715112 0 -0.022446447958521219 -0.0021286640047931365 0 -0.022787245654490453 -0.001473561317391212 0 -0.021983980202230528 -0.00078590974057985493 0 -0.022002612512863822 -0.0017275743738715112 0 -0.022787245654490453 -0.001473561317391212 0 -0.022787245654490453 -0.001473561317391212 0 -0.023257417088017623 -0.0017998451198800768 0 -0.022880050997478866 -0.0023473825947582685 0 -0.022446447958521219 -0.0021286640047931365 0 -0.022787245654490453 -0.001473561317391212 0 -0.022880050997478866 -0.0023473825947582685 0 -0.023257417088017623 -0.0017998451198800768 0 -0.024006947625382087 -0.001555762568003838 0 -0.023488935369469353 -0.0012599565128453977 0 -0.023257417088017623 -0.0017998451198800768 0 -0.024006947625382087 -0.001555762568003838 0 -0.02369289359589178 -0.002078760345428564 0 -0.024006947625382087 -0.001555762568003838 0 -0.024454329182509359 -0.0018144490275209112 0 -0.02369289359589178 -0.002078760345428564 0 -0.024006947625382087 -0.001555762568003838 0 -0.02395503487963974 -0.0010609664232357438 0 -0.023488935369469353 -0.0012599565128453977 0 -0.02395503487963974 -0.0010609664232357438 0 -0.023488935369469353 -0.0012599565128453977 0 -0.02372004884916095 -0.00054874334090159241 0 -0.024006947625382087 -0.001555762568003838 0 -0.02395503487963974 -0.0010609664232357438 0 -0.024272115060838897 -0.0012061991254181503 0 -0.022787245654490453 -0.001473561317391212 0 -0.023257417088017623 -0.0017998451198800768 0 -0.023488935369469353 -0.0012599565128453977 0 -0.022787245654490453 -0.001473561317391212 0 -0.023488935369469353 -0.0012599565128453977 0 -0.023317091901505552 -0.00078634539420329341 0 -0.026784871509855753 -0.0025197412284007287 0 -0.02571905663578531 -0.0022878024266533427 0 -0.025775921537390237 -0.0020235983656974963 0 -0.02571905663578531 -0.0022878024266533427 0 -0.026565787303660441 -0.00240749925510621 0 -0.026055342942435826 -0.0022711954192960828 0 -0.026282456408169015 -0.0024440289415977763 0 -0.02489104743315575 -0.0013818152025997362 0 -0.024650584480696854 -0.0014183008595280418 0 -0.024454329182509359 -0.0018144490275209112 0 -0.02680467155902725 -0.0025897623929753951 0 -0.026813835802002556 -0.0026418498922789655 0 -0.026647047197758487 -0.0026646338409601921 0 -0.026565787303660441 -0.00240749925510621 0 -0.026458729879036288 -0.0025198704192627131 0 -0.026282456408169015 -0.0024440289415977763 0 -0.024650584480696854 -0.0014183008595280418 0 -0.024497296531539849 -0.0015074456429174262 0 -0.024454329182509359 -0.0018144490275209112 0 -0.024497296531539849 -0.0015074456429174262 0 -0.024454329182509359 -0.0018144490275209112 0 -0.024344822419362904 -0.001501943742010084 0 -0.024650584480696854 -0.0014183008595280418 0 -0.024497296531539849 -0.0015074456429174262 0 -0.024503698744901485 -0.0013041179836381603 0 -0.024497296531539849 -0.0015074456429174262 0 -0.024344822419362904 -0.001501943742010084 0 -0.024503698744901485 -0.0013041179836381603 0 -0.024006947625382087 -0.001555762568003838 0 -0.024454329182509359 -0.0018144490275209112 0 -0.024344822419362904 -0.001501943742010084 0 -0.024006947625382087 -0.001555762568003838 0 -0.024344822419362904 -0.001501943742010084 0 -0.024272115060838897 -0.0012061991254181503 0 -0.024344822419362904 -0.001501943742010084 0 -0.024272115060838897 -0.0012061991254181503 0 -0.024503698744901485 -0.0013041179836381603 0 -0.02395503487963974 -0.0010609664232357438 0 -0.024272115060838897 -0.0012061991254181503 0 -0.024253166966657316 -0.0009219474950107365 0 -0.024272115060838897 -0.0012061991254181503 0 -0.024253166966657316 -0.0009219474950107365 0 -0.024530155297442253 -0.00091314584772379922 0 -0.024272115060838897 -0.0012061991254181503 0 -0.024530155297442253 -0.00091314584772379922 0 -0.024503698744901485 -0.0013041179836381603 0 -0.02489104743315575 -0.0013818152025997362 0 -0.024737716309595162 -0.0011354215847948392 0 -0.024982419546257125 -0.00091135290636847673 0 -0.02489104743315575 -0.0013818152025997362 0 -0.024650584480696854 -0.0014183008595280418 0 -0.024737716309595162 -0.0011354215847948392 0 -0.024650584480696854 -0.0014183008595280418 0 -0.024503698744901485 -0.0013041179836381603 0 -0.024737716309595162 -0.0011354215847948392 0 -0.024530155297442253 -0.00091314584772379922 0 -0.024503698744901485 -0.0013041179836381603 0 -0.024737716309595162 -0.0011354215847948392 0 -0.024530155297442253 -0.00091314584772379922 0 -0.024737716309595162 -0.0011354215847948392 0 -0.02478451769486539 -0.00081466381877679569 0 -0.024737716309595162 -0.0011354215847948392 0 -0.02478451769486539 -0.00081466381877679569 0 -0.024982419546257125 -0.00091135290636847673 0 -0.02478451769486539 -0.00081466381877679569 0 -0.024702448288856607 -0.00051315272361980569 0 -0.024953585077337522 -0.0005703623330091381 0 -0.02478451769486539 -0.00081466381877679569 0 -0.024982419546257125 -0.00091135290636847673 0 -0.024953585077337522 -0.0005703623330091381 0 -0.024530155297442253 -0.00091314584772379922 0 -0.02478451769486539 -0.00081466381877679569 0 -0.024702448288856607 -0.00051315272361980569 0 -0.024530155297442253 -0.00091314584772379922 0 -0.024702448288856607 -0.00051315272361980569 0 -0.024434214733655195 -0.00049530416347321274 0 -0.024253166966657316 -0.0009219474950107365 0 -0.024530155297442253 -0.00091314584772379922 0 -0.024434214733655195 -0.00049530416347321274 0 -0.024253166966657316 -0.0009219474950107365 0 -0.024434214733655195 -0.00049530416347321274 0 -0.024122394713966745 -0.00060985486250298121 0 -0.024434214733655195 -0.00049530416347321274 0 -0.02422512163441615 -3.1779295695219614e-05 0 -0.024122394713966745 -0.00060985486250298121 0 -0.02422512163441615 -3.1779295695219614e-05 0 -0.024554121900372202 -0.00020108755263423917 0 -0.024519977447171864 0.00011409216890284896 0 -0.024434214733655195 -0.00049530416347321274 0 -0.02422512163441615 -3.1779295695219614e-05 0 -0.024554121900372202 -0.00020108755263423917 0 -0.024702448288856607 -0.00051315272361980569 0 -0.024434214733655195 -0.00049530416347321274 0 -0.024554121900372202 -0.00020108755263423917 0 -0.024702448288856607 -0.00051315272361980569 0 -0.024554121900372202 -0.00020108755263423917 0 -0.024854284209114938 -0.00026753044561557074 0 -0.024554121900372202 -0.00020108755263423917 0 -0.024854284209114938 -0.00026753044561557074 0 -0.024519977447171864 0.00011409216890284896 0 -0.024702448288856607 -0.00051315272361980569 0 -0.024854284209114938 -0.00026753044561557074 0 -0.024953585077337522 -0.0005703623330091381 0 -0.023488935369469353 -0.0012599565128453977 0 -0.023317091901505552 -0.00078634539420329341 0 -0.02372004884916095 -0.00054874334090159241 0 -0.023317091901505552 -0.00078634539420329341 0 -0.02372004884916095 -0.00054874334090159241 0 -0.023243456954937285 -0.00020159907821991877 0 -0.02395503487963974 -0.0010609664232357438 0 -0.024122394713966745 -0.00060985486250298121 0 -0.02372004884916095 -0.00054874334090159241 0 -0.02395503487963974 -0.0010609664232357438 0 -0.024253166966657316 -0.0009219474950107365 0 -0.024122394713966745 -0.00060985486250298121 0 -0.02422512163441615 -3.1779295695219614e-05 0 -0.024122394713966745 -0.00060985486250298121 0 -0.02372004884916095 -0.00054874334090159241 0 -0.02422512163441615 -3.1779295695219614e-05 0 -0.02372004884916095 -0.00054874334090159241 0 -0.023671366361505498 0.00019818254227203945 0 -0.023671366361505498 0.00019818254227203945 0 -0.023243456954937285 -0.00020159907821991877 0 -0.023148350213741762 0.00053504866131086804 0 -0.02372004884916095 -0.00054874334090159241 0 -0.023671366361505498 0.00019818254227203945 0 -0.023243456954937285 -0.00020159907821991877 0 -0.023671366361505498 0.00019818254227203945 0 -0.023148350213741762 0.00053504866131086804 0 -0.023606409132246427 0.00097264967388711258 0 -0.023148350213741762 0.00053504866131086804 0 -0.02316608783926118 0.0012018178530381505 0 -0.023606409132246427 0.00097264967388711258 0 -0.023671366361505498 0.00019818254227203945 0 -0.024135202739225824 0.00074525038911050058 0 -0.023606409132246427 0.00097264967388711258 0 -0.024187630279188736 0.00012878934436227608 0 -0.024122722390818169 0.00025497533873629054 0 -0.02422512163441615 -3.1779295695219614e-05 0 -0.023671366361505498 0.00019818254227203945 0 -0.024135202739225824 0.00074525038911050058 0 -0.024122722390818169 0.00025497533873629054 0 -0.020478759633327036 0.0014611491352279175 0 -0.024135202739225824 0.00074525038911050058 0 -0.023919727223579431 0.0014989563375685784 0 -0.023606409132246427 0.00097264967388711258 0 -0.023919727223579431 0.0014989563375685784 0 -0.023608732998568187 0.0015476669161961266 0 -0.023606409132246427 0.00097264967388711258 0 -0.023835412839275958 0.0015320716003659302 0 -0.023608732998568187 0.0015476669161961266 0 -0.023457521259879835 0.0018803462666573234 0 -0.020478759633327036 0.0014611491352279175 0 -0.023096018342707962 0.0013164906304714294 0 -0.023608732998568187 0.0015476669161961266 0 -0.023378179852012151 0.0013820343846105538 0 -0.023233416531637664 0.0017139465878294854 0 -0.02316608783926118 0.0012018178530381505 0 -0.023233416531637664 0.0017139465878294854 0 -0.022844361945863017 0.0017451718192534095 0 -0.023378179852012151 0.0013820343846105538 0 -0.02316608783926118 0.0012018178530381505 0 -0.023233416531637664 0.0017139465878294854 0 -0.023608732998568187 0.0015476669161961266 0 -0.023378179852012151 0.0013820343846105538 0 -0.023606409132246427 0.00097264967388711258 0 -0.023378179852012151 0.0013820343846105538 0 -0.02316608783926118 0.0012018178530381505 0 -0.023606409132246427 0.00097264967388711258 0 -0.024854284209114938 -0.00026753044561557074 0 -0.024519977447171864 0.00011409216890284896 0 -0.024948439561533441 0.0001181615697268278 0 -0.024519977447171864 0.00011409216890284896 0 -0.024496394597097581 0.00051802090139851627 0 -0.024948439561533441 0.0001181615697268278 0 -0.024061795115198712 0.00025552431060152348 0 -0.024519977447171864 0.00011409216890284896 0 -0.024496394597097581 0.00051802090139851627 0 -0.02422512163441615 -3.1779295695219614e-05 0 -0.024061795115198712 0.00025552431060152348 0 -0.024519977447171864 0.00011409216890284896 0 -0.020478759633327036 0.0014611491352279175 0 -0.017894422256928912 0.00038865883588760659 0 -0.013064896843745646 0.00028965711333950512 0 -0.012657475464716373 0.00022938327913952291 0 -0.0126514189864337 7.1740905043344861e-05 0 -0.024061795115198712 0.00025552431060152348 0 -0.023909651036884437 0.00060875127719821158 0 -0.024496394597097581 0.00051802090139851627 0 -0.017894422256928912 0.00038865883588760659 0 -0.020050619476423687 -0.00056646211332457802 0 -0.0126514189864337 7.1740905043344861e-05 0 -0.012427998572339904 -6.8715209995884324e-05 0 -0.012492251894018352 4.7576497139002233e-05 0 -0.012657475464716373 0.00022938327913952291 0 -0.0126514189864337 7.1740905043344861e-05 0 -0.012492251894018352 4.7576497139002233e-05 0 -0.013064896843745646 0.00028965711333950512 0 -0.0126514189864337 7.1740905043344861e-05 0 -0.012816518204925626 -0.00010069828749321343 0 -0.012816518204925626 -0.00010069828749321343 0 -0.012427998572339904 -6.8715209995884324e-05 0 -0.012621603651050648 -0.00044041181095945002 0 -0.0126514189864337 7.1740905043344861e-05 0 -0.012816518204925626 -0.00010069828749321343 0 -0.012427998572339904 -6.8715209995884324e-05 0 -0.012394985623757565 -6.9698982985186313e-05 0 -0.012057209265733214 -0.00024495545255090115 0 -0.023835412839275958 0.0015320716003659302 0 -0.023457521259879835 0.0018803462666573234 0 -0.023386186081452102 0.0024879548419736814 0 -0.023212426466985559 0.0021037410486271593 0 -0.023457521259879835 0.0018803462666573234 0 -0.023386186081452102 0.0024879548419736814 0 -0.023212426466985559 0.0021037410486271593 0 -0.022987896046385969 0.0024082203571843988 0 -0.022987762191051156 0.0020396555142415951 0 -0.023212426466985559 0.0021037410486271593 0 -0.023233416531637664 0.0017139465878294854 0 -0.023457521259879835 0.0018803462666573234 0 -0.023212426466985559 0.0021037410486271593 0 -0.023233416531637664 0.0017139465878294854 0 -0.022987762191051156 0.0020396555142415951 0 -0.023608732998568187 0.0015476669161961266 0 -0.023233416531637664 0.0017139465878294854 0 -0.023457521259879835 0.0018803462666573234 0 -0.013064896843745646 0.00028965711333950512 0 -0.012816518204925626 -0.00010069828749321343 0 -0.013230207683470864 -0.00014452857311424177 0 -0.020478759633327036 0.0014611491352279175 0 -0.017918483971296823 0.0010390153904297937 0 -0.012816518204925626 -0.00010069828749321343 0 -0.013230207683470864 -0.00014452857311424177 0 -0.012947004701192517 -0.0004036295642627617 0 -0.023212426466985559 0.0021037410486271593 0 -0.023386186081452102 0.0024879548419736814 0 -0.022987896046385969 0.0024082203571843988 0 -0.022947330136925164 0.002373117493518559 0 -0.022854476440004233 0.0031275742000951658 0 -0.023386186081452102 0.0024879548419736814 0 -0.022987896046385969 0.0024082203571843988 0 -0.023026437695395453 0.0028307309585454787 0 -0.022680473736037272 0.0026354273223162059 0 -0.022367728118697933 0.0023932805821397082 0 -0.022679074485678533 0.0021960331315917974 0 -0.022987896046385969 0.0024082203571843988 0 -0.022680473736037272 0.0026354273223162059 0 -0.022942327391170157 0.0027895387828747943 0 -0.022987896046385969 0.0024082203571843988 0 -0.022680473736037272 0.0026354273223162059 0 -0.022679074485678533 0.0021960331315917974 0 -0.022543921372758353 0.0037830132830915879 0 -0.022274954814560658 0.0018695653352633255 0 -0.021046915088390638 0.0035242495297034353 0 -0.022367728118697933 0.0023932805821397082 0 -0.022679074485678533 0.0021960331315917974 0 -0.022274954814560658 0.0018695653352633255 0 -0.022418404314630942 0.0030399516991425563 0 -0.0223071028209577 0.0019778166617386538 0 -0.022679074485678533 0.0021960331315917974 0 -0.022844361945863017 0.0017451718192534095 0 -0.022274954814560658 0.0018695653352633255 0 -0.022987896046385969 0.0024082203571843988 0 -0.022987762191051156 0.0020396555142415951 0 -0.022679074485678533 0.0021960331315917974 0 -0.022987762191051156 0.0020396555142415951 0 -0.022679074485678533 0.0021960331315917974 0 -0.022844361945863017 0.0017451718192534095 0 -0.023233416531637664 0.0017139465878294854 0 -0.022987762191051156 0.0020396555142415951 0 -0.022844361945863017 0.0017451718192534095 0 -0.02316608783926118 0.0012018178530381505 0 -0.022844361945863017 0.0017451718192534095 0 -0.022611016468734785 0.00094798135329189311 0 -0.022844361945863017 0.0017451718192534095 0 -0.022274954814560658 0.0018695653352633255 0 -0.022611016468734785 0.00094798135329189311 0 -0.022274954814560658 0.0018695653352633255 0 -0.022611016468734785 0.00094798135329189311 0 -0.021784619205863318 0.00085861729419249729 0 -0.022718395973555509 6.1342014097477373e-05 0 -0.022065930849462897 0.00013832916748265797 0 -0.022611016468734785 0.00094798135329189311 0 -0.022065930849462897 0.00013832916748265797 0 -0.022611016468734785 0.00094798135329189311 0 -0.021784619205863318 0.00085861729419249729 0 -0.022718395973555509 6.1342014097477373e-05 0 -0.023148350213741762 0.00053504866131086804 0 -0.022611016468734785 0.00094798135329189311 0 -0.023148350213741762 0.00053504866131086804 0 -0.02316608783926118 0.0012018178530381505 0 -0.022611016468734785 0.00094798135329189311 0 -0.020714193202600494 -0.0005424672541072187 0 -0.020901152603315376 0.0012811509118753773 0 -0.019385688368442646 0.00086883868548705235 0 -0.020858828820298991 -0.00026809890359908356 0 -0.02092749557633276 0.0011972532681134085 0 -0.021009973303711089 -6.645409443004428e-05 0 -0.021784619205863318 0.00085861729419249729 0 -0.020901152603315376 0.0012811509118753773 0 -0.022274954814560658 0.0018695653352633255 0 -0.021784619205863318 0.00085861729419249729 0 -0.020901152603315376 0.0012811509118753773 0 -0.022274954814560658 0.0018695653352633255 0 -0.020901152603315376 0.0012811509118753773 0 -0.020792170828516823 0.0023735957097383974 0 -0.020901152603315376 0.0012811509118753773 0 -0.019385688368442646 0.00086883868548705235 0 -0.019637707189882822 0.0020885279369354044 0 -0.020901152603315376 0.0012811509118753773 0 -0.020792170828516823 0.0023735957097383974 0 -0.019637707189882822 0.0020885279369354044 0 -0.020792170828516823 0.0023735957097383974 0 -0.019726726255174985 0.003000011900232006 0 -0.021046915088390638 0.0035242495297034353 0 -0.020792170828516823 0.0023735957097383974 0 -0.019726726255174985 0.003000011900232006 0 -0.019637707189882822 0.0020885279369354044 0 -0.022274954814560658 0.0018695653352633255 0 -0.020792170828516823 0.0023735957097383974 0 -0.021046915088390638 0.0035242495297034353 0 -0.021046915088390638 0.0035242495297034353 0 -0.02005872577006277 0.0048685082080334599 0 -0.021487086361510421 0.0048195151899755135 0 -0.022543921372758353 0.0037830132830915879 0 -0.021046915088390638 0.0035242495297034353 0 -0.021487086361510421 0.0048195151899755135 0 -0.019726726255174985 0.003000011900232006 0 -0.021046915088390638 0.0035242495297034353 0 -0.019685132611650752 0.0040074375783289576 0 -0.021046915088390638 0.0035242495297034353 0 -0.019685132611650752 0.0040074375783289576 0 -0.02005872577006277 0.0048685082080334599 0 -0.019685132611650752 0.0040074375783289576 0 -0.018900874916269239 0.0048090927928506428 0 -0.02005872577006277 0.0048685082080334599 0 -0.019685132611650752 0.0040074375783289576 0 -0.018900874916269239 0.0048090927928506428 0 -0.018842047755880116 0.0039368617841868637 0 -0.018900874916269239 0.0048090927928506428 0 -0.018001625627399771 0.0041980560026837156 0 -0.01811190439116047 0.0050463799737523584 0 -0.018900874916269239 0.0048090927928506428 0 -0.018842047755880116 0.0039368617841868637 0 -0.018001625627399771 0.0041980560026837156 0 -0.018842047755880116 0.0039368617841868637 0 -0.018605424343218366 0.0030687061143118621 0 -0.018001625627399771 0.0041980560026837156 0 -0.019726726255174985 0.003000011900232006 0 -0.019685132611650752 0.0040074375783289576 0 -0.018842047755880116 0.0039368617841868637 0 -0.018605424343218366 0.0030687061143118621 0 -0.019637707189882822 0.0020885279369354044 0 -0.018261440233911356 0.0020009152039118607 0 -0.019726726255174985 0.003000011900232006 0 -0.018842047755880116 0.0039368617841868637 0 -0.018605424343218366 0.0030687061143118621 0 -0.019726726255174985 0.003000011900232006 0 -0.018605424343218366 0.0030687061143118621 0 -0.019637707189882822 0.0020885279369354044 0 -0.017440718912976202 0.0030975502499102883 0 -0.016931370994461008 0.0020113880705564077 0 -0.018261440233911356 0.0020009152039118607 0 -0.018605424343218366 0.0030687061143118621 0 -0.017440718912976202 0.0030975502499102883 0 -0.018261440233911356 0.0020009152039118607 0 -0.018605424343218366 0.0030687061143118621 0 -0.017440718912976202 0.0030975502499102883 0 -0.018001625627399771 0.0041980560026837156 0 -0.017440718912976202 0.0030975502499102883 0 -0.018001625627399771 0.0041980560026837156 0 -0.016756195437205686 0.0042220475004971824 0 -0.018001625627399771 0.0041980560026837156 0 -0.017058331617190992 0.0053425486874358764 0 -0.01811190439116047 0.0050463799737523584 0 -0.018001625627399771 0.0041980560026837156 0 -0.016756195437205686 0.0042220475004971824 0 -0.017058331617190992 0.0053425486874358764 0 -0.016756195437205686 0.0042220475004971824 0 -0.015562266134569104 0.004514488502334991 0 -0.015825442607931724 0.0030216379225361024 0 -0.016387190726975469 0.0049665108454979351 0 -0.016756195437205686 0.0042220475004971824 0 -0.017058331617190992 0.0053425486874358764 0 -0.016387190726975469 0.0049665108454979351 0 -0.015562266134569104 0.004514488502334991 0 -0.015698258498023903 0.0055397306565644804 0 -0.016387190726975469 0.0049665108454979351 0 -0.016756195437205686 0.0042220475004971824 0 -0.015562266134569104 0.004514488502334991 0 -0.015562266134569104 0.004514488502334991 0 -0.014055093848652479 0.0040099900762671295 0 -0.015825442607931724 0.0030216379225361024 0 -0.015562266134569104 0.004514488502334991 0 -0.014055093848652479 0.0040099900762671295 0 -0.014206755839120629 0.0054486093038947697 0 -0.015562266134569104 0.004514488502334991 0 -0.015698258498023903 0.0055397306565644804 0 -0.014206755839120629 0.0054486093038947697 0 -0.014055093848652479 0.0040099900762671295 0 -0.015825442607931724 0.0030216379225361024 0 -0.013838623474698466 0.0023750533732118263 0 -0.015825442607931724 0.0030216379225361024 0 -0.015436005394428576 0.001888363447478882 0 -0.013838623474698466 0.0023750533732118263 0 -0.017440718912976202 0.0030975502499102883 0 -0.016756195437205686 0.0042220475004971824 0 -0.015825442607931724 0.0030216379225361024 0 -0.015825442607931724 0.0030216379225361024 0 -0.016931370994461008 0.0020113880705564077 0 -0.015436005394428576 0.001888363447478882 0 -0.017440718912976202 0.0030975502499102883 0 -0.015825442607931724 0.0030216379225361024 0 -0.016931370994461008 0.0020113880705564077 0 -0.016931370994461008 0.0020113880705564077 0 -0.016279491766338607 0.0010889810398533528 0 -0.015436005394428576 0.001888363447478882 0 -0.016931370994461008 0.0020113880705564077 0 -0.016279491766338607 0.0010889810398533528 0 -0.017779646603429698 0.00070042564766360815 0 -0.015436005394428576 0.001888363447478882 0 -0.014799677519198303 0.00088586366240012355 0 -0.013838623474698466 0.0023750533732118263 0 -0.016279491766338607 0.0010889810398533528 0 -0.015436005394428576 0.001888363447478882 0 -0.014799677519198303 0.00088586366240012355 0 -0.016279491766338607 0.0010889810398533528 0 -0.014799677519198303 0.00088586366240012355 0 -0.016439736777098132 -0.00032999800876987975 0 -0.014799677519198303 0.00088586366240012355 0 -0.014989923204600646 -0.0002649748316447482 0 -0.016439736777098132 -0.00032999800876987975 0 -0.016279491766338607 0.0010889810398533528 0 -0.017779646603429698 0.00070042564766360815 0 -0.016439736777098132 -0.00032999800876987975 0 -0.017779646603429698 0.00070042564766360815 0 -0.019385688368442646 0.00086883868548705235 0 -0.019164640229363337 -0.00027584833543517815 0 -0.019385688368442646 0.00086883868548705235 0 -0.019637707189882822 0.0020885279369354044 0 -0.018261440233911356 0.0020009152039118607 0 -0.016931370994461008 0.0020113880705564077 0 -0.017779646603429698 0.00070042564766360815 0 -0.018261440233911356 0.0020009152039118607 0 -0.017779646603429698 0.00070042564766360815 0 -0.019385688368442646 0.00086883868548705235 0 -0.018261440233911356 0.0020009152039118607 0 -0.0089064886782722428 0.002229784729495417 0 -0.0076948757774413928 0.0028973574378884331 0 -0.0085561181693081783 0.003422626123291618 0 -0.0089064886782722428 0.002229784729495417 0 -0.0076948757774413928 0.0028973574378884331 0 -0.0080003486600500103 0.0018881612784081819 0 -0.0070956826287382913 0.0036834147156960761 0 -0.0085561181693081783 0.003422626123291618 0 -0.0077305115376285673 0.0043275747312158906 0 -0.0076948757774413928 0.0028973574378884331 0 -0.0070956826287382913 0.0036834147156960761 0 -0.0085561181693081783 0.003422626123291618 0 -0.0085561181693081783 0.003422626123291618 0 -0.0091214360767275533 0.0047948094473944988 0 -0.0077305115376285673 0.0043275747312158906 0 -0.0085561181693081783 0.003422626123291618 0 -0.010092974238081401 0.0032946044208879716 0 -0.0091214360767275533 0.0047948094473944988 0 -0.0085561181693081783 0.003422626123291618 0 -0.0098384768578355531 0.002565726923449222 0 -0.010092974238081401 0.0032946044208879716 0 -0.0089064886782722428 0.002229784729495417 0 -0.0085561181693081783 0.003422626123291618 0 -0.0098384768578355531 0.002565726923449222 0 -0.011595380028308339 0.0022272332967557323 0 -0.010092974238081401 0.0032946044208879716 0 -0.011840998754982054 0.003599310766801356 0 -0.0098384768578355531 0.002565726923449222 0 -0.011595380028308339 0.0022272332967557323 0 -0.010092974238081401 0.0032946044208879716 0 -0.010092974238081401 0.0032946044208879716 0 -0.0091214360767275533 0.0047948094473944988 0 -0.011840998754982054 0.003599310766801356 0 -0.0091214360767275533 0.0047948094473944988 0 -0.011840998754982054 0.003599310766801356 0 -0.012646196226417683 0.006068585301147681 0 -0.014055093848652479 0.0040099900762671295 0 -0.011840998754982054 0.003599310766801356 0 -0.012646196226417683 0.006068585301147681 0 -0.014055093848652479 0.0040099900762671295 0 -0.012646196226417683 0.006068585301147681 0 -0.014206755839120629 0.0054486093038947697 0 -0.014055093848652479 0.0040099900762671295 0 -0.011840998754982054 0.003599310766801356 0 -0.013838623474698466 0.0023750533732118263 0 -0.011595380028308339 0.0022272332967557323 0 -0.011840998754982054 0.003599310766801356 0 -0.013838623474698466 0.0023750533732118263 0 -0.011595380028308339 0.0022272332967557323 0 -0.013838623474698466 0.0023750533732118263 0 -0.013240978808144014 0.001404073891073459 0 -0.014799677519198303 0.00088586366240012355 0 -0.013838623474698466 0.0023750533732118263 0 -0.013240978808144014 0.001404073891073459 0 -0.014799677519198303 0.00088586366240012355 0 -0.013240978808144014 0.001404073891073459 0 -0.013376720494575165 0.00014059671710531661 0 -0.014799677519198303 0.00088586366240012355 0 -0.013376720494575165 0.00014059671710531661 0 -0.014989923204600646 -0.0002649748316447482 0 -0.013240978808144014 0.001404073891073459 0 -0.013376720494575165 0.00014059671710531661 0 -0.011993390816339079 0.0010843357798136029 0 -0.013376720494575165 0.00014059671710531661 0 -0.011993390816339079 0.0010843357798136029 0 -0.011358596525143936 0.00023939608543092092 0 -0.011993390816339079 0.0010843357798136029 0 -0.010372625267495227 0.0013958111007658675 0 -0.011358596525143936 0.00023939608543092092 0 -0.011595380028308339 0.0022272332967557323 0 -0.013240978808144014 0.001404073891073459 0 -0.011993390816339079 0.0010843357798136029 0 -0.0098384768578355531 0.002565726923449222 0 -0.011595380028308339 0.0022272332967557323 0 -0.010372625267495227 0.0013958111007658675 0 -0.011595380028308339 0.0022272332967557323 0 -0.011993390816339079 0.0010843357798136029 0 -0.010372625267495227 0.0013958111007658675 0 -0.0089064886782722428 0.002229784729495417 0 -0.0098384768578355531 0.002565726923449222 0 -0.010372625267495227 0.0013958111007658675 0 -0.0089064886782722428 0.002229784729495417 0 -0.010372625267495227 0.0013958111007658675 0 -0.0092145466237515197 0.001214128585359679 0 -0.010372625267495227 0.0013958111007658675 0 -0.011358596525143936 0.00023939608543092092 0 -0.0098692213831096508 0.00025827551043750208 0 -0.011358596525143936 0.00023939608543092092 0 -0.0098692213831096508 0.00025827551043750208 0 -0.01078754078017982 -0.00060250246906837918 0 -0.010372625267495227 0.0013958111007658675 0 -0.0098692213831096508 0.00025827551043750208 0 -0.0092145466237515197 0.001214128585359679 0 -0.0098692213831096508 0.00025827551043750208 0 -0.0090496400243772496 0.00024319059931340018 0 -0.0092145466237515197 0.001214128585359679 0 -0.0098692213831096508 0.00025827551043750208 0 -0.0090496400243772496 0.00024319059931340018 0 -0.0094926078058345468 -0.00056514136313538463 0 -0.0082904220697067633 0.00098234801587729023 0 -0.0090496400243772496 0.00024319059931340018 0 -0.0092145466237515197 0.001214128585359679 0 -0.0082904220697067633 0.00098234801587729023 0 -0.0092145466237515197 0.001214128585359679 0 -0.0080003486600500103 0.0018881612784081819 0 -0.0089064886782722428 0.002229784729495417 0 -0.0092145466237515197 0.001214128585359679 0 -0.0080003486600500103 0.0018881612784081819 0 -0.012163730972108435 -0.0021959435561633238 0 -0.01090936278920367 -0.0016947630267059675 0 -0.013360207974653338 -0.001691660872851494 0 -0.01090936278920367 -0.0016947630267059675 0 -0.0094926078058345468 -0.00056514136313538463 0 -0.013360207974653338 -0.001691660872851494 0 -0.011450211041267686 -0.0022150597956799908 0 -0.012163730972108435 -0.0021959435561633238 0 -0.01090936278920367 -0.0016947630267059675 0 -0.009774033300243453 -0.0006128198294439287 0 -0.01222181140571971 -0.0018420299892318262 0 -0.0094926078058345468 -0.00056514136313538463 0 -0.01078754078017982 -0.00060250246906837918 0 -0.011124546039761265 -0.0019572213418144612 0 -0.0098692213831096508 0.00025827551043750208 0 -0.0094926078058345468 -0.00056514136313538463 0 -0.01078754078017982 -0.00060250246906837918 0 -0.01078754078017982 -0.00060250246906837918 0 -0.011124546039761265 -0.0019572213418144612 0 -0.012580910754287586 -0.0010224959928224616 0 -0.011358596525143936 0.00023939608543092092 0 -0.01078754078017982 -0.00060250246906837918 0 -0.012580910754287586 -0.0010224959928224616 0 -0.012580910754287586 -0.0010224959928224616 0 -0.014786870171715788 -0.001193265789512162 0 -0.013965248843198481 -0.0032749872000024899 0 -0.011124546039761265 -0.0019572213418144612 0 -0.012580910754287586 -0.0010224959928224616 0 -0.013965248843198481 -0.0032749872000024899 0 -0.013376720494575165 0.00014059671710531661 0 -0.011358596525143936 0.00023939608543092092 0 -0.012580910754287586 -0.0010224959928224616 0 -0.013376720494575165 0.00014059671710531661 0 -0.012580910754287586 -0.0010224959928224616 0 -0.014786870171715788 -0.001193265789512162 0 -0.013376720494575165 0.00014059671710531661 0 -0.014786870171715788 -0.001193265789512162 0 -0.014989923204600646 -0.0002649748316447482 0 -0.013965248843198481 -0.0032749872000024899 0 -0.0164990269950804 -0.0023220893264280008 0 -0.016554539503860929 -0.0031604942928840883 0 -0.014786870171715788 -0.001193265789512162 0 -0.013965248843198481 -0.0032749872000024899 0 -0.0164990269950804 -0.0023220893264280008 0 -0.014807481064113575 -0.0028804329766442824 0 -0.017067218051496764 -0.0037953788692349838 0 -0.013965248843198481 -0.0032749872000024899 0 -0.016554539503860929 -0.0031604942928840883 0 -0.017345615529993589 -0.0038048621453192167 0 -0.015611610097965566 -0.0025592517073080843 0 -0.017345615529993589 -0.0038048621453192167 0 -0.016476292999085193 -0.0042664089791305017 0 -0.015611610097965566 -0.0025592517073080843 0 -0.014851402351190295 -0.0037334316761717334 0 -0.016476292999085193 -0.0042664089791305017 0 -0.01222181140571971 -0.0018420299892318262 0 -0.014807481064113575 -0.0028804329766442824 0 -0.012163730972108435 -0.0021959435561633238 0 -0.013360207974653338 -0.001691660872851494 0 -0.013544098974535556 -0.0028719335216036489 0 -0.013360207974653338 -0.001691660872851494 0 -0.015611610097965566 -0.0025592517073080843 0 -0.013544098974535556 -0.0028719335216036489 0 -0.013544098974535556 -0.0028719335216036489 0 -0.014851402351190295 -0.0037334316761717334 0 -0.013794982561526795 -0.004033648572095155 0 -0.015611610097965566 -0.0025592517073080843 0 -0.013544098974535556 -0.0028719335216036489 0 -0.014851402351190295 -0.0037334316761717334 0 -0.013544098974535556 -0.0028719335216036489 0 -0.012683342929693362 -0.0034112482017710187 0 -0.013794982561526795 -0.004033648572095155 0 -0.013544098974535556 -0.0028719335216036489 0 -0.012683342929693362 -0.0034112482017710187 0 -0.012253881723298414 -0.0026669188866135798 0 -0.011984675815509613 -0.003657866317421501 0 -0.012683342929693362 -0.0034112482017710187 0 -0.012818988739449569 -0.0042377090034864569 0 -0.011683699405699946 -0.002912579901663498 0 -0.012683342929693362 -0.0034112482017710187 0 -0.012253881723298414 -0.0026669188866135798 0 -0.012163730972108435 -0.0021959435561633238 0 -0.013544098974535556 -0.0028719335216036489 0 -0.012253881723298414 -0.0026669188866135798 0 -0.011450211041267686 -0.0022150597956799908 0 -0.012163730972108435 -0.0021959435561633238 0 -0.012253881723298414 -0.0026669188866135798 0 -0.01878550369568004 -0.0018170399865908957 0 -0.019559228432910383 -0.0013175791198858648 0 -0.018121108208493872 -0.00075487634851652741 0 -0.01878550369568004 -0.0018170399865908957 0 -0.019559228432910383 -0.0013175791198858648 0 -0.019782967543202096 -0.0021556395070053487 0 -0.020714193202600494 -0.0005424672541072187 0 -0.019385688368442646 0.00086883868548705235 0 -0.019164640229363337 -0.00027584833543517815 0 -0.020714193202600494 -0.0005424672541072187 0 -0.019559228432910383 -0.0013175791198858648 0 -0.019164640229363337 -0.00027584833543517815 0 -0.019559228432910383 -0.0013175791198858648 0 -0.019164640229363337 -0.00027584833543517815 0 -0.018121108208493872 -0.00075487634851652741 0 -0.017779646603429698 0.00070042564766360815 0 -0.019164640229363337 -0.00027584833543517815 0 -0.018121108208493872 -0.00075487634851652741 0 -0.018121108208493872 -0.00075487634851652741 0 -0.016439736777098132 -0.00032999800876987975 0 -0.017601621156234808 -0.0015796395482044186 0 -0.017779646603429698 0.00070042564766360815 0 -0.018121108208493872 -0.00075487634851652741 0 -0.016439736777098132 -0.00032999800876987975 0 -0.014989923204600646 -0.0002649748316447482 0 -0.016439736777098132 -0.00032999800876987975 0 -0.016264320399995213 -0.0012363666284856208 0 -0.014786870171715788 -0.001193265789512162 0 -0.014989923204600646 -0.0002649748316447482 0 -0.016264320399995213 -0.0012363666284856208 0 -0.014786870171715788 -0.001193265789512162 0 -0.016264320399995213 -0.0012363666284856208 0 -0.0164990269950804 -0.0023220893264280008 0 -0.016264320399995213 -0.0012363666284856208 0 -0.017601621156234808 -0.0015796395482044186 0 -0.0164990269950804 -0.0023220893264280008 0 -0.016439736777098132 -0.00032999800876987975 0 -0.016264320399995213 -0.0012363666284856208 0 -0.017601621156234808 -0.0015796395482044186 0 -0.01878550369568004 -0.0018170399865908957 0 -0.018121108208493872 -0.00075487634851652741 0 -0.017601621156234808 -0.0015796395482044186 0 -0.018247495494472774 -0.0023977078310427826 0 -0.0164990269950804 -0.0023220893264280008 0 -0.018003368093937322 -0.0031350734089706915 0 -0.01878550369568004 -0.0018170399865908957 0 -0.017601621156234808 -0.0015796395482044186 0 -0.018247495494472774 -0.0023977078310427826 0 -0.017601621156234808 -0.0015796395482044186 0 -0.018247495494472774 -0.0023977078310427826 0 -0.0164990269950804 -0.0023220893264280008 0 -0.018247495494472774 -0.0023977078310427826 0 -0.018787729879299355 -0.0029016347902732801 0 -0.01931141337445446 -0.0025570475632886547 0 -0.0164990269950804 -0.0023220893264280008 0 -0.016554539503860929 -0.0031604942928840883 0 -0.018003368093937322 -0.0031350734089706915 0 -0.018003368093937322 -0.0031350734089706915 0 -0.017345615529993589 -0.0038048621453192167 0 -0.018566359403110331 -0.0039182402262032175 0 -0.016554539503860929 -0.0031604942928840883 0 -0.018003368093937322 -0.0031350734089706915 0 -0.017345615529993589 -0.0038048621453192167 0 -0.018003368093937322 -0.0031350734089706915 0 -0.018846054021135025 -0.003390600254627678 0 -0.018566359403110331 -0.0039182402262032175 0 -0.018247495494472774 -0.0023977078310427826 0 -0.018787729879299355 -0.0029016347902732801 0 -0.018003368093937322 -0.0031350734089706915 0 -0.018787729879299355 -0.0029016347902732801 0 -0.018003368093937322 -0.0031350734089706915 0 -0.018846054021135025 -0.003390600254627678 0 -0.018787729879299355 -0.0029016347902732801 0 -0.018846054021135025 -0.003390600254627678 0 -0.019426693297240359 -0.0031351038993368986 0 -0.019426693297240359 -0.0031351038993368986 0 -0.020060555990727695 -0.0032163924706661686 0 -0.020012447580588583 -0.0027332188106008728 0 -0.019426693297240359 -0.0031351038993368986 0 -0.020012447580588583 -0.0027332188106008728 0 -0.01931141337445446 -0.0025570475632886547 0 -0.018787729879299355 -0.0029016347902732801 0 -0.019426693297240359 -0.0031351038993368986 0 -0.01931141337445446 -0.0025570475632886547 0 -0.020012447580588583 -0.0027332188106008728 0 -0.01931141337445446 -0.0025570475632886547 0 -0.019782967543202096 -0.0021556395070053487 0 -0.01878550369568004 -0.0018170399865908957 0 -0.01931141337445446 -0.0025570475632886547 0 -0.019782967543202096 -0.0021556395070053487 0 -0.01878550369568004 -0.0018170399865908957 0 -0.018247495494472774 -0.0023977078310427826 0 -0.01931141337445446 -0.0025570475632886547 0 -0.020658898781924249 -0.0020370673991425016 0 -0.019559228432910383 -0.0013175791198858648 0 -0.019782967543202096 -0.0021556395070053487 0 -0.020658898781924249 -0.0020370673991425016 0 -0.019782967543202096 -0.0021556395070053487 0 -0.020531067598348808 -0.0025328520606197292 0 -0.020012447580588583 -0.0027332188106008728 0 -0.019782967543202096 -0.0021556395070053487 0 -0.020531067598348808 -0.0025328520606197292 0 -0.020012447580588583 -0.0027332188106008728 0 -0.020531067598348808 -0.0025328520606197292 0 -0.020527776969624902 -0.0027557737351016904 0 -0.020012447580588583 -0.0027332188106008728 0 -0.020527776969624902 -0.0027557737351016904 0 -0.020552989139557887 -0.0030722345054104354 0 -0.020060555990727695 -0.0032163924706661686 0 -0.020012447580588583 -0.0027332188106008728 0 -0.020552989139557887 -0.0030722345054104354 0 -0.021072505916147476 -0.002673832882531129 0 -0.020531067598348808 -0.0025328520606197292 0 -0.020924903814529251 -0.0027416308735413106 0 -0.020527776969624902 -0.0027557737351016904 0 -0.020552989139557887 -0.0030722345054104354 0 -0.020924903814529251 -0.0027416308735413106 0 -0.020531067598348808 -0.0025328520606197292 0 -0.020527776969624902 -0.0027557737351016904 0 -0.020924903814529251 -0.0027416308735413106 0 -0.020552989139557887 -0.0030722345054104354 0 -0.020924903814529251 -0.0027416308735413106 0 -0.020812706894291981 -0.0033493152446849831 0 -0.020924903814529251 -0.0027416308735413106 0 -0.020812706894291981 -0.0033493152446849831 0 -0.021332688892038352 -0.0036474161688813027 0 -0.020060555990727695 -0.0032163924706661686 0 -0.020552989139557887 -0.0030722345054104354 0 -0.020453611171553438 -0.0034803124484386883 0 -0.020552989139557887 -0.0030722345054104354 0 -0.020812706894291981 -0.0033493152446849831 0 -0.020453611171553438 -0.0034803124484386883 0 -0.020812706894291981 -0.0033493152446849831 0 -0.02085648882710734 -0.0037377907262357399 0 -0.021332688892038352 -0.0036474161688813027 0 -0.02085648882710734 -0.0037377907262357399 0 -0.021332688892038352 -0.0036474161688813027 0 -0.021163641760018479 -0.0041185364316790752 0 -0.02085648882710734 -0.0037377907262357399 0 -0.020539705342221156 -0.0039622522138307746 0 -0.020453611171553438 -0.0034803124484386883 0 -0.020812706894291981 -0.0033493152446849831 0 -0.02085648882710734 -0.0037377907262357399 0 -0.020453611171553438 -0.0034803124484386883 0 -0.021332688892038352 -0.0036474161688813027 0 -0.021772587230137988 -0.0041800395949123902 0 -0.021163641760018479 -0.0041185364316790752 0 -0.02085648882710734 -0.0037377907262357399 0 -0.021163641760018479 -0.0041185364316790752 0 -0.020539705342221156 -0.0039622522138307746 0 -0.021163641760018479 -0.0041185364316790752 0 -0.021645632578936064 -0.0045526579239754898 0 -0.021110542956769542 -0.0046230613646544893 0 -0.021772587230137988 -0.0041800395949123902 0 -0.021645632578936064 -0.0045526579239754898 0 -0.02218343571449467 -0.0045867137147275177 0 -0.021772587230137988 -0.0041800395949123902 0 -0.021163641760018479 -0.0041185364316790752 0 -0.021645632578936064 -0.0045526579239754898 0 -0.020539705342221156 -0.0039622522138307746 0 -0.020267584918554182 -0.004276777714731581 0 -0.021110542956769542 -0.0046230613646544893 0 -0.021163641760018479 -0.0041185364316790752 0 -0.020539705342221156 -0.0039622522138307746 0 -0.021110542956769542 -0.0046230613646544893 0 -0.020267584918554182 -0.004276777714731581 0 -0.021110542956769542 -0.0046230613646544893 0 -0.020750931159192774 -0.0048179969088718438 0 -0.020539705342221156 -0.0039622522138307746 0 -0.020267584918554182 -0.004276777714731581 0 -0.020022957063733134 -0.0036508108106828368 0 -0.020267584918554182 -0.004276777714731581 0 -0.020022957063733134 -0.0036508108106828368 0 -0.019437586219321869 -0.0037777927253200261 0 -0.020539705342221156 -0.0039622522138307746 0 -0.020453611171553438 -0.0034803124484386883 0 -0.020022957063733134 -0.0036508108106828368 0 -0.020060555990727695 -0.0032163924706661686 0 -0.020453611171553438 -0.0034803124484386883 0 -0.020022957063733134 -0.0036508108106828368 0 -0.019426693297240359 -0.0031351038993368986 0 -0.020022957063733134 -0.0036508108106828368 0 -0.019437586219321869 -0.0037777927253200261 0 -0.019426693297240359 -0.0031351038993368986 0 -0.020060555990727695 -0.0032163924706661686 0 -0.020022957063733134 -0.0036508108106828368 0 -0.018846054021135025 -0.003390600254627678 0 -0.019426693297240359 -0.0031351038993368986 0 -0.019437586219321869 -0.0037777927253200261 0 -0.018846054021135025 -0.003390600254627678 0 -0.019437586219321869 -0.0037777927253200261 0 -0.018566359403110331 -0.0039182402262032175 0 -0.019437586219321869 -0.0037777927253200261 0 -0.018566359403110331 -0.0039182402262032175 0 -0.019444353900449549 -0.0042331559777642599 0 -0.017345615529993589 -0.0038048621453192167 0 -0.018566359403110331 -0.0039182402262032175 0 -0.018057286970447468 -0.0044345798509894657 0 -0.019019184345343016 -0.0044804759881622112 0 -0.019910260289947086 -0.0047095619654450738 0 -0.01906303527106706 -0.0047991593706609229 0 -0.019019184345343016 -0.0044804759881622112 0 -0.01906303527106706 -0.0047991593706609229 0 -0.018057286970447468 -0.0044345798509894657 0 -0.018566359403110331 -0.0039182402262032175 0 -0.019019184345343016 -0.0044804759881622112 0 -0.018057286970447468 -0.0044345798509894657 0 -0.020267584918554182 -0.004276777714731581 0 -0.019437586219321869 -0.0037777927253200261 0 -0.019444353900449549 -0.0042331559777642599 0 -0.018566359403110331 -0.0039182402262032175 0 -0.019019184345343016 -0.0044804759881622112 0 -0.019444353900449549 -0.0042331559777642599 0 -0.019019184345343016 -0.0044804759881622112 0 -0.019444353900449549 -0.0042331559777642599 0 -0.019910260289947086 -0.0047095619654450738 0 -0.020267584918554182 -0.004276777714731581 0 -0.019910260289947086 -0.0047095619654450738 0 -0.020750931159192774 -0.0048179969088718438 0 -0.020267584918554182 -0.004276777714731581 0 -0.019444353900449549 -0.0042331559777642599 0 -0.019910260289947086 -0.0047095619654450738 0 -0.019910260289947086 -0.0047095619654450738 0 -0.020789158834931959 -0.0051106694768899173 0 -0.020750931159192774 -0.0048179969088718438 0 -0.019910260289947086 -0.0047095619654450738 0 -0.020789158834931959 -0.0051106694768899173 0 -0.020050186940163053 -0.0050646490346696075 0 -0.019910260289947086 -0.0047095619654450738 0 -0.01906303527106706 -0.0047991593706609229 0 -0.020050186940163053 -0.0050646490346696075 0 -0.01906303527106706 -0.0047991593706609229 0 -0.020050186940163053 -0.0050646490346696075 0 -0.019531862773928991 -0.0051950415043350382 0 -0.020050186940163053 -0.0050646490346696075 0 -0.020821774883712996 -0.0054271042564356777 0 -0.019531862773928991 -0.0051950415043350382 0 -0.020821774883712996 -0.0054271042564356777 0 -0.019531862773928991 -0.0051950415043350382 0 -0.020195426990316522 -0.0056661221557450861 0 -0.020821774883712996 -0.0054271042564356777 0 -0.021593169249121164 -0.0054322668342505244 0 -0.02179981677152493 -0.005693581427929667 0 -0.020789158834931959 -0.0051106694768899173 0 -0.020821774883712996 -0.0054271042564356777 0 -0.021593169249121164 -0.0054322668342505244 0 -0.020789158834931959 -0.0051106694768899173 0 -0.020050186940163053 -0.0050646490346696075 0 -0.020821774883712996 -0.0054271042564356777 0 -0.021593169249121164 -0.0054322668342505244 0 -0.021578476199275234 -0.0051557533890272756 0 -0.02257521117359132 -0.0057185711913074885 0 -0.020789158834931959 -0.0051106694768899173 0 -0.021593169249121164 -0.0054322668342505244 0 -0.021578476199275234 -0.0051557533890272756 0 -0.021578476199275234 -0.0051557533890272756 0 -0.022142292681731447 -0.0050905919718016585 0 -0.02257521117359132 -0.0057185711913074885 0 -0.022142292681731447 -0.0050905919718016585 0 -0.02257521117359132 -0.0057185711913074885 0 -0.023069780512422665 -0.0054608668599382343 0 -0.021645632578936064 -0.0045526579239754898 0 -0.022142292681731447 -0.0050905919718016585 0 -0.02218343571449467 -0.0045867137147275177 0 -0.021645632578936064 -0.0045526579239754898 0 -0.022142292681731447 -0.0050905919718016585 0 -0.021110542956769542 -0.0046230613646544893 0 -0.021578476199275234 -0.0051557533890272756 0 -0.022142292681731447 -0.0050905919718016585 0 -0.021110542956769542 -0.0046230613646544893 0 -0.020789158834931959 -0.0051106694768899173 0 -0.021578476199275234 -0.0051557533890272756 0 -0.020750931159192774 -0.0048179969088718438 0 -0.021578476199275234 -0.0051557533890272756 0 -0.021110542956769542 -0.0046230613646544893 0 -0.020750931159192774 -0.0048179969088718438 0 -0.013200989301598201 -0.0054449969857210349 0 -0.013568991222730824 -0.0049846942013367932 0 -0.014020084276479642 -0.0058424653207654453 0 -0.012591660060424599 -0.005073178917810884 0 -0.013200989301598201 -0.0054449969857210349 0 -0.013568991222730824 -0.0049846942013367932 0 -0.012591660060424599 -0.005073178917810884 0 -0.013568991222730824 -0.0049846942013367932 0 -0.012818988739449569 -0.0042377090034864569 0 -0.012683342929693362 -0.0034112482017710187 0 -0.012818988739449569 -0.0042377090034864569 0 -0.013794982561526795 -0.004033648572095155 0 -0.013568991222730824 -0.0049846942013367932 0 -0.012818988739449569 -0.0042377090034864569 0 -0.013794982561526795 -0.004033648572095155 0 -0.013568991222730824 -0.0049846942013367932 0 -0.013794982561526795 -0.004033648572095155 0 -0.014854548853916053 -0.0051300513216144183 0 -0.014851402351190295 -0.0037334316761717334 0 -0.013794982561526795 -0.004033648572095155 0 -0.014854548853916053 -0.0051300513216144183 0 -0.013568991222730824 -0.0049846942013367932 0 -0.014854548853916053 -0.0051300513216144183 0 -0.014020084276479642 -0.0058424653207654453 0 -0.014854548853916053 -0.0051300513216144183 0 -0.014965106379888874 -0.0058827576509058767 0 -0.014020084276479642 -0.0058424653207654453 0 -0.014854548853916053 -0.0051300513216144183 0 -0.016476292999085193 -0.0042664089791305017 0 -0.015855705850382054 -0.0059815977303736391 0 -0.016600541412883467 -0.0042063273633999214 0 -0.017007891039792961 -0.0053179473028476063 0 -0.014854548853916053 -0.0051300513216144183 0 -0.015855705850382054 -0.0059815977303736391 0 -0.014965106379888874 -0.0058827576509058767 0 -0.014851402351190295 -0.0037334316761717334 0 -0.014854548853916053 -0.0051300513216144183 0 -0.016476292999085193 -0.0042664089791305017 0 -0.017345615529993589 -0.0038048621453192167 0 -0.016476292999085193 -0.0042664089791305017 0 -0.018057286970447468 -0.0044345798509894657 0 -0.016476292999085193 -0.0042664089791305017 0 -0.018057286970447468 -0.0044345798509894657 0 -0.01815240211175911 -0.0048150035627923908 0 -0.01906303527106706 -0.0047991593706609229 0 -0.018057286970447468 -0.0044345798509894657 0 -0.01815240211175911 -0.0048150035627923908 0 -0.01906303527106706 -0.0047991593706609229 0 -0.019531862773928991 -0.0051950415043350382 0 -0.01815240211175911 -0.0048150035627923908 0 -0.019531862773928991 -0.0051950415043350382 0 -0.019104959213576998 -0.0052930843998306174 0 -0.01815240211175911 -0.0048150035627923908 0 -0.019531862773928991 -0.0051950415043350382 0 -0.019574994728411236 -0.0055801746987759774 0 -0.020195426990316522 -0.0056661221557450861 0 -0.019531862773928991 -0.0051950415043350382 0 -0.019104959213576998 -0.0052930843998306174 0 -0.019574994728411236 -0.0055801746987759774 0 -0.01566712408422493 -0.0066445672232598443 0 -0.015468542315798242 -0.0068227797410097876 0 -0.015056507650532441 -0.0065313151179998974 0 -0.016855905099293297 -0.0057714516272849552 0 -0.017007891039792961 -0.0053179473028476063 0 -0.015468542315798242 -0.0068227797410097876 0 -0.015855705850382054 -0.0059815977303736391 0 -0.015056507650532441 -0.0065313151179998974 0 -0.015855705850382054 -0.0059815977303736391 0 -0.014965106379888874 -0.0058827576509058767 0 -0.015056507650532441 -0.0065313151179998974 0 -0.014020084276479642 -0.0058424653207654453 0 -0.015056507650532441 -0.0065313151179998974 0 -0.013898883675368626 -0.0064039835607213776 0 -0.014965106379888874 -0.0058827576509058767 0 -0.014020084276479642 -0.0058424653207654453 0 -0.015056507650532441 -0.0065313151179998974 0 -0.015608042028456771 -0.0066671411289617429 0 -0.016061499169791302 -0.0069379328934433132 0 -0.015056507650532441 -0.0065313151179998974 0 -0.014276936306419259 -0.0069923821466941101 0 -0.013898883675368626 -0.0064039835607213776 0 -0.01566712408422493 -0.0066445672232598443 0 -0.017981249566769785 -0.0070835233230306495 0 -0.017089581969862523 -0.0059388338834387112 0 -0.01566712408422493 -0.0066445672232598443 0 -0.015056507650532441 -0.0065313151179998974 0 -0.014276936306419259 -0.0069923821466941101 0 -0.022540003413258583 -0.0066616671232730086 0 -0.021596390280213464 -0.0064112406023139386 0 -0.016616209647900851 -0.006888557293609183 0 -0.016061499169791302 -0.0069379328934433132 0 -0.020588518587374805 -0.0072908160530180894 0 -0.017981249566769785 -0.0070835233230306495 0 -0.020079046728260181 -0.006511224680851236 0 -0.017981249566769785 -0.0070835233230306495 0 -0.020079046728260181 -0.006511224680851236 0 -0.017089581969862523 -0.0059388338834387112 0 -0.012748256353031385 -0.0066536211905557259 0 -0.013898883675368626 -0.0064039835607213776 0 -0.013217378437722997 -0.0060288598948687279 0 -0.012748256353031385 -0.0066536211905557259 0 -0.014276936306419259 -0.0069923821466941101 0 -0.013898883675368626 -0.0064039835607213776 0 -0.014020084276479642 -0.0058424653207654453 0 -0.013898883675368626 -0.0064039835607213776 0 -0.013217378437722997 -0.0060288598948687279 0 -0.013200989301598201 -0.0054449969857210349 0 -0.014020084276479642 -0.0058424653207654453 0 -0.013217378437722997 -0.0060288598948687279 0 -0.012293225969882551 -0.0058205581683215503 0 -0.013200989301598201 -0.0054449969857210349 0 -0.013217378437722997 -0.0060288598948687279 0 -0.025512529201636772 -0.0077043002362903665 0 -0.025908321393054212 -0.0076431931727598745 0 -0.026183079416941445 -0.0081461094958262641 0 -0.025512529201636772 -0.0077043002362903665 0 -0.025908321393054212 -0.0076431931727598745 0 -0.025514662011748297 -0.0073621078064640532 0 -0.025908321393054212 -0.0076431931727598745 0 -0.025514662011748297 -0.0073621078064640532 0 -0.026220005062015269 -0.0070027652027167741 0 -0.024782210406856266 -0.0066426414399938837 0 -0.025514662011748297 -0.0073621078064640532 0 -0.026220005062015269 -0.0070027652027167741 0 -0.026220005062015269 -0.0070027652027167741 0 -0.026428626181884709 -0.0076133632191509064 0 -0.026741494513360466 -0.0075341222765232104 0 -0.026428626181884709 -0.0076133632191509064 0 -0.0268463724368306 -0.0077315967442739674 0 -0.026741494513360466 -0.0075341222765232104 0 -0.025908321393054212 -0.0076431931727598745 0 -0.026220005062015269 -0.0070027652027167741 0 -0.026428626181884709 -0.0076133632191509064 0 -0.025908321393054212 -0.0076431931727598745 0 -0.026428626181884709 -0.0076133632191509064 0 -0.026183079416941445 -0.0081461094958262641 0 -0.026428626181884709 -0.0076133632191509064 0 -0.0268463724368306 -0.0077315967442739674 0 -0.026183079416941445 -0.0081461094958262641 0 -0.0268463724368306 -0.0077315967442739674 0 -0.027094166942178189 -0.0078543132879135402 0 -0.027255622348630156 -0.0076702385066721723 0 -0.0268463724368306 -0.0077315967442739674 0 -0.027094166942178189 -0.0078543132879135402 0 -0.026741494513360466 -0.0075341222765232104 0 -0.027094166942178189 -0.0078543132879135402 0 -0.027122421340115097 -0.0074567570564030537 0 -0.026741494513360466 -0.0075341222765232104 0 -0.023926974654299219 -0.0076607489424929537 0 -0.021593933151084359 -0.0069142832157436549 0 -0.021596390280213464 -0.0064112406023139386 0 -0.021593933151084359 -0.0069142832157436549 0 -0.01566712408422493 -0.0066445672232598443 0 -0.015468542315798242 -0.0068227797410097876 0 -0.01506269847475088 -0.0054249702096059241 0 -0.01566712408422493 -0.0066445672232598443 0 -0.017089581969862523 -0.0059388338834387112 0 -0.01506269847475088 -0.0054249702096059241 0 -0.016855905099293297 -0.0057714516272849552 0 -0.021593933151084359 -0.0069142832157436549 0 -0.019104959213576998 -0.0052930843998306174 0 -0.019339779952421459 -0.0062636332259710823 0 -0.019574994728411236 -0.0055801746987759774 0 -0.026220005062015269 -0.0070027652027167741 0 -0.027122421340115097 -0.0074567570564030537 0 -0.026741494513360466 -0.0075341222765232104 0 -0.019339779952421459 -0.0062636332259710823 0 -0.019834757063662733 -0.0058979445993619945 0 -0.019574994728411236 -0.0055801746987759774 0 -0.019339779952421459 -0.0062636332259710823 0 -0.019834757063662733 -0.0058979445993619945 0 -0.020282569206274702 -0.0061396952130436033 0 -0.019834757063662733 -0.0058979445993619945 0 -0.019574994728411236 -0.0055801746987759774 0 -0.020195426990316522 -0.0056661221557450861 0 -0.019834757063662733 -0.0058979445993619945 0 -0.020195426990316522 -0.0056661221557450861 0 -0.020282569206274702 -0.0061396952130436033 0 -0.021593933151084359 -0.0069142832157436549 0 -0.023766749958635806 -0.0074543135220890193 0 -0.019339779952421459 -0.0062636332259710823 0 -0.020282569206274702 -0.0061396952130436033 0 -0.020847137102330628 -0.0068569539994738377 0 -0.027094166942178189 -0.0078543132879135402 0 -0.026113512525492308 -0.008047090369864349 0 -0.026875441770927915 -0.0075048405865076164 0 -0.027094166942178189 -0.0078543132879135402 0 -0.027067221598664024 -0.0081963332720270191 0 -0.026113512525492308 -0.008047090369864349 0 -0.026113512525492308 -0.008047090369864349 0 -0.026875441770927915 -0.0075048405865076164 0 -0.026334354556375263 -0.0067803472988334163 0 -0.026875441770927915 -0.0075048405865076164 0 -0.026334354556375263 -0.0067803472988334163 0 -0.027204040238180897 -0.006729247455534877 0 -0.026444509774578618 -0.00682024909664267 0 -0.02685775433860807 -0.0062366021479955836 0 -0.026334354556375263 -0.0067803472988334163 0 -0.027204040238180897 -0.006729247455534877 0 -0.027803797529607373 -0.0062540526830821052 0 -0.027204040238180897 -0.006729247455534877 0 -0.027972200925652578 -0.006925642869969508 0 -0.027825408039143889 -0.0064386798125704641 0 -0.027204040238180897 -0.006729247455534877 0 -0.027255622348630156 -0.0076702385066721723 0 -0.027972200925652578 -0.006925642869969508 0 -0.026875441770927915 -0.0075048405865076164 0 -0.027204040238180897 -0.006729247455534877 0 -0.027255622348630156 -0.0076702385066721723 0 -0.027094166942178189 -0.0078543132879135402 0 -0.026875441770927915 -0.0075048405865076164 0 -0.027255622348630156 -0.0076702385066721723 0 -0.027255622348630156 -0.0076702385066721723 0 -0.028392185073117953 -0.007493121815684959 0 -0.027972200925652578 -0.006925642869969508 0 -0.027197268898272932 -0.0077139039235644977 0 -0.027315068065942017 -0.0077886137959673552 0 -0.0268463724368306 -0.0077315967442739674 0 -0.027255622348630156 -0.0076702385066721723 0 -0.026183079416941445 -0.0081461094958262641 0 -0.028392185073117953 -0.007493121815684959 0 -0.027972200925652578 -0.006925642869969508 0 -0.028629371216655992 -0.0069763533677468497 0 -0.027972200925652578 -0.006925642869969508 0 -0.028629371216655992 -0.0069763533677468497 0 -0.028552294367933252 -0.0063496297175941246 0 -0.027972200925652578 -0.006925642869969508 0 -0.028552294367933252 -0.0063496297175941246 0 -0.027825408039143889 -0.0064386798125704641 0 -0.02906413450387996 -0.00743310499851094 0 -0.029174966997286365 -0.0068772669250817611 0 -0.028629371216655992 -0.0069763533677468497 0 -0.029174966997286365 -0.0068772669250817611 0 -0.028629371216655992 -0.0069763533677468497 0 -0.028552294367933252 -0.0063496297175941246 0 -0.031430940291322922 -0.0074831520947740426 0 -0.030191311925443158 -0.0067885902504399576 0 -0.02541390629462472 -0.008063088343867585 0 -0.025512529201636772 -0.0077043002362903665 0 -0.026183079416941445 -0.0081461094958262641 0 -0.027009755427073769 -0.0077355368147715101 0 -0.027315068065942017 -0.0077886137959673552 0 -0.02906413450387996 -0.00743310499851094 0 -0.028392185073117953 -0.007493121815684959 0 -0.028629371216655992 -0.0069763533677468497 0 -0.023309624564752468 -0.0060687292590101928 0 -0.022728192305318952 -0.0060793628399647076 0 -0.023627230876141686 -0.0062570912565052183 0 -0.023309624564752468 -0.0060687292590101928 0 -0.02257521117359132 -0.0057185711913074885 0 -0.022728192305318952 -0.0060793628399647076 0 -0.023309624564752468 -0.0060687292590101928 0 -0.023055648906124809 -0.0058134882676910858 0 -0.02257521117359132 -0.0057185711913074885 0 -0.023309624564752468 -0.0060687292590101928 0 -0.0232607433549528 -0.0059010112982732718 0 -0.023055648906124809 -0.0058134882676910858 0 -0.023055648906124809 -0.0058134882676910858 0 -0.02257521117359132 -0.0057185711913074885 0 -0.023069780512422665 -0.0054608668599382343 0 -0.021593169249121164 -0.0054322668342505244 0 -0.02257521117359132 -0.0057185711913074885 0 -0.02179981677152493 -0.005693581427929667 0 -0.02257521117359132 -0.0057185711913074885 0 -0.02179981677152493 -0.005693581427929667 0 -0.022728192305318952 -0.0060793628399647076 0 -0.020821774883712996 -0.0054271042564356777 0 -0.02179981677152493 -0.005693581427929667 0 -0.021559025041842018 -0.0060172281125201819 0 -0.02179981677152493 -0.005693581427929667 0 -0.021559025041842018 -0.0060172281125201819 0 -0.022728192305318952 -0.0060793628399647076 0 -0.020821774883712996 -0.0054271042564356777 0 -0.020195426990316522 -0.0056661221557450861 0 -0.021559025041842018 -0.0060172281125201819 0 -0.020195426990316522 -0.0056661221557450861 0 -0.020282569206274702 -0.0061396952130436033 0 -0.021559025041842018 -0.0060172281125201819 0 -0.020847137102330628 -0.0068569539994738377 0 -0.021559025041842018 -0.0060172281125201819 0 -0.024002929922447094 -0.0069085796572238706 0 -0.020282569206274702 -0.0061396952130436033 0 -0.020847137102330628 -0.0068569539994738377 0 -0.021559025041842018 -0.0060172281125201819 0 -0.021559025041842018 -0.0060172281125201819 0 -0.022728192305318952 -0.0060793628399647076 0 -0.024002929922447094 -0.0069085796572238706 0 -0.022728192305318952 -0.0060793628399647076 0 -0.024002929922447094 -0.0069085796572238706 0 -0.023627230876141686 -0.0062570912565052183 0 -0.024002929922447094 -0.0069085796572238706 0 -0.024278947271097712 -0.005807029678123115 0 -0.023627230876141686 -0.0062570912565052183 0 -0.023766749958635806 -0.0074543135220890193 0 -0.023690036683442967 -0.0069494085031131672 0 -0.026113512525492308 -0.008047090369864349 0 -0.026334354556375263 -0.0067803472988334163 0 -0.024002929922447094 -0.0069085796572238706 0 -0.026334354556375263 -0.0067803472988334163 0 -0.025009110553718933 -0.0061901191947289734 0 -0.025883555006970985 -0.0060618403469110101 0 -0.026334354556375263 -0.0067803472988334163 0 -0.024002929922447094 -0.0069085796572238706 0 -0.025009110553718933 -0.0061901191947289734 0 -0.024002929922447094 -0.0069085796572238706 0 -0.025009110553718933 -0.0061901191947289734 0 -0.024278947271097712 -0.005807029678123115 0 -0.025009110553718933 -0.0061901191947289734 0 -0.024278947271097712 -0.005807029678123115 0 -0.025584449326803135 -0.0062043471402677564 0 -0.023309624564752468 -0.0060687292590101928 0 -0.024278947271097712 -0.005807029678123115 0 -0.023627230876141686 -0.0062570912565052183 0 -0.023309624564752468 -0.0060687292590101928 0 -0.0232607433549528 -0.0059010112982732718 0 -0.024278947271097712 -0.005807029678123115 0 -0.024460279657688874 -0.0057077000498065309 0 -0.025468612676810509 -0.0054400558751291489 0 -0.024278947271097712 -0.005807029678123115 0 -0.023431303746757878 -0.0058038427256605456 0 -0.023306622267477949 -0.0056983921597615122 0 -0.0232607433549528 -0.0059010112982732718 0 -0.024278947271097712 -0.005807029678123115 0 -0.023431303746757878 -0.0058038427256605456 0 -0.024278947271097712 -0.005807029678123115 0 -0.027441868588931103 -0.0056930367998759323 0 -0.027605105424364167 -0.0050012762542009362 0 -0.024278947271097712 -0.005807029678123115 0 -0.027441868588931103 -0.0056930367998759323 0 -0.025584449326803135 -0.0062043471402677564 0 -0.027441868588931103 -0.0056930367998759323 0 -0.027605105424364167 -0.0050012762542009362 0 -0.028283692904283991 -0.0054555386199785557 0 -0.025468612676810509 -0.0054400558751291489 0 -0.026380183678939063 -0.0056149725521007733 0 -0.023306622267477949 -0.0056983921597615122 0 -0.023412414330136754 -0.0056592099180806958 0 -0.023897985509183435 -0.0059986175926294606 0 -0.027605105424364167 -0.0050012762542009362 0 -0.028886760760825081 -0.005267933480948137 0 -0.028283692904283991 -0.0054555386199785557 0 -0.023412414330136754 -0.0056592099180806958 0 -0.023897985509183435 -0.0059986175926294606 0 -0.023915931252298159 -0.0055407543745433895 0 -0.023412414330136754 -0.0056592099180806958 0 -0.023915931252298159 -0.0055407543745433895 0 -0.023526662574711921 -0.0055217702955537712 0 -0.0232607433549528 -0.0059010112982732718 0 -0.023431303746757878 -0.0058038427256605456 0 -0.023412414330136754 -0.0056592099180806958 0 -0.023431303746757878 -0.0058038427256605456 0 -0.023306622267477949 -0.0056983921597615122 0 -0.023412414330136754 -0.0056592099180806958 0 -0.023897985509183435 -0.0059986175926294606 0 -0.024597306354733495 -0.0051232095475294524 0 -0.02506127177745391 -0.0060672253706647019 0 -0.026380183678939063 -0.0056149725521007733 0 -0.027008828950189592 -0.0057693304545221747 0 -0.023897985509183435 -0.0059986175926294606 0 -0.023915931252298159 -0.0055407543745433895 0 -0.024597306354733495 -0.0051232095475294524 0 -0.023915931252298159 -0.0055407543745433895 0 -0.024597306354733495 -0.0051232095475294524 0 -0.023526662574711921 -0.0055217702955537712 0 -0.024199859295824477 -0.0055534375871763905 0 -0.023889798004211257 -0.0053219425256846647 0 -0.024767466417489763 -0.0050599505785471751 0 -0.024405478200053003 -0.0053579202980199589 0 -0.02360556541521593 -0.0054726888668849517 0 -0.024199859295824477 -0.0055534375871763905 0 -0.023889798004211257 -0.0053219425256846647 0 -0.023526662574711921 -0.0055217702955537712 0 -0.023889798004211257 -0.0053219425256846647 0 -0.024036712342420583 -0.005063078898592051 0 -0.023521981585558963 -0.0052098446225727364 0 -0.024002941693476689 -0.0047346490373700312 0 -0.024702540472738566 -0.0050900326349893462 0 -0.023889798004211257 -0.0053219425256846647 0 -0.024036712342420583 -0.005063078898592051 0 -0.024767466417489763 -0.0050599505785471751 0 -0.02326050919670675 -0.0057010063128783185 0 -0.023526662574711921 -0.0055217702955537712 0 -0.023069780512422665 -0.0054608668599382343 0 -0.0232607433549528 -0.0059010112982732718 0 -0.023412414330136754 -0.0056592099180806958 0 -0.02326050919670675 -0.0057010063128783185 0 -0.0232607433549528 -0.0059010112982732718 0 -0.023055648906124809 -0.0058134882676910858 0 -0.02326050919670675 -0.0057010063128783185 0 -0.023412414330136754 -0.0056592099180806958 0 -0.02326050919670675 -0.0057010063128783185 0 -0.023526662574711921 -0.0055217702955537712 0 -0.023889798004211257 -0.0053219425256846647 0 -0.023526662574711921 -0.0055217702955537712 0 -0.023521981585558963 -0.0052098446225727364 0 -0.023526662574711921 -0.0055217702955537712 0 -0.023069780512422665 -0.0054608668599382343 0 -0.023521981585558963 -0.0052098446225727364 0 -0.023055648906124809 -0.0058134882676910858 0 -0.02326050919670675 -0.0057010063128783185 0 -0.023069780512422665 -0.0054608668599382343 0 -0.022142292681731447 -0.0050905919718016585 0 -0.023069780512422665 -0.0054608668599382343 0 -0.022878540952262789 -0.0049419666670711187 0 -0.022878540952262789 -0.0049419666670711187 0 -0.02218343571449467 -0.0045867137147275177 0 -0.022732307718660968 -0.0040363557023069376 0 -0.022142292681731447 -0.0050905919718016585 0 -0.022878540952262789 -0.0049419666670711187 0 -0.02218343571449467 -0.0045867137147275177 0 -0.022878540952262789 -0.0049419666670711187 0 -0.023521204893707452 -0.0047781982448712691 0 -0.022732307718660968 -0.0040363557023069376 0 -0.022878540952262789 -0.0049419666670711187 0 -0.023521981585558963 -0.0052098446225727364 0 -0.023521204893707452 -0.0047781982448712691 0 -0.023069780512422665 -0.0054608668599382343 0 -0.022878540952262789 -0.0049419666670711187 0 -0.023521981585558963 -0.0052098446225727364 0 -0.024002941693476689 -0.0047346490373700312 0 -0.023194002721501281 -0.0042490343317052254 0 -0.024036712342420583 -0.005063078898592051 0 -0.023521981585558963 -0.0052098446225727364 0 -0.023521204893707452 -0.0047781982448712691 0 -0.023933708993237279 -0.0044101270624923132 0 -0.024280654951252627 -0.0035385302599930768 0 -0.025122833699362697 -0.0039443120016733708 0 -0.023933708993237279 -0.0044101270624923132 0 -0.024280654951252627 -0.0035385302599930768 0 -0.022879474049139176 -0.0037599234052935961 0 -0.024280654951252627 -0.0035385302599930768 0 -0.022879474049139176 -0.0037599234052935961 0 -0.023480776147677063 -0.0030044503666816188 0 -0.022879474049139176 -0.0037599234052935961 0 -0.023480776147677063 -0.0030044503666816188 0 -0.022321050903579095 -0.002556967641428019 0 -0.023480776147677063 -0.0030044503666816188 0 -0.023923255787673067 -0.0021579948153433812 0 -0.024745860235520389 -0.0027551894733457562 0 -0.024280654951252627 -0.0035385302599930768 0 -0.023480776147677063 -0.0030044503666816188 0 -0.024745860235520389 -0.0027551894733457562 0 -0.022446447958521219 -0.0021286640047931365 0 -0.022880050997478866 -0.0023473825947582685 0 -0.022321050903579095 -0.002556967641428019 0 -0.023400826215117479 -0.0022730241168391137 0 -0.022378604890123784 -0.002522491150778362 0 -0.023480776147677063 -0.0030044503666816188 0 -0.023923255787673067 -0.0021579948153433812 0 -0.022321050903579095 -0.002556967641428019 0 -0.022070658984337476 -0.002264562432447124 0 -0.022321050903579095 -0.002556967641428019 0 -0.021801999432789796 -0.0025184754125265251 0 -0.022070658984337476 -0.002264562432447124 0 -0.022446447958521219 -0.0021286640047931365 0 -0.022321050903579095 -0.002556967641428019 0 -0.022321050903579095 -0.002556967641428019 0 -0.021801999432789796 -0.0025184754125265251 0 -0.021715078320281012 -0.0029014830896037722 0 -0.021072505916147476 -0.002673832882531129 0 -0.020924903814529251 -0.0027416308735413106 0 -0.021715078320281012 -0.0029014830896037722 0 -0.021072505916147476 -0.002673832882531129 0 -0.021533743617204368 -0.0025993301421063505 0 -0.021715078320281012 -0.0029014830896037722 0 -0.021050778784939043 -0.002739525199923916 0 -0.02218182423091597 -0.0034769116410923212 0 -0.021566936373281841 -0.0022038355039526313 0 -0.021801999432789796 -0.0025184754125265251 0 -0.021533743617204368 -0.0025993301421063505 0 -0.020924903814529251 -0.0027416308735413106 0 -0.021332688892038352 -0.0036474161688813027 0 -0.022732307718660968 -0.0040363557023069376 0 -0.021801999432789796 -0.0025184754125265251 0 -0.021533743617204368 -0.0025993301421063505 0 -0.021715078320281012 -0.0029014830896037722 0 -0.021332688892038352 -0.0036474161688813027 0 -0.021772587230137988 -0.0041800395949123902 0 -0.022732307718660968 -0.0040363557023069376 0 -0.021772587230137988 -0.0041800395949123902 0 -0.02218343571449467 -0.0045867137147275177 0 -0.022732307718660968 -0.0040363557023069376 0 -0.023194002721501281 -0.0042490343317052254 0 -0.02218182423091597 -0.0034769116410923212 0 -0.022879474049139176 -0.0037599234052935961 0 -0.022321050903579095 -0.002556967641428019 0 -0.021715078320281012 -0.0029014830896037722 0 -0.025916793939723709 -0.0028514992736501793 0 -0.025457441013162319 -0.0032241967402083884 0 -0.026162296482878985 -0.0032677509050380478 0 -0.025916793939723709 -0.0028514992736501793 0 -0.02627489030950635 -0.0028724449305434093 0 -0.026096890659773848 -0.0025588474364319864 0 -0.025916793939723709 -0.0028514992736501793 0 -0.02627489030950635 -0.0028724449305434093 0 -0.026162296482878985 -0.0032677509050380478 0 -0.026478748682367825 -0.0030911443344549144 0 -0.02627489030950635 -0.0028724449305434093 0 -0.026162296482878985 -0.0032677509050380478 0 -0.026478748682367825 -0.0030911443344549144 0 -0.026540505519029558 -0.0028612724837439245 0 -0.02627489030950635 -0.0028724449305434093 0 -0.02627489030950635 -0.0028724449305434093 0 -0.026383888653049876 -0.00263048541397083 0 -0.026096890659773848 -0.0025588474364319864 0 -0.026540505519029558 -0.0028612724837439245 0 -0.02627489030950635 -0.0028724449305434093 0 -0.026383888653049876 -0.00263048541397083 0 -0.026540505519029558 -0.0028612724837439245 0 -0.026383888653049876 -0.00263048541397083 0 -0.026593376030639906 -0.0026060830273382006 0 -0.026383888653049876 -0.00263048541397083 0 -0.026593376030639906 -0.0026060830273382006 0 -0.026458729879036288 -0.0025198704192627131 0 -0.026565787303660441 -0.00240749925510621 0 -0.026593376030639906 -0.0026060830273382006 0 -0.026458729879036288 -0.0025198704192627131 0 -0.026383888653049876 -0.00263048541397083 0 -0.026282456408169015 -0.0024440289415977763 0 -0.026096890659773848 -0.0025588474364319864 0 -0.026383888653049876 -0.00263048541397083 0 -0.026458729879036288 -0.0025198704192627131 0 -0.026282456408169015 -0.0024440289415977763 0 -0.026055342942435826 -0.0022711954192960828 0 -0.026096890659773848 -0.0025588474364319864 0 -0.025843494845193622 -0.0022940526215485162 0 -0.026055342942435826 -0.0022711954192960828 0 -0.026282456408169015 -0.0024440289415977763 0 -0.026096890659773848 -0.0025588474364319864 0 -0.025834551257340414 -0.0025876983926505438 0 -0.025843494845193622 -0.0022940526215485162 0 -0.025501771064647034 -0.002605893511773507 0 -0.025916793939723709 -0.0028514992736501793 0 -0.026096890659773848 -0.0025588474364319864 0 -0.025834551257340414 -0.0025876983926505438 0 -0.025916793939723709 -0.0028514992736501793 0 -0.025834551257340414 -0.0025876983926505438 0 -0.025501771064647034 -0.002605893511773507 0 -0.026096890659773848 -0.0025588474364319864 0 -0.025834551257340414 -0.0025876983926505438 0 -0.025843494845193622 -0.0022940526215485162 0 -0.02571905663578531 -0.0022878024266533427 0 -0.02587536343675343 -0.0022354641474385587 0 -0.025124727802033734 -0.0021256681131620768 0 -0.025501771064647034 -0.002605893511773507 0 -0.024745860235520389 -0.0027551894733457562 0 -0.026098457246411341 -0.0021840329445667267 0 -0.025843494845193622 -0.0022940526215485162 0 -0.025124727802033734 -0.0021256681131620768 0 -0.025843494845193622 -0.0022940526215485162 0 -0.025124727802033734 -0.0021256681131620768 0 -0.025501771064647034 -0.002605893511773507 0 -0.02571905663578531 -0.0022878024266533427 0 -0.024297424905677587 -0.0020825071823394139 0 -0.023923255787673067 -0.0021579948153433812 0 -0.025124727802033734 -0.0021256681131620768 0 -0.024745860235520389 -0.0027551894733457562 0 -0.023400826215117479 -0.0022730241168391137 0 -0.024297424905677587 -0.0020825071823394139 0 -0.023257417088017623 -0.0017998451198800768 0 -0.022880050997478866 -0.0023473825947582685 0 -0.02369289359589178 -0.002078760345428564 0 -0.024280654951252627 -0.0035385302599930768 0 -0.024745860235520389 -0.0027551894733457562 0 -0.025457441013162319 -0.0032241967402083884 0 -0.025916793939723709 -0.0028514992736501793 0 -0.025501771064647034 -0.002605893511773507 0 -0.025457441013162319 -0.0032241967402083884 0 -0.025501771064647034 -0.002605893511773507 0 -0.024745860235520389 -0.0027551894733457562 0 -0.025457441013162319 -0.0032241967402083884 0 -0.025457441013162319 -0.0032241967402083884 0 -0.025122833699362697 -0.0039443120016733708 0 -0.025792229493138214 -0.0036992330956917454 0 -0.024280654951252627 -0.0035385302599930768 0 -0.025457441013162319 -0.0032241967402083884 0 -0.025122833699362697 -0.0039443120016733708 0 -0.025122833699362697 -0.0039443120016733708 0 -0.025792229493138214 -0.0036992330956917454 0 -0.025901057854491066 -0.0042436503199137958 0 -0.025792229493138214 -0.0036992330956917454 0 -0.026349396334359239 -0.0037711606260030363 0 -0.025901057854491066 -0.0042436503199137958 0 -0.025457441013162319 -0.0032241967402083884 0 -0.025792229493138214 -0.0036992330956917454 0 -0.026162296482878985 -0.0032677509050380478 0 -0.025792229493138214 -0.0036992330956917454 0 -0.026162296482878985 -0.0032677509050380478 0 -0.026349396334359239 -0.0037711606260030363 0 -0.026478748682367825 -0.0030911443344549144 0 -0.026162296482878985 -0.0032677509050380478 0 -0.026618194624916495 -0.0034211066028495612 0 -0.026162296482878985 -0.0032677509050380478 0 -0.026618194624916495 -0.0034211066028495612 0 -0.026349396334359239 -0.0037711606260030363 0 -0.026618194624916495 -0.0034211066028495612 0 -0.026349396334359239 -0.0037711606260030363 0 -0.026783243803546748 -0.003873199452744482 0 -0.026349396334359239 -0.0037711606260030363 0 -0.02651560144844536 -0.0042076585526169327 0 -0.026783243803546748 -0.003873199452744482 0 -0.02651560144844536 -0.0042076585526169327 0 -0.026783243803546748 -0.003873199452744482 0 -0.027035208251850393 -0.0044270984544068958 0 -0.026349396334359239 -0.0037711606260030363 0 -0.02651560144844536 -0.0042076585526169327 0 -0.025901057854491066 -0.0042436503199137958 0 -0.02651560144844536 -0.0042076585526169327 0 -0.025901057854491066 -0.0042436503199137958 0 -0.026292560934573248 -0.004764508431101184 0 -0.02651560144844536 -0.0042076585526169327 0 -0.026292560934573248 -0.004764508431101184 0 -0.027035208251850393 -0.0044270984544068958 0 -0.023933708993237279 -0.0044101270624923132 0 -0.025122833699362697 -0.0039443120016733708 0 -0.025331325625904833 -0.0044883463342848566 0 -0.023933708993237279 -0.0044101270624923132 0 -0.025331325625904833 -0.0044883463342848566 0 -0.024767466417489763 -0.0050599505785471751 0 -0.025122833699362697 -0.0039443120016733708 0 -0.025901057854491066 -0.0042436503199137958 0 -0.025331325625904833 -0.0044883463342848566 0 -0.025901057854491066 -0.0042436503199137958 0 -0.025331325625904833 -0.0044883463342848566 0 -0.025516583629312906 -0.004903271881404144 0 -0.025901057854491066 -0.0042436503199137958 0 -0.026292560934573248 -0.004764508431101184 0 -0.025516583629312906 -0.004903271881404144 0 -0.025516583629312906 -0.004903271881404144 0 -0.024767466417489763 -0.0050599505785471751 0 -0.025379770136137774 -0.005529557535041329 0 -0.025331325625904833 -0.0044883463342848566 0 -0.025516583629312906 -0.004903271881404144 0 -0.024767466417489763 -0.0050599505785471751 0 -0.024405478200053003 -0.0053579202980199589 0 -0.025646717042639332 -0.0053086183625260979 0 -0.024199859295824477 -0.0055534375871763905 0 -0.024767466417489763 -0.0050599505785471751 0 -0.025379770136137774 -0.005529557535041329 0 -0.026292560934573248 -0.004764508431101184 0 -0.025516583629312906 -0.004903271881404144 0 -0.025379770136137774 -0.005529557535041329 0 -0.025646717042639332 -0.0053086183625260979 0 -0.026794701930840312 -0.0052660014856268072 0 -0.025903962904559326 -0.0051289647527152848 0 -0.026897096565473903 -0.0052148279555876429 0 -0.02629762717011673 -0.0059472115551450714 0 -0.024597306354733495 -0.0051232095475294524 0 -0.025903962904559326 -0.0051289647527152848 0 -0.02506127177745391 -0.0060672253706647019 0 -0.025903962904559326 -0.0051289647527152848 0 -0.02629762717011673 -0.0059472115551450714 0 -0.02506127177745391 -0.0060672253706647019 0 -0.026897096565473903 -0.0052148279555876429 0 -0.027035208251850393 -0.0044270984544068958 0 -0.027557392643121601 -0.0049783316605213459 0 -0.026292560934573248 -0.004764508431101184 0 -0.026897096565473903 -0.0052148279555876429 0 -0.027035208251850393 -0.0044270984544068958 0 -0.026292560934573248 -0.004764508431101184 0 -0.025379770136137774 -0.005529557535041329 0 -0.026897096565473903 -0.0052148279555876429 0 -0.027716701934770629 -0.00555469897119626 0 -0.028434468571133627 -0.0051922441538659212 0 -0.028073271357751992 -0.0051208015430759266 0 -0.026897096565473903 -0.0052148279555876429 0 -0.027716701934770629 -0.00555469897119626 0 -0.027557392643121601 -0.0049783316605213459 0 -0.027655004005201378 -0.0055873365654393785 0 -0.027477500347746556 -0.0057496477206014735 0 -0.026897096565473903 -0.0052148279555876429 0 -0.027716701934770629 -0.00555469897119626 0 -0.02629762717011673 -0.0059472115551450714 0 -0.027716701934770629 -0.00555469897119626 0 -0.028434468571133627 -0.0051922441538659212 0 -0.028730876256450023 -0.0056070716534074765 0 -0.028434468571133627 -0.0051922441538659212 0 -0.028682852410720241 -0.0050407753808469624 0 -0.028073271357751992 -0.0051208015430759266 0 -0.028434468571133627 -0.0051922441538659212 0 -0.028682852410720241 -0.0050407753808469624 0 -0.028878505963287629 -0.0051090804373780368 0 -0.028682852410720241 -0.0050407753808469624 0 -0.028073271357751992 -0.0051208015430759266 0 -0.02851975238600887 -0.0049709888451516786 0 -0.028878505963287629 -0.0051090804373780368 0 -0.029112234750278257 -0.005055690244625142 0 -0.029080640050391016 -0.0049554145605408689 0 -0.028878505963287629 -0.0051090804373780368 0 -0.029124594178235499 -0.0049492633071915072 0 -0.029080640050391016 -0.0049554145605408689 0 -0.028682852410720241 -0.0050407753808469624 0 -0.028878505963287629 -0.0051090804373780368 0 -0.029124594178235499 -0.0049492633071915072 0 -0.028878505963287629 -0.0051090804373780368 0 -0.029038934698753113 -0.005319442429427162 0 -0.029112234750278257 -0.005055690244625142 0 -0.028434468571133627 -0.0051922441538659212 0 -0.028878505963287629 -0.0051090804373780368 0 -0.028730876256450023 -0.0056070716534074765 0 -0.028878505963287629 -0.0051090804373780368 0 -0.028730876256450023 -0.0056070716534074765 0 -0.029038934698753113 -0.005319442429427162 0 -0.027477500347746556 -0.0057496477206014735 0 -0.027008828950189592 -0.0057693304545221747 0 -0.028730876256450023 -0.0056070716534074765 0 -0.029003636598522058 -0.0054935931038763786 0 -0.029038934698753113 -0.005319442429427162 0 -0.029003636598522058 -0.0054935931038763786 0 -0.02903305045785674 -0.0054297083424939274 0 -0.029038934698753113 -0.005319442429427162 0 -0.028886760760825081 -0.005267933480948137 0 -0.02903305045785674 -0.0054297083424939274 0 -0.028755620933117666 -0.0054767821035834295 0 -0.028886760760825081 -0.005267933480948137 0 -0.029003636598522058 -0.0054935931038763786 0 -0.02903305045785674 -0.0054297083424939274 0 -0.02903305045785674 -0.0054297083424939274 0 -0.028755620933117666 -0.0054767821035834295 0 -0.029308359491671657 -0.0052406059029120365 0 -0.02903305045785674 -0.0054297083424939274 0 -0.029038934698753113 -0.005319442429427162 0 -0.029308359491671657 -0.0052406059029120365 0 -0.027441868588931103 -0.0056930367998759323 0 -0.028362153844552245 -0.0055363438399434646 0 -0.028690860651357817 -0.0053749493296199038 0 -0.027441868588931103 -0.0056930367998759323 0 -0.028362153844552245 -0.0055363438399434646 0 -0.028283692904283991 -0.0054555386199785557 0 -0.028886760760825081 -0.005267933480948137 0 -0.028283692904283991 -0.0054555386199785557 0 -0.028755620933117666 -0.0054767821035834295 0 -0.028362153844552245 -0.0055363438399434646 0 -0.028283692904283991 -0.0054555386199785557 0 -0.028755620933117666 -0.0054767821035834295 0 -0.028755620933117666 -0.0054767821035834295 0 -0.028876637335660191 -0.0053117342211408012 0 -0.029308359491671657 -0.0052406059029120365 0 -0.028362153844552245 -0.0055363438399434646 0 -0.028876637335660191 -0.0053117342211408012 0 -0.028690860651357817 -0.0053749493296199038 0 -0.028362153844552245 -0.0055363438399434646 0 -0.028755620933117666 -0.0054767821035834295 0 -0.028876637335660191 -0.0053117342211408012 0 -0.028876637335660191 -0.0053117342211408012 0 -0.029179911425923778 -0.0053664068339384545 0 -0.029308359491671657 -0.0052406059029120365 0 -0.029179911425923778 -0.0053664068339384545 0 -0.029308359491671657 -0.0052406059029120365 0 -0.02999347903529612 -0.0054272693612404553 0 -0.028876637335660191 -0.0053117342211408012 0 -0.029179911425923778 -0.0053664068339384545 0 -0.028644705755242982 -0.0052650137381362698 0 -0.029038934698753113 -0.005319442429427162 0 -0.029308359491671657 -0.0052406059029120365 0 -0.029112234750278257 -0.005055690244625142 0 -0.029403458984037567 -0.0052305502568837205 0 -0.029825375752108519 -0.0052680340992812 0 -0.029308359491671657 -0.0052406059029120365 0 -0.02999347903529612 -0.0054272693612404553 0 -0.03058299096620299 -0.0054096037135607363 0 -0.03058299096620299 -0.0054096037135607363 0 -0.030948027592379218 -0.0055102955391784737 0 -0.03073764559007797 -0.0055832518672185661 0 -0.03058299096620299 -0.0054096037135607363 0 -0.03070998122490616 -0.0057632738055917281 0 -0.030948027592379218 -0.0055102955391784737 0 -0.02999347903529612 -0.0054272693612404553 0 -0.03058299096620299 -0.0054096037135607363 0 -0.03070998122490616 -0.0057632738055917281 0 -0.03070998122490616 -0.0057632738055917281 0 -0.030948027592379218 -0.0055102955391784737 0 -0.031508813801399048 -0.0050730171797437381 0 -0.03070998122490616 -0.0057632738055917281 0 -0.032441372705186294 -0.0049437719878455931 0 -0.031508813801399048 -0.0050730171797437381 0 -0.029179911425923778 -0.0053664068339384545 0 -0.029520344222564911 -0.005834265652171728 0 -0.02893506787838377 -0.0055765693648802553 0 -0.029520344222564911 -0.005834265652171728 0 -0.02893506787838377 -0.0055765693648802553 0 -0.028939308139038861 -0.0060210361305660437 0 -0.02999347903529612 -0.0054272693612404553 0 -0.03070998122490616 -0.0057632738055917281 0 -0.029520344222564911 -0.005834265652171728 0 -0.029179911425923778 -0.0053664068339384545 0 -0.02999347903529612 -0.0054272693612404553 0 -0.029520344222564911 -0.005834265652171728 0 -0.030842592274283799 -0.005746248580018448 0 -0.031242940320347651 -0.0057172273116504434 0 -0.03070998122490616 -0.0057632738055917281 0 -0.029748884353009146 -0.0064470704158983644 0 -0.030023905560379902 -0.0067939458123011873 0 -0.03070998122490616 -0.0057632738055917281 0 -0.029748884353009146 -0.0064470704158983644 0 -0.029520344222564911 -0.005834265652171728 0 -0.029520344222564911 -0.005834265652171728 0 -0.02926377270344243 -0.006538909682341134 0 -0.028939308139038861 -0.0060210361305660437 0 -0.029748884353009146 -0.0064470704158983644 0 -0.029520344222564911 -0.005834265652171728 0 -0.02926377270344243 -0.006538909682341134 0 -0.02926377270344243 -0.006538909682341134 0 -0.028939308139038861 -0.0060210361305660437 0 -0.028774848849756014 -0.006538026215551631 0 -0.02926377270344243 -0.006538909682341134 0 -0.029271851311283282 -0.0071945843684612289 0 -0.028845013232005248 -0.0069900383215685492 0 -0.029748884353009146 -0.0064470704158983644 0 -0.02926377270344243 -0.006538909682341134 0 -0.029933180548531897 -0.0067812195783460557 0 -0.02926377270344243 -0.006538909682341134 0 -0.029933180548531897 -0.0067812195783460557 0 -0.029271851311283282 -0.0071945843684612289 0 -0.030003324909165401 -0.0067546259163683772 0 -0.029436362648846422 -0.0070969704939342904 0 -0.029933180548531897 -0.0067812195783460557 0 -0.030023905560379902 -0.0067939458123011873 0 -0.029985264232644693 -0.0066473547087479504 0 -0.029748884353009146 -0.0064470704158983644 0 -0.029933180548531897 -0.0067812195783460557 0 -0.030023905560379902 -0.0067939458123011873 0 -0.032441372705186294 -0.0049437719878455931 0 -0.032541393634463379 -0.0042881824165528588 0 -0.032128198815218695 -0.0046563320581530015 0 -0.030023905560379902 -0.0067939458123011873 0 -0.029927107072444854 -0.0064754345522471781 0 -0.029985264232644693 -0.0066473547087479504 0 -0.032441372705186294 -0.0049437719878455931 0 -0.032541393634463379 -0.0042881824165528588 0 -0.033408426211734905 -0.0038881406800272793 0 -0.032541393634463379 -0.0042881824165528588 0 -0.033408426211734905 -0.0038881406800272793 0 -0.032599130009412142 -0.0035997094580846561 0 -0.031242940320347651 -0.0057172273116504434 0 -0.031535135046205087 -0.0053986583730942688 0 -0.029933180548531897 -0.0067812195783460557 0 -0.029985264232644693 -0.0066473547087479504 0 -0.030202995896740643 -0.0066878142622465433 0 -0.029985264232644693 -0.0066473547087479504 0 -0.030207676889763287 -0.0064158135916227814 0 -0.030202995896740643 -0.0066878142622465433 0 -0.029927107072444854 -0.0064754345522471781 0 -0.029985264232644693 -0.0066473547087479504 0 -0.030207676889763287 -0.0064158135916227814 0 -0.030207676889763287 -0.0064158135916227814 0 -0.030202995896740643 -0.0066878142622465433 0 -0.030574951233254002 -0.0065120751571434944 0 -0.030948027592379218 -0.0055102955391784737 0 -0.031276704782945149 -0.0045805132273258626 0 -0.031508813801399048 -0.0050730171797437381 0 -0.031276704782945149 -0.0045805132273258626 0 -0.031508813801399048 -0.0050730171797437381 0 -0.031961952757599048 -0.0043566029237568213 0 -0.032441372705186294 -0.0049437719878455931 0 -0.031508813801399048 -0.0050730171797437381 0 -0.032128198815218695 -0.0046563320581530015 0 -0.031508813801399048 -0.0050730171797437381 0 -0.032128198815218695 -0.0046563320581530015 0 -0.031961952757599048 -0.0043566029237568213 0 -0.032541393634463379 -0.0042881824165528588 0 -0.031961952757599048 -0.0043566029237568213 0 -0.032599130009412142 -0.0035997094580846561 0 -0.031961952757599048 -0.0043566029237568213 0 -0.031871764884565154 -0.0038363848353215823 0 -0.032599130009412142 -0.0035997094580846561 0 -0.032541393634463379 -0.0042881824165528588 0 -0.032128198815218695 -0.0046563320581530015 0 -0.031961952757599048 -0.0043566029237568213 0 -0.031276704782945149 -0.0045805132273258626 0 -0.031397781389925113 -0.0037014835133301061 0 -0.031871764884565154 -0.0038363848353215823 0 -0.031276704782945149 -0.0045805132273258626 0 -0.031961952757599048 -0.0043566029237568213 0 -0.031871764884565154 -0.0038363848353215823 0 -0.031276704782945149 -0.0045805132273258626 0 -0.030618574869994659 -0.0041683275988012389 0 -0.031397781389925113 -0.0037014835133301061 0 -0.031276704782945149 -0.0045805132273258626 0 -0.030618574869994659 -0.0041683275988012389 0 -0.030693621434836074 -0.0049902684569155756 0 -0.030948027592379218 -0.0055102955391784737 0 -0.031276704782945149 -0.0045805132273258626 0 -0.030693621434836074 -0.0049902684569155756 0 -0.030618574869994659 -0.0041683275988012389 0 -0.030693621434836074 -0.0049902684569155756 0 -0.029732836191464357 -0.0049047388119695303 0 -0.030618574869994659 -0.0041683275988012389 0 -0.029700842013756359 -0.0042245964076247479 0 -0.030349497253643713 -0.0037078463005450575 0 -0.029700842013756359 -0.0042245964076247479 0 -0.029871784385408131 -0.0035010249739753948 0 -0.029320087175260103 -0.0040463722835309846 0 -0.029700842013756359 -0.0042245964076247479 0 -0.029106524705613753 -0.0045988629179421515 0 -0.029320087175260103 -0.0040463722835309846 0 -0.030618574869994659 -0.0041683275988012389 0 -0.029700842013756359 -0.0042245964076247479 0 -0.029732836191464357 -0.0049047388119695303 0 -0.029700842013756359 -0.0042245964076247479 0 -0.029106524705613753 -0.0045988629179421515 0 -0.029732836191464357 -0.0049047388119695303 0 -0.029106524705613753 -0.0045988629179421515 0 -0.028997078810712364 -0.0049090969024153846 0 -0.029732836191464357 -0.0049047388119695303 0 -0.028997078810712364 -0.0049090969024153846 0 -0.029124594178235499 -0.0049492633071915072 0 -0.029732836191464357 -0.0049047388119695303 0 -0.029106524705613753 -0.0045988629179421515 0 -0.028997078810712364 -0.0049090969024153846 0 -0.02862058844071284 -0.0047883004159802126 0 -0.028997078810712364 -0.0049090969024153846 0 -0.02851975238600887 -0.0049709888451516786 0 -0.02862058844071284 -0.0047883004159802126 0 -0.028682852410720241 -0.0050407753808469624 0 -0.028997078810712364 -0.0049090969024153846 0 -0.02851975238600887 -0.0049709888451516786 0 -0.028682852410720241 -0.0050407753808469624 0 -0.028997078810712364 -0.0049090969024153846 0 -0.029124594178235499 -0.0049492633071915072 0 -0.029124594178235499 -0.0049492633071915072 0 -0.029080640050391016 -0.0049554145605408689 0 -0.029732836191464357 -0.0049047388119695303 0 -0.029825375752108519 -0.0052680340992812 0 -0.029897789456418512 -0.005231694721638265 0 -0.030948027592379218 -0.0055102955391784737 0 -0.03073764559007797 -0.0055832518672185661 0 -0.030693621434836074 -0.0049902684569155756 0 -0.029897789456418512 -0.005231694721638265 0 -0.029704917638994636 -0.0049192972021042201 0 -0.03073764559007797 -0.0055832518672185661 0 -0.030693621434836074 -0.0049902684569155756 0 -0.029732836191464357 -0.0049047388119695303 0 -0.03254543754548074 -0.004909149503649941 0 -0.031480345982264651 -0.0053744377200198052 0 -0.031849909661958609 -0.0040423970628054593 0 -0.031480345982264651 -0.0053744377200198052 0 -0.031017624549864276 -0.0068373755620076537 0 -0.03046056449414853 -0.0053016017760874777 0 -0.031480345982264651 -0.0053744377200198052 0 -0.032285202030803421 -0.0061694610739755794 0 -0.031017624549864276 -0.0068373755620076537 0 -0.03254543754548074 -0.004909149503649941 0 -0.031480345982264651 -0.0053744377200198052 0 -0.032285202030803421 -0.0061694610739755794 0 -0.033097602974734068 -0.0066998286427479735 0 -0.032285202030803421 -0.0061694610739755794 0 -0.032006242695336626 -0.0073105696153388956 0 -0.028552294367933252 -0.0063496297175941246 0 -0.028246466047261356 -0.0061401447734693087 0 -0.027825408039143889 -0.0064386798125704641 0 -0.030191311925443158 -0.0067885902504399576 0 -0.029631621123452242 -0.0064510550769376505 0 -0.032285202030803421 -0.0061694610739755794 0 -0.032006242695336626 -0.0073105696153388956 0 -0.031017624549864276 -0.0068373755620076537 0 -0.029631621123452242 -0.0064510550769376505 0 -0.029193468286865986 -0.0060528958076998818 0 -0.028246466047261356 -0.0061401447734693087 0 -0.028227331520035162 -0.006219955308362465 0 -0.029242964725025619 -0.006080129631531944 0 -0.028246466047261356 -0.0061401447734693087 0 -0.028227331520035162 -0.006219955308362465 0 -0.027825408039143889 -0.0064386798125704641 0 -0.027204040238180897 -0.006729247455534877 0 -0.027825408039143889 -0.0064386798125704641 0 -0.027803797529607373 -0.0062540526830821052 0 -0.028227331520035162 -0.006219955308362465 0 -0.027825408039143889 -0.0064386798125704641 0 -0.027803797529607373 -0.0062540526830821052 0 -0.028227331520035162 -0.006219955308362465 0 -0.028413389143002649 -0.0062003495355878605 0 -0.027803797529607373 -0.0062540526830821052 0 -0.028227331520035162 -0.006219955308362465 0 -0.028413389143002649 -0.0062003495355878605 0 -0.029242964725025619 -0.006080129631531944 0 -0.028413389143002649 -0.0062003495355878605 0 -0.028673737620946878 -0.0060727772485462935 0 -0.028599291950458103 -0.0061255513102522188 0 -0.028673737620946878 -0.0060727772485462935 0 -0.029242964725025619 -0.006080129631531944 0 -0.029793758367472525 -0.0051684361999430276 0 -0.028413389143002649 -0.0062003495355878605 0 -0.028673737620946878 -0.0060727772485462935 0 -0.029242964725025619 -0.006080129631531944 0 -0.031017624549864276 -0.0068373755620076537 0 -0.029242964725025619 -0.006080129631531944 0 -0.03046056449414853 -0.0053016017760874777 0 -0.029242964725025619 -0.006080129631531944 0 -0.03046056449414853 -0.0053016017760874777 0 -0.029793758367472525 -0.0051684361999430276 0 -0.031480345982264651 -0.0053744377200198052 0 -0.03046056449414853 -0.0053016017760874777 0 -0.03077974273288692 -0.0045094648433526277 0 -0.03046056449414853 -0.0053016017760874777 0 -0.029793758367472525 -0.0051684361999430276 0 -0.03077974273288692 -0.0045094648433526277 0 -0.028673737620946878 -0.0060727772485462935 0 -0.028702173765648261 -0.0060349423002182155 0 -0.029305149363136135 -0.0058235592753318171 0 -0.028788282384112945 -0.0060519329261559422 0 -0.029528449915136774 -0.0050178406763329141 0 -0.028673737620946878 -0.0060727772485462935 0 -0.029793758367472525 -0.0051684361999430276 0 -0.029750335769507651 -0.0041939597069121284 0 -0.02766926554700264 -0.0061978479069949612 0 -0.028247819972205348 -0.0059032622210874394 0 -0.028702173765648261 -0.0060349423002182155 0 -0.028599291950458103 -0.0061255513102522188 0 -0.028389310498352058 -0.0059609156587084045 0 -0.027167176716042105 -0.0063487531632465174 0 -0.026736059976241594 -0.0064097041299240485 0 -0.028389310498352058 -0.0059609156587084045 0 -0.027167176716042105 -0.0063487531632465174 0 -0.027614428474957674 -0.0059891353336117108 0 -0.028389310498352058 -0.0059609156587084045 0 -0.027167176716042105 -0.0063487531632465174 0 -0.026475032616648572 -0.0063837365859991634 0 -0.026555750998302298 -0.0065219342619376305 0 -0.027167176716042105 -0.0063487531632465174 0 -0.026736059976241594 -0.0064097041299240485 0 -0.026475032616648572 -0.0063837365859991634 0 -0.028673737620946878 -0.0060727772485462935 0 -0.028702173765648261 -0.0060349423002182155 0 -0.028599291950458103 -0.0061255513102522188 0 -0.02766926554700264 -0.0061978479069949612 0 -0.02685775433860807 -0.0062366021479955836 0 -0.026736059976241594 -0.0064097041299240485 0 -0.025883555006970985 -0.0060618403469110101 0 -0.026475032616648572 -0.0063837365859991634 0 -0.028413389143002649 -0.0062003495355878605 0 -0.028599291950458103 -0.0061255513102522188 0 -0.027803797529607373 -0.0062540526830821052 0 -0.025009110553718933 -0.0061901191947289734 0 -0.025883555006970985 -0.0060618403469110101 0 -0.02592654064144477 -0.0063908964749401559 0 -0.025883555006970985 -0.0060618403469110101 0 -0.02592654064144477 -0.0063908964749401559 0 -0.026475032616648572 -0.0063837365859991634 0 -0.02592654064144477 -0.0063908964749401559 0 -0.026475032616648572 -0.0063837365859991634 0 -0.026555750998302298 -0.0065219342619376305 0 -0.02592654064144477 -0.0063908964749401559 0 -0.02640202854351811 -0.0067539740018602214 0 -0.026555750998302298 -0.0065219342619376305 0 -0.025009110553718933 -0.0061901191947289734 0 -0.02592654064144477 -0.0063908964749401559 0 -0.025584449326803135 -0.0062043471402677564 0 -0.02592654064144477 -0.0063908964749401559 0 -0.025584449326803135 -0.0062043471402677564 0 -0.02640202854351811 -0.0067539740018602214 0 -0.027441868588931103 -0.0056930367998759323 0 -0.025584449326803135 -0.0062043471402677564 0 -0.02640202854351811 -0.0067539740018602214 0 -0.027502038023013185 -0.0056383215262889499 0 -0.027543705519003345 -0.006002147633764417 0 -0.028876637335660191 -0.0053117342211408012 0 -0.028690860651357817 -0.0053749493296199038 0 -0.028644705755242982 -0.0052650137381362698 0 -0.027543705519003345 -0.006002147633764417 0 -0.027690842474597271 -0.005844264354079998 0 -0.027167176716042105 -0.0063487531632465174 0 -0.026555750998302298 -0.0065219342619376305 0 -0.026724820812723288 -0.0063027261223289497 0 -0.02640202854351811 -0.0067539740018602214 0 -0.026555750998302298 -0.0065219342619376305 0 -0.026724820812723288 -0.0063027261223289497 0 -0.027167176716042105 -0.0063487531632465174 0 -0.026724820812723288 -0.0063027261223289497 0 -0.027614428474957674 -0.0059891353336117108 0 -0.029179911425923778 -0.0053664068339384545 0 -0.028644705755242982 -0.0052650137381362698 0 -0.02893506787838377 -0.0055765693648802553 0 -0.028644705755242982 -0.0052650137381362698 0 -0.028550303406528504 -0.0056845843254221037 0 -0.02893506787838377 -0.0055765693648802553 0 -0.028550303406528504 -0.0056845843254221037 0 -0.02893506787838377 -0.0055765693648802553 0 -0.028939308139038861 -0.0060210361305660437 0 -0.026724820812723288 -0.0063027261223289497 0 -0.027955219470394366 -0.0057428647458518875 0 -0.027614428474957674 -0.0059891353336117108 0 -0.028644705755242982 -0.0052650137381362698 0 -0.028550303406528504 -0.0056845843254221037 0 -0.027955219470394366 -0.0057428647458518875 0 -0.027690842474597271 -0.005844264354079998 0 -0.027888369811953254 -0.0058014192356953776 0 -0.027955219470394366 -0.0057428647458518875 0 -0.028110792507389477 -0.0056201566925113688 0 -0.027614428474957674 -0.0059891353336117108 0 -0.027955219470394366 -0.0057428647458518875 0 -0.02799267359029859 -0.0061194364637503868 0 -0.028110792507389477 -0.0056201566925113688 0 -0.028092662717463784 -0.0054614651762714076 0 -0.028194891536387972 -0.0056958339110285538 0 -0.027955219470394366 -0.0057428647458518875 0 -0.02799267359029859 -0.0061194364637503868 0 -0.028469643387938635 -0.0060443847584817712 0 -0.028550303406528504 -0.0056845843254221037 0 -0.027955219470394366 -0.0057428647458518875 0 -0.028469643387938635 -0.0060443847584817712 0 -0.028550303406528504 -0.0056845843254221037 0 -0.028469643387938635 -0.0060443847584817712 0 -0.028939308139038861 -0.0060210361305660437 0 -0.028469643387938635 -0.0060443847584817712 0 -0.028939308139038861 -0.0060210361305660437 0 -0.028774848849756014 -0.006538026215551631 0 -0.02926377270344243 -0.006538909682341134 0 -0.028774848849756014 -0.006538026215551631 0 -0.028845013232005248 -0.0069900383215685492 0 -0.028325960193079352 -0.0065171822075082752 0 -0.028804615935131762 -0.0057140154592592949 0 -0.028469643387938635 -0.0060443847584817712 0 -0.028774848849756014 -0.006538026215551631 0 -0.028315322412532516 -0.0069938956297448084 0 -0.028774848849756014 -0.006538026215551631 0 -0.028845013232005248 -0.0069900383215685492 0 -0.028315322412532516 -0.0069938956297448084 0 -0.029271851311283282 -0.0071945843684612289 0 -0.028845013232005248 -0.0069900383215685492 0 -0.028694954370176749 -0.0075273249877439927 0 -0.029851914121386987 -0.0044343246517469913 0 -0.030556072055476731 -0.0054952722899729647 0 -0.03092042424709969 -0.0037947598363356249 0 -0.029436362648846422 -0.0070969704939342904 0 -0.031311685054103415 -0.0054559465843711519 0 -0.031311685054103415 -0.0054559465843711519 0 -0.028804615935131762 -0.0057140154592592949 0 -0.028845013232005248 -0.0069900383215685492 0 -0.028694954370176749 -0.0075273249877439927 0 -0.028315322412532516 -0.0069938956297448084 0 -0.031311685054103415 -0.0054559465843711519 0 -0.03153842110453671 -0.0027436066709864222 0 -0.028804615935131762 -0.0057140154592592949 0 -0.03153842110453671 -0.0027436066709864222 0 -0.028553283205719704 -0.0037824570414944974 0 -0.027941992888865737 -0.0042604746277299568 0 -0.028226784508014469 -0.0030348043503038821 0 -0.028553283205719704 -0.0037824570414944974 0 -0.027941992888865737 -0.0042604746277299568 0 -0.028672932783308232 -0.0044626992077236634 0 -0.02799267359029859 -0.0061194364637503868 0 -0.028469643387938635 -0.0060443847584817712 0 -0.028290893344554945 -0.0065517114569088337 0 -0.028305693938119627 -0.0049310967613594627 0 -0.027941992888865737 -0.0042604746277299568 0 -0.028672932783308232 -0.0044626992077236634 0 -0.028092662717463784 -0.0054614651762714076 0 -0.028804615935131762 -0.0057140154592592949 0 -0.028305693938119627 -0.0049310967613594627 0 -0.028672932783308232 -0.0044626992077236634 0 -0.028662448058708129 -0.0049875409178230445 0 -0.029321317442791917 -0.00457408801917934 0 -0.028672932783308232 -0.0044626992077236634 0 -0.028662448058708129 -0.0049875409178230445 0 -0.029321317442791917 -0.00457408801917934 0 -0.028672932783308232 -0.0044626992077236634 0 -0.029361186516936449 -0.0038415508668872725 0 -0.028553283205719704 -0.0037824570414944974 0 -0.028672932783308232 -0.0044626992077236634 0 -0.029361186516936449 -0.0038415508668872725 0 -0.028553283205719704 -0.0037824570414944974 0 -0.029361186516936449 -0.0038415508668872725 0 -0.029315194270848284 -0.0025125118287597217 0 -0.029361186516936449 -0.0038415508668872725 0 -0.030238942208123409 -0.0038643560562480863 0 -0.030323404383086776 -0.0030967852407794592 0 -0.029321317442791917 -0.00457408801917934 0 -0.029361186516936449 -0.0038415508668872725 0 -0.030238942208123409 -0.0038643560562480863 0 -0.030238942208123409 -0.0038643560562480863 0 -0.031614458488481406 -0.0028788306222817511 0 -0.030323404383086776 -0.0030967852407794592 0 -0.029321317442791917 -0.00457408801917934 0 -0.028987301400074179 -0.0053399823929505185 0 -0.030506615518546894 -0.0045664728747719114 0 -0.029321317442791917 -0.00457408801917934 0 -0.030238942208123409 -0.0038643560562480863 0 -0.030506615518546894 -0.0045664728747719114 0 -0.029321317442791917 -0.00457408801917934 0 -0.028987301400074179 -0.0053399823929505185 0 -0.028662448058708129 -0.0049875409178230445 0 -0.028305693938119627 -0.0049310967613594627 0 -0.028662448058708129 -0.0049875409178230445 0 -0.028110792507389477 -0.0056201566925113688 0 -0.028987301400074179 -0.0053399823929505185 0 -0.028662448058708129 -0.0049875409178230445 0 -0.028110792507389477 -0.0056201566925113688 0 -0.028110792507389477 -0.0056201566925113688 0 -0.027614428474957674 -0.0059891353336117108 0 -0.028389310498352058 -0.0059609156587084045 0 -0.028987301400074179 -0.0053399823929505185 0 -0.028110792507389477 -0.0056201566925113688 0 -0.028389310498352058 -0.0059609156587084045 0 -0.028987301400074179 -0.0053399823929505185 0 -0.028389310498352058 -0.0059609156587084045 0 -0.029305149363136135 -0.0058235592753318171 0 -0.028702173765648261 -0.0060349423002182155 0 -0.028389310498352058 -0.0059609156587084045 0 -0.029305149363136135 -0.0058235592753318171 0 -0.029793758367472525 -0.0051684361999430276 0 -0.029750335769507651 -0.0041939597069121284 0 -0.03077974273288692 -0.0045094648433526277 0 -0.029750335769507651 -0.0041939597069121284 0 -0.03077974273288692 -0.0045094648433526277 0 -0.031308461034890725 -0.0033904673405605597 0 -0.029750335769507651 -0.0041939597069121284 0 -0.031308461034890725 -0.0033904673405605597 0 -0.030747540603208844 -0.0028566707276546483 0 -0.028987301400074179 -0.0053399823929505185 0 -0.029305149363136135 -0.0058235592753318171 0 -0.030506615518546894 -0.0045664728747719114 0 -0.029528449915136774 -0.0050178406763329141 0 -0.030622617661622251 -0.0036948868025826207 0 -0.030622617661622251 -0.0036948868025826207 0 -0.031627663111241058 -0.0023400897926558043 0 -0.030747540603208844 -0.0028566707276546483 0 -0.032058853024394436 -0.0022550436227064033 0 -0.031661765991716204 -0.0017856919591395758 0 -0.030238942208123409 -0.0038643560562480863 0 -0.030506615518546894 -0.0045664728747719114 0 -0.031614458488481406 -0.0028788306222817511 0 -0.031308461034890725 -0.0033904673405605597 0 -0.030747540603208844 -0.0028566707276546483 0 -0.032058853024394436 -0.0022550436227064033 0 -0.031308461034890725 -0.0033904673405605597 0 -0.032058853024394436 -0.0022550436227064033 0 -0.032557571488020916 -0.0028170859501732348 0 -0.032058853024394436 -0.0022550436227064033 0 -0.032557571488020916 -0.0028170859501732348 0 -0.033122676836153157 -0.0018430853779547148 0 -0.03244284557577249 -0.0029066942940618522 0 -0.033026238261385232 -0.0019030852262877842 0 -0.033163209291497554 -0.0030048919254129038 0 -0.032355703589272491 -0.0029709992216627326 0 -0.032905567053291541 -0.0019667291387669224 0 -0.032850844703593868 -0.0038620126244595264 0 -0.033163209291497554 -0.0030048919254129038 0 -0.032355703589272491 -0.0029709992216627326 0 -0.032850844703593868 -0.0038620126244595264 0 -0.032355703589272491 -0.0029709992216627326 0 -0.031849909661958609 -0.0040423970628054593 0 -0.03244284557577249 -0.0029066942940618522 0 -0.031928720303341311 -0.0039797480945817486 0 -0.031308461034890725 -0.0033904673405605597 0 -0.032557571488020916 -0.0028170859501732348 0 -0.031849909661958609 -0.0040423970628054593 0 -0.031480345982264651 -0.0053744377200198052 0 -0.03077974273288692 -0.0045094648433526277 0 -0.031849909661958609 -0.0040423970628054593 0 -0.03077974273288692 -0.0045094648433526277 0 -0.031308461034890725 -0.0033904673405605597 0 -0.031849909661958609 -0.0040423970628054593 0 -0.032850844703593868 -0.0038620126244595264 0 -0.03254543754548074 -0.004909149503649941 0 -0.031849909661958609 -0.0040423970628054593 0 -0.0335714468924296 -0.00063969485096650408 0 -0.033550650967774369 -0.0011405370426610061 0 -0.032778390304697654 -0.0013587064696032164 0 -0.03403394203685435 -0.00065491947536694059 0 -0.0335714468924296 -0.00063969485096650408 0 -0.033550650967774369 -0.0011405370426610061 0 -0.033550650967774369 -0.0011405370426610061 0 -0.033122676836153157 -0.0018430853779547148 0 -0.032778390304697654 -0.0013587064696032164 0 -0.033475191618814348 -0.0011815266587430504 0 -0.033026238261385232 -0.0019030852262877842 0 -0.033821947629563524 -0.0016631808543637152 0 -0.033550650967774369 -0.0011405370426610061 0 -0.032905567053291541 -0.0019667291387669224 0 -0.032058853024394436 -0.0022550436227064033 0 -0.033122676836153157 -0.0018430853779547148 0 -0.032778390304697654 -0.0013587064696032164 0 -0.032778390304697654 -0.0013587064696032164 0 -0.031661765991716204 -0.0017856919591395758 0 -0.032518175522558937 -0.0010032951838270211 0 -0.032058853024394436 -0.0022550436227064033 0 -0.032778390304697654 -0.0013587064696032164 0 -0.031661765991716204 -0.0017856919591395758 0 -0.031614458488481406 -0.0028788306222817511 0 -0.032450320971414544 -0.0017787692960692272 0 -0.031043296265412725 -0.0020838096208586412 0 -0.031627663111241058 -0.0023400897926558043 0 -0.032489184374848927 -0.0013936918566978158 0 -0.0335714468924296 -0.00063969485096650408 0 -0.032778390304697654 -0.0013587064696032164 0 -0.032518175522558937 -0.0010032951838270211 0 -0.0335714468924296 -0.00063969485096650408 0 -0.032518175522558937 -0.0010032951838270211 0 -0.033319848869784195 -0.00044859889465157876 0 -0.032450320971414544 -0.0017787692960692272 0 -0.032029054277184367 -0.00168612698759771 0 -0.033409288527253632 -0.0010772854024879057 0 -0.032489184374848927 -0.0013936918566978158 0 -0.033365128139070013 -0.00075691054496113098 0 -0.032029054277184367 -0.00168612698759771 0 -0.032662531162345111 -0.0011399354342256122 0 -0.033409288527253632 -0.0010772854024879057 0 -0.032029054277184367 -0.00168612698759771 0 -0.031748107463692235 -0.0015134651217393489 0 -0.032662531162345111 -0.0011399354342256122 0 -0.031520975443680571 -0.0019405780045208061 0 -0.032029054277184367 -0.00168612698759771 0 -0.031043296265412725 -0.0020838096208586412 0 -0.031520975443680571 -0.0019405780045208061 0 -0.032029054277184367 -0.00168612698759771 0 -0.031748107463692235 -0.0015134651217393489 0 -0.031520975443680571 -0.0019405780045208061 0 -0.031371287563725085 -0.0019701470306834981 0 -0.031748107463692235 -0.0015134651217393489 0 -0.032450320971414544 -0.0017787692960692272 0 -0.032029054277184367 -0.00168612698759771 0 -0.031043296265412725 -0.0020838096208586412 0 -0.031614458488481406 -0.0028788306222817511 0 -0.031043296265412725 -0.0020838096208586412 0 -0.030323404383086776 -0.0030967852407794592 0 -0.031043296265412725 -0.0020838096208586412 0 -0.030323404383086776 -0.0030967852407794592 0 -0.029315194270848284 -0.0025125118287597217 0 -0.029361186516936449 -0.0038415508668872725 0 -0.030323404383086776 -0.0030967852407794592 0 -0.029315194270848284 -0.0025125118287597217 0 -0.030934237600221487 -0.0020609258155551246 0 -0.03015851701085482 -0.0024328926167818681 0 -0.031520975443680571 -0.0019405780045208061 0 -0.031341705426245529 -0.0020114894586137333 0 -0.031371287563725085 -0.0019701470306834981 0 -0.031520975443680571 -0.0019405780045208061 0 -0.031043296265412725 -0.0020838096208586412 0 -0.031341705426245529 -0.0020114894586137333 0 -0.035247569700050357 -0.0020007262717656711 0 -0.034800858269248974 -0.0022378877747983913 0 -0.03496084480107528 -0.0017263226658548413 0 -0.035247569700050357 -0.0020007262717656711 0 -0.035086292500474937 -0.0026977060101053109 0 -0.034800858269248974 -0.0022378877747983913 0 -0.028553283205719704 -0.0037824570414944974 0 -0.029315194270848284 -0.0025125118287597217 0 -0.028226784508014469 -0.0030348043503038821 0 -0.031341705426245529 -0.0020114894586137333 0 -0.031371287563725085 -0.0019701470306834981 0 -0.031325832264010922 -0.00202896938331303 0 -0.033507780175905 -0.0018692581696578699 0 -0.03153842110453671 -0.0027436066709864222 0 -0.03015851701085482 -0.0024328926167818681 0 -0.03153842110453671 -0.0027436066709864222 0 -0.035086292500474937 -0.0026977060101053109 0 -0.034727425256363027 -0.002513891783820331 0 -0.034800858269248974 -0.0022378877747983913 0 -0.034722767104136958 -0.0029140932887512104 0 -0.034727425256363027 -0.002513891783820331 0 -0.034306892602286518 -0.0022076392581529538 0 -0.034722767104136958 -0.0029140932887512104 0 -0.035086292500474937 -0.0026977060101053109 0 -0.034727425256363027 -0.002513891783820331 0 -0.034727425256363027 -0.002513891783820331 0 -0.034800858269248974 -0.0022378877747983913 0 -0.034306892602286518 -0.0022076392581529538 0 -0.034800858269248974 -0.0022378877747983913 0 -0.03496084480107528 -0.0017263226658548413 0 -0.034516906160586253 -0.0017731906626469822 0 -0.03496084480107528 -0.0017263226658548413 0 -0.034871632435892336 -0.0013307209109788179 0 -0.034516906160586253 -0.0017731906626469822 0 -0.033507780175905 -0.0018692581696578699 0 -0.033531321229732867 -0.0014691184643424839 0 -0.035247569700050357 -0.0020007262717656711 0 -0.03496084480107528 -0.0017263226658548413 0 -0.035347697844921581 -0.0013098394668245954 0 -0.035347697844921581 -0.0013098394668245954 0 -0.034871632435892336 -0.0013307209109788179 0 -0.035030201805444368 -0.00085786247253764479 0 -0.03496084480107528 -0.0017263226658548413 0 -0.035347697844921581 -0.0013098394668245954 0 -0.034871632435892336 -0.0013307209109788179 0 -0.034871632435892336 -0.0013307209109788179 0 -0.034485195111811702 -0.0012784173717636422 0 -0.034697877301658853 -0.00074763923679703221 0 -0.034871632435892336 -0.0013307209109788179 0 -0.035030201805444368 -0.00085786247253764479 0 -0.034697877301658853 -0.00074763923679703221 0 -0.035347697844921581 -0.0013098394668245954 0 -0.035030201805444368 -0.00085786247253764479 0 -0.035338474590913507 -0.0006975917464551284 0 -0.034949834114472098 -0.00028896677407653403 0 -0.035245754815822254 -0.00024713182017067035 0 -0.035338474590913507 -0.0006975917464551284 0 -0.035030201805444368 -0.00085786247253764479 0 -0.034949834114472098 -0.00028896677407653403 0 -0.035338474590913507 -0.0006975917464551284 0 -0.034949834114472098 -0.00028896677407653403 0 -0.034697877301658853 -0.00074763923679703221 0 -0.034638465935760518 -0.00050144201805510326 0 -0.035030201805444368 -0.00085786247253764479 0 -0.034949834114472098 -0.00028896677407653403 0 -0.034697877301658853 -0.00074763923679703221 0 -0.034949834114472098 -0.00028896677407653403 0 -0.034999987552102374 -1.039121466199499e-07 0 -0.034999943908560815 -9.6934634912629121e-08 0 -0.034949834114472098 -0.00028896677407653403 0 -0.034999987552102374 -1.039121466199499e-07 0 -0.035067746012697833 -7.7465774613096205e-05 0 -0.034949834114472098 -0.00028896677407653403 0 -0.035245754815822254 -0.00024713182017067035 0 -0.035067746012697833 -7.7465774613096205e-05 0 -0.034438836343894906 -0.00032610643795748874 0 -0.034999735980470605 -2.7310740755192794e-07 0 -0.034999987552102374 -1.039121466199499e-07 0 -0.035000425323206838 -3.7942904932247665e-08 0 -0.035067746012697833 -7.7465774613096205e-05 0 -0.035245754815822254 -0.00024713182017067035 0 -0.035000425323206838 -3.7942904932247665e-08 0 -0.035067746012697833 -7.7465774613096205e-05 0 -0.034998643818815782 2.5496958771447229e-07 0 -0.034999510460812754 -1.8182532061434675e-07 0 -0.034437299560339876 -9.117087512973346e-05 0 -0.033651051879833957 -0.00021522821168105903 0 -0.034998643818815782 2.5496958771447229e-07 0 -0.034437299560339876 -9.117087512973346e-05 0 -0.033651051879833957 -0.00021522821168105903 0 -0.034437299560339876 -9.117087512973346e-05 0 -0.033515796413235904 -0.00057527217623310411 0 -0.034438836343894906 -0.00032610643795748874 0 -0.033956862468182844 -0.00078747216777828681 0 -0.033651051879833957 -0.00021522821168105903 0 -0.033515796413235904 -0.00057527217623310411 0 -0.032570315346618445 -0.00079509169544683667 0 -0.031748107463692235 -0.0015134651217393489 0 -0.032570315346618445 -0.00079509169544683667 0 -0.032662531162345111 -0.0011399354342256122 0 -0.033531321229732867 -0.0014691184643424839 0 -0.033956862468182844 -0.00078747216777828681 0 -0.033515796413235904 -0.00057527217623310411 0 -0.032570315346618445 -0.00079509169544683667 0 -0.032662531162345111 -0.0011399354342256122 0 -0.033515796413235904 -0.00057527217623310411 0 -0.032662531162345111 -0.0011399354342256122 0 -0.033409288527253632 -0.0010772854024879057 0 -0.03499968556817664 1.0696107148645094e-08 0 -0.034997736811040604 1.3612493807571867e-08 0 -0.034548064581346551 -6.0331833111440263e-05 0 -0.033957461395559246 -0.00026125156254077242 0 -0.034181748016677262 -0.00011076755482906699 0 -0.034548064581346551 -6.0331833111440263e-05 0 -0.0335714468924296 -0.00063969485096650408 0 -0.033319848869784195 -0.00044859889465157876 0 -0.033957461395559246 -0.00026125156254077242 0 -0.033319848869784195 -0.00044859889465157876 0 -0.033957461395559246 -0.00026125156254077242 0 -0.034181748016677262 -0.00011076755482906699 0 -0.033515796413235904 -0.00057527217623310411 0 -0.033409288527253632 -0.0010772854024879057 0 -0.034297281746749488 -0.00031951115973670213 0 -0.033365128139070013 -0.00075691054496113098 0 -0.034231761284746816 -0.00022648101344434842 0 -0.034181748016677262 -0.00011076755482906699 0 -0.034997736811040604 1.3612493807571867e-08 0 -0.034548064581346551 -6.0331833111440263e-05 0 -0.034437299560339876 -9.117087512973346e-05 0 -0.033515796413235904 -0.00057527217623310411 0 -0.034297281746749488 -0.00031951115973670213 0 -0.034437299560339876 -9.117087512973346e-05 0 -0.034297281746749488 -0.00031951115973670213 0 -0.034999850984823555 1.9619023020637275e-07 0 -0.034999510460812754 -1.8182532061434675e-07 0 -0.034437299560339876 -9.117087512973346e-05 0 -0.034999850984823555 1.9619023020637275e-07 0 -0.034231761284746816 -0.00022648101344434842 0 -0.034999750984682526 -3.9482971601906315e-08 0 -0.034646550326497619 -0.00011986343123526595 0 -0.034548064581346551 -6.0331833111440263e-05 0 -0.03428721784189067 -0.00023462506578571246 0 -0.033957461395559246 -0.00026125156254077242 0 -0.034548064581346551 -6.0331833111440263e-05 0 -0.03428721784189067 -0.00023462506578571246 0 -0.0335714468924296 -0.00063969485096650408 0 -0.033957461395559246 -0.00026125156254077242 0 -0.03428721784189067 -0.00023462506578571246 0 -0.03403394203685435 -0.00065491947536694059 0 -0.0335714468924296 -0.00063969485096650408 0 -0.03428721784189067 -0.00023462506578571246 0 -0.031984541087804699 -0.0024291548482189402 0 -0.031631145589956118 -0.0016864844850515363 0 -0.030903909887061452 -0.0024353478802466746 0 -0.031984541087804699 -0.0024291548482189402 0 -0.032613784114192718 -0.0025021028477104999 0 -0.032979933738537991 -0.0019116253500889194 0 -0.031984541087804699 -0.0024291548482189402 0 -0.032979933738537991 -0.0019116253500889194 0 -0.032996712672273124 -0.0013818243346408888 0 -0.031984541087804699 -0.0024291548482189402 0 -0.031631145589956118 -0.0016864844850515363 0 -0.032996712672273124 -0.0013818243346408888 0 -0.031631145589956118 -0.0016864844850515363 0 -0.030222437910896165 -0.0014683881034094012 0 -0.030276609219338741 -0.0021940007335448874 0 -0.030222437910896165 -0.0014683881034094012 0 -0.030276609219338741 -0.0021940007335448874 0 -0.029556851638184656 -0.0024123920026786348 0 -0.030276609219338741 -0.0021940007335448874 0 -0.029928002168547459 -0.0025173581074537086 0 -0.029556851638184656 -0.0024123920026786348 0 -0.030276609219338741 -0.0021940007335448874 0 -0.030903909887061452 -0.0024353478802466746 0 -0.0300822046063513 -0.0028135866383635784 0 -0.029928002168547459 -0.0025173581074537086 0 -0.0300822046063513 -0.0028135866383635784 0 -0.029653221966219903 -0.0027248864376602463 0 -0.030276609219338741 -0.0021940007335448874 0 -0.029928002168547459 -0.0025173581074537086 0 -0.0300822046063513 -0.0028135866383635784 0 -0.031631145589956118 -0.0016864844850515363 0 -0.030276609219338741 -0.0021940007335448874 0 -0.030903909887061452 -0.0024353478802466746 0 -0.031984541087804699 -0.0024291548482189402 0 -0.030903909887061452 -0.0024353478802466746 0 -0.030719572580660381 -0.0030567051088069637 0 -0.030903909887061452 -0.0024353478802466746 0 -0.030719572580660381 -0.0030567051088069637 0 -0.0300822046063513 -0.0028135866383635784 0 -0.0300822046063513 -0.0028135866383635784 0 -0.029871784385408131 -0.0035010249739753948 0 -0.029418480785928989 -0.0031280657916145532 0 -0.030719572580660381 -0.0030567051088069637 0 -0.0300822046063513 -0.0028135866383635784 0 -0.029871784385408131 -0.0035010249739753948 0 -0.029871784385408131 -0.0035010249739753948 0 -0.029380257366298946 -0.0036088030767470291 0 -0.029320087175260103 -0.0040463722835309846 0 -0.030719572580660381 -0.0030567051088069637 0 -0.029871784385408131 -0.0035010249739753948 0 -0.030349497253643713 -0.0037078463005450575 0 -0.030719572580660381 -0.0030567051088069637 0 -0.030349497253643713 -0.0037078463005450575 0 -0.031134520393457443 -0.0033159386388094685 0 -0.029700842013756359 -0.0042245964076247479 0 -0.029871784385408131 -0.0035010249739753948 0 -0.030349497253643713 -0.0037078463005450575 0 -0.030618574869994659 -0.0041683275988012389 0 -0.030349497253643713 -0.0037078463005450575 0 -0.031134520393457443 -0.0033159386388094685 0 -0.030618574869994659 -0.0041683275988012389 0 -0.031134520393457443 -0.0033159386388094685 0 -0.031397781389925113 -0.0037014835133301061 0 -0.031984541087804699 -0.0024291548482189402 0 -0.030719572580660381 -0.0030567051088069637 0 -0.031134520393457443 -0.0033159386388094685 0 -0.031984541087804699 -0.0024291548482189402 0 -0.031134520393457443 -0.0033159386388094685 0 -0.032144686432104788 -0.0031052266610684322 0 -0.031984541087804699 -0.0024291548482189402 0 -0.032144686432104788 -0.0031052266610684322 0 -0.032613784114192718 -0.0025021028477104999 0 -0.031134520393457443 -0.0033159386388094685 0 -0.031397781389925113 -0.0037014835133301061 0 -0.032144686432104788 -0.0031052266610684322 0 -0.031397781389925113 -0.0037014835133301061 0 -0.031871764884565154 -0.0038363848353215823 0 -0.032144686432104788 -0.0031052266610684322 0 -0.031871764884565154 -0.0038363848353215823 0 -0.032599130009412142 -0.0035997094580846561 0 -0.032144686432104788 -0.0031052266610684322 0 -0.032688068978430747 -0.0035267325743448229 0 -0.033153525017128135 -0.0023476393302520561 0 -0.032599130009412142 -0.0035997094580846561 0 -0.033340261555446074 -0.0028852686759974402 0 -0.033077270280251897 -0.0021633672086375623 0 -0.032599130009412142 -0.0035997094580846561 0 -0.032144686432104788 -0.0031052266610684322 0 -0.033255767551480749 -0.0024922446347239234 0 -0.032144686432104788 -0.0031052266610684322 0 -0.032613784114192718 -0.0025021028477104999 0 -0.033255767551480749 -0.0024922446347239234 0 -0.031535135046205087 -0.0053986583730942688 0 -0.032997252592205255 -0.0032947294701903933 0 -0.030207676889763287 -0.0064158135916227814 0 -0.030574951233254002 -0.0065120751571434944 0 -0.030162379554759967 -0.0058215831157270104 0 -0.029927107072444854 -0.0064754345522471781 0 -0.030207676889763287 -0.0064158135916227814 0 -0.030162379554759967 -0.0058215831157270104 0 -0.031311685054103415 -0.0054559465843711519 0 -0.032997252592205255 -0.0032947294701903933 0 -0.033408426211734905 -0.0038881406800272793 0 -0.032599130009412142 -0.0035997094580846561 0 -0.033340261555446074 -0.0028852686759974402 0 -0.033408426211734905 -0.0038881406800272793 0 -0.033340261555446074 -0.0028852686759974402 0 -0.03404566244244181 -0.0028200233703229191 0 -0.033340261555446074 -0.0028852686759974402 0 -0.03404566244244181 -0.0028200233703229191 0 -0.033726209883707205 -0.0021195887985524728 0 -0.033340261555446074 -0.0028852686759974402 0 -0.033726209883707205 -0.0021195887985524728 0 -0.033077270280251897 -0.0021633672086375623 0 -0.034358798493621549 -0.0021905941482738729 0 -0.034516906160586253 -0.0017731906626469822 0 -0.034116811148601184 -0.0018244488760794106 0 -0.034800858269248974 -0.0022378877747983913 0 -0.034306892602286518 -0.0022076392581529538 0 -0.034516906160586253 -0.0017731906626469822 0 -0.032997252592205255 -0.0032947294701903933 0 -0.034657555868652712 -0.0013608723237606552 0 -0.032997252592205255 -0.0032947294701903933 0 -0.033935274284282384 -0.0019343405588453592 0 -0.034516906160586253 -0.0017731906626469822 0 -0.034116811148601184 -0.0018244488760794106 0 -0.034174445514128765 -0.0015116550562975443 0 -0.034516906160586253 -0.0017731906626469822 0 -0.034174445514128765 -0.0015116550562975443 0 -0.034485195111811702 -0.0012784173717636422 0 -0.033726209883707205 -0.0021195887985524728 0 -0.033724328363101415 -0.0014803287347142208 0 -0.033077270280251897 -0.0021633672086375623 0 -0.034116811148601184 -0.0018244488760794106 0 -0.033724328363101415 -0.0014803287347142208 0 -0.034174445514128765 -0.0015116550562975443 0 -0.033935274284282384 -0.0019343405588453592 0 -0.033703405955287646 -0.001513078464318752 0 -0.033724328363101415 -0.0014803287347142208 0 -0.033729512012895299 -0.0010172235377124998 0 -0.034177421055544679 -0.0010685964722011603 0 -0.033724328363101415 -0.0014803287347142208 0 -0.034174445514128765 -0.0015116550562975443 0 -0.034177421055544679 -0.0010685964722011603 0 -0.034871632435892336 -0.0013307209109788179 0 -0.034516906160586253 -0.0017731906626469822 0 -0.034485195111811702 -0.0012784173717636422 0 -0.034174445514128765 -0.0015116550562975443 0 -0.034485195111811702 -0.0012784173717636422 0 -0.034177421055544679 -0.0010685964722011603 0 -0.032613784114192718 -0.0025021028477104999 0 -0.033255767551480749 -0.0024922446347239234 0 -0.032979933738537991 -0.0019116253500889194 0 -0.033724328363101415 -0.0014803287347142208 0 -0.033077270280251897 -0.0021633672086375623 0 -0.033729512012895299 -0.0010172235377124998 0 -0.033255767551480749 -0.0024922446347239234 0 -0.032979933738537991 -0.0019116253500889194 0 -0.033735650893417561 -0.001494727963679484 0 -0.033153525017128135 -0.0023476393302520561 0 -0.033736025397710562 -0.0012568475729207301 0 -0.032979933738537991 -0.0019116253500889194 0 -0.033258302814431477 -0.0013666328691838529 0 -0.033735650893417561 -0.001494727963679484 0 -0.032979933738537991 -0.0019116253500889194 0 -0.033258302814431477 -0.0013666328691838529 0 -0.032996712672273124 -0.0013818243346408888 0 -0.033258302814431477 -0.0013666328691838529 0 -0.033209295338745358 -0.0008851842503236724 0 -0.032996712672273124 -0.0013818243346408888 0 -0.033595609234193968 -0.001073430902155883 0 -0.033258302814431477 -0.0013666328691838529 0 -0.033209295338745358 -0.0008851842503236724 0 -0.033595609234193968 -0.001073430902155883 0 -0.033735650893417561 -0.001494727963679484 0 -0.034191958320528647 -0.00050282373955600802 0 -0.033595609234193968 -0.001073430902155883 0 -0.033258302814431477 -0.0013666328691838529 0 -0.033735650893417561 -0.001494727963679484 0 -0.033729512012895299 -0.0010172235377124998 0 -0.034191958320528647 -0.00050282373955600802 0 -0.034301758232623769 -0.00071198450821681101 0 -0.033736025397710562 -0.0012568475729207301 0 -0.034122119259878167 -0.00053439016170373974 0 -0.033595609234193968 -0.001073430902155883 0 -0.034191958320528647 -0.00050282373955600802 0 -0.033209295338745358 -0.0008851842503236724 0 -0.034697877301658853 -0.00074763923679703221 0 -0.034177421055544679 -0.0010685964722011603 0 -0.034301758232623769 -0.00071198450821681101 0 -0.034485195111811702 -0.0012784173717636422 0 -0.034697877301658853 -0.00074763923679703221 0 -0.034177421055544679 -0.0010685964722011603 0 -0.033729512012895299 -0.0010172235377124998 0 -0.034177421055544679 -0.0010685964722011603 0 -0.034301758232623769 -0.00071198450821681101 0 -0.034191958320528647 -0.00050282373955600802 0 -0.034301758232623769 -0.00071198450821681101 0 -0.034514704013506474 -0.00042175050248115551 0 -0.034301758232623769 -0.00071198450821681101 0 -0.034638465935760518 -0.00050144201805510326 0 -0.034514704013506474 -0.00042175050248115551 0 -0.034697877301658853 -0.00074763923679703221 0 -0.034301758232623769 -0.00071198450821681101 0 -0.034638465935760518 -0.00050144201805510326 0 -0.034949834114472098 -0.00028896677407653403 0 -0.034746067954654139 -0.00026127234501715357 0 -0.034999943908560815 -9.6934634912629121e-08 0 -0.034949834114472098 -0.00028896677407653403 0 -0.034638465935760518 -0.00050144201805510326 0 -0.034746067954654139 -0.00026127234501715357 0 -0.034638465935760518 -0.00050144201805510326 0 -0.034746067954654139 -0.00026127234501715357 0 -0.034514704013506474 -0.00042175050248115551 0 -0.034746067954654139 -0.00026127234501715357 0 -0.034514704013506474 -0.00042175050248115551 0 -0.034643912135650524 -0.00016509639746021274 0 -0.034191958320528647 -0.00050282373955600802 0 -0.034514704013506474 -0.00042175050248115551 0 -0.034643912135650524 -0.00016509639746021274 0 -0.034643912135650524 -0.00016509639746021274 0 -0.034999943908560815 -9.6934634912629121e-08 0 -0.03499839750972019 1.9732638553441865e-07 0 -0.034746067954654139 -0.00026127234501715357 0 -0.034643912135650524 -0.00016509639746021274 0 -0.034999943908560815 -9.6934634912629121e-08 0 -0.034191958320528647 -0.00050282373955600802 0 -0.033209295338745358 -0.0008851842503236724 0 -0.033976266236751547 -0.00018806847168360079 0 -0.033769617009770714 -0.00063735092385782148 0 -0.034416375410989498 -0.00014284554504982611 0 -0.034345217355682488 -0.00040309921607631247 0 -0.034865284002837102 -8.10202372213422e-06 0 -0.034489827917494331 3.7863394854528421e-05 0 -0.034191958320528647 -0.00050282373955600802 0 -0.034643912135650524 -0.00016509639746021274 0 -0.033976266236751547 -0.00018806847168360079 0 -0.034416375410989498 -0.00014284554504982611 0 -0.034999731591302381 -6.7419540834727097e-08 0 -0.034643912135650524 -0.00016509639746021274 0 -0.033976266236751547 -0.00018806847168360079 0 -0.03499839750972019 1.9732638553441865e-07 0 -0.034865284002837102 -8.10202372213422e-06 0 -0.035000132330403562 -1.0670271174247607e-07 0 -0.034999441884941238 2.0418582260696927e-07 0 -0.034865284002837102 -8.10202372213422e-06 0 -0.034999441884941238 2.0418582260696927e-07 0 -0.034489827917494331 3.7863394854528421e-05 0 -0.034999441884941238 2.0418582260696927e-07 0 -0.034998984259562965 -5.2635147369013224e-08 0 -0.034489827917494331 3.7863394854528421e-05 0 -0.034998984259562965 -5.2635147369013224e-08 0 -0.034489827917494331 3.7863394854528421e-05 0 -0.033711928535431687 6.7102805500544272e-05 0 -0.034345217355682488 -0.00040309921607631247 0 -0.034489827917494331 3.7863394854528421e-05 0 -0.033711928535431687 6.7102805500544272e-05 0 -0.034345217355682488 -0.00040309921607631247 0 -0.033711928535431687 6.7102805500544272e-05 0 -0.032962187792018885 -0.00081366949058357847 0 -0.031631145589956118 -0.0016864844850515363 0 -0.032962187792018885 -0.00081366949058357847 0 -0.032996712672273124 -0.0013818243346408888 0 -0.034345217355682488 -0.00040309921607631247 0 -0.032962187792018885 -0.00081366949058357847 0 -0.032996712672273124 -0.0013818243346408888 0 -0.033769617009770714 -0.00063735092385782148 0 -0.033112994011884195 -0.0013125960193565531 0 -0.034711059910158389 0.00081077867113321276 0 -0.034374521322438893 0.00062712432637248184 0 -0.034806519483378345 0.00056449143546997212 0 -0.032535820280905778 -0.00023200917258644991 0 -0.032943112342391487 -9.5566716598230231e-05 0 -0.031631145589956118 -0.0016864844850515363 0 -0.032962187792018885 -0.00081366949058357847 0 -0.031529821477709781 -0.00063704608799545505 0 -0.031631145589956118 -0.0016864844850515363 0 -0.030222437910896165 -0.0014683881034094012 0 -0.031529821477709781 -0.00063704608799545505 0 -0.033546361910547405 6.9125217827398967e-05 0 -0.032943112342391487 -9.5566716598230231e-05 0 -0.033711928535431687 6.7102805500544272e-05 0 -0.032962187792018885 -0.00081366949058357847 0 -0.031529821477709781 -0.00063704608799545505 0 -0.033711928535431687 6.7102805500544272e-05 0 -0.034374521322438893 0.00062712432637248184 0 -0.034727530624330989 0.00023327365642548923 0 -0.034374521322438893 0.00062712432637248184 0 -0.034727530624330989 0.00023327365642548923 0 -0.034806519483378345 0.00056449143546997212 0 -0.034998984259562965 -5.2635147369013224e-08 0 -0.033711928535431687 6.7102805500544272e-05 0 -0.034649253278994249 -3.8634293063295768e-05 0 -0.034727530624330989 0.00023327365642548923 0 -0.034649253278994249 -3.8634293063295768e-05 0 -0.034956414661543415 -7.979659416132981e-06 0 -0.033711928535431687 6.7102805500544272e-05 0 -0.034727530624330989 0.00023327365642548923 0 -0.034649253278994249 -3.8634293063295768e-05 0 -0.034998984259562965 -5.2635147369013224e-08 0 -0.034649253278994249 -3.8634293063295768e-05 0 -0.034999755100683157 -1.1459499285910359e-07 0 -0.034649253278994249 -3.8634293063295768e-05 0 -0.034999755100683157 -1.1459499285910359e-07 0 -0.034956414661543415 -7.979659416132981e-06 0 -0.034956414661543415 -7.979659416132981e-06 0 -0.03500002213544421 1.6296595238682294e-08 0 -0.034987789314168752 7.9770721916298815e-06 0 -0.034999755100683157 -1.1459499285910359e-07 0 -0.034956414661543415 -7.979659416132981e-06 0 -0.03500002213544421 1.6296595238682294e-08 0 -0.03500002213544421 1.6296595238682294e-08 0 -0.034997371375618321 4.9541220589433557e-06 0 -0.035001685605032244 -2.3872102678789324e-07 0 -0.03500002213544421 1.6296595238682294e-08 0 -0.034997371375618321 4.9541220589433557e-06 0 -0.034987789314168752 7.9770721916298815e-06 0 -0.034987789314168752 7.9770721916298815e-06 0 -0.035002809723666775 1.8180689817998125e-05 0 -0.03498681276156082 3.3916292760932161e-05 0 -0.034987789314168752 7.9770721916298815e-06 0 -0.034971381961399518 3.1553993919205491e-05 0 -0.03498681276156082 3.3916292760932161e-05 0 -0.034997371375618321 4.9541220589433557e-06 0 -0.034987789314168752 7.9770721916298815e-06 0 -0.035002809723666775 1.8180689817998125e-05 0 -0.034727530624330989 0.00023327365642548923 0 -0.034956414661543415 -7.979659416132981e-06 0 -0.034980493514290681 0.00027201310189260138 0 -0.034956196035831485 1.626554191632005e-05 0 -0.034957247570842981 0.00011175921153863029 0 -0.034956414661543415 -7.979659416132981e-06 0 -0.034987789314168752 7.9770721916298815e-06 0 -0.034971381961399518 3.1553993919205491e-05 0 -0.035000011897626471 -1.0735451060474567e-08 0 -0.034995126773186364 -9.7887622587395168e-06 0 -0.035004579410946257 -1.9367916218926824e-05 0 -0.035000011897626471 -1.0735451060474567e-08 0 -0.034995126773186364 -9.7887622587395168e-06 0 -0.034999961183005322 -1.5633765354481347e-08 0 -0.034995126773186364 -9.7887622587395168e-06 0 -0.035004579410946257 -1.9367916218926824e-05 0 -0.034982635831873915 -2.6668892460186061e-05 0 -0.035000011897626471 -1.0735451060474567e-08 0 -0.035001685605032244 -2.3872102678789324e-07 0 -0.035004579410946257 -1.9367916218926824e-05 0 -0.035007377153838129 -3.1577225392356047e-06 0 -0.035005842719244055 -8.7570257265591219e-06 0 -0.035001685605032244 -2.3872102678789324e-07 0 -0.035004579410946257 -1.9367916218926824e-05 0 -0.035032843735400096 -3.9561086217477422e-05 0 -0.03500002213544421 1.6296595238682294e-08 0 -0.035000011897626471 -1.0735451060474567e-08 0 -0.035001685605032244 -2.3872102678789324e-07 0 -0.034997371375618321 4.9541220589433557e-06 0 -0.035001685605032244 -2.3872102678789324e-07 0 -0.035002809723666775 1.8180689817998125e-05 0 -0.035004579410946257 -1.9367916218926824e-05 0 -0.035032843735400096 -3.9561086217477422e-05 0 -0.035013660790328742 -7.1949035620574482e-05 0 -0.035004579410946257 -1.9367916218926824e-05 0 -0.034985717607247308 -6.2133834122645408e-05 0 -0.035013660790328742 -7.1949035620574482e-05 0 -0.035004579410946257 -1.9367916218926824e-05 0 -0.034985717607247308 -6.2133834122645408e-05 0 -0.034982635831873915 -2.6668892460186061e-05 0 -0.034985717607247308 -6.2133834122645408e-05 0 -0.034993901757665806 -0.00010206927407550879 0 -0.034944239112737335 -8.924872490442602e-05 0 -0.034985717607247308 -6.2133834122645408e-05 0 -0.034944239112737335 -8.924872490442602e-05 0 -0.034982635831873915 -2.6668892460186061e-05 0 -0.034985717607247308 -6.2133834122645408e-05 0 -0.035013660790328742 -7.1949035620574482e-05 0 -0.034993901757665806 -0.00010206927407550879 0 -0.035013660790328742 -7.1949035620574482e-05 0 -0.035019026484780821 -0.00012225311756865328 0 -0.034993901757665806 -0.00010206927407550879 0 -0.035032843735400096 -3.9561086217477422e-05 0 -0.035013660790328742 -7.1949035620574482e-05 0 -0.03504794778518263 -0.00011179234769187048 0 -0.035005842719244055 -8.7570257265591219e-06 0 -0.035117995879470593 -3.4857684227038812e-05 0 -0.035013660790328742 -7.1949035620574482e-05 0 -0.035019026484780821 -0.00012225311756865328 0 -0.03504794778518263 -0.00011179234769187048 0 -0.035019026484780821 -0.00012225311756865328 0 -0.035027339825147163 -0.00015497778763263797 0 -0.034986227807740265 -0.00016615709325158468 0 -0.035019026484780821 -0.00012225311756865328 0 -0.03504794778518263 -0.00011179234769187048 0 -0.035027339825147163 -0.00015497778763263797 0 -0.034993901757665806 -0.00010206927407550879 0 -0.034986227807740265 -0.00016615709325158468 0 -0.034944239112737335 -8.924872490442602e-05 0 -0.035019026484780821 -0.00012225311756865328 0 -0.034993901757665806 -0.00010206927407550879 0 -0.034986227807740265 -0.00016615709325158468 0 -0.034980493514290681 0.00027201310189260138 0 -0.035023228118733415 0.00062172000840882168 0 -0.034806519483378345 0.00056449143546997212 0 -0.034727530624330989 0.00023327365642548923 0 -0.034980493514290681 0.00027201310189260138 0 -0.034806519483378345 0.00056449143546997212 0 -0.034957247570842981 0.00011175921153863029 0 -0.035110868561426506 0.00048639383727208701 0 -0.034971381961399518 3.1553993919205491e-05 0 -0.03498681276156082 3.3916292760932161e-05 0 -0.034978696942239283 5.6065690498368233e-05 0 -0.03498681276156082 3.3916292760932161e-05 0 -0.034978696942239283 5.6065690498368233e-05 0 -0.034991465183519775 5.1673716790305887e-05 0 -0.035002809723666775 1.8180689817998125e-05 0 -0.03498681276156082 3.3916292760932161e-05 0 -0.034991465183519775 5.1673716790305887e-05 0 -0.034978696942239283 5.6065690498368233e-05 0 -0.034991465183519775 5.1673716790305887e-05 0 -0.034973506455648257 7.0105962856816854e-05 0 -0.035117995879470593 -3.4857684227038812e-05 0 -0.034021991618951884 -0.00012401707608190036 0 -0.03504794778518263 -0.00011179234769187048 0 -0.035043438130060854 -0.00018111554970509205 0 -0.035027339825147163 -0.00015497778763263797 0 -0.035023228118733415 0.00062172000840882168 0 -0.034875631047541815 0.00072041206744892364 0 -0.034806519483378345 0.00056449143546997212 0 -0.034711059910158389 0.00081077867113321276 0 -0.034875631047541815 0.00072041206744892364 0 -0.034806519483378345 0.00056449143546997212 0 -0.034711059910158389 0.00081077867113321276 0 -0.034875631047541815 0.00072041206744892364 0 -0.034948342989866425 0.00087124948155116347 0 -0.035023228118733415 0.00062172000840882168 0 -0.034875631047541815 0.00072041206744892364 0 -0.034948342989866425 0.00087124948155116347 0 -0.032535820280905778 -0.00023200917258644991 0 -0.031800266022441064 -0.0012884431721277374 0 -0.034711059910158389 0.00081077867113321276 0 -0.034948342989866425 0.00087124948155116347 0 -0.034893041549667089 0.00096588240031641472 0 -0.030222437910896165 -0.0014683881034094012 0 -0.029556851638184656 -0.0024123920026786348 0 -0.029270720277239912 -0.002287906765107631 0 -0.030399632659725388 -0.0013098813640356258 0 -0.031800266022441064 -0.0012884431721277374 0 -0.029556851638184656 -0.0024123920026786348 0 -0.029286622739990255 -0.002308569370363413 0 -0.029274274596759221 -0.0027219804010239143 0 -0.029286622739990255 -0.002308569370363413 0 -0.029274274596759221 -0.0027219804010239143 0 -0.028846604044554736 -0.0028226769681720101 0 -0.029556851638184656 -0.0024123920026786348 0 -0.029274274596759221 -0.0027219804010239143 0 -0.029653221966219903 -0.0027248864376602463 0 -0.029928002168547459 -0.0025173581074537086 0 -0.029556851638184656 -0.0024123920026786348 0 -0.029653221966219903 -0.0027248864376602463 0 -0.031782705078774773 -0.0017022213898140002 0 -0.031015925269474626 -0.0013819508970402195 0 -0.031174161727066479 -0.0023925176808376114 0 -0.028734174327219881 -0.0025337002231959091 0 -0.02831177727205204 -0.0036282223271352806 0 -0.028893002255502273 -0.0032956364370873769 0 -0.032761184223472316 -0.00099765365693135961 0 -0.029459650042193905 -0.0031296377088408916 0 -0.028734174327219881 -0.0025337002231959091 0 -0.028816315399042513 -0.0025682105600775443 0 -0.028893002255502273 -0.0032956364370873769 0 -0.031800266022441064 -0.0012884431721277374 0 -0.029459650042193905 -0.0031296377088408916 0 -0.031800266022441064 -0.0012884431721277374 0 -0.032761184223472316 -0.00099765365693135961 0 -0.034948342989866425 0.00087124948155116347 0 -0.034893041549667089 0.00096588240031641472 0 -0.035046543383317384 0.00090631063767127539 0 -0.035110868561426506 0.00048639383727208701 0 -0.034021991618951884 -0.00012401707608190036 0 -0.035023228118733415 0.00062172000840882168 0 -0.034948342989866425 0.00087124948155116347 0 -0.03505963244637101 0.00086071272537443827 0 -0.035038933119586578 -0.00018950229574073271 0 -0.035043438130060854 -0.00018111554970509205 0 -0.035027339825147163 -0.00015497778763263797 0 -0.032761184223472316 -0.00099765365693135961 0 -0.034021991618951884 -0.00012401707608190036 0 -0.033337632261734279 -0.0012387540543516667 0 -0.032761184223472316 -0.00099765365693135961 0 -0.033357979132030278 -0.0011176805784665342 0 -0.033612623869925466 -0.0012236716626504961 0 -0.033523284765289312 -0.00068061870503617638 0 -0.033337632261734279 -0.0012387540543516667 0 -0.034021991618951884 -0.00012401707608190036 0 -0.034948342989866425 0.00087124948155116347 0 -0.035046543383317384 0.00090631063767127539 0 -0.03505963244637101 0.00086071272537443827 0 -0.033337632261734279 -0.0012387540543516667 0 -0.035433636867123877 -0.00018607681655482129 0 -0.035038933119586578 -0.00018950229574073271 0 -0.035027339825147163 -0.00015497778763263797 0 -0.034986227807740265 -0.00016615709325158468 0 -0.035411077619505654 -0.00051879208941896964 0 -0.03510258072196322 -0.00035373433274095992 0 -0.035179177941201574 -0.00055290595220366153 0 -0.03510258072196322 -0.00035373433274095992 0 -0.035023202543391037 -0.00052878198066110243 0 -0.034916214063044668 -0.00036045453674423317 0 -0.03510258072196322 -0.00035373433274095992 0 -0.035023202543391037 -0.00052878198066110243 0 -0.035179177941201574 -0.00055290595220366153 0 -0.035023202543391037 -0.00052878198066110243 0 -0.035099330621662893 -0.00068466092026211729 0 -0.035179177941201574 -0.00055290595220366153 0 -0.035099330621662893 -0.00068466092026211729 0 -0.035179177941201574 -0.00055290595220366153 0 -0.035187417919315137 -0.00067091857052583312 0 -0.035023202543391037 -0.00052878198066110243 0 -0.035099330621662893 -0.00068466092026211729 0 -0.034951376264908768 -0.00073685497094885669 0 -0.033337632261734279 -0.0012387540543516667 0 -0.031779315947882768 -0.002198419660858624 0 -0.035411077619505654 -0.00051879208941896964 0 -0.035179177941201574 -0.00055290595220366153 0 -0.035265416455642205 -0.0006683431582984624 0 -0.035411077619505654 -0.00051879208941896964 0 -0.035265416455642205 -0.0006683431582984624 0 -0.03529208553755999 -0.00087881709227731811 0 -0.035179177941201574 -0.00055290595220366153 0 -0.035187417919315137 -0.00067091857052583312 0 -0.035265416455642205 -0.0006683431582984624 0 -0.035187417919315137 -0.00067091857052583312 0 -0.035265416455642205 -0.0006683431582984624 0 -0.03520588380929509 -0.00077815989674268049 0 -0.035099330621662893 -0.00068466092026211729 0 -0.035187417919315137 -0.00067091857052583312 0 -0.03520588380929509 -0.00077815989674268049 0 -0.035265416455642205 -0.0006683431582984624 0 -0.03520588380929509 -0.00077815989674268049 0 -0.03529208553755999 -0.00087881709227731811 0 -0.03520588380929509 -0.00077815989674268049 0 -0.035153085528196522 -0.00096632510633338511 0 -0.03529208553755999 -0.00087881709227731811 0 -0.03520588380929509 -0.00077815989674268049 0 -0.035153085528196522 -0.00096632510633338511 0 -0.035133512796184332 -0.00084959207600359137 0 -0.02831177727205204 -0.0036282223271352806 0 -0.028458129804275954 -0.0039638139656052642 0 -0.028482834801179035 -0.003790628000983147 0 -0.02831177727205204 -0.0036282223271352806 0 -0.028482834801179035 -0.003790628000983147 0 -0.028597895931927297 -0.0036079179406055904 0 -0.035024948982527344 -0.00083902585146641915 0 -0.034923357150638948 -0.00093015104220694404 0 -0.034951376264908768 -0.00073685497094885669 0 -0.035099330621662893 -0.00068466092026211729 0 -0.035024948982527344 -0.00083902585146641915 0 -0.034951376264908768 -0.00073685497094885669 0 -0.035099330621662893 -0.00068466092026211729 0 -0.03520588380929509 -0.00077815989674268049 0 -0.035133512796184332 -0.00084959207600359137 0 -0.035099330621662893 -0.00068466092026211729 0 -0.035024948982527344 -0.00083902585146641915 0 -0.035133512796184332 -0.00084959207600359137 0 -0.035024948982527344 -0.00083902585146641915 0 -0.035133512796184332 -0.00084959207600359137 0 -0.035046903752304299 -0.00096315441701922636 0 -0.035153085528196522 -0.00096632510633338511 0 -0.035133512796184332 -0.00084959207600359137 0 -0.035046903752304299 -0.00096315441701922636 0 -0.035024948982527344 -0.00083902585146641915 0 -0.035046903752304299 -0.00096315441701922636 0 -0.034923357150638948 -0.00093015104220694404 0 -0.035153085528196522 -0.00096632510633338511 0 -0.035089194117727186 -0.0010814196364263339 0 -0.035130615840776848 -0.0012670020398132928 0 -0.035046903752304299 -0.00096315441701922636 0 -0.034954789814242056 -0.0011146284086616274 0 -0.034923357150638948 -0.00093015104220694404 0 -0.035046903752304299 -0.00096315441701922636 0 -0.035089194117727186 -0.0010814196364263339 0 -0.034954789814242056 -0.0011146284086616274 0 -0.035153085528196522 -0.00096632510633338511 0 -0.035046903752304299 -0.00096315441701922636 0 -0.035089194117727186 -0.0010814196364263339 0 -0.035089194117727186 -0.0010814196364263339 0 -0.034954789814242056 -0.0011146284086616274 0 -0.035130615840776848 -0.0012670020398132928 0 -0.02831177727205204 -0.0036282223271352806 0 -0.028458129804275954 -0.0039638139656052642 0 -0.02812959927450168 -0.004305366532850045 0 -0.031779315947882768 -0.002198419660858624 0 -0.030616614416495491 -0.0033507055249562484 0 -0.035153085528196522 -0.00096632510633338511 0 -0.03529208553755999 -0.00087881709227731811 0 -0.035130615840776848 -0.0012670020398132928 0 -0.028458129804275954 -0.0039638139656052642 0 -0.028402641237125575 -0.0042874537576732437 0 -0.02812959927450168 -0.004305366532850045 0 -0.028458129804275954 -0.0039638139656052642 0 -0.028542388221062323 -0.0041706959409197331 0 -0.028402641237125575 -0.0042874537576732437 0 -0.028458129804275954 -0.0039638139656052642 0 -0.028542388221062323 -0.0041706959409197331 0 -0.028746389441785904 -0.0040838736989492379 0 -0.028746389441785904 -0.0040838736989492379 0 -0.028482834801179035 -0.003790628000983147 0 -0.028597895931927297 -0.0036079179406055904 0 -0.028458129804275954 -0.0039638139656052642 0 -0.028746389441785904 -0.0040838736989492379 0 -0.028482834801179035 -0.003790628000983147 0 -0.028931964977545868 -0.0037227361644400223 0 -0.029380257366298946 -0.0036088030767470291 0 -0.029418480785928989 -0.0031280657916145532 0 -0.028931964977545868 -0.0037227361644400223 0 -0.029380257366298946 -0.0036088030767470291 0 -0.029320087175260103 -0.0040463722835309846 0 -0.029871784385408131 -0.0035010249739753948 0 -0.029380257366298946 -0.0036088030767470291 0 -0.029418480785928989 -0.0031280657916145532 0 -0.028931964977545868 -0.0037227361644400223 0 -0.029418480785928989 -0.0031280657916145532 0 -0.028846604044554736 -0.0028226769681720101 0 -0.0300822046063513 -0.0028135866383635784 0 -0.029653221966219903 -0.0027248864376602463 0 -0.029418480785928989 -0.0031280657916145532 0 -0.029274274596759221 -0.0027219804010239143 0 -0.029653221966219903 -0.0027248864376602463 0 -0.029418480785928989 -0.0031280657916145532 0 -0.029274274596759221 -0.0027219804010239143 0 -0.029418480785928989 -0.0031280657916145532 0 -0.028846604044554736 -0.0028226769681720101 0 -0.028746389441785904 -0.0040838736989492379 0 -0.028775307973953806 -0.0034152940829613831 0 -0.028597895931927297 -0.0036079179406055904 0 -0.028761762109722606 -0.0038768864927812693 0 -0.029459650042193905 -0.0031296377088408916 0 -0.02831177727205204 -0.0036282223271352806 0 -0.028893002255502273 -0.0032956364370873769 0 -0.028597895931927297 -0.0036079179406055904 0 -0.029459650042193905 -0.0031296377088408916 0 -0.028729197801722083 -0.0036643198225146359 0 -0.034325554904203706 -0.000830233278257063 0 -0.034306979690998989 -0.0010140515029527406 0 -0.034445077665744402 -0.00097886219914607143 0 -0.034325554904203706 -0.000830233278257063 0 -0.034445077665744402 -0.00097886219914607143 0 -0.034548404034875677 -0.00084383145263953639 0 -0.034325554904203706 -0.000830233278257063 0 -0.034548404034875677 -0.00084383145263953639 0 -0.034460633603105348 -0.00068079196741774046 0 -0.034325554904203706 -0.000830233278257063 0 -0.034125625245513228 -0.00075326579238765411 0 -0.03413286506153395 -0.00096954293856189031 0 -0.034125625245513228 -0.00075326579238765411 0 -0.03413286506153395 -0.00096954293856189031 0 -0.033951380470030421 -0.00087565753733157481 0 -0.034325554904203706 -0.000830233278257063 0 -0.03413286506153395 -0.00096954293856189031 0 -0.034306979690998989 -0.0010140515029527406 0 -0.03413286506153395 -0.00096954293856189031 0 -0.034049495051715041 -0.0011729833173819949 0 -0.033951380470030421 -0.00087565753733157481 0 -0.03413286506153395 -0.00096954293856189031 0 -0.034247030489662274 -0.0011273127982772331 0 -0.034306979690998989 -0.0010140515029527406 0 -0.034049495051715041 -0.0011729833173819949 0 -0.034247030489662274 -0.0011273127982772331 0 -0.034307180807410735 -0.001330459181310757 0 -0.03413286506153395 -0.00096954293856189031 0 -0.034049495051715041 -0.0011729833173819949 0 -0.034247030489662274 -0.0011273127982772331 0 -0.034247030489662274 -0.0011273127982772331 0 -0.034434258016088924 -0.0011450828755477937 0 -0.034307180807410735 -0.001330459181310757 0 -0.034247030489662274 -0.0011273127982772331 0 -0.034306979690998989 -0.0010140515029527406 0 -0.034434258016088924 -0.0011450828755477937 0 -0.034445077665744402 -0.00097886219914607143 0 -0.034434258016088924 -0.0011450828755477937 0 -0.034602741217950976 -0.0010548398219253391 0 -0.034306979690998989 -0.0010140515029527406 0 -0.034445077665744402 -0.00097886219914607143 0 -0.034434258016088924 -0.0011450828755477937 0 -0.034602741217950976 -0.0010548398219253391 0 -0.034790582607970022 -0.0010432666875180058 0 -0.034732640594988484 -0.0012905158121859022 0 -0.034434258016088924 -0.0011450828755477937 0 -0.034602741217950976 -0.0010548398219253391 0 -0.034732640594988484 -0.0012905158121859022 0 -0.034602741217950976 -0.0010548398219253391 0 -0.034790582607970022 -0.0010432666875180058 0 -0.034768822434418291 -0.00083354089218872862 0 -0.034954789814242056 -0.0011146284086616274 0 -0.034790582607970022 -0.0010432666875180058 0 -0.034732640594988484 -0.0012905158121859022 0 -0.034954789814242056 -0.0011146284086616274 0 -0.034790582607970022 -0.0010432666875180058 0 -0.034923357150638948 -0.00093015104220694404 0 -0.034790582607970022 -0.0010432666875180058 0 -0.034923357150638948 -0.00093015104220694404 0 -0.034768822434418291 -0.00083354089218872862 0 -0.034923357150638948 -0.00093015104220694404 0 -0.034768822434418291 -0.00083354089218872862 0 -0.034951376264908768 -0.00073685497094885669 0 -0.034445077665744402 -0.00097886219914607143 0 -0.034602741217950976 -0.0010548398219253391 0 -0.034548404034875677 -0.00084383145263953639 0 -0.034602741217950976 -0.0010548398219253391 0 -0.034768822434418291 -0.00083354089218872862 0 -0.034548404034875677 -0.00084383145263953639 0 -0.034768822434418291 -0.00083354089218872862 0 -0.034548404034875677 -0.00084383145263953639 0 -0.034649410057255123 -0.00065106453651315533 0 -0.034548404034875677 -0.00084383145263953639 0 -0.034649410057255123 -0.00065106453651315533 0 -0.034460633603105348 -0.00068079196741774046 0 -0.034768822434418291 -0.00083354089218872862 0 -0.034649410057255123 -0.00065106453651315533 0 -0.034869508814672892 -0.00059018953718283963 0 -0.034649410057255123 -0.00065106453651315533 0 -0.034869508814672892 -0.00059018953718283963 0 -0.034743484021580326 -0.00045992902406036642 0 -0.034649410057255123 -0.00065106453651315533 0 -0.034743484021580326 -0.00045992902406036642 0 -0.034509498166727659 -0.00049679404955581805 0 -0.035023202543391037 -0.00052878198066110243 0 -0.034951376264908768 -0.00073685497094885669 0 -0.034869508814672892 -0.00059018953718283963 0 -0.034768822434418291 -0.00083354089218872862 0 -0.034951376264908768 -0.00073685497094885669 0 -0.034869508814672892 -0.00059018953718283963 0 -0.035023202543391037 -0.00052878198066110243 0 -0.034869508814672892 -0.00059018953718283963 0 -0.034916214063044668 -0.00036045453674423317 0 -0.03510258072196322 -0.00035373433274095992 0 -0.034916214063044668 -0.00036045453674423317 0 -0.034867772464253537 -0.00014573942064315706 0 -0.034869508814672892 -0.00059018953718283963 0 -0.034916214063044668 -0.00036045453674423317 0 -0.034743484021580326 -0.00045992902406036642 0 -0.034743484021580326 -0.00045992902406036642 0 -0.034524539122120043 -0.00038642535349369783 0 -0.034509498166727659 -0.00049679404955581805 0 -0.034743484021580326 -0.00045992902406036642 0 -0.034789105535388026 -0.00020701706589441716 0 -0.034524539122120043 -0.00038642535349369783 0 -0.034916214063044668 -0.00036045453674423317 0 -0.034789105535388026 -0.00020701706589441716 0 -0.034867772464253537 -0.00014573942064315706 0 -0.034916214063044668 -0.00036045453674423317 0 -0.034743484021580326 -0.00045992902406036642 0 -0.034789105535388026 -0.00020701706589441716 0 -0.034789105535388026 -0.00020701706589441716 0 -0.034863410127791608 -0.00012216851238907727 0 -0.034836868117553627 -0.00015385059645389826 0 -0.034372467308629591 -0.00044722269485329122 0 -0.034524539122120043 -0.00038642535349369783 0 -0.034193385093643974 -0.00032648632540633872 0 -0.034784071464775045 -0.00021747405034809464 0 -0.03451946565472909 -0.00017507277738031742 0 -0.034789105535388026 -0.00020701706589441716 0 -0.034524539122120043 -0.00038642535349369783 0 -0.034193385093643974 -0.00032648632540633872 0 -0.034372467308629591 -0.00044722269485329122 0 -0.034524539122120043 -0.00038642535349369783 0 -0.034509498166727659 -0.00049679404955581805 0 -0.034325554904203706 -0.000830233278257063 0 -0.034460633603105348 -0.00068079196741774046 0 -0.034259200534423342 -0.00057089457563818877 0 -0.034509498166727659 -0.00049679404955581805 0 -0.034460633603105348 -0.00068079196741774046 0 -0.034259200534423342 -0.00057089457563818877 0 -0.034372467308629591 -0.00044722269485329122 0 -0.034509498166727659 -0.00049679404955581805 0 -0.034259200534423342 -0.00057089457563818877 0 -0.034649410057255123 -0.00065106453651315533 0 -0.034509498166727659 -0.00049679404955581805 0 -0.034460633603105348 -0.00068079196741774046 0 -0.034125625245513228 -0.00075326579238765411 0 -0.034259200534423342 -0.00057089457563818877 0 -0.034000350430971028 -0.00061766225292459083 0 -0.034325554904203706 -0.000830233278257063 0 -0.034125625245513228 -0.00075326579238765411 0 -0.034259200534423342 -0.00057089457563818877 0 -0.034259200534423342 -0.00057089457563818877 0 -0.034193385093643974 -0.00032648632540633872 0 -0.034000350430971028 -0.00061766225292459083 0 -0.034863410127791608 -0.00012216851238907727 0 -0.034862775086865042 -0.00012970726519035924 0 -0.034855181735169154 -0.00013628260534531643 0 -0.034372467308629591 -0.00044722269485329122 0 -0.034259200534423342 -0.00057089457563818877 0 -0.034193385093643974 -0.00032648632540633872 0 -0.034817573410640353 -7.9452370146065976e-05 0 -0.03501837374006269 -0.00023227994093440952 0 -0.034862775086865042 -0.00012970726519035924 0 -0.034861232734525245 -0.00013437624330076475 0 -0.034855181735169154 -0.00013628260534531643 0 -0.034861232734525245 -0.00013437624330076475 0 -0.034855181735169154 -0.00013628260534531643 0 -0.03486290725234438 -0.00013826617610606149 0 -0.034855181735169154 -0.00013628260534531643 0 -0.034884541810926185 -0.00010056322503382815 0 -0.034903307915327551 -8.1931630112158481e-05 0 -0.034863410127791608 -0.00012216851238907727 0 -0.034855181735169154 -0.00013628260534531643 0 -0.034836868117553627 -0.00015385059645389826 0 -0.034855181735169154 -0.00013628260534531643 0 -0.034836868117553627 -0.00015385059645389826 0 -0.034865338297537636 -0.0001195123079130469 0 -0.034836868117553627 -0.00015385059645389826 0 -0.034865338297537636 -0.0001195123079130469 0 -0.034869464043989058 -0.00011248504118845623 0 -0.034855181735169154 -0.00013628260534531643 0 -0.034865338297537636 -0.0001195123079130469 0 -0.034884541810926185 -0.00010056322503382815 0 -0.034884541810926185 -0.00010056322503382815 0 -0.034890968184716729 -8.9791158673349262e-05 0 -0.034902404383894386 -8.1296548217575599e-05 0 -0.034865338297537636 -0.0001195123079130469 0 -0.034884541810926185 -0.00010056322503382815 0 -0.034890968184716729 -8.9791158673349262e-05 0 -0.034890968184716729 -8.9791158673349262e-05 0 -0.034869464043989058 -0.00011248504118845623 0 -0.03489876146006702 -7.9631310595222227e-05 0 -0.034865338297537636 -0.0001195123079130469 0 -0.034890968184716729 -8.9791158673349262e-05 0 -0.034869464043989058 -0.00011248504118845623 0 -0.034890968184716729 -8.9791158673349262e-05 0 -0.03489876146006702 -7.9631310595222227e-05 0 -0.034915177025554307 -6.537099667403995e-05 0 -0.034890968184716729 -8.9791158673349262e-05 0 -0.034914445738338823 -6.8480648302121942e-05 0 -0.034902404383894386 -8.1296548217575599e-05 0 -0.034890968184716729 -8.9791158673349262e-05 0 -0.034914445738338823 -6.8480648302121942e-05 0 -0.034915177025554307 -6.537099667403995e-05 0 -0.03492397894575916 -6.1667677131311218e-05 0 -0.034915548503631211 -6.9389066496625259e-05 0 -0.034902404383894386 -8.1296548217575599e-05 0 -0.034914445738338823 -6.8480648302121942e-05 0 -0.03492397894575916 -6.1667677131311218e-05 0 -0.034902404383894386 -8.1296548217575599e-05 0 -0.034855181735169154 -0.00013628260534531643 0 -0.034918199241481249 -6.6443964894745647e-05 0 -0.034903307915327551 -8.1931630112158481e-05 0 -0.034932704249970872 -5.5508983037373811e-05 0 -0.034918199241481249 -6.6443964894745647e-05 0 -0.03494951301579164 -4.2923809555317628e-05 0 -0.03492397894575916 -6.1667677131311218e-05 0 -0.034915548503631211 -6.9389066496625259e-05 0 -0.034932704249970872 -5.5508983037373811e-05 0 -0.034915548503631211 -6.9389066496625259e-05 0 -0.034932704249970872 -5.5508983037373811e-05 0 -0.034919499369503663 -6.5895568353304827e-05 0 -0.034932704249970872 -5.5508983037373811e-05 0 -0.034919499369503663 -6.5895568353304827e-05 0 -0.034918199241481249 -6.6443964894745647e-05 0 -0.034919499369503663 -6.5895568353304827e-05 0 -0.034913709231926084 -7.1156194276085014e-05 0 -0.034918199241481249 -6.6443964894745647e-05 0 -0.034915548503631211 -6.9389066496625259e-05 0 -0.034919499369503663 -6.5895568353304827e-05 0 -0.034913709231926084 -7.1156194276085014e-05 0 -0.034915548503631211 -6.9389066496625259e-05 0 -0.034913709231926084 -7.1156194276085014e-05 0 -0.034903307915327551 -8.1931630112158481e-05 0 -0.034913709231926084 -7.1156194276085014e-05 0 -0.034918199241481249 -6.6443964894745647e-05 0 -0.034903307915327551 -8.1931630112158481e-05 0 -0.034884541810926185 -0.00010056322503382815 0 -0.034902404383894386 -8.1296548217575599e-05 0 -0.034903307915327551 -8.1931630112158481e-05 0 -0.034915548503631211 -6.9389066496625259e-05 0 -0.034902404383894386 -8.1296548217575599e-05 0 -0.034903307915327551 -8.1931630112158481e-05 0 -0.035433636867123877 -0.00018607681655482129 0 -0.03471102085372238 -0.00015034013745661936 0 -0.034986227807740265 -0.00016615709325158468 0 -0.034867772464253537 -0.00014573942064315706 0 -0.034944239112737335 -8.924872490442602e-05 0 -0.034867772464253537 -0.00014573942064315706 0 -0.034841729623105736 -0.0001452360638497338 0 -0.034899617914438706 -8.9730487772878847e-05 0 -0.034789105535388026 -0.00020701706589441716 0 -0.034867772464253537 -0.00014573942064315706 0 -0.034841729623105736 -0.0001452360638497338 0 -0.034789105535388026 -0.00020701706589441716 0 -0.034836868117553627 -0.00015385059645389826 0 -0.034841729623105736 -0.0001452360638497338 0 -0.034869464043989058 -0.00011248504118845623 0 -0.034841729623105736 -0.0001452360638497338 0 -0.034899617914438706 -8.9730487772878847e-05 0 -0.034836868117553627 -0.00015385059645389826 0 -0.034869464043989058 -0.00011248504118845623 0 -0.034841729623105736 -0.0001452360638497338 0 -0.03489876146006702 -7.9631310595222227e-05 0 -0.034899617914438706 -8.9730487772878847e-05 0 -0.034921209228289056 -5.3736062076796315e-05 0 -0.034869464043989058 -0.00011248504118845623 0 -0.03489876146006702 -7.9631310595222227e-05 0 -0.034899617914438706 -8.9730487772878847e-05 0 -0.034899617914438706 -8.9730487772878847e-05 0 -0.034944239112737335 -8.924872490442602e-05 0 -0.034921209228289056 -5.3736062076796315e-05 0 -0.034949497342918211 -8.7619421711882797e-05 0 -0.034949707942327664 -3.7276414407584054e-05 0 -0.034867772464253537 -0.00014573942064315706 0 -0.034899617914438706 -8.9730487772878847e-05 0 -0.034944239112737335 -8.924872490442602e-05 0 -0.034944239112737335 -8.924872490442602e-05 0 -0.034982635831873915 -2.6668892460186061e-05 0 -0.03497526355292789 -2.2041015201293201e-05 0 -0.03489876146006702 -7.9631310595222227e-05 0 -0.034921209228289056 -5.3736062076796315e-05 0 -0.034915177025554307 -6.537099667403995e-05 0 -0.03497526355292789 -2.2041015201293201e-05 0 -0.034999961183005322 -1.5633765354481347e-08 0 -0.034999987385889129 8.8759012409624632e-10 0 -0.034949707942327664 -3.7276414407584054e-05 0 -0.034999971173761961 -1.7090454934160297e-09 0 -0.034995126773186364 -9.7887622587395168e-06 0 -0.034982635831873915 -2.6668892460186061e-05 0 -0.034999961183005322 -1.5633765354481347e-08 0 -0.034982635831873915 -2.6668892460186061e-05 0 -0.03497526355292789 -2.2041015201293201e-05 0 -0.034999961183005322 -1.5633765354481347e-08 0 -0.034944033032924142 -4.5657478078143805e-05 0 -0.034942238837720983 -4.6470406294351021e-05 0 -0.034966687261876989 -2.762915755745763e-05 0 -0.034944033032924142 -4.5657478078143805e-05 0 -0.034966687261876989 -2.762915755745763e-05 0 -0.03494951301579164 -4.2923809555317628e-05 0 -0.03492397894575916 -6.1667677131311218e-05 0 -0.034932704249970872 -5.5508983037373811e-05 0 -0.034944033032924142 -4.5657478078143805e-05 0 -0.034932704249970872 -5.5508983037373811e-05 0 -0.034944033032924142 -4.5657478078143805e-05 0 -0.03494951301579164 -4.2923809555317628e-05 0 -0.03492397894575916 -6.1667677131311218e-05 0 -0.034944033032924142 -4.5657478078143805e-05 0 -0.034942238837720983 -4.6470406294351021e-05 0 -0.034914445738338823 -6.8480648302121942e-05 0 -0.03492397894575916 -6.1667677131311218e-05 0 -0.034942238837720983 -4.6470406294351021e-05 0 -0.034921209228289056 -5.3736062076796315e-05 0 -0.034915177025554307 -6.537099667403995e-05 0 -0.034942238837720983 -4.6470406294351021e-05 0 -0.034914445738338823 -6.8480648302121942e-05 0 -0.034915177025554307 -6.537099667403995e-05 0 -0.034942238837720983 -4.6470406294351021e-05 0 -0.034921209228289056 -5.3736062076796315e-05 0 -0.034942238837720983 -4.6470406294351021e-05 0 -0.034999879910933451 -7.5974233508888065e-08 0 -0.034942238837720983 -4.6470406294351021e-05 0 -0.034999879910933451 -7.5974233508888065e-08 0 -0.034966687261876989 -2.762915755745763e-05 0 -0.034999879910933451 -7.5974233508888065e-08 0 -0.034966687261876989 -2.762915755745763e-05 0 -0.034999954629968723 -2.1897995633894107e-08 0 -0.034966687261876989 -2.762915755745763e-05 0 -0.034999954629968723 -2.1897995633894107e-08 0 -0.034972273010696255 -2.6461241274139681e-05 0 -0.03501837374006269 -0.00023227994093440952 0 -0.035121864192447928 -0.00010545527881575491 0 -0.034918199241481249 -6.6443964894745647e-05 0 -0.034972273010696255 -2.6461241274139681e-05 0 -0.03494951301579164 -4.2923809555317628e-05 0 -0.034966687261876989 -2.762915755745763e-05 0 -0.034972273010696255 -2.6461241274139681e-05 0 -0.03494951301579164 -4.2923809555317628e-05 0 -0.035217834750984174 -0.00015462699579776325 0 -0.034966709468911658 -0.00015831983119748579 0 -0.035013263121229918 -0.00037264483196813229 0 -0.034999954629968723 -2.1897995633894107e-08 0 -0.034972273010696255 -2.6461241274139681e-05 0 -0.034999981805963747 1.1895415057734456e-10 0 -0.035121864192447928 -0.00010545527881575491 0 -0.035000006683808656 -6.4207362371637901e-09 0 -0.035217834750984174 -0.00015462699579776325 0 -0.035000343808817502 8.1084581241865404e-09 0 -0.034966709468911658 -0.00015831983119748579 0 -0.035000343808817502 8.1084581241865404e-09 0 -0.034999781066262461 -7.0808657731141816e-08 0 -0.034966709468911658 -0.00015831983119748579 0 -0.034999781066262461 -7.0808657731141816e-08 0 -0.034882287672855124 -0.00013393106649232405 0 -0.034966709468911658 -0.00015831983119748579 0 -0.034882287672855124 -0.00013393106649232405 0 -0.034966709468911658 -0.00015831983119748579 0 -0.034716778675471335 -0.00038411065046599536 0 -0.034966709468911658 -0.00015831983119748579 0 -0.035013263121229918 -0.00037264483196813229 0 -0.034716778675471335 -0.00038411065046599536 0 -0.035013263121229918 -0.00037264483196813229 0 -0.034716778675471335 -0.00038411065046599536 0 -0.034856319195818442 -0.00059364913319034116 0 -0.034716778675471335 -0.00038411065046599536 0 -0.034856319195818442 -0.00059364913319034116 0 -0.034466774410613008 -0.0007401179550946982 0 -0.035013263121229918 -0.00037264483196813229 0 -0.034856319195818442 -0.00059364913319034116 0 -0.035103417471670534 -0.00064542144556033784 0 -0.035103417471670534 -0.00064542144556033784 0 -0.035333375971552408 -0.00061830841345478693 0 -0.035226088802060788 -0.00042974874688713551 0 -0.035013263121229918 -0.00037264483196813229 0 -0.035103417471670534 -0.00064542144556033784 0 -0.035226088802060788 -0.00042974874688713551 0 -0.035444396509011357 -0.00038615778694272445 0 -0.035333375971552408 -0.00061830841345478693 0 -0.035226088802060788 -0.00042974874688713551 0 -0.034861232734525245 -0.00013437624330076475 0 -0.03486290725234438 -0.00013826617610606149 0 -0.034861343936114481 -0.00013185100518119371 0 -0.03501837374006269 -0.00023227994093440952 0 -0.035173036203430166 -0.00031749923839531293 0 -0.034862775086865042 -0.00012970726519035924 0 -0.034861232734525245 -0.00013437624330076475 0 -0.034861343936114481 -0.00013185100518119371 0 -0.035444396509011357 -0.00038615778694272445 0 -0.035217834750984174 -0.00015462699579776325 0 -0.035226088802060788 -0.00042974874688713551 0 -0.035217834750984174 -0.00015462699579776325 0 -0.035013263121229918 -0.00037264483196813229 0 -0.035226088802060788 -0.00042974874688713551 0 -0.034765107008240488 -0.000239284337232646 0 -0.034997819778890403 4.127062013239886e-07 0 -0.034418628340648717 -0.00034057380391038444 0 -0.035000916428711504 -3.8151731307873853e-07 0 -0.034765107008240488 -0.000239284337232646 0 -0.034997819778890403 4.127062013239886e-07 0 -0.034999180668240183 -7.2519284708137987e-09 0 -0.034490287159702801 -0.00025686780876072514 0 -0.034762982726097444 -0.00017403155247130091 0 -0.034999857249192377 -8.1951936525063162e-08 0 -0.034623339651682856 -0.00026019201678468569 0 -0.034490287159702801 -0.00025686780876072514 0 -0.034762982726097444 -0.00017403155247130091 0 -0.034493246717168254 -0.00043114949659668199 0 -0.034999180668240183 -7.2519284708137987e-09 0 -0.034762982726097444 -0.00017403155247130091 0 -0.034999929854866538 -8.434830177054279e-08 0 -0.034999781066262461 -7.0808657731141816e-08 0 -0.034882287672855124 -0.00013393106649232405 0 -0.034999929854866538 -8.434830177054279e-08 0 -0.034882287672855124 -0.00013393106649232405 0 -0.034762982726097444 -0.00017403155247130091 0 -0.034999929854866538 -8.434830177054279e-08 0 -0.034882287672855124 -0.00013393106649232405 0 -0.034716778675471335 -0.00038411065046599536 0 -0.034762982726097444 -0.00017403155247130091 0 -0.034716778675471335 -0.00038411065046599536 0 -0.034343719930189608 -0.00065381247588152086 0 -0.034493246717168254 -0.00043114949659668199 0 -0.034716778675471335 -0.00038411065046599536 0 -0.034762982726097444 -0.00017403155247130091 0 -0.034493246717168254 -0.00043114949659668199 0 -0.034716778675471335 -0.00038411065046599536 0 -0.034343719930189608 -0.00065381247588152086 0 -0.034466774410613008 -0.0007401179550946982 0 -0.034343719930189608 -0.00065381247588152086 0 -0.034493246717168254 -0.00043114949659668199 0 -0.034271811786614571 -0.00060626178615695624 0 -0.034490287159702801 -0.00025686780876072514 0 -0.034493246717168254 -0.00043114949659668199 0 -0.034271811786614571 -0.00060626178615695624 0 -0.034623339651682856 -0.00026019201678468569 0 -0.034332271674806188 -0.00057132443456835342 0 -0.034343719930189608 -0.00065381247588152086 0 -0.034271811786614571 -0.00060626178615695624 0 -0.034050504576644672 -0.00090386015728054886 0 -0.034271811786614571 -0.00060626178615695624 0 -0.034034630490825675 -0.0005962752739431627 0 -0.033972061200234709 -0.00076974642736693652 0 -0.034271811786614571 -0.00060626178615695624 0 -0.033928449987305362 -0.00092171700817097698 0 -0.033972061200234709 -0.00076974642736693652 0 -0.034271811786614571 -0.00060626178615695624 0 -0.034418628340648717 -0.00034057380391038444 0 -0.034034630490825675 -0.0005962752739431627 0 -0.034765107008240488 -0.000239284337232646 0 -0.034271811786614571 -0.00060626178615695624 0 -0.034418628340648717 -0.00034057380391038444 0 -0.033928449987305362 -0.00092171700817097698 0 -0.033703153601627407 -0.0010996516107452386 0 -0.03380146693682301 -0.00094990997292498632 0 -0.033928449987305362 -0.00092171700817097698 0 -0.033792275103691788 -0.0011160134315544644 0 -0.033703153601627407 -0.0010996516107452386 0 -0.033928449987305362 -0.00092171700817097698 0 -0.033972061200234709 -0.00076974642736693652 0 -0.03380146693682301 -0.00094990997292498632 0 -0.034271811786614571 -0.00060626178615695624 0 -0.033928449987305362 -0.00092171700817097698 0 -0.034050504576644672 -0.00090386015728054886 0 -0.034050504576644672 -0.00090386015728054886 0 -0.033921156808519252 -0.0011178513636482949 0 -0.033792275103691788 -0.0011160134315544644 0 -0.033928449987305362 -0.00092171700817097698 0 -0.034050504576644672 -0.00090386015728054886 0 -0.033792275103691788 -0.0011160134315544644 0 -0.034050504576644672 -0.00090386015728054886 0 -0.033921156808519252 -0.0011178513636482949 0 -0.03416751615724662 -0.00090655424323152179 0 -0.034343719930189608 -0.00065381247588152086 0 -0.034050504576644672 -0.00090386015728054886 0 -0.03416751615724662 -0.00090655424323152179 0 -0.03416751615724662 -0.00090655424323152179 0 -0.034466774410613008 -0.0007401179550946982 0 -0.034088750720403946 -0.0011323268974518929 0 -0.034343719930189608 -0.00065381247588152086 0 -0.03416751615724662 -0.00090655424323152179 0 -0.034466774410613008 -0.0007401179550946982 0 -0.033921156808519252 -0.0011178513636482949 0 -0.03416751615724662 -0.00090655424323152179 0 -0.034088750720403946 -0.0011323268974518929 0 -0.033921156808519252 -0.0011178513636482949 0 -0.034088750720403946 -0.0011323268974518929 0 -0.033655524314672829 -0.0012493277508632311 0 -0.034088750720403946 -0.0011323268974518929 0 -0.033655524314672829 -0.0012493277508632311 0 -0.033750073961418069 -0.0012100197856635144 0 -0.033655524314672829 -0.0012493277508632311 0 -0.03354882278578513 -0.0012851083954943904 0 -0.033345614510520608 -0.0013236908905240772 0 -0.033655524314672829 -0.0012493277508632311 0 -0.033552997703671934 -0.0013224014128695781 0 -0.033345614510520608 -0.0013236908905240772 0 -0.033655524314672829 -0.0012493277508632311 0 -0.03354882278578513 -0.0012851083954943904 0 -0.033703602203811134 -0.0012145519563596273 0 -0.03354882278578513 -0.0012851083954943904 0 -0.033703602203811134 -0.0012145519563596273 0 -0.03359115319315386 -0.0012456532415038757 0 -0.033921156808519252 -0.0011178513636482949 0 -0.033703602203811134 -0.0012145519563596273 0 -0.033792275103691788 -0.0011160134315544644 0 -0.033921156808519252 -0.0011178513636482949 0 -0.033655524314672829 -0.0012493277508632311 0 -0.033703602203811134 -0.0012145519563596273 0 -0.033703602203811134 -0.0012145519563596273 0 -0.033792275103691788 -0.0011160134315544644 0 -0.03359115319315386 -0.0012456532415038757 0 -0.033792275103691788 -0.0011160134315544644 0 -0.03359115319315386 -0.0012456532415038757 0 -0.033571755919697771 -0.0012248695191435924 0 -0.03354882278578513 -0.0012851083954943904 0 -0.03359115319315386 -0.0012456532415038757 0 -0.033433319208208787 -0.001299945682708188 0 -0.03359115319315386 -0.0012456532415038757 0 -0.033447896358042184 -0.0012960557881690313 0 -0.033433319208208787 -0.001299945682708188 0 -0.03359115319315386 -0.0012456532415038757 0 -0.033571755919697771 -0.0012248695191435924 0 -0.033447896358042184 -0.0012960557881690313 0 -0.033571755919697771 -0.0012248695191435924 0 -0.033447896358042184 -0.0012960557881690313 0 -0.033434121288385972 -0.0012965573806526035 0 -0.033792275103691788 -0.0011160134315544644 0 -0.033571755919697771 -0.0012248695191435924 0 -0.033703153601627407 -0.0010996516107452386 0 -0.033571755919697771 -0.0012248695191435924 0 -0.033703153601627407 -0.0010996516107452386 0 -0.03354263741672945 -0.0012041405261859891 0 -0.033813145392954734 -0.0011888390529165053 0 -0.033825152955504312 -0.0011829349265898151 0 -0.033851115522522131 -0.0011824235821762644 0 -0.033768316844353968 -0.00072995899184798521 0 -0.03373245929050684 -0.00044242877315809823 0 -0.033499008861403466 -0.00084206298295264373 0 -0.034378338508405951 -0.00065062070682120657 0 -0.033515118477276389 -0.0012119381754169864 0 -0.033768316844353968 -0.00072995899184798521 0 -0.034000350430971028 -0.00061766225292459083 0 -0.03373245929050684 -0.00044242877315809823 0 -0.034863410127791608 -0.00012216851238907727 0 -0.034862775086865042 -0.00012970726519035924 0 -0.034852781458722545 -0.00014414447142516512 0 -0.034193385093643974 -0.00032648632540633872 0 -0.034000350430971028 -0.00061766225292459083 0 -0.03373245929050684 -0.00044242877315809823 0 -0.034862775086865042 -0.00012970726519035924 0 -0.034861343936114481 -0.00013185100518119371 0 -0.034852781458722545 -0.00014414447142516512 0 -0.035173036203430166 -0.00031749923839531293 0 -0.034378338508405951 -0.00065062070682120657 0 -0.03451946565472909 -0.00017507277738031742 0 -0.034378338508405951 -0.00065062070682120657 0 -0.035103417471670534 -0.00064542144556033784 0 -0.035333375971552408 -0.00061830841345478693 0 -0.035205400752478612 -0.00089933150505272464 0 -0.035103417471670534 -0.00064542144556033784 0 -0.035205400752478612 -0.00089933150505272464 0 -0.034822877840047499 -0.001017389441030867 0 -0.034378338508405951 -0.00065062070682120657 0 -0.034335396030705706 -0.0011504184884663132 0 -0.034856319195818442 -0.00059364913319034116 0 -0.035103417471670534 -0.00064542144556033784 0 -0.034822877840047499 -0.001017389441030867 0 -0.034466774410613008 -0.0007401179550946982 0 -0.034088750720403946 -0.0011323268974518929 0 -0.034822877840047499 -0.001017389441030867 0 -0.034856319195818442 -0.00059364913319034116 0 -0.034466774410613008 -0.0007401179550946982 0 -0.034822877840047499 -0.001017389441030867 0 -0.034088750720403946 -0.0011323268974518929 0 -0.033820454680444048 -0.001216665587840991 0 -0.03382304820717795 -0.0011652489799383091 0 -0.034099677377117575 -0.0011292370055925496 0 -0.034335396030705706 -0.0011504184884663132 0 -0.033813145392954734 -0.0011888390529165053 0 -0.033820454680444048 -0.001216665587840991 0 -0.033825152955504312 -0.0011829349265898151 0 -0.033820454680444048 -0.001216665587840991 0 -0.033825152955504312 -0.0011829349265898151 0 -0.03382304820717795 -0.0011652489799383091 0 -0.033825152955504312 -0.0011829349265898151 0 -0.033851115522522131 -0.0011824235821762644 0 -0.033812694705429372 -0.0011791367768421125 0 -0.033851115522522131 -0.0011824235821762644 0 -0.033812694705429372 -0.0011791367768421125 0 -0.03375644323260206 -0.0012207675432954371 0 -0.033812694705429372 -0.0011791367768421125 0 -0.03375644323260206 -0.0012207675432954371 0 -0.03382304820717795 -0.0011652489799383091 0 -0.033825152955504312 -0.0011829349265898151 0 -0.033812694705429372 -0.0011791367768421125 0 -0.03382304820717795 -0.0011652489799383091 0 -0.034088750720403946 -0.0011323268974518929 0 -0.03382304820717795 -0.0011652489799383091 0 -0.033750073961418069 -0.0012100197856635144 0 -0.03375644323260206 -0.0012207675432954371 0 -0.03382304820717795 -0.0011652489799383091 0 -0.033750073961418069 -0.0012100197856635144 0 -0.03375644323260206 -0.0012207675432954371 0 -0.033750073961418069 -0.0012100197856635144 0 -0.033663342119826807 -0.0012905131919482263 0 -0.033655524314672829 -0.0012493277508632311 0 -0.033750073961418069 -0.0012100197856635144 0 -0.033552997703671934 -0.0013224014128695781 0 -0.033750073961418069 -0.0012100197856635144 0 -0.033663342119826807 -0.0012905131919482263 0 -0.033552997703671934 -0.0013224014128695781 0 -0.03375644323260206 -0.0012207675432954371 0 -0.033663342119826807 -0.0012905131919482263 0 -0.03360936990909813 -0.0014369344514497705 0 -0.03360936990909813 -0.0014369344514497705 0 -0.033552997703671934 -0.0013224014128695781 0 -0.033538319467907321 -0.0014497687502558719 0 -0.033663342119826807 -0.0012905131919482263 0 -0.03360936990909813 -0.0014369344514497705 0 -0.033552997703671934 -0.0013224014128695781 0 -0.033851115522522131 -0.0011824235821762644 0 -0.03375644323260206 -0.0012207675432954371 0 -0.03360936990909813 -0.0014369344514497705 0 -0.033487271699158522 -0.0016959886956824351 0 -0.03360936990909813 -0.0014369344514497705 0 -0.033463322741895479 -0.0015441025875833601 0 -0.033515118477276389 -0.0012119381754169864 0 -0.033648419051167361 -0.0015133362696972004 0 -0.03337139041150726 -0.0016047041809745858 0 -0.033351495248578805 -0.0015647318285049142 0 -0.033407282322139249 -0.0015407480181928545 0 -0.03337139041150726 -0.0016047041809745858 0 -0.033463322741895479 -0.0015441025875833601 0 -0.033407282322139249 -0.0015407480181928545 0 -0.033487271699158522 -0.0016959886956824351 0 -0.03337139041150726 -0.0016047041809745858 0 -0.033463322741895479 -0.0015441025875833601 0 -0.033515118477276389 -0.0012119381754169864 0 -0.033555662264572232 -0.001307020547457369 0 -0.033768316844353968 -0.00072995899184798521 0 -0.033499008861403466 -0.00084206298295264373 0 -0.033775591791851266 -0.0010089101864842903 0 -0.034125625245513228 -0.00075326579238765411 0 -0.034000350430971028 -0.00061766225292459083 0 -0.033951380470030421 -0.00087565753733157481 0 -0.033768316844353968 -0.00072995899184798521 0 -0.034000350430971028 -0.00061766225292459083 0 -0.033951380470030421 -0.00087565753733157481 0 -0.033768316844353968 -0.00072995899184798521 0 -0.033775591791851266 -0.0010089101864842903 0 -0.033951380470030421 -0.00087565753733157481 0 -0.033324624527183426 -0.0015781287961576249 0 -0.03337139041150726 -0.0016047041809745858 0 -0.033351495248578805 -0.0015647318285049142 0 -0.033823476981832669 -0.001349735166549845 0 -0.033555662264572232 -0.001307020547457369 0 -0.034049495051715041 -0.0011729833173819949 0 -0.033775591791851266 -0.0010089101864842903 0 -0.033951380470030421 -0.00087565753733157481 0 -0.033353257357840192 -0.0015568261480143851 0 -0.033252583730115366 -0.0014992379831609431 0 -0.033158793266546895 -0.0016638198693191184 0 -0.03329515195017644 -0.0015776025252554884 0 -0.033351005773943745 -0.001622558995493227 0 -0.033351495248578805 -0.0015647318285049142 0 -0.033353257357840192 -0.0015568261480143851 0 -0.033320708574675645 -0.0015518736669815748 0 -0.033324624527183426 -0.0015781287961576249 0 -0.033351495248578805 -0.0015647318285049142 0 -0.033320708574675645 -0.0015518736669815748 0 -0.033351495248578805 -0.0015647318285049142 0 -0.033353257357840192 -0.0015568261480143851 0 -0.033407282322139249 -0.0015407480181928545 0 -0.033252583730115366 -0.0014992379831609431 0 -0.033330881896923056 -0.0014056687102666666 0 -0.033068376645535767 -0.0014319822031489541 0 -0.033353257357840192 -0.0015568261480143851 0 -0.033252583730115366 -0.0014992379831609431 0 -0.033401941685454239 -0.001492152453313981 0 -0.033252583730115366 -0.0014992379831609431 0 -0.033401941685454239 -0.001492152453313981 0 -0.033330881896923056 -0.0014056687102666666 0 -0.033401941685454239 -0.001492152453313981 0 -0.033461532475078187 -0.0014770944060561993 0 -0.033422025867138092 -0.0014547701769733884 0 -0.033401941685454239 -0.001492152453313981 0 -0.033330881896923056 -0.0014056687102666666 0 -0.033422025867138092 -0.0014547701769733884 0 -0.033401941685454239 -0.001492152453313981 0 -0.033407282322139249 -0.0015407480181928545 0 -0.033481029280070893 -0.0014848756969306515 0 -0.033353257357840192 -0.0015568261480143851 0 -0.033401941685454239 -0.001492152453313981 0 -0.033407282322139249 -0.0015407480181928545 0 -0.033463322741895479 -0.0015441025875833601 0 -0.033407282322139249 -0.0015407480181928545 0 -0.033481029280070893 -0.0014848756969306515 0 -0.03360936990909813 -0.0014369344514497705 0 -0.033463322741895479 -0.0015441025875833601 0 -0.033481029280070893 -0.0014848756969306515 0 -0.03360936990909813 -0.0014369344514497705 0 -0.033481029280070893 -0.0014848756969306515 0 -0.033509004654737252 -0.0014822255843500135 0 -0.033443000229346313 -0.0014941773326104194 0 -0.033509004654737252 -0.0014822255843500135 0 -0.033477349777629492 -0.0014863910095942099 0 -0.033552997703671934 -0.0013224014128695781 0 -0.033443000229346313 -0.0014941773326104194 0 -0.033538319467907321 -0.0014497687502558719 0 -0.03360936990909813 -0.0014369344514497705 0 -0.033538319467907321 -0.0014497687502558719 0 -0.033509004654737252 -0.0014822255843500135 0 -0.033443000229346313 -0.0014941773326104194 0 -0.033538319467907321 -0.0014497687502558719 0 -0.033509004654737252 -0.0014822255843500135 0 -0.033337370013958305 -0.0015945123282564196 0 -0.03318248388024226 -0.0018345876553059195 0 -0.033443000229346313 -0.0014941773326104194 0 -0.033477349777629492 -0.0014863910095942099 0 -0.033465026085388795 -0.0014812878821533037 0 -0.033401941685454239 -0.001492152453313981 0 -0.033481029280070893 -0.0014848756969306515 0 -0.033461532475078187 -0.0014770944060561993 0 -0.033509004654737252 -0.0014822255843500135 0 -0.033477349777629492 -0.0014863910095942099 0 -0.033461532475078187 -0.0014770944060561993 0 -0.033481029280070893 -0.0014848756969306515 0 -0.033509004654737252 -0.0014822255843500135 0 -0.033461532475078187 -0.0014770944060561993 0 -0.033477349777629492 -0.0014863910095942099 0 -0.033461532475078187 -0.0014770944060561993 0 -0.033451534081860732 -0.0014688970582103654 0 -0.033461532475078187 -0.0014770944060561993 0 -0.033451534081860732 -0.0014688970582103654 0 -0.033422025867138092 -0.0014547701769733884 0 -0.033451534081860732 -0.0014688970582103654 0 -0.033442431947398182 -0.0014770018102629485 0 -0.033423591121494269 -0.0014535319161656918 0 -0.033451534081860732 -0.0014688970582103654 0 -0.033423591121494269 -0.0014535319161656918 0 -0.033422025867138092 -0.0014547701769733884 0 -0.033477349777629492 -0.0014863910095942099 0 -0.033451534081860732 -0.0014688970582103654 0 -0.033465026085388795 -0.0014812878821533037 0 -0.033451534081860732 -0.0014688970582103654 0 -0.033465026085388795 -0.0014812878821533037 0 -0.033442431947398182 -0.0014770018102629485 0 -0.032627689923099334 -0.0027866780313902449 0 -0.031879294621412271 -0.0033998477441560147 0 -0.031972081053673301 -0.0032560513302465868 0 -0.03318248388024226 -0.0018345876553059195 0 -0.031547910661197671 -0.0034901671531334258 0 -0.033465026085388795 -0.0014812878821533037 0 -0.033442431947398182 -0.0014770018102629485 0 -0.033426014385295855 -0.0014838770366525497 0 -0.033442431947398182 -0.0014770018102629485 0 -0.033426014385295855 -0.0014838770366525497 0 -0.033423591121494269 -0.0014535319161656918 0 -0.031879294621412271 -0.0033998477441560147 0 -0.031972081053673301 -0.0032560513302465868 0 -0.031786126122604515 -0.0033800875063971099 0 -0.031547910661197671 -0.0034901671531334258 0 -0.031251247092752864 -0.0031543050609390095 0 -0.029508315199874898 -0.0048433508883789942 0 -0.029060840202811144 -0.0049563005414439733 0 -0.029162435222487647 -0.0047710316324479068 0 -0.029060840202811144 -0.0049563005414439733 0 -0.02879420768700653 -0.0047799331354321309 0 -0.029162435222487647 -0.0047710316324479068 0 -0.029060840202811144 -0.0049563005414439733 0 -0.028689822312270186 -0.0049412521535991873 0 -0.02879420768700653 -0.0047799331354321309 0 -0.028689822312270186 -0.0049412521535991873 0 -0.02879420768700653 -0.0047799331354321309 0 -0.028396635673625954 -0.0047754096074918905 0 -0.030981375337251545 -0.0031902758628860424 0 -0.030952980077520939 -0.0030728389139539755 0 -0.031251247092752864 -0.0031543050609390095 0 -0.030981375337251545 -0.0031902758628860424 0 -0.033423591121494269 -0.0014535319161656918 0 -0.033330881896923056 -0.0014056687102666666 0 -0.033422025867138092 -0.0014547701769733884 0 -0.033188700474793657 -0.0014057711250493989 0 -0.033303997990595552 -0.0013426520056942035 0 -0.033128956416557276 -0.0013866608102629909 0 -0.033188700474793657 -0.0014057711250493989 0 -0.033128956416557276 -0.0013866608102629909 0 -0.032941485758436383 -0.0014623223441306726 0 -0.033188700474793657 -0.0014057711250493989 0 -0.033330495303388268 -0.0013485407146783309 0 -0.033303997990595552 -0.0013426520056942035 0 -0.033330495303388268 -0.0013485407146783309 0 -0.033447896358042184 -0.0012960557881690313 0 -0.033434121288385972 -0.0012965573806526035 0 -0.033330495303388268 -0.0013485407146783309 0 -0.033447896358042184 -0.0012960557881690313 0 -0.033303997990595552 -0.0013426520056942035 0 -0.033447896358042184 -0.0012960557881690313 0 -0.033303997990595552 -0.0013426520056942035 0 -0.033433319208208787 -0.001299945682708188 0 -0.033303997990595552 -0.0013426520056942035 0 -0.033433319208208787 -0.001299945682708188 0 -0.033279006361881455 -0.0013280036147245359 0 -0.033279006361881455 -0.0013280036147245359 0 -0.033128956416557276 -0.0013866608102629909 0 -0.033059468317482368 -0.0014343066504888323 0 -0.033303997990595552 -0.0013426520056942035 0 -0.033279006361881455 -0.0013280036147245359 0 -0.033128956416557276 -0.0013866608102629909 0 -0.033279006361881455 -0.0013280036147245359 0 -0.033392800059661693 -0.0013303761651608163 0 -0.033059468317482368 -0.0014343066504888323 0 -0.033279006361881455 -0.0013280036147245359 0 -0.033392800059661693 -0.0013303761651608163 0 -0.033419849674237299 -0.0012971273523270193 0 -0.03354882278578513 -0.0012851083954943904 0 -0.033419849674237299 -0.0012971273523270193 0 -0.033345614510520608 -0.0013236908905240772 0 -0.033433319208208787 -0.001299945682708188 0 -0.033279006361881455 -0.0013280036147245359 0 -0.033419849674237299 -0.0012971273523270193 0 -0.03354882278578513 -0.0012851083954943904 0 -0.033433319208208787 -0.001299945682708188 0 -0.033419849674237299 -0.0012971273523270193 0 -0.032727230813470003 -0.0019500062289636154 0 -0.033246224480928392 -0.001379548770161156 0 -0.033392800059661693 -0.0013303761651608163 0 -0.033419849674237299 -0.0012971273523270193 0 -0.033345614510520608 -0.0013236908905240772 0 -0.033443000229346313 -0.0014941773326104194 0 -0.031997686471905283 -0.0025248124745298798 0 -0.033345614510520608 -0.0013236908905240772 0 -0.033552997703671934 -0.0013224014128695781 0 -0.033443000229346313 -0.0014941773326104194 0 -0.033345614510520608 -0.0013236908905240772 0 -0.033443000229346313 -0.0014941773326104194 0 -0.032627689923099334 -0.0027866780313902449 0 -0.031997686471905283 -0.0025248124745298798 0 -0.032627689923099334 -0.0027866780313902449 0 -0.031997686471905283 -0.0025248124745298798 0 -0.031908525357201192 -0.0031993751156444285 0 -0.032627689923099334 -0.0027866780313902449 0 -0.031972081053673301 -0.0032560513302465868 0 -0.031908525357201192 -0.0031993751156444285 0 -0.031972081053673301 -0.0032560513302465868 0 -0.031908525357201192 -0.0031993751156444285 0 -0.03173182565730992 -0.0033778586182589628 0 -0.031972081053673301 -0.0032560513302465868 0 -0.03173182565730992 -0.0033778586182589628 0 -0.031786126122604515 -0.0033800875063971099 0 -0.031908525357201192 -0.0031993751156444285 0 -0.031633729041556764 -0.0033793378853643262 0 -0.03173182565730992 -0.0033778586182589628 0 -0.031908525357201192 -0.0031993751156444285 0 -0.031609870291832529 -0.0033512572575513243 0 -0.031633729041556764 -0.0033793378853643262 0 -0.031997686471905283 -0.0025248124745298798 0 -0.031908525357201192 -0.0031993751156444285 0 -0.031609870291832529 -0.0033512572575513243 0 -0.032727230813470003 -0.0019500062289636154 0 -0.032363885866109651 -0.0025475769539811711 0 -0.033392800059661693 -0.0013303761651608163 0 -0.033145562174787771 -0.001782200844399361 0 -0.033059468317482368 -0.0014343066504888323 0 -0.033128956416557276 -0.0013866608102629909 0 -0.033059468317482368 -0.0014343066504888323 0 -0.032941485758436383 -0.0014623223441306726 0 -0.033059468317482368 -0.0014343066504888323 0 -0.032540519476834055 -0.0016513025528551754 0 -0.032941485758436383 -0.0014623223441306726 0 -0.033145562174787771 -0.001782200844399361 0 -0.032540519476834055 -0.0016513025528551754 0 -0.031950170783444948 -0.0031355334065346473 0 -0.033145562174787771 -0.001782200844399361 0 -0.033059468317482368 -0.0014343066504888323 0 -0.032540519476834055 -0.0016513025528551754 0 -0.032588808866858422 -0.0015969229432319029 0 -0.03229141615211055 -0.0012766996476635702 0 -0.032540519476834055 -0.0016513025528551754 0 -0.031515226704414895 -0.0011531881827289356 0 -0.031646865485833259 -0.0023356154689891835 0 -0.032540519476834055 -0.0016513025528551754 0 -0.033131110348098666 -0.0013623470913886114 0 -0.032941485758436383 -0.0014623223441306726 0 -0.033188700474793657 -0.0014057711250493989 0 -0.033131110348098666 -0.0013623470913886114 0 -0.032941485758436383 -0.0014623223441306726 0 -0.031525942867461597 -0.0029434480216978462 0 -0.031950170783444948 -0.0031355334065346473 0 -0.031587867975060004 -0.0032114691374494171 0 -0.031525942867461597 -0.0029434480216978462 0 -0.031646865485833259 -0.0023356154689891835 0 -0.031950170783444948 -0.0031355334065346473 0 -0.032540519476834055 -0.0016513025528551754 0 -0.031646865485833259 -0.0023356154689891835 0 -0.031950170783444948 -0.0031355334065346473 0 -0.031950170783444948 -0.0031355334065346473 0 -0.031468848096496714 -0.0033346727200610879 0 -0.03154327567307031 -0.0033841313903812064 0 -0.031609870291832529 -0.0033512572575513243 0 -0.031950170783444948 -0.0031355334065346473 0 -0.031633729041556764 -0.0033793378853643262 0 -0.031950170783444948 -0.0031355334065346473 0 -0.031633729041556764 -0.0033793378853643262 0 -0.03154327567307031 -0.0033841313903812064 0 -0.032363885866109651 -0.0025475769539811711 0 -0.032013246452065131 -0.0030731559026493747 0 -0.03154327567307031 -0.0033841313903812064 0 -0.03173182565730992 -0.0033778586182589628 0 -0.031564260396952988 -0.0034417880970745106 0 -0.031633729041556764 -0.0033793378853643262 0 -0.03154327567307031 -0.0033841313903812064 0 -0.03173182565730992 -0.0033778586182589628 0 -0.03173182565730992 -0.0033778586182589628 0 -0.031786126122604515 -0.0033800875063971099 0 -0.031564260396952988 -0.0034417880970745106 0 -0.031335098966408681 -0.0034446967144560244 0 -0.031075811340477832 -0.0034734907845962375 0 -0.031118723897152308 -0.0035273136938691807 0 -0.031564260396952988 -0.0034417880970745106 0 -0.031335098966408681 -0.0034446967144560244 0 -0.031118723897152308 -0.0035273136938691807 0 -0.03154327567307031 -0.0033841313903812064 0 -0.031564260396952988 -0.0034417880970745106 0 -0.031335098966408681 -0.0034446967144560244 0 -0.031468848096496714 -0.0033346727200610879 0 -0.03154327567307031 -0.0033841313903812064 0 -0.031335098966408681 -0.0034446967144560244 0 -0.031468848096496714 -0.0033346727200610879 0 -0.031335098966408681 -0.0034446967144560244 0 -0.031075811340477832 -0.0034734907845962375 0 -0.031075811340477832 -0.0034734907845962375 0 -0.030848438549541723 -0.0032278061979239291 0 -0.029948155379392685 -0.0035599339514988922 0 -0.031075811340477832 -0.0034734907845962375 0 -0.030848438549541723 -0.0032278061979239291 0 -0.031456956772970689 -0.0032886641366969634 0 -0.030848438549541723 -0.0032278061979239291 0 -0.031456956772970689 -0.0032886641366969634 0 -0.031245336633357223 -0.0029978278868265144 0 -0.031468848096496714 -0.0033346727200610879 0 -0.031075811340477832 -0.0034734907845962375 0 -0.031456956772970689 -0.0032886641366969634 0 -0.031950170783444948 -0.0031355334065346473 0 -0.031468848096496714 -0.0033346727200610879 0 -0.031456956772970689 -0.0032886641366969634 0 -0.031950170783444948 -0.0031355334065346473 0 -0.031456956772970689 -0.0032886641366969634 0 -0.031587867975060004 -0.0032114691374494171 0 -0.031456956772970689 -0.0032886641366969634 0 -0.031530265025847146 -0.0032088362318484082 0 -0.031450889281082979 -0.0030108148797681699 0 -0.031530265025847146 -0.0032088362318484082 0 -0.031587867975060004 -0.0032114691374494171 0 -0.031417227660367149 -0.0032766456900492629 0 -0.031456956772970689 -0.0032886641366969634 0 -0.031530265025847146 -0.0032088362318484082 0 -0.031587867975060004 -0.0032114691374494171 0 -0.031525942867461597 -0.0029434480216978462 0 -0.031587867975060004 -0.0032114691374494171 0 -0.031417227660367149 -0.0032766456900492629 0 -0.028526907730271896 -0.0044896380599497325 0 -0.02879420768700653 -0.0047799331354321309 0 -0.028396635673625954 -0.0047754096074918905 0 -0.028526907730271896 -0.0044896380599497325 0 -0.029055355766376113 -0.0045997981670677359 0 -0.028763797065267861 -0.0041809280550905003 0 -0.028526907730271896 -0.0044896380599497325 0 -0.02879420768700653 -0.0047799331354321309 0 -0.029055355766376113 -0.0045997981670677359 0 -0.02879420768700653 -0.0047799331354321309 0 -0.029055355766376113 -0.0045997981670677359 0 -0.029162435222487647 -0.0047710316324479068 0 -0.029055355766376113 -0.0045997981670677359 0 -0.029642045368477057 -0.0044098029609410715 0 -0.028763797065267861 -0.0041809280550905003 0 -0.029055355766376113 -0.0045997981670677359 0 -0.029162435222487647 -0.0047710316324479068 0 -0.029429959511635888 -0.0046421384530100779 0 -0.031879294621412271 -0.0033998477441560147 0 -0.031564260396952988 -0.0034417880970745106 0 -0.031118723897152308 -0.0035273136938691807 0 -0.031547910661197671 -0.0034901671531334258 0 -0.030258693511346316 -0.0040431687363870648 0 -0.029508315199874898 -0.0048433508883789942 0 -0.029429959511635888 -0.0046421384530100779 0 -0.029642045368477057 -0.0044098029609410715 0 -0.029508315199874898 -0.0048433508883789942 0 -0.029162435222487647 -0.0047710316324479068 0 -0.029429959511635888 -0.0046421384530100779 0 -0.031879294621412271 -0.0033998477441560147 0 -0.031786126122604515 -0.0033800875063971099 0 -0.031564260396952988 -0.0034417880970745106 0 -0.029055355766376113 -0.0045997981670677359 0 -0.029429959511635888 -0.0046421384530100779 0 -0.029642045368477057 -0.0044098029609410715 0 -0.029642045368477057 -0.0044098029609410715 0 -0.029070693060050983 -0.0037602137618761937 0 -0.028763797065267861 -0.0041809280550905003 0 -0.029642045368477057 -0.0044098029609410715 0 -0.029948155379392685 -0.0035599339514988922 0 -0.029070693060050983 -0.0037602137618761937 0 -0.030258693511346316 -0.0040431687363870648 0 -0.030037934193872386 -0.0034459859079750692 0 -0.031075811340477832 -0.0034734907845962375 0 -0.031118723897152308 -0.0035273136938691807 0 -0.029948155379392685 -0.0035599339514988922 0 -0.029070693060050983 -0.0037602137618761937 0 -0.028763797065267861 -0.0041809280550905003 0 -0.028319939728654136 -0.0036983871692624565 0 -0.028763797065267861 -0.0041809280550905003 0 -0.028160844956463739 -0.0040345555536494861 0 -0.028319939728654136 -0.0036983871692624565 0 -0.028526907730271896 -0.0044896380599497325 0 -0.028763797065267861 -0.0041809280550905003 0 -0.028160844956463739 -0.0040345555536494861 0 -0.028526907730271896 -0.0044896380599497325 0 -0.028160844956463739 -0.0040345555536494861 0 -0.028209892706508817 -0.0044712127538630332 0 -0.028160844956463739 -0.0040345555536494861 0 -0.02799643331153176 -0.0043893034496863218 0 -0.027982140594333169 -0.0039722733934173726 0 -0.028160844956463739 -0.0040345555536494861 0 -0.028209892706508817 -0.0044712127538630332 0 -0.02799643331153176 -0.0043893034496863218 0 -0.028526907730271896 -0.0044896380599497325 0 -0.028209892706508817 -0.0044712127538630332 0 -0.028396635673625954 -0.0047754096074918905 0 -0.028209892706508817 -0.0044712127538630332 0 -0.028092398722755606 -0.0046642072779560194 0 -0.02799643331153176 -0.0043893034496863218 0 -0.028092398722755606 -0.0046642072779560194 0 -0.028396635673625954 -0.0047754096074918905 0 -0.028039465099820481 -0.0048752471315412467 0 -0.028209892706508817 -0.0044712127538630332 0 -0.028092398722755606 -0.0046642072779560194 0 -0.028396635673625954 -0.0047754096074918905 0 -0.027980119160021574 -0.0047844412456820688 0 -0.027966725976392649 -0.0046756515272462816 0 -0.027958092805943562 -0.0048229151539966337 0 -0.027980119160021574 -0.0047844412456820688 0 -0.028092398722755606 -0.0046642072779560194 0 -0.027966725976392649 -0.0046756515272462816 0 -0.027980119160021574 -0.0047844412456820688 0 -0.028092398722755606 -0.0046642072779560194 0 -0.028039465099820481 -0.0048752471315412467 0 -0.028092398722755606 -0.0046642072779560194 0 -0.027966725976392649 -0.0046756515272462816 0 -0.02799643331153176 -0.0043893034496863218 0 -0.027936580682162551 -0.0045843461901724945 0 -0.02799643331153176 -0.0043893034496863218 0 -0.027889801299474652 -0.0045005135395260283 0 -0.027966725976392649 -0.0046756515272462816 0 -0.027936580682162551 -0.0045843461901724945 0 -0.02799643331153176 -0.0043893034496863218 0 -0.027966725976392649 -0.0046756515272462816 0 -0.027936580682162551 -0.0045843461901724945 0 -0.027899600995852883 -0.0047626275029456402 0 -0.02799643331153176 -0.0043893034496863218 0 -0.027913854661746194 -0.0041878897457021062 0 -0.027982140594333169 -0.0039722733934173726 0 -0.02799643331153176 -0.0043893034496863218 0 -0.027889801299474652 -0.0045005135395260283 0 -0.027913854661746194 -0.0041878897457021062 0 -0.027889801299474652 -0.0045005135395260283 0 -0.027802521379052158 -0.0047313807159946892 0 -0.027899600995852883 -0.0047626275029456402 0 -0.027802521379052158 -0.0047313807159946892 0 -0.027877429566617377 -0.0049564149041955415 0 -0.027899600995852883 -0.0047626275029456402 0 -0.027802521379052158 -0.0047313807159946892 0 -0.027877429566617377 -0.0049564149041955415 0 -0.027779408538426916 -0.00499881293589038 0 -0.027936580682162551 -0.0045843461901724945 0 -0.027889801299474652 -0.0045005135395260283 0 -0.027899600995852883 -0.0047626275029456402 0 -0.027716701934770629 -0.00555469897119626 0 -0.027821446448369661 -0.0052184120686663603 0 -0.027557392643121601 -0.0049783316605213459 0 -0.027779408538426916 -0.00499881293589038 0 -0.027821446448369661 -0.0052184120686663603 0 -0.027557392643121601 -0.0049783316605213459 0 -0.027802521379052158 -0.0047313807159946892 0 -0.027779408538426916 -0.00499881293589038 0 -0.027557392643121601 -0.0049783316605213459 0 -0.027877429566617377 -0.0049564149041955415 0 -0.027821446448369661 -0.0052184120686663603 0 -0.028073271357751992 -0.0051208015430759266 0 -0.027877429566617377 -0.0049564149041955415 0 -0.027779408538426916 -0.00499881293589038 0 -0.027821446448369661 -0.0052184120686663603 0 -0.027716701934770629 -0.00555469897119626 0 -0.027821446448369661 -0.0052184120686663603 0 -0.028073271357751992 -0.0051208015430759266 0 -0.027877429566617377 -0.0049564149041955415 0 -0.028073271357751992 -0.0051208015430759266 0 -0.027985869271650976 -0.0049269958930638486 0 -0.028073271357751992 -0.0051208015430759266 0 -0.027985869271650976 -0.0049269958930638486 0 -0.028231173344999156 -0.004924388214009646 0 -0.028073271357751992 -0.0051208015430759266 0 -0.02851975238600887 -0.0049709888451516786 0 -0.028231173344999156 -0.004924388214009646 0 -0.027966725976392649 -0.0046756515272462816 0 -0.027899600995852883 -0.0047626275029456402 0 -0.027958092805943562 -0.0048229151539966337 0 -0.027899600995852883 -0.0047626275029456402 0 -0.027985869271650976 -0.0049269958930638486 0 -0.027958092805943562 -0.0048229151539966337 0 -0.027877429566617377 -0.0049564149041955415 0 -0.027899600995852883 -0.0047626275029456402 0 -0.027985869271650976 -0.0049269958930638486 0 -0.027985869271650976 -0.0049269958930638486 0 -0.028037464403493209 -0.0048675070845109704 0 -0.028231173344999156 -0.004924388214009646 0 -0.027985869271650976 -0.0049269958930638486 0 -0.027958092805943562 -0.0048229151539966337 0 -0.028037464403493209 -0.0048675070845109704 0 -0.027958092805943562 -0.0048229151539966337 0 -0.027983566404051158 -0.0048249735621430324 0 -0.028037464403493209 -0.0048675070845109704 0 -0.027980119160021574 -0.0047844412456820688 0 -0.027958092805943562 -0.0048229151539966337 0 -0.027983566404051158 -0.0048249735621430324 0 -0.027983566404051158 -0.0048249735621430324 0 -0.027991214073823364 -0.004804085090055225 0 -0.028043615354408438 -0.0048086987253910234 0 -0.027983566404051158 -0.0048249735621430324 0 -0.027991214073823364 -0.004804085090055225 0 -0.027987325580004791 -0.0048188593578823687 0 -0.027983566404051158 -0.0048249735621430324 0 -0.028043615354408438 -0.0048086987253910234 0 -0.028037464403493209 -0.0048675070845109704 0 -0.028037464403493209 -0.0048675070845109704 0 -0.028158108667436059 -0.0048242225221232608 0 -0.028231173344999156 -0.004924388214009646 0 -0.028043615354408438 -0.0048086987253910234 0 -0.028037464403493209 -0.0048675070845109704 0 -0.028158108667436059 -0.0048242225221232608 0 -0.028043615354408438 -0.0048086987253910234 0 -0.028158108667436059 -0.0048242225221232608 0 -0.02817126841787038 -0.0047311212767087944 0 -0.02817126841787038 -0.0047311212767087944 0 -0.027963942475958625 -0.0047408002690513904 0 -0.028361695420518238 -0.0045231029728975925 0 -0.028158108667436059 -0.0048242225221232608 0 -0.02817126841787038 -0.0047311212767087944 0 -0.028355664156624657 -0.0047174507131989155 0 -0.02817126841787038 -0.0047311212767087944 0 -0.028355664156624657 -0.0047174507131989155 0 -0.028361695420518238 -0.0045231029728975925 0 -0.028043615354408438 -0.0048086987253910234 0 -0.02817126841787038 -0.0047311212767087944 0 -0.027963942475958625 -0.0047408002690513904 0 -0.028481661648359507 -0.0046000972441974063 0 -0.028446912204255864 -0.0045977950115547988 0 -0.028537984835660581 -0.0046343041133331125 0 -0.027991214073823364 -0.004804085090055225 0 -0.027963942475958625 -0.0047408002690513904 0 -0.027987325580004791 -0.0048188593578823687 0 -0.027991214073823364 -0.004804085090055225 0 -0.028043615354408438 -0.0048086987253910234 0 -0.027963942475958625 -0.0047408002690513904 0 -0.02851975238600887 -0.0049709888451516786 0 -0.028231173344999156 -0.004924388214009646 0 -0.02862058844071284 -0.0047883004159802126 0 -0.028231173344999156 -0.004924388214009646 0 -0.028355664156624657 -0.0047174507131989155 0 -0.02862058844071284 -0.0047883004159802126 0 -0.028158108667436059 -0.0048242225221232608 0 -0.028231173344999156 -0.004924388214009646 0 -0.028355664156624657 -0.0047174507131989155 0 -0.028355664156624657 -0.0047174507131989155 0 -0.02862058844071284 -0.0047883004159802126 0 -0.028623253847350864 -0.0044598767250597733 0 -0.029106524705613753 -0.0045988629179421515 0 -0.02862058844071284 -0.0047883004159802126 0 -0.028884627059628697 -0.0043875307509223371 0 -0.029106524705613753 -0.0045988629179421515 0 -0.028884627059628697 -0.0043875307509223371 0 -0.029320087175260103 -0.0040463722835309846 0 -0.028656790251206214 -0.0047763731408398645 0 -0.028757523727901281 -0.0044365428002248438 0 -0.028355664156624657 -0.0047174507131989155 0 -0.028623253847350864 -0.0044598767250597733 0 -0.028361695420518238 -0.0045231029728975925 0 -0.028623253847350864 -0.0044598767250597733 0 -0.028361695420518238 -0.0045231029728975925 0 -0.028503136063456676 -0.0043456734485954711 0 -0.028361695420518238 -0.0045231029728975925 0 -0.028503136063456676 -0.0043456734485954711 0 -0.028395196268431802 -0.0044117904134707425 0 -0.028746389441785904 -0.0040838736989492379 0 -0.028623253847350864 -0.0044598767250597733 0 -0.028503136063456676 -0.0043456734485954711 0 -0.028542388221062323 -0.0041706959409197331 0 -0.028746389441785904 -0.0040838736989492379 0 -0.028503136063456676 -0.0043456734485954711 0 -0.028542388221062323 -0.0041706959409197331 0 -0.028503136063456676 -0.0043456734485954711 0 -0.028402641237125575 -0.0042874537576732437 0 -0.028931964977545868 -0.0037227361644400223 0 -0.028884627059628697 -0.0043875307509223371 0 -0.029320087175260103 -0.0040463722835309846 0 -0.028761762109722606 -0.0038768864927812693 0 -0.028757523727901281 -0.0044365428002248438 0 -0.028446912204255864 -0.0045977950115547988 0 -0.028383686935161578 -0.0044862049099446541 0 -0.028323032043802997 -0.0043647343750161513 0 -0.028506179880828562 -0.0047052951536501976 0 -0.028446912204255864 -0.0045977950115547988 0 -0.028365026298185443 -0.0048734279161820092 0 -0.028481661648359507 -0.0046000972441974063 0 -0.028361695420518238 -0.0045231029728975925 0 -0.028446912204255864 -0.0045977950115547988 0 -0.027757910611672529 -0.0052305088733111587 0 -0.030616614416495491 -0.0033507055249562484 0 -0.028506179880828562 -0.0047052951536501976 0 -0.028446912204255864 -0.0045977950115547988 0 -0.028537984835660581 -0.0046343041133331125 0 -0.028227828625825215 -0.0046744717698403784 0 -0.028352721047306743 -0.004537389506627262 0 -0.028361695420518238 -0.0045231029728975925 0 -0.028446912204255864 -0.0045977950115547988 0 -0.028383686935161578 -0.0044862049099446541 0 -0.028361695420518238 -0.0045231029728975925 0 -0.028383686935161578 -0.0044862049099446541 0 -0.028395196268431802 -0.0044117904134707425 0 -0.028383686935161578 -0.0044862049099446541 0 -0.028395196268431802 -0.0044117904134707425 0 -0.028323032043802997 -0.0043647343750161513 0 -0.028503136063456676 -0.0043456734485954711 0 -0.028395196268431802 -0.0044117904134707425 0 -0.028402641237125575 -0.0042874537576732437 0 -0.028395196268431802 -0.0044117904134707425 0 -0.028402641237125575 -0.0042874537576732437 0 -0.028323032043802997 -0.0043647343750161513 0 -0.027936176604060069 -0.0040919815134018364 0 -0.030616614416495491 -0.0033507055249562484 0 -0.030616614416495491 -0.0033507055249562484 0 -0.031838025605254949 -0.0031137022134003611 0 -0.028506179880828562 -0.0047052951536501976 0 -0.028365026298185443 -0.0048734279161820092 0 -0.028543612543994505 -0.0047917805489183507 0 -0.034954789814242056 -0.0011146284086616274 0 -0.035130615840776848 -0.0012670020398132928 0 -0.034732640594988484 -0.0012905158121859022 0 -0.028365026298185443 -0.0048734279161820092 0 -0.02871480280814101 -0.0048973743324521824 0 -0.028543612543994505 -0.0047917805489183507 0 -0.02871480280814101 -0.0048973743324521824 0 -0.028590493673439177 -0.0047185124139428351 0 -0.028757656211974195 -0.0047093111125557563 0 -0.02871480280814101 -0.0048973743324521824 0 -0.028543612543994505 -0.0047917805489183507 0 -0.028590493673439177 -0.0047185124139428351 0 -0.028506179880828562 -0.0047052951536501976 0 -0.028543612543994505 -0.0047917805489183507 0 -0.028590493673439177 -0.0047185124139428351 0 -0.028506179880828562 -0.0047052951536501976 0 -0.028590493673439177 -0.0047185124139428351 0 -0.028537984835660581 -0.0046343041133331125 0 -0.028590493673439177 -0.0047185124139428351 0 -0.028537984835660581 -0.0046343041133331125 0 -0.028757656211974195 -0.0047093111125557563 0 -0.028244539165217394 -0.0050026803659516889 0 -0.029845051907628067 -0.0033588572627048681 0 -0.028537984835660581 -0.0046343041133331125 0 -0.028512212907810273 -0.0047119470315577306 0 -0.028508021133489891 -0.0047234905149483291 0 -0.028537984835660581 -0.0046343041133331125 0 -0.028512212907810273 -0.0047119470315577306 0 -0.028508227133077609 -0.004727405537577679 0 -0.028537984835660581 -0.0046343041133331125 0 -0.028757656211974195 -0.0047093111125557563 0 -0.029048314178894863 -0.0047232805413961378 0 -0.028512212907810273 -0.0047119470315577306 0 -0.028501636179565696 -0.0047600465850620548 0 -0.028508021133489891 -0.0047234905149483291 0 -0.034434258016088924 -0.0011450828755477937 0 -0.034732640594988484 -0.0012905158121859022 0 -0.034307180807410735 -0.001330459181310757 0 -0.02871480280814101 -0.0048973743324521824 0 -0.028757656211974195 -0.0047093111125557563 0 -0.029048314178894863 -0.0047232805413961378 0 -0.02871480280814101 -0.0048973743324521824 0 -0.02930623084521294 -0.0048557251148630192 0 -0.029048314178894863 -0.0047232805413961378 0 -0.031838025605254949 -0.0031137022134003611 0 -0.032427433858607926 -0.0026478697267629998 0 -0.032894528226435286 -0.0017300044055098903 0 -0.032667373754610943 -0.0016080888907582136 0 -0.033028259612699687 -0.0015866220398244543 0 -0.032427433858607926 -0.0026478697267629998 0 -0.029845051907628067 -0.0033588572627048681 0 -0.032894528226435286 -0.0017300044055098903 0 -0.033158793266546895 -0.0016638198693191184 0 -0.033028259612699687 -0.0015866220398244543 0 -0.033252583730115366 -0.0014992379831609431 0 -0.033158793266546895 -0.0016638198693191184 0 -0.033028259612699687 -0.0015866220398244543 0 -0.033823476981832669 -0.001349735166549845 0 -0.032427433858607926 -0.0026478697267629998 0 -0.032427433858607926 -0.0026478697267629998 0 -0.033351005773943745 -0.001622558995493227 0 -0.033324624527183426 -0.0015781287961576249 0 -0.033270073502402006 -0.0015628723875688603 0 -0.033320708574675645 -0.0015518736669815748 0 -0.033252583730115366 -0.0014992379831609431 0 -0.033068376645535767 -0.0014319822031489541 0 -0.033028259612699687 -0.0015866220398244543 0 -0.028508227133077609 -0.004727405537577679 0 -0.028522580701351045 -0.0048237581738714589 0 -0.028501636179565696 -0.0047600465850620548 0 -0.029845051907628067 -0.0033588572627048681 0 -0.030952980077520939 -0.0030728389139539755 0 -0.032667373754610943 -0.0016080888907582136 0 -0.033068376645535767 -0.0014319822031489541 0 -0.033028259612699687 -0.0015866220398244543 0 -0.028512212907810273 -0.0047119470315577306 0 -0.028508227133077609 -0.004727405537577679 0 -0.028501636179565696 -0.0047600465850620548 0 -0.028501636179565696 -0.0047600465850620548 0 -0.028494946589842092 -0.0047548621478921112 0 -0.028508021133489891 -0.0047234905149483291 0 -0.028522580701351045 -0.0048237581738714589 0 -0.028501636179565696 -0.0047600465850620548 0 -0.028463419895641277 -0.0047973514220412483 0 -0.028494946589842092 -0.0047548621478921112 0 -0.028463419895641277 -0.0047973514220412483 0 -0.028513545821102382 -0.0047529802709192675 0 -0.028501636179565696 -0.0047600465850620548 0 -0.028494946589842092 -0.0047548621478921112 0 -0.028463419895641277 -0.0047973514220412483 0 -0.028689822312270186 -0.0049412521535991873 0 -0.028522580701351045 -0.0048237581738714589 0 -0.028463419895641277 -0.0047973514220412483 0 -0.028689822312270186 -0.0049412521535991873 0 -0.028463419895641277 -0.0047973514220412483 0 -0.028396635673625954 -0.0047754096074918905 0 -0.028395116353387161 -0.0047771394716650808 0 -0.028276725743520421 -0.0048020824890628476 0 -0.028463419895641277 -0.0047973514220412483 0 -0.028396635673625954 -0.0047754096074918905 0 -0.028513545821102382 -0.0047529802709192675 0 -0.027980119160021574 -0.0047844412456820688 0 -0.028039465099820481 -0.0048752471315412467 0 -0.027987325580004791 -0.0048188593578823687 0 -0.027980119160021574 -0.0047844412456820688 0 -0.027983566404051158 -0.0048249735621430324 0 -0.027987325580004791 -0.0048188593578823687 0 -0.027963942475958625 -0.0047408002690513904 0 -0.028039465099820481 -0.0048752471315412467 0 -0.027987325580004791 -0.0048188593578823687 0 -0.028227828625825215 -0.0046744717698403784 0 -0.028276725743520421 -0.0048020824890628476 0 -0.028481661648359507 -0.0046000972441974063 0 -0.028537984835660581 -0.0046343041133331125 0 -0.028513545821102382 -0.0047529802709192675 0 -0.028537984835660581 -0.0046343041133331125 0 -0.028513545821102382 -0.0047529802709192675 0 -0.028508021133489891 -0.0047234905149483291 0 -0.028494946589842092 -0.0047548621478921112 0 -0.028513545821102382 -0.0047529802709192675 0 -0.028508021133489891 -0.0047234905149483291 0 -0.027724530216820475 0.00018184687956028883 0 -0.029731443606104111 -6.7217058305135165e-05 0 -0.024746966820304427 -1.0286015003890591e-07 0 -0.029731443606104111 -6.7217058305135165e-05 0 -0.030422908808223771 -8.8023425049476116e-07 0 -0.024746966820304427 -1.0286015003890591e-07 0 -0.027724530216820475 0.00018184687956028883 0 -0.027213171532733806 0.00010540620290515832 0 -0.024746966820304427 -1.0286015003890591e-07 0 -0.027724530216820475 0.00018184687956028883 0 -0.028516542094491702 3.2313017746869892e-05 0 -0.028071744964188509 8.4113140890173794e-05 0 -0.027724530216820475 0.00018184687956028883 0 -0.027640344022467827 0.00022303772436621099 0 -0.028071744964188509 8.4113140890173794e-05 0 -0.027724530216820475 0.00018184687956028883 0 -0.027213171532733806 0.00010540620290515832 0 -0.027640344022467827 0.00022303772436621099 0 -0.027480864547233728 6.0546006266922236e-05 0 -0.027616611613380249 0.0001035726580182526 0 -0.027640344022467827 0.00022303772436621099 0 -0.027213171532733806 0.00010540620290515832 0 -0.027480864547233728 6.0546006266922236e-05 0 -0.027640344022467827 0.00022303772436621099 0 -0.027480864547233728 6.0546006266922236e-05 0 -0.027616611613380249 0.0001035726580182526 0 -0.027619826431123613 -9.9571016914753777e-05 0 -0.027898831089413663 0.00010515730443974403 0 -0.027800311408600349 7.6562909945180975e-05 0 -0.027721469781080539 0.00016835369686151778 0 -0.027898831089413663 0.00010515730443974403 0 -0.027800311408600349 7.6562909945180975e-05 0 -0.027867263194146459 -9.4888672419064497e-06 0 -0.027800311408600349 7.6562909945180975e-05 0 -0.027867263194146459 -9.4888672419064497e-06 0 -0.027694001527147842 6.6895111250398368e-05 0 -0.028013183125706258 -0.00045566835724174389 0 -0.02820739939242169 -0.00022682774208560182 0 -0.02783363217525385 -0.00012683533441993242 0 -0.027867263194146459 -9.4888672419064497e-06 0 -0.027694001527147842 6.6895111250398368e-05 0 -0.02783363217525385 -0.00012683533441993242 0 -0.027867263194146459 -9.4888672419064497e-06 0 -0.028011304696961441 -8.6589576934302477e-05 0 -0.027898831089413663 0.00010515730443974403 0 -0.027867263194146459 -9.4888672419064497e-06 0 -0.028011304696961441 -8.6589576934302477e-05 0 -0.02783363217525385 -0.00012683533441993242 0 -0.028011304696961441 -8.6589576934302477e-05 0 -0.028004405036660567 -0.00018132644874246532 0 -0.02799285142670975 -4.8920434523416013e-05 0 -0.027806377882216838 0.0001079626912694028 0 -0.027806377882216838 0.0001079626912694028 0 -0.028039962575510745 -0.00013163983570402954 0 -0.028011304696961441 -8.6589576934302477e-05 0 -0.028004405036660567 -0.00018132644874246532 0 -0.028075624349190288 -0.00013497810070914378 0 -0.028004405036660567 -0.00018132644874246532 0 -0.027993491138229475 -0.0003333919935979892 0 -0.028007333831514311 -0.0003198777390040803 0 -0.028004405036660567 -0.00018132644874246532 0 -0.028007333831514311 -0.0003198777390040803 0 -0.028075624349190288 -0.00013497810070914378 0 -0.028199071805039388 -0.0007192888715482291 0 -0.028190132488695049 -0.00040258378375813053 0 -0.027993491138229475 -0.0003333919935979892 0 -0.028013183125706258 -0.00045566835724174389 0 -0.027987486214984245 -0.00032766973481355538 0 -0.02783363217525385 -0.00012683533441993242 0 -0.028004405036660567 -0.00018132644874246532 0 -0.027993491138229475 -0.0003333919935979892 0 -0.028199071805039388 -0.0007192888715482291 0 -0.028190132488695049 -0.00040258378375813053 0 -0.028359011484299233 -0.00041474420918974976 0 -0.028190132488695049 -0.00040258378375813053 0 -0.028214218021291496 -0.00024915692772811102 0 -0.028359011484299233 -0.00041474420918974976 0 -0.028190132488695049 -0.00040258378375813053 0 -0.027993491138229475 -0.0003333919935979892 0 -0.028214218021291496 -0.00024915692772811102 0 -0.027993491138229475 -0.0003333919935979892 0 -0.028214218021291496 -0.00024915692772811102 0 -0.028004903097869911 -0.00025130828798613749 0 -0.030914738541966913 -0.00047679550814652352 0 -0.030501647277929089 -0.00055870354848327791 0 -0.028007333831514311 -0.0003198777390040803 0 -0.028004903097869911 -0.00025130828798613749 0 -0.028154974850165954 -0.00055939019186210888 0 -0.027993491138229475 -0.0003333919935979892 0 -0.028007333831514311 -0.0003198777390040803 0 -0.028004903097869911 -0.00025130828798613749 0 -0.028154974850165954 -0.00055939019186210888 0 -0.028504947479393281 -0.00014954502242575193 0 -0.029731443606104111 -6.7217058305135165e-05 0 -0.028154974850165954 -0.00055939019186210888 0 -0.028075624349190288 -0.00013497810070914378 0 -0.028504947479393281 -0.00014954502242575193 0 -0.028007333831514311 -0.0003198777390040803 0 -0.028154974850165954 -0.00055939019186210888 0 -0.028075624349190288 -0.00013497810070914378 0 -0.028075624349190288 -0.00013497810070914378 0 -0.028504947479393281 -0.00014954502242575193 0 -0.028071744964188509 8.4113140890173794e-05 0 -0.027640344022467827 0.00022303772436621099 0 -0.028075624349190288 -0.00013497810070914378 0 -0.028071744964188509 8.4113140890173794e-05 0 -0.028504947479393281 -0.00014954502242575193 0 -0.028516542094491702 3.2313017746869892e-05 0 -0.028071744964188509 8.4113140890173794e-05 0 -0.027724530216820475 0.00018184687956028883 0 -0.028516542094491702 3.2313017746869892e-05 0 -0.029731443606104111 -6.7217058305135165e-05 0 -0.028504947479393281 -0.00014954502242575193 0 -0.028516542094491702 3.2313017746869892e-05 0 -0.029731443606104111 -6.7217058305135165e-05 0 -0.032719953812869275 -0.00085155216057701999 0 -0.029731443606104111 -6.7217058305135165e-05 0 -0.031758659638563093 -1.7062723446346564e-05 0 -0.029731443606104111 -6.7217058305135165e-05 0 -0.030422908808223771 -8.8023425049476116e-07 0 -0.031758659638563093 -1.7062723446346564e-05 0 -0.030501647277929089 -0.00055870354848327791 0 -0.029909285535169246 -0.00023561542326043687 0 -0.030422908808223771 -8.8023425049476116e-07 0 -0.031758659638563093 -1.7062723446346564e-05 0 -0.033385638899091845 8.6020284827849572e-05 0 -0.030422908808223771 -8.8023425049476116e-07 0 -0.033385638899091845 8.6020284827849572e-05 0 -0.034999597962588322 5.6964952281501974e-07 0 -0.032719953812869275 -0.00085155216057701999 0 -0.031758659638563093 -1.7062723446346564e-05 0 -0.032986708689628129 6.2937285159014793e-05 0 -0.032719953812869275 -0.00085155216057701999 0 -0.032986708689628129 6.2937285159014793e-05 0 -0.033586520090017412 -0.00019831709417810671 0 -0.032986708689628129 6.2937285159014793e-05 0 -0.033683176363474364 0.0001467072676049769 0 -0.033586520090017412 -0.00019831709417810671 0 -0.032986708689628129 6.2937285159014793e-05 0 -0.03387206889108757 0.00042770201839326452 0 -0.033683176363474364 0.0001467072676049769 0 -0.03387206889108757 0.00042770201839326452 0 -0.034172205944897026 0.00027383673917723408 0 -0.033683176363474364 0.0001467072676049769 0 -0.031758659638563093 -1.7062723446346564e-05 0 -0.032986708689628129 6.2937285159014793e-05 0 -0.03387206889108757 0.00042770201839326452 0 -0.032063838414459284 -5.2036395226434528e-05 0 -0.033552733119075695 0.00025244341646685339 0 -0.03387206889108757 0.00042770201839326452 0 -0.034172205944897026 0.00027383673917723408 0 -0.034528418277527811 0.00022494305765766414 0 -0.033552733119075695 0.00025244341646685339 0 -0.034999572503531126 1.9894362122955529e-07 0 -0.03387206889108757 0.00042770201839326452 0 -0.034999100213892777 3.1117589427802358e-07 0 -0.034528418277527811 0.00022494305765766414 0 -0.033385638899091845 8.6020284827849572e-05 0 -0.034998770521002254 -2.460450393300077e-07 0 -0.034999597962588322 5.6964952281501974e-07 0 -0.034999371509277663 2.8817847325827474e-07 0 -0.034602527679665589 0.00020072175486917986 0 -0.034846419650593825 0.0001143597327774582 0 -0.034999100213892777 3.1117589427802358e-07 0 -0.034999371509277663 2.8817847325827474e-07 0 -0.034528418277527811 0.00022494305765766414 0 -0.034999371509277663 2.8817847325827474e-07 0 -0.034528418277527811 0.00022494305765766414 0 -0.034602527679665589 0.00020072175486917986 0 -0.034172205944897026 0.00027383673917723408 0 -0.034528418277527811 0.00022494305765766414 0 -0.034602527679665589 0.00020072175486917986 0 -0.034602527679665589 0.00020072175486917986 0 -0.034776944615205738 9.2428213900353583e-05 0 -0.034846419650593825 0.0001143597327774582 0 -0.034602527679665589 0.00020072175486917986 0 -0.034634861738604798 6.3191434508179733e-05 0 -0.034776944615205738 9.2428213900353583e-05 0 -0.034602527679665589 0.00020072175486917986 0 -0.034634861738604798 6.3191434508179733e-05 0 -0.034231688249102186 2.4763381040954618e-05 0 -0.034634861738604798 6.3191434508179733e-05 0 -0.034231688249102186 2.4763381040954618e-05 0 -0.03452834309616945 -7.0830933502322274e-05 0 -0.034634861738604798 6.3191434508179733e-05 0 -0.03452834309616945 -7.0830933502322274e-05 0 -0.034686202788475992 -4.04215238928831e-05 0 -0.034172205944897026 0.00027383673917723408 0 -0.034602527679665589 0.00020072175486917986 0 -0.034231688249102186 2.4763381040954618e-05 0 -0.034172205944897026 0.00027383673917723408 0 -0.034231688249102186 2.4763381040954618e-05 0 -0.033683176363474364 0.0001467072676049769 0 -0.03417744239641813 -0.0005978543816527529 0 -0.034231688249102186 2.4763381040954618e-05 0 -0.033586520090017412 -0.00019831709417810671 0 -0.03417744239641813 -0.0005978543816527529 0 -0.032719953812869275 -0.00085155216057701999 0 -0.033586520090017412 -0.00019831709417810671 0 -0.034231688249102186 2.4763381040954618e-05 0 -0.033683176363474364 0.0001467072676049769 0 -0.033586520090017412 -0.00019831709417810671 0 -0.030914738541966913 -0.00047679550814652352 0 -0.032536083113743161 -3.6731379433882335e-06 0 -0.03417744239641813 -0.0005978543816527529 0 -0.034231688249102186 2.4763381040954618e-05 0 -0.034443443146926621 -0.00026949457082877791 0 -0.03417744239641813 -0.0005978543816527529 0 -0.034443443146926621 -0.00026949457082877791 0 -0.034855027331588476 -0.00029547800283088907 0 -0.028214218021291496 -0.00024915692772811102 0 -0.028004903097869911 -0.00025130828798613749 0 -0.028391925992273716 -3.6030987615382019e-05 0 -0.034674214661713151 -0.00018374102500590218 0 -0.03452834309616945 -7.0830933502322274e-05 0 -0.034443443146926621 -0.00026949457082877791 0 -0.034674214661713151 -0.00018374102500590218 0 -0.03452834309616945 -7.0830933502322274e-05 0 -0.034686202788475992 -4.04215238928831e-05 0 -0.034231688249102186 2.4763381040954618e-05 0 -0.03452834309616945 -7.0830933502322274e-05 0 -0.034443443146926621 -0.00026949457082877791 0 -0.034674214661713151 -0.00018374102500590218 0 -0.034443443146926621 -0.00026949457082877791 0 -0.034855027331588476 -0.00029547800283088907 0 -0.032536083113743161 -3.6731379433882335e-06 0 -0.035103998450766997 9.920983009726422e-05 0 -0.034748199290901963 -0.00018791165587998311 0 -0.034837698320777051 -4.3848284547913272e-05 0 -0.034930649326818747 -2.183295618944341e-05 0 -0.03404348820254207 -0.00057488247124417148 0 -0.032536083113743161 -3.6731379433882335e-06 0 -0.034748199290901963 -0.00018791165587998311 0 -0.034837698320777051 -4.3848284547913272e-05 0 -0.034769107401901998 -7.4968372065051882e-05 0 -0.034674214661713151 -0.00018374102500590218 0 -0.034748199290901963 -0.00018791165587998311 0 -0.034769107401901998 -7.4968372065051882e-05 0 -0.034674214661713151 -0.00018374102500590218 0 -0.034769107401901998 -7.4968372065051882e-05 0 -0.034686202788475992 -4.04215238928831e-05 0 -0.035196484648828921 0.00030213214098757219 0 -0.03153555303741875 7.2287896043523445e-05 0 -0.034572163311108732 0.00011596457178430887 0 -0.03472566987210178 6.9848841916457462e-05 0 -0.034542573950139231 -0.0003302229649125557 0 -0.034051375123707768 -2.0358724845822362e-05 0 -0.034572163311108732 0.00011596457178430887 0 -0.034542573950139231 -0.0003302229649125557 0 -0.03490408266804871 2.1322838148901879e-05 0 -0.034884310080531618 6.9869796841853872e-05 0 -0.034940696114483166 4.8364338143705107e-05 0 -0.034930649326818747 -2.183295618944341e-05 0 -0.03490408266804871 2.1322838148901879e-05 0 -0.034925200134380288 3.4772012626698534e-05 0 -0.034837698320777051 -4.3848284547913272e-05 0 -0.034930649326818747 -2.183295618944341e-05 0 -0.03490408266804871 2.1322838148901879e-05 0 -0.03490408266804871 2.1322838148901879e-05 0 -0.034807665531468024 1.621889498162748e-05 0 -0.034884310080531618 6.9869796841853872e-05 0 -0.03490408266804871 2.1322838148901879e-05 0 -0.034940696114483166 4.8364338143705107e-05 0 -0.034925200134380288 3.4772012626698534e-05 0 -0.034634861738604798 6.3191434508179733e-05 0 -0.034686202788475992 -4.04215238928831e-05 0 -0.034807665531468024 1.621889498162748e-05 0 -0.034769107401901998 -7.4968372065051882e-05 0 -0.034686202788475992 -4.04215238928831e-05 0 -0.034807665531468024 1.621889498162748e-05 0 -0.034837698320777051 -4.3848284547913272e-05 0 -0.03490408266804871 2.1322838148901879e-05 0 -0.034807665531468024 1.621889498162748e-05 0 -0.034837698320777051 -4.3848284547913272e-05 0 -0.034769107401901998 -7.4968372065051882e-05 0 -0.034807665531468024 1.621889498162748e-05 0 -0.034807665531468024 1.621889498162748e-05 0 -0.034776944615205738 9.2428213900353583e-05 0 -0.034884310080531618 6.9869796841853872e-05 0 -0.034634861738604798 6.3191434508179733e-05 0 -0.034807665531468024 1.621889498162748e-05 0 -0.034776944615205738 9.2428213900353583e-05 0 -0.034846419650593825 0.0001143597327774582 0 -0.034884310080531618 6.9869796841853872e-05 0 -0.034945255991391519 5.5072110982964447e-05 0 -0.034776944615205738 9.2428213900353583e-05 0 -0.034846419650593825 0.0001143597327774582 0 -0.034884310080531618 6.9869796841853872e-05 0 -0.034884310080531618 6.9869796841853872e-05 0 -0.034945255991391519 5.5072110982964447e-05 0 -0.034940696114483166 4.8364338143705107e-05 0 -0.034945255991391519 5.5072110982964447e-05 0 -0.034999896589135646 4.4585092362402214e-08 0 -0.034999932691457104 4.984278496001348e-08 0 -0.034999371509277663 2.8817847325827474e-07 0 -0.034846419650593825 0.0001143597327774582 0 -0.034999896589135646 4.4585092362402214e-08 0 -0.034846419650593825 0.0001143597327774582 0 -0.034945255991391519 5.5072110982964447e-05 0 -0.034999896589135646 4.4585092362402214e-08 0 -0.034999932691457104 4.984278496001348e-08 0 -0.034935002540716083 3.3531067361291425e-05 0 -0.034999834092647314 -9.259143142539374e-09 0 -0.034945255991391519 5.5072110982964447e-05 0 -0.034999932691457104 4.984278496001348e-08 0 -0.034940696114483166 4.8364338143705107e-05 0 -0.034999932691457104 4.984278496001348e-08 0 -0.034940696114483166 4.8364338143705107e-05 0 -0.034935002540716083 3.3531067361291425e-05 0 -0.034940696114483166 4.8364338143705107e-05 0 -0.034935002540716083 3.3531067361291425e-05 0 -0.034916674183569356 4.7158517256408073e-05 0 -0.034935002540716083 3.3531067361291425e-05 0 -0.034879512104233686 6.0816166497518933e-05 0 -0.034889027106269871 4.4240011626945659e-05 0 -0.034879512104233686 6.0816166497518933e-05 0 -0.034882817031600642 8.2209585844193197e-05 0 -0.034835983409546321 7.2948679774420449e-05 0 -0.034879512104233686 6.0816166497518933e-05 0 -0.034916674183569356 4.7158517256408073e-05 0 -0.034882817031600642 8.2209585844193197e-05 0 -0.034935002540716083 3.3531067361291425e-05 0 -0.034879512104233686 6.0816166497518933e-05 0 -0.034916674183569356 4.7158517256408073e-05 0 -0.034930649326818747 -2.183295618944341e-05 0 -0.034925200134380288 3.4772012626698534e-05 0 -0.034882817031600642 8.2209585844193197e-05 0 -0.034940696114483166 4.8364338143705107e-05 0 -0.034925200134380288 3.4772012626698534e-05 0 -0.034916674183569356 4.7158517256408073e-05 0 -0.034925200134380288 3.4772012626698534e-05 0 -0.034916674183569356 4.7158517256408073e-05 0 -0.034882817031600642 8.2209585844193197e-05 0 -0.034572163311108732 0.00011596457178430887 0 -0.034882817031600642 8.2209585844193197e-05 0 -0.03472566987210178 6.9848841916457462e-05 0 -0.035103998450766997 9.920983009726422e-05 0 -0.034720994327507707 4.2382710780518503e-05 0 -0.034882817031600642 8.2209585844193197e-05 0 -0.03472566987210178 6.9848841916457462e-05 0 -0.034811667657066107 6.2964526193711883e-05 0 -0.03472566987210178 6.9848841916457462e-05 0 -0.034811667657066107 6.2964526193711883e-05 0 -0.03476254240785951 5.1285947784910418e-05 0 -0.034882817031600642 8.2209585844193197e-05 0 -0.034811667657066107 6.2964526193711883e-05 0 -0.034835983409546321 7.2948679774420449e-05 0 -0.034811667657066107 6.2964526193711883e-05 0 -0.034835983409546321 7.2948679774420449e-05 0 -0.034795370384004459 6.0661200734786582e-05 0 -0.034835983409546321 7.2948679774420449e-05 0 -0.034795370384004459 6.0661200734786582e-05 0 -0.034793001723229862 7.0397726413568237e-05 0 -0.034795370384004459 6.0661200734786582e-05 0 -0.034766982795170674 5.9669129971142804e-05 0 -0.034793001723229862 7.0397726413568237e-05 0 -0.034766982795170674 5.9669129971142804e-05 0 -0.034752053882120305 8.2208949398474845e-05 0 -0.034793001723229862 7.0397726413568237e-05 0 -0.032411526984580587 0.00013344493699093724 0 -0.030782586178673795 0.0013100527276861226 0 -0.029373369987840774 0.00057830027668258593 0 -0.029298451593582735 0.00030822152190474096 0 -0.02972067247551869 0.0003590200461215708 0 -0.029373369987840774 0.00057830027668258593 0 -0.028824597637275563 0.00042441012893606453 0 -0.029298451593582735 0.00030822152190474096 0 -0.034795370384004459 6.0661200734786582e-05 0 -0.034766982795170674 5.9669129971142804e-05 0 -0.03476254240785951 5.1285947784910418e-05 0 -0.032411526984580587 0.00013344493699093724 0 -0.03153555303741875 7.2287896043523445e-05 0 -0.034766982795170674 5.9669129971142804e-05 0 -0.03476254240785951 5.1285947784910418e-05 0 -0.03473156816548708 4.5781172439053827e-05 0 -0.03472566987210178 6.9848841916457462e-05 0 -0.03476254240785951 5.1285947784910418e-05 0 -0.03473156816548708 4.5781172439053827e-05 0 -0.034811667657066107 6.2964526193711883e-05 0 -0.034795370384004459 6.0661200734786582e-05 0 -0.03476254240785951 5.1285947784910418e-05 0 -0.028391925992273716 -3.6030987615382019e-05 0 -0.028788247750316888 -0.00027994390353320702 0 -0.028432068312592616 -0.00023410221275291585 0 -0.028788247750316888 -0.00027994390353320702 0 -0.028432068312592616 -0.00023410221275291585 0 -0.02854827282747343 -0.00037921469574073055 0 -0.032536083113743161 -3.6731379433882335e-06 0 -0.03153555303741875 7.2287896043523445e-05 0 -0.028214218021291496 -0.00024915692772811102 0 -0.028391925992273716 -3.6030987615382019e-05 0 -0.028432068312592616 -0.00023410221275291585 0 -0.028432068312592616 -0.00023410221275291585 0 -0.02854827282747343 -0.00037921469574073055 0 -0.028359011484299233 -0.00041474420918974976 0 -0.028214218021291496 -0.00024915692772811102 0 -0.028432068312592616 -0.00023410221275291585 0 -0.028359011484299233 -0.00041474420918974976 0 -0.02854827282747343 -0.00037921469574073055 0 -0.028571517283087634 -0.00067294281469030886 0 -0.028359011484299233 -0.00041474420918974976 0 -0.028199071805039388 -0.0007192888715482291 0 -0.028571517283087634 -0.00067294281469030886 0 -0.028359011484299233 -0.00041474420918974976 0 -0.03153555303741875 7.2287896043523445e-05 0 -0.028422468150979666 -0.00023734746815048979 0 -0.028788247750316888 -0.00027994390353320702 0 -0.02854827282747343 -0.00037921469574073055 0 -0.028571517283087634 -0.00067294281469030886 0 -0.029373369987840774 0.00057830027668258593 0 -0.029034929337708064 0.00079962987211187897 0 -0.028824597637275563 0.00042441012893606453 0 -0.028824597637275563 0.00042441012893606453 0 -0.029089256033461013 0.00014483678536181697 0 -0.028870110250990788 7.9359468961271464e-07 0 -0.028824597637275563 0.00042441012893606453 0 -0.029089256033461013 0.00014483678536181697 0 -0.029298451593582735 0.00030822152190474096 0 -0.028422468150979666 -0.00023734746815048979 0 -0.02820739939242169 -0.00022682774208560182 0 -0.028824597637275563 0.00042441012893606453 0 -0.028622556591294271 4.5986145092083899e-05 0 -0.028870110250990788 7.9359468961271464e-07 0 -0.028199071805039388 -0.0007192888715482291 0 -0.028571517283087634 -0.00067294281469030886 0 -0.028380351767161187 -0.0010481357915245305 0 -0.028622556591294271 4.5986145092083899e-05 0 -0.028870110250990788 7.9359468961271464e-07 0 -0.028771140072981514 -0.00024970199420931032 0 -0.02820739939242169 -0.00022682774208560182 0 -0.026799698755095396 0.00017872926062311343 0 -0.027665312401343838 4.4982262163282508e-05 0 -0.027721469781080539 0.00016835369686151778 0 -0.027521500035130667 0.00030118062275095791 0 -0.027800311408600349 7.6562909945180975e-05 0 -0.027694001527147842 6.6895111250398368e-05 0 -0.027721469781080539 0.00016835369686151778 0 -0.02820739939242169 -0.00022682774208560182 0 -0.027963231803158684 1.7332392057979417e-05 0 -0.029089256033461013 0.00014483678536181697 0 -0.028870110250990788 7.9359468961271464e-07 0 -0.02905451957933395 -4.7136145292753086e-05 0 -0.028870110250990788 7.9359468961271464e-07 0 -0.02905451957933395 -4.7136145292753086e-05 0 -0.028945905426011623 -0.00021865727414265403 0 -0.029089256033461013 0.00014483678536181697 0 -0.02905451957933395 -4.7136145292753086e-05 0 -0.029441942172034555 7.1038058932341584e-05 0 -0.02905451957933395 -4.7136145292753086e-05 0 -0.029441942172034555 7.1038058932341584e-05 0 -0.029161217831746505 -0.00020846605773545244 0 -0.02805104733424715 0.0008610992640800697 0 -0.027936786098753507 0.00066972058089907445 0 -0.029441942172034555 7.1038058932341584e-05 0 -0.029298451593582735 0.00030822152190474096 0 -0.02972067247551869 0.0003590200461215708 0 -0.027203355205120003 0.0018830710178964162 0 -0.028008390345706173 0.0026072351283727741 0 -0.028316730002717245 0.0018409666588520745 0 -0.02805104733424715 0.0008610992640800697 0 -0.030782586178673795 0.0013100527276861226 0 -0.029089256033461013 0.00014483678536181697 0 -0.029441942172034555 7.1038058932341584e-05 0 -0.029298451593582735 0.00030822152190474096 0 -0.030805757471224923 0.0003547410315453649 0 -0.030787598213945146 0.00035685000815156766 0 -0.029429852921793821 0.0015277295899930304 0 -0.030787598213945146 0.00035685000815156766 0 -0.029429852921793821 0.0015277295899930304 0 -0.029823640579899502 0.00078600909524963267 0 -0.029975129248786654 0.0017336996667541695 0 -0.029662612919274946 0.0013818049823478501 0 -0.028825593022337823 0.0022109239521073873 0 -0.029210437917641986 0.0027839056953299977 0 -0.029429852921793821 0.0015277295899930304 0 -0.028825593022337823 0.0022109239521073873 0 -0.028316730002717245 0.0018409666588520745 0 -0.029429852921793821 0.0015277295899930304 0 -0.028825593022337823 0.0022109239521073873 0 -0.029210437917641986 0.0027839056953299977 0 -0.028694499509160063 0.0027358464263235551 0 -0.028694499509160063 0.0027358464263235551 0 -0.028315700643001533 0.0024072472400409957 0 -0.0279626671324191 0.0026547792493091318 0 -0.028825593022337823 0.0022109239521073873 0 -0.028694499509160063 0.0027358464263235551 0 -0.028315700643001533 0.0024072472400409957 0 -0.028805556945581071 0.002441997854155888 0 -0.030782586178673795 0.0013100527276861226 0 -0.028315700643001533 0.0024072472400409957 0 -0.028008390345706173 0.0026072351283727741 0 -0.028316730002717245 0.0018409666588520745 0 -0.028825593022337823 0.0022109239521073873 0 -0.028315700643001533 0.0024072472400409957 0 -0.028316730002717245 0.0018409666588520745 0 -0.027203355205120003 0.0018830710178964162 0 -0.028316730002717245 0.0018409666588520745 0 -0.027960139473485898 0.0013313356066167305 0 -0.028316730002717245 0.0018409666588520745 0 -0.027960139473485898 0.0013313356066167305 0 -0.028790090059293727 0.001236823595276833 0 -0.028790090059293727 0.001236823595276833 0 -0.029429852921793821 0.0015277295899930304 0 -0.02928534913409292 0.0012366793681347782 0 -0.028316730002717245 0.0018409666588520745 0 -0.028790090059293727 0.001236823595276833 0 -0.029429852921793821 0.0015277295899930304 0 -0.029429852921793821 0.0015277295899930304 0 -0.02928534913409292 0.0012366793681347782 0 -0.029417920093213694 0.0010911527022058394 0 -0.029201579740058832 0.0012711134350248832 0 -0.029388246860805226 0.0010733092975886086 0 -0.02928534913409292 0.0012366793681347782 0 -0.029343627236962995 0.0011631106354974938 0 -0.029417920093213694 0.0010911527022058394 0 -0.029086986022411235 0.0013106841758026941 0 -0.028913956556764122 0.0010840372763098027 0 -0.029417920093213694 0.0010911527022058394 0 -0.028819179277424174 0.0013384129503215729 0 -0.029086986022411235 0.0013106841758026941 0 -0.028913956556764122 0.0010840372763098027 0 -0.028913956556764122 0.0010840372763098027 0 -0.029153700661685322 0.00067136945915350157 0 -0.029417920093213694 0.0010911527022058394 0 -0.028913956556764122 0.0010840372763098027 0 -0.029153700661685322 0.00067136945915350157 0 -0.028632465341354489 0.00059701446464984604 0 -0.030787598213945146 0.00035685000815156766 0 -0.029823640579899502 0.00078600909524963267 0 -0.029526879528893261 0.00032830549447957446 0 -0.029429852921793821 0.0015277295899930304 0 -0.029417920093213694 0.0010911527022058394 0 -0.029823640579899502 0.00078600909524963267 0 -0.029153700661685322 0.00067136945915350157 0 -0.029823640579899502 0.00078600909524963267 0 -0.029526879528893261 0.00032830549447957446 0 -0.029153700661685322 0.00067136945915350157 0 -0.029417920093213694 0.0010911527022058394 0 -0.029823640579899502 0.00078600909524963267 0 -0.033425081357258718 0.00084438360127929955 0 -0.032392904623519903 0.00091793296601708619 0 -0.03159745579239269 0.00061808341574002125 0 -0.030787598213945146 0.00035685000815156766 0 -0.033425081357258718 0.00084438360127929955 0 -0.03159745579239269 0.00061808341574002125 0 -0.030787598213945146 0.00035685000815156766 0 -0.029526879528893261 0.00032830549447957446 0 -0.029313743993620127 -0.00041012509530467231 0 -0.030932652676202269 0.00038602082704392542 0 -0.031388804954079606 0.00023585917474425647 0 -0.029153700661685322 0.00067136945915350157 0 -0.029526879528893261 0.00032830549447957446 0 -0.029106529206481276 9.8402765040126367e-05 0 -0.029526879528893261 0.00032830549447957446 0 -0.029106529206481276 9.8402765040126367e-05 0 -0.029313743993620127 -0.00041012509530467231 0 -0.029106529206481276 9.8402765040126367e-05 0 -0.028979578436406486 -0.00070862845698455577 0 -0.028632465341354489 0.00059701446464984604 0 -0.031674701431224091 -1.5884864140632239e-05 0 -0.030813675812789376 -0.00040422042781164825 0 -0.033095162895087071 -0.00079117699121469473 0 -0.032963148471938652 -0.00073021331594591489 0 -0.033152545502097612 -0.0010853862645668034 0 -0.029153700661685322 0.00067136945915350157 0 -0.029106529206481276 9.8402765040126367e-05 0 -0.028632465341354489 0.00059701446464984604 0 -0.033058751296542441 -0.0010163733294840541 0 -0.033975742143009253 8.6790279996163923e-05 0 -0.029106529206481276 9.8402765040126367e-05 0 -0.028979578436406486 -0.00070862845698455577 0 -0.029313743993620127 -0.00041012509530467231 0 -0.033095162895087071 -0.00079117699121469473 0 -0.032963148471938652 -0.00073021331594591489 0 -0.033159539007906046 -0.00053417654450849832 0 -0.031674701431224091 -1.5884864140632239e-05 0 -0.031388804954079606 0.00023585917474425647 0 -0.033675929225408935 0.0009905944491903516 0 -0.033425081357258718 0.00084438360127929955 0 -0.033607093531465598 0.0011202734795361657 0 -0.033425081357258718 0.00084438360127929955 0 -0.033216871277163287 0.0013390092901798775 0 -0.032392904623519903 0.00091793296601708619 0 -0.033425081357258718 0.00084438360127929955 0 -0.033216871277163287 0.0013390092901798775 0 -0.033607093531465598 0.0011202734795361657 0 -0.032151089591913498 0.0014739004766040676 0 -0.034672953067165967 0.00046743708635060073 0 -0.033216871277163287 0.0013390092901798775 0 -0.033710614445737731 0.0018965523993919708 0 -0.033961958315695442 0.0011438320835431509 0 -0.033216871277163287 0.0013390092901798775 0 -0.032392904623519903 0.00091793296601708619 0 -0.031357014459859125 0.00087234960705778015 0 -0.033114707261172188 0.0013681875210371426 0 -0.032151089591913498 0.0014739004766040676 0 -0.029975129248786654 0.0017336996667541695 0 -0.032151089591913498 0.0014739004766040676 0 -0.032392904623519903 0.00091793296601708619 0 -0.03159745579239269 0.00061808341574002125 0 -0.031357014459859125 0.00087234960705778015 0 -0.030805757471224923 0.0003547410315453649 0 -0.03159745579239269 0.00061808341574002125 0 -0.031357014459859125 0.00087234960705778015 0 -0.029210437917641986 0.0027839056953299977 0 -0.028694499509160063 0.0027358464263235551 0 -0.029057539431072331 0.0038174147653178025 0 -0.030805757471224923 0.0003547410315453649 0 -0.030787598213945146 0.00035685000815156766 0 -0.03159745579239269 0.00061808341574002125 0 -0.030782586178673795 0.0013100527276861226 0 -0.032151089591913498 0.0014739004766040676 0 -0.028694499509160063 0.0027358464263235551 0 -0.0279626671324191 0.0026547792493091318 0 -0.029057539431072331 0.0038174147653178025 0 -0.034752053882120305 8.2208949398474845e-05 0 -0.034770344903182489 8.024127801629051e-05 0 -0.034793001723229862 7.0397726413568237e-05 0 -0.034770344903182489 8.024127801629051e-05 0 -0.034793001723229862 7.0397726413568237e-05 0 -0.034820683271352772 7.5292547244146588e-05 0 -0.034835983409546321 7.2948679774420449e-05 0 -0.034793001723229862 7.0397726413568237e-05 0 -0.034820683271352772 7.5292547244146588e-05 0 -0.034879512104233686 6.0816166497518933e-05 0 -0.034835983409546321 7.2948679774420449e-05 0 -0.034820683271352772 7.5292547244146588e-05 0 -0.033216871277163287 0.0013390092901798775 0 -0.033961958315695442 0.0011438320835431509 0 -0.033792584920324352 0.00099432339357784011 0 -0.033961958315695442 0.0011438320835431509 0 -0.033792584920324352 0.00099432339357784011 0 -0.034461283848677082 0.00079019670532928332 0 -0.034879512104233686 6.0816166497518933e-05 0 -0.034820683271352772 7.5292547244146588e-05 0 -0.034889027106269871 4.4240011626945659e-05 0 -0.034672953067165967 0.00046743708635060073 0 -0.034643780160828384 0.00042295543663543146 0 -0.034935002540716083 3.3531067361291425e-05 0 -0.034889027106269871 4.4240011626945659e-05 0 -0.034999834092647314 -9.259143142539374e-09 0 -0.033792584920324352 0.00099432339357784011 0 -0.034461283848677082 0.00079019670532928332 0 -0.033972120575203546 0.00079672955093316859 0 -0.034461283848677082 0.00079019670532928332 0 -0.033972120575203546 0.00079672955093316859 0 -0.034047897474219949 0.00044338921907905278 0 -0.034461283848677082 0.00079019670532928332 0 -0.034047897474219949 0.00044338921907905278 0 -0.034997816660866841 -2.6809585998934198e-10 0 -0.035055865108264972 8.7882652343979206e-05 0 -0.035000043018753868 -1.0361013973000771e-08 0 -0.035000109844791065 7.6130095639533203e-08 0 -0.034562745334864045 0.00030073506385466938 0 -0.034999817407817733 9.0583370910947807e-08 0 -0.034643780160828384 0.00042295543663543146 0 -0.034999923082752578 -1.9436367429509401e-08 0 -0.034461283848677082 0.00079019670532928332 0 -0.034997816660866841 -2.6809585998934198e-10 0 -0.035001643495431688 1.6052321751080665e-08 0 -0.034748339909692449 0.00021607359150204423 0 -0.034999802249325813 1.199140008665322e-07 0 -0.034975588498006804 0.00011120749746427172 0 -0.034999802249325813 1.199140008665322e-07 0 -0.035000109844791065 7.6130095639533203e-08 0 -0.034975588498006804 0.00011120749746427172 0 -0.035055865108264972 8.7882652343979206e-05 0 -0.035000109844791065 7.6130095639533203e-08 0 -0.034975588498006804 0.00011120749746427172 0 -0.034562745334864045 0.00030073506385466938 0 -0.034350963083518829 0.00064186868167227112 0 -0.033792584920324352 0.00099432339357784011 0 -0.033972120575203546 0.00079672955093316859 0 -0.033732004050698379 0.00092643487257164055 0 -0.035055865108264972 8.7882652343979206e-05 0 -0.034975588498006804 0.00011120749746427172 0 -0.034973669686690086 0.00040230048785569672 0 -0.033972120575203546 0.00079672955093316859 0 -0.034047897474219949 0.00044338921907905278 0 -0.033732004050698379 0.00092643487257164055 0 -0.034973669686690086 0.00040230048785569672 0 -0.034524377945843732 0.00050515516572100416 0 -0.034159771480982593 0.00088380748655468566 0 -0.034748339909692449 0.00021607359150204423 0 -0.034975588498006804 0.00011120749746427172 0 -0.034973669686690086 0.00040230048785569672 0 -0.034748339909692449 0.00021607359150204423 0 -0.034973669686690086 0.00040230048785569672 0 -0.034524377945843732 0.00050515516572100416 0 -0.034748339909692449 0.00021607359150204423 0 -0.034524377945843732 0.00050515516572100416 0 -0.034327496048390506 0.00055284394984159624 0 -0.034350963083518829 0.00064186868167227112 0 -0.034191174822298623 0.00084517799891367055 0 -0.033732004050698379 0.00092643487257164055 0 -0.034159771480982593 0.00088380748655468566 0 -0.033788537078254646 0.00095705211003421298 0 -0.034159771480982593 0.00088380748655468566 0 -0.033788537078254646 0.00095705211003421298 0 -0.033698465572568385 0.0010824894063455909 0 -0.033792584920324352 0.00099432339357784011 0 -0.033788537078254646 0.00095705211003421298 0 -0.033698465572568385 0.0010824894063455909 0 -0.033792584920324352 0.00099432339357784011 0 -0.033732004050698379 0.00092643487257164055 0 -0.033788537078254646 0.00095705211003421298 0 -0.033216871277163287 0.0013390092901798775 0 -0.033792584920324352 0.00099432339357784011 0 -0.033698465572568385 0.0010824894063455909 0 -0.033216871277163287 0.0013390092901798775 0 -0.033698465572568385 0.0010824894063455909 0 -0.033607093531465598 0.0011202734795361657 0 -0.033675929225408935 0.0009905944491903516 0 -0.033607093531465598 0.0011202734795361657 0 -0.033932627807099561 0.001070328882714434 0 -0.034159771480982593 0.00088380748655468566 0 -0.033698465572568385 0.0010824894063455909 0 -0.033932627807099561 0.001070328882714434 0 -0.033698465572568385 0.0010824894063455909 0 -0.033607093531465598 0.0011202734795361657 0 -0.033932627807099561 0.001070328882714434 0 -0.031674701431224091 -1.5884864140632239e-05 0 -0.033975742143009253 8.6790279996163923e-05 0 -0.033146896576847946 -0.00055361203390503577 0 -0.033309818127166088 -0.00056250261322908686 0 -0.03329055255599684 -0.00072775339944244519 0 -0.033146896576847946 -0.00055361203390503577 0 -0.033309818127166088 -0.00056250261322908686 0 -0.033317589891938476 -0.00038620012697395171 0 -0.033975742143009253 8.6790279996163923e-05 0 -0.034103598328628984 -0.00025605066116322222 0 -0.033309818127166088 -0.00056250261322908686 0 -0.033486708112378596 -0.0005814787033530934 0 -0.03329055255599684 -0.00072775339944244519 0 -0.033309818127166088 -0.00056250261322908686 0 -0.033486708112378596 -0.0005814787033530934 0 -0.033317589891938476 -0.00038620012697395171 0 -0.033486708112378596 -0.0005814787033530934 0 -0.033498561585947426 -0.00021738270653460793 0 -0.033317589891938476 -0.00038620012697395171 0 -0.033604356163947295 -0.00074213131250015351 0 -0.033669910976998035 -0.00042341485343386622 0 -0.033812666578072963 -0.00060957191704090886 0 -0.03347640415350997 -0.00069576556241659039 0 -0.034256666381240898 -0.00019613371234471037 0 -0.034256666381240898 -0.00019613371234471037 0 -0.034103598328628984 -0.00025605066116322222 0 -0.034159771480982593 0.00088380748655468566 0 -0.033932627807099561 0.001070328882714434 0 -0.034327496048390506 0.00055284394984159624 0 -0.033975742143009253 8.6790279996163923e-05 0 -0.034724965526629438 0.00038176877407513417 0 -0.034902146944164644 -0.00012666909862872334 0 -0.034952243263175399 -9.1791418759186848e-05 0 -0.034948543149540649 -3.7613354053935415e-05 0 -0.034988319142431626 -5.7841744838127242e-05 0 -0.034952243263175399 -9.1791418759186848e-05 0 -0.034948543149540649 -3.7613354053935415e-05 0 -0.034524377945843732 0.00050515516572100416 0 -0.034159771480982593 0.00088380748655468566 0 -0.034327496048390506 0.00055284394984159624 0 -0.034988319142431626 -5.7841744838127242e-05 0 -0.034948543149540649 -3.7613354053935415e-05 0 -0.034993331665362934 -1.8764382805368213e-05 0 -0.034980747924896083 -2.6777116682605687e-05 0 -0.034987034684340675 -8.8108698463270749e-06 0 -0.03499968686249319 -7.5794458123920106e-06 0 -0.034256666381240898 -0.00019613371234471037 0 -0.034984894585896105 9.5680645689690008e-06 0 -0.034993331665362934 -1.8764382805368213e-05 0 -0.035000041749795707 -1.9493202569748469e-08 0 -0.034999932103266754 2.2455792543136851e-08 0 -0.034987034684340675 -8.8108698463270749e-06 0 -0.03499998187394996 9.3929345984814812e-10 0 -0.034996761422826136 -3.0302305688364007e-06 0 -0.034984894585896105 9.5680645689690008e-06 0 -0.03499999414193114 -2.5063073980584702e-08 0 -0.034948543149540649 -3.7613354053935415e-05 0 -0.034993331665362934 -1.8764382805368213e-05 0 -0.034999932103266754 2.2455792543136851e-08 0 -0.034748339909692449 0.00021607359150204423 0 -0.034999802249325813 1.199140008665322e-07 0 -0.034999263023363307 -2.1618495761140667e-08 0 -0.034724965526629438 0.00038176877407513417 0 -0.034999819645871462 1.1632820829021933e-08 0 -0.034748339909692449 0.00021607359150204423 0 -0.034327496048390506 0.00055284394984159624 0 -0.034999263023363307 -2.1618495761140667e-08 0 -0.034999791829569547 -4.7278065378300478e-08 0 -0.034569359635751397 -0.00011233990670328271 0 -0.034997819778890403 4.127062013239886e-07 0 -0.034124070703025505 -0.00016357996357195176 0 -0.034418628340648717 -0.00034057380391038444 0 -0.035000003924424296 1.8000160727655432e-09 0 -0.034999999231787683 -4.6328981856751234e-09 0 -0.03499968686249319 -7.5794458123920106e-06 0 -0.034987034684340675 -8.8108698463270749e-06 0 -0.034996761422826136 -3.0302305688364007e-06 0 -0.03499968686249319 -7.5794458123920106e-06 0 -0.03499998187394996 9.3929345984814812e-10 0 -0.034999999231787683 -4.6328981856751234e-09 0 -0.034996761422826136 -3.0302305688364007e-06 0 -0.034999999231787683 -4.6328981856751234e-09 0 -0.034996761422826136 -3.0302305688364007e-06 0 -0.03499968686249319 -7.5794458123920106e-06 0 -0.033669910976998035 -0.00042341485343386622 0 -0.034124070703025505 -0.00016357996357195176 0 -0.033994513107578887 -0.00042346545704049289 0 -0.034256666381240898 -0.00019613371234471037 0 -0.034569359635751397 -0.00011233990670328271 0 -0.034124070703025505 -0.00016357996357195176 0 -0.034418628340648717 -0.00034057380391038444 0 -0.033994513107578887 -0.00042346545704049289 0 -0.034418628340648717 -0.00034057380391038444 0 -0.034034630490825675 -0.0005962752739431627 0 -0.033994513107578887 -0.00042346545704049289 0 -0.033669910976998035 -0.00042341485343386622 0 -0.033994513107578887 -0.00042346545704049289 0 -0.033812666578072963 -0.00060957191704090886 0 -0.034034630490825675 -0.0005962752739431627 0 -0.033994513107578887 -0.00042346545704049289 0 -0.033812666578072963 -0.00060957191704090886 0 -0.033604356163947295 -0.00074213131250015351 0 -0.033812666578072963 -0.00060957191704090886 0 -0.033759618138777814 -0.00081003759185392427 0 -0.034034630490825675 -0.0005962752739431627 0 -0.033812666578072963 -0.00060957191704090886 0 -0.033759618138777814 -0.00081003759185392427 0 -0.034034630490825675 -0.0005962752739431627 0 -0.033972061200234709 -0.00076974642736693652 0 -0.033759618138777814 -0.00081003759185392427 0 -0.033972061200234709 -0.00076974642736693652 0 -0.03380146693682301 -0.00094990997292498632 0 -0.033759618138777814 -0.00081003759185392427 0 -0.03380146693682301 -0.00094990997292498632 0 -0.033631274588747227 -0.00097947605610612166 0 -0.033759618138777814 -0.00081003759185392427 0 -0.033703153601627407 -0.0010996516107452386 0 -0.03380146693682301 -0.00094990997292498632 0 -0.033551208751238994 -0.0011346067338834885 0 -0.03380146693682301 -0.00094990997292498632 0 -0.033631274588747227 -0.00097947605610612166 0 -0.033551208751238994 -0.0011346067338834885 0 -0.033631274588747227 -0.00097947605610612166 0 -0.033403381887139788 -0.001130358902588415 0 -0.033551208751238994 -0.0011346067338834885 0 -0.033631274588747227 -0.00097947605610612166 0 -0.033759618138777814 -0.00081003759185392427 0 -0.033459207335299487 -0.00094308414152939775 0 -0.033604356163947295 -0.00074213131250015351 0 -0.033759618138777814 -0.00081003759185392427 0 -0.033459207335299487 -0.00094308414152939775 0 -0.03347640415350997 -0.00069576556241659039 0 -0.033490271030266493 -0.00092032229761666298 0 -0.033486708112378596 -0.0005814787033530934 0 -0.03329055255599684 -0.00072775339944244519 0 -0.033459207335299487 -0.00094308414152939775 0 -0.033095162895087071 -0.00079117699121469473 0 -0.033146896576847946 -0.00055361203390503577 0 -0.03329055255599684 -0.00072775339944244519 0 -0.03329055255599684 -0.00072775339944244519 0 -0.033256896004318151 -0.00092930311038221371 0 -0.033459207335299487 -0.00094308414152939775 0 -0.033095162895087071 -0.00079117699121469473 0 -0.03329055255599684 -0.00072775339944244519 0 -0.033256896004318151 -0.00092930311038221371 0 -0.033256896004318151 -0.00092930311038221371 0 -0.033403381887139788 -0.001130358902588415 0 -0.033152545502097612 -0.0010853862645668034 0 -0.033095162895087071 -0.00079117699121469473 0 -0.033256896004318151 -0.00092930311038221371 0 -0.033152545502097612 -0.0010853862645668034 0 -0.033631274588747227 -0.00097947605610612166 0 -0.033459207335299487 -0.00094308414152939775 0 -0.033403381887139788 -0.001130358902588415 0 -0.033256896004318151 -0.00092930311038221371 0 -0.033459207335299487 -0.00094308414152939775 0 -0.033403381887139788 -0.001130358902588415 0 -0.030813675812789376 -0.00040422042781164825 0 -0.030941504692586816 0.00011610211819149756 0 -0.033403381887139788 -0.001130358902588415 0 -0.033152545502097612 -0.0010853862645668034 0 -0.033262953024711023 -0.0012893815605061983 0 -0.028913956556764122 0.0010840372763098027 0 -0.028632465341354489 0.00059701446464984604 0 -0.028599575332560915 0.0013221998659724656 0 -0.028819179277424174 0.0013384129503215729 0 -0.028913956556764122 0.0010840372763098027 0 -0.028599575332560915 0.0013221998659724656 0 -0.033262953024711023 -0.0012893815605061983 0 -0.033371167817163983 -0.0012559476670828953 0 -0.033330117918060675 -0.0013211453370117275 0 -0.033403381887139788 -0.001130358902588415 0 -0.033262953024711023 -0.0012893815605061983 0 -0.033371167817163983 -0.0012559476670828953 0 -0.033371167817163983 -0.0012559476670828953 0 -0.033457056225705287 -0.001233482438163273 0 -0.033374648288070984 -0.0013144637007299152 0 -0.033403381887139788 -0.001130358902588415 0 -0.033371167817163983 -0.0012559476670828953 0 -0.033457056225705287 -0.001233482438163273 0 -0.033457056225705287 -0.001233482438163273 0 -0.033434121288385972 -0.0012965573806526035 0 -0.033374648288070984 -0.0013144637007299152 0 -0.033571755919697771 -0.0012248695191435924 0 -0.033434121288385972 -0.0012965573806526035 0 -0.03354263741672945 -0.0012041405261859891 0 -0.033457056225705287 -0.001233482438163273 0 -0.033434121288385972 -0.0012965573806526035 0 -0.03354263741672945 -0.0012041405261859891 0 -0.033457056225705287 -0.001233482438163273 0 -0.03354263741672945 -0.0012041405261859891 0 -0.033551208751238994 -0.0011346067338834885 0 -0.033703153601627407 -0.0010996516107452386 0 -0.03354263741672945 -0.0012041405261859891 0 -0.033551208751238994 -0.0011346067338834885 0 -0.033403381887139788 -0.001130358902588415 0 -0.033457056225705287 -0.001233482438163273 0 -0.033551208751238994 -0.0011346067338834885 0 -0.030834426549849855 -0.00028742339669745698 0 -0.032212917025671868 -0.0011746268683858114 0 -0.03333074510712912 -0.0013509294708193885 0 -0.033324433981160681 -0.0013667765783442478 0 -0.033301334677550996 -0.0013539524364736557 0 -0.03333074510712912 -0.0013509294708193885 0 -0.033307664235267084 -0.0013561528903416101 0 -0.033301334677550996 -0.0013539524364736557 0 -0.033188700474793657 -0.0014057711250493989 0 -0.033324433981160681 -0.0013667765783442478 0 -0.033301334677550996 -0.0013539524364736557 0 -0.033188700474793657 -0.0014057711250493989 0 -0.033330495303388268 -0.0013485407146783309 0 -0.033324433981160681 -0.0013667765783442478 0 -0.033330495303388268 -0.0013485407146783309 0 -0.033434121288385972 -0.0012965573806526035 0 -0.033324433981160681 -0.0013667765783442478 0 -0.033434121288385972 -0.0012965573806526035 0 -0.033324433981160681 -0.0013667765783442478 0 -0.033374648288070984 -0.0013144637007299152 0 -0.03333074510712912 -0.0013509294708193885 0 -0.033324433981160681 -0.0013667765783442478 0 -0.033374648288070984 -0.0013144637007299152 0 -0.03333074510712912 -0.0013509294708193885 0 -0.033374648288070984 -0.0013144637007299152 0 -0.033330117918060675 -0.0013211453370117275 0 -0.033371167817163983 -0.0012559476670828953 0 -0.033374648288070984 -0.0013144637007299152 0 -0.033330117918060675 -0.0013211453370117275 0 -0.033262953024711023 -0.0012893815605061983 0 -0.033330117918060675 -0.0013211453370117275 0 -0.033307664235267084 -0.0013561528903416101 0 -0.030941504692586816 0.00011610211819149756 0 -0.030834426549849855 -0.00028742339669745698 0 -0.028599575332560915 0.0013221998659724656 0 -0.028682648890262941 0.0015526319034209596 0 -0.028570286311322055 0.0016051561908935177 0 -0.028819179277424174 0.0013384129503215729 0 -0.028599575332560915 0.0013221998659724656 0 -0.028682648890262941 0.0015526319034209596 0 -0.028819179277424174 0.0013384129503215729 0 -0.028682648890262941 0.0015526319034209596 0 -0.028889902621960298 0.0014981570482443974 0 -0.028899834178182298 0.0007771135397081669 0 -0.029195725451498983 0.00071212500497473512 0 -0.029650111704280724 -0.00024591942385113403 0 -0.029546063556998056 -0.00066408724561866392 0 -0.029154833207704917 -5.0383707175113448e-06 0 -0.029628023895174431 -0.00035795261628953175 0 -0.029195725451498983 0.00071212500497473512 0 -0.029650111704280724 -0.00024591942385113403 0 -0.029812158573770526 -0.00054336670015713679 0 -0.029546063556998056 -0.00066408724561866392 0 -0.029812158573770526 -0.00054336670015713679 0 -0.029546063556998056 -0.00066408724561866392 0 -0.029939353094228602 -0.00078129543859313229 0 -0.029667689654756149 0.0001054478508246828 0 -0.029475213569998604 0.0003350172909369063 0 -0.02947353534052264 0.00012389778174095933 0 -0.03333074510712912 -0.0013509294708193885 0 -0.033330117918060675 -0.0013211453370117275 0 -0.033307664235267084 -0.0013561528903416101 0 -0.028899834178182298 0.0007771135397081669 0 -0.030834426549849855 -0.00028742339669745698 0 -0.029650111704280724 -0.00024591942385113403 0 -0.029812158573770526 -0.00054336670015713679 0 -0.030110823089342802 -0.00047813458400617422 0 -0.029812158573770526 -0.00054336670015713679 0 -0.030110823089342802 -0.00047813458400617422 0 -0.029939353094228602 -0.00078129543859313229 0 -0.029939353094228602 -0.00078129543859313229 0 -0.030297502057384781 -0.00097860333682982465 0 -0.029911524584520944 -0.001213878552004045 0 -0.030110823089342802 -0.00047813458400617422 0 -0.029939353094228602 -0.00078129543859313229 0 -0.030297502057384781 -0.00097860333682982465 0 -0.029667689654756149 0.0001054478508246828 0 -0.029458284558843327 -0.00097473837117319434 0 -0.029911524584520944 -0.001213878552004045 0 -0.029628023895174431 -0.00035795261628953175 0 -0.029886971345150858 -0.0010717337163735675 0 -0.029667689654756149 0.0001054478508246828 0 -0.029446418525149311 -8.9970519753007663e-05 0 -0.029458284558843327 -0.00097473837117319434 0 -0.029546063556998056 -0.00066408724561866392 0 -0.029939353094228602 -0.00078129543859313229 0 -0.029911524584520944 -0.001213878552004045 0 -0.029667689654756149 0.0001054478508246828 0 -0.029446418525149311 -8.9970519753007663e-05 0 -0.02947353534052264 0.00012389778174095933 0 -0.029757323112077395 -0.0015758774841061808 0 -0.029290685493673939 -0.0017120828623445688 0 -0.030028073819230137 -0.0018918173220806268 0 -0.029458284558843327 -0.00097473837117319434 0 -0.029290685493673939 -0.0017120828623445688 0 -0.028541119481823946 -0.001165803650139928 0 -0.029458284558843327 -0.00097473837117319434 0 -0.029757323112077395 -0.0015758774841061808 0 -0.029911524584520944 -0.001213878552004045 0 -0.029458284558843327 -0.00097473837117319434 0 -0.029757323112077395 -0.0015758774841061808 0 -0.029290685493673939 -0.0017120828623445688 0 -0.030297502057384781 -0.00097860333682982465 0 -0.030290696343027369 -0.0014160700878054961 0 -0.029911524584520944 -0.001213878552004045 0 -0.030290696343027369 -0.0014160700878054961 0 -0.029911524584520944 -0.001213878552004045 0 -0.030051026580880685 -0.0015280532824524663 0 -0.029757323112077395 -0.0015758774841061808 0 -0.029911524584520944 -0.001213878552004045 0 -0.030051026580880685 -0.0015280532824524663 0 -0.029757323112077395 -0.0015758774841061808 0 -0.030051026580880685 -0.0015280532824524663 0 -0.030042117924903633 -0.0017798727578669177 0 -0.030051026580880685 -0.0015280532824524663 0 -0.030231098909479209 -0.001671393925783567 0 -0.030042117924903633 -0.0017798727578669177 0 -0.030290696343027369 -0.0014160700878054961 0 -0.030051026580880685 -0.0015280532824524663 0 -0.030231098909479209 -0.001671393925783567 0 -0.030231098909479209 -0.001671393925783567 0 -0.030042117924903633 -0.0017798727578669177 0 -0.030301460203215121 -0.0019002861871920554 0 -0.030290696343027369 -0.0014160700878054961 0 -0.030231098909479209 -0.001671393925783567 0 -0.030567077488996994 -0.0018560043614659568 0 -0.030231098909479209 -0.001671393925783567 0 -0.030567077488996994 -0.0018560043614659568 0 -0.030301460203215121 -0.0019002861871920554 0 -0.030567077488996994 -0.0018560043614659568 0 -0.030787865989017362 -0.0013825686243043652 0 -0.031103239770326311 -0.0018994623874042545 0 -0.030290696343027369 -0.0014160700878054961 0 -0.030567077488996994 -0.0018560043614659568 0 -0.030787865989017362 -0.0013825686243043652 0 -0.030297502057384781 -0.00097860333682982465 0 -0.030290696343027369 -0.0014160700878054961 0 -0.030787865989017362 -0.0013825686243043652 0 -0.030110823089342802 -0.00047813458400617422 0 -0.030297502057384781 -0.00097860333682982465 0 -0.030756844566632933 -0.00078553164742166013 0 -0.030297502057384781 -0.00097860333682982465 0 -0.030787865989017362 -0.0013825686243043652 0 -0.030756844566632933 -0.00078553164742166013 0 -0.03229141615211055 -0.0012766996476635702 0 -0.032212917025671868 -0.0011746268683858114 0 -0.031515226704414895 -0.0011531881827289356 0 -0.030787865989017362 -0.0013825686243043652 0 -0.030756844566632933 -0.00078553164742166013 0 -0.033188700474793657 -0.0014057711250493989 0 -0.033131110348098666 -0.0013623470913886114 0 -0.033301334677550996 -0.0013539524364736557 0 -0.031515226704414895 -0.0011531881827289356 0 -0.031646865485833259 -0.0023356154689891835 0 -0.031103239770326311 -0.0018994623874042545 0 -0.031515226704414895 -0.0011531881827289356 0 -0.030787865989017362 -0.0013825686243043652 0 -0.031103239770326311 -0.0018994623874042545 0 -0.031525942867461597 -0.0029434480216978462 0 -0.031646865485833259 -0.0023356154689891835 0 -0.030994068666565781 -0.0025269245282166699 0 -0.031646865485833259 -0.0023356154689891835 0 -0.031103239770326311 -0.0018994623874042545 0 -0.030994068666565781 -0.0025269245282166699 0 -0.030567077488996994 -0.0018560043614659568 0 -0.030994068666565781 -0.0025269245282166699 0 -0.030301781074914168 -0.0022145603824912123 0 -0.030994068666565781 -0.0025269245282166699 0 -0.030301781074914168 -0.0022145603824912123 0 -0.030472214797779319 -0.0026752706484460325 0 -0.030567077488996994 -0.0018560043614659568 0 -0.031103239770326311 -0.0018994623874042545 0 -0.030994068666565781 -0.0025269245282166699 0 -0.030567077488996994 -0.0018560043614659568 0 -0.030301781074914168 -0.0022145603824912123 0 -0.030301460203215121 -0.0019002861871920554 0 -0.030994068666565781 -0.0025269245282166699 0 -0.030472214797779319 -0.0026752706484460325 0 -0.030618231560012931 -0.0031773123155244055 0 -0.030472214797779319 -0.0026752706484460325 0 -0.030548964988872156 -0.0032666949449897975 0 -0.029859934675720231 -0.0022058157935876239 0 -0.030472214797779319 -0.0026752706484460325 0 -0.030618231560012931 -0.0031773123155244055 0 -0.030548964988872156 -0.0032666949449897975 0 -0.031525942867461597 -0.0029434480216978462 0 -0.030994068666565781 -0.0025269245282166699 0 -0.031417227660367149 -0.0032766456900492629 0 -0.030990352654868207 -0.0024992333979535816 0 -0.031289909000479281 -0.0034216794979239893 0 -0.030994068666565781 -0.0025269245282166699 0 -0.031046598213258936 -0.0034027359144483513 0 -0.030618231560012931 -0.0031773123155244055 0 -0.029761007867850801 -0.0025505761382602853 0 -0.029955751912013353 -0.0026937248252316198 0 -0.031046598213258936 -0.0034027359144483513 0 -0.030618231560012931 -0.0031773123155244055 0 -0.030574257174049557 -0.0032275221876599237 0 -0.031046598213258936 -0.0034027359144483513 0 -0.030574257174049557 -0.0032275221876599237 0 -0.030900847081093724 -0.0036451936155588722 0 -0.029823798373397409 -0.0025811920877807353 0 -0.029761007867850801 -0.0025505761382602853 0 -0.028912111807006084 -0.0014617631207485676 0 -0.029172329880930239 -0.0018673633339862466 0 -0.028438431583894554 -0.0019351664021321428 0 -0.029172329880930239 -0.0018673633339862466 0 -0.028438431583894554 -0.0019351664021321428 0 -0.028863114587755635 -0.0023168640066911169 0 -0.031289909000479281 -0.0034216794979239893 0 -0.030985471487346747 -0.0030541007877730036 0 -0.031530265025847146 -0.0032088362318484082 0 -0.031417227660367149 -0.0032766456900492629 0 -0.031629296431798556 -0.0030662993324954498 0 -0.029955751912013353 -0.0026937248252316198 0 -0.030985471487346747 -0.0030541007877730036 0 -0.031046598213258936 -0.0034027359144483513 0 -0.030900847081093724 -0.0036451936155588722 0 -0.031124645855075624 -0.0040059724985469268 0 -0.029304779667979269 -0.0025997036680064423 0 -0.029606413255969844 -0.0027362465486721953 0 -0.02915893308785019 -0.0030648652629713864 0 -0.029304779667979269 -0.0025997036680064423 0 -0.029606413255969844 -0.0027362465486721953 0 -0.029687526959792775 -0.0025206294662585174 0 -0.029920857646405251 -0.0024713181240016997 0 -0.029687526959792775 -0.0025206294662585174 0 -0.02959239847994492 -0.0023705900401829738 0 -0.029920857646405251 -0.0024713181240016997 0 -0.029606413255969844 -0.0027362465486721953 0 -0.029687526959792775 -0.0025206294662585174 0 -0.029761007867850801 -0.0025505761382602853 0 -0.029414152304101229 -0.0023314092341673773 0 -0.029304779667979269 -0.0025997036680064423 0 -0.029687526959792775 -0.0025206294662585174 0 -0.02959239847994492 -0.0023705900401829738 0 -0.024515605253868953 9.2805601282153357e-05 0 -0.024865802606639013 0.0015812233133914975 0 -0.019106513952727739 0.0030771084010606589 0 -0.020249566869796197 0.0053374130711604613 0 -0.018432695854267173 0.0049410523140856286 0 -0.029920857646405251 -0.0024713181240016997 0 -0.02959239847994492 -0.0023705900401829738 0 -0.029859934675720231 -0.0022058157935876239 0 -0.029761007867850801 -0.0025505761382602853 0 -0.030042826092471733 -0.0023907479135931607 0 -0.02959239847994492 -0.0023705900401829738 0 -0.029859934675720231 -0.0022058157935876239 0 -0.02988739095848085 -0.0020575430956194739 0 -0.024865802606639013 0.0015812233133914975 0 -0.026002400283079766 0.002242631419664679 0 -0.030301781074914168 -0.0022145603824912123 0 -0.029859934675720231 -0.0022058157935876239 0 -0.030032725352643595 -0.0020896604063493406 0 -0.030301781074914168 -0.0022145603824912123 0 -0.030472214797779319 -0.0026752706484460325 0 -0.029859934675720231 -0.0022058157935876239 0 -0.029757323112077395 -0.0015758774841061808 0 -0.030028073819230137 -0.0018918173220806268 0 -0.030042117924903633 -0.0017798727578669177 0 -0.029858834934374284 -0.0020063197277986437 0 -0.029989823454694881 -0.0019684533852580332 0 -0.030042117924903633 -0.0017798727578669177 0 -0.026002400283079766 0.002242631419664679 0 -0.026363218685597167 0.0009985497070267265 0 -0.026002400283079766 0.002242631419664679 0 -0.026381797432777982 0.0021615849502501405 0 -0.029859934675720231 -0.0022058157935876239 0 -0.02988739095848085 -0.0020575430956194739 0 -0.030032725352643595 -0.0020896604063493406 0 -0.030032725352643595 -0.0020896604063493406 0 -0.029989823454694881 -0.0019684533852580332 0 -0.030160705471000825 -0.0019943742621237317 0 -0.02988739095848085 -0.0020575430956194739 0 -0.030032725352643595 -0.0020896604063493406 0 -0.029989823454694881 -0.0019684533852580332 0 -0.029989823454694881 -0.0019684533852580332 0 -0.030042117924903633 -0.0017798727578669177 0 -0.030160705471000825 -0.0019943742621237317 0 -0.030042117924903633 -0.0017798727578669177 0 -0.030301460203215121 -0.0019002861871920554 0 -0.030160705471000825 -0.0019943742621237317 0 -0.030301781074914168 -0.0022145603824912123 0 -0.030301460203215121 -0.0019002861871920554 0 -0.030160705471000825 -0.0019943742621237317 0 -0.030301781074914168 -0.0022145603824912123 0 -0.030032725352643595 -0.0020896604063493406 0 -0.030160705471000825 -0.0019943742621237317 0 -0.020249566869796197 0.0053374130711604613 0 -0.021425278805104891 0.0076022435431038586 0 -0.01853089594083529 0.0066385867239348827 0 -0.026002400283079766 0.002242631419664679 0 -0.023661200890427919 0.0023169459702852579 0 -0.029290685493673939 -0.0017120828623445688 0 -0.030028073819230137 -0.0018918173220806268 0 -0.028750146629907259 -0.002396553308418549 0 -0.029290685493673939 -0.0017120828623445688 0 -0.028750146629907259 -0.002396553308418549 0 -0.028541119481823946 -0.001165803650139928 0 -0.028750146629907259 -0.002396553308418549 0 -0.027878696632966868 -0.0020098462311215781 0 -0.028541119481823946 -0.001165803650139928 0 -0.029027064086329983 -0.0012739199591831219 0 -0.028517822324733211 -0.0021560722554044816 0 -0.028248049889010019 -0.0013920077902968469 0 -0.028899785554991189 -0.0016995548402165966 0 -0.021153009898643597 0.00055451021085117346 0 -0.028750146629907259 -0.002396553308418549 0 -0.027878696632966868 -0.0020098462311215781 0 -0.027165511134707061 -0.0029365584818745092 0 -0.023661200890427919 0.0023169459702852579 0 -0.021153009898643597 0.00055451021085117346 0 -0.020249566869796197 0.0053374130711604613 0 -0.01853089594083529 0.0066385867239348827 0 -0.018432695854267173 0.0049410523140856286 0 -0.01853089594083529 0.0066385867239348827 0 -0.018432695854267173 0.0049410523140856286 0 -0.015600273442733945 0.0055580530373117677 0 -0.019106513952727739 0.0030771084010606589 0 -0.018432695854267173 0.0049410523140856286 0 -0.01717332465500241 0.0039845254085272893 0 -0.018432695854267173 0.0049410523140856286 0 -0.01717332465500241 0.0039845254085272893 0 -0.015600273442733945 0.0055580530373117677 0 -0.01717332465500241 0.0039845254085272893 0 -0.015302385048214885 0.0036991354528065033 0 -0.015600273442733945 0.0055580530373117677 0 -0.01717332465500241 0.0039845254085272893 0 -0.01636018085904126 0.003138145702586072 0 -0.015302385048214885 0.0036991354528065033 0 -0.01636018085904126 0.003138145702586072 0 -0.016573001520555929 0.0019049796970261384 0 -0.017574799888181503 0.0026315860382664555 0 -0.01717332465500241 0.0039845254085272893 0 -0.01636018085904126 0.003138145702586072 0 -0.017574799888181503 0.0026315860382664555 0 -0.016573001520555929 0.0019049796970261384 0 -0.017574799888181503 0.0026315860382664555 0 -0.017989572870696927 0.0007042744504966857 0 -0.01636018085904126 0.003138145702586072 0 -0.016573001520555929 0.0019049796970261384 0 -0.015117100630923154 0.0033038043197046452 0 -0.015439732943317819 0.0028974469276471402 0 -0.015358297214926967 0.0030396095958507754 0 -0.019106513952727739 0.0030771084010606589 0 -0.01717332465500241 0.0039845254085272893 0 -0.017574799888181503 0.0026315860382664555 0 -0.019106513952727739 0.0030771084010606589 0 -0.017574799888181503 0.0026315860382664555 0 -0.017989572870696927 0.0007042744504966857 0 -0.024515605253868953 9.2805601282153357e-05 0 -0.020609076652646524 0.00011884901579389598 0 -0.014472741565060915 0.0029523216193536777 0 -0.016160197687646372 0.0031199331385404388 0 -0.014290389907248903 0.0034625308592804421 0 -0.015439481895907114 0.002892734100270676 0 -0.016678131412188275 0.0036832344709981429 0 -0.014401830303893783 0.0022901870223189587 0 -0.015076512184288118 0.0027265480409929287 0 -0.015570839926723977 0.0023590912684759613 0 -0.014290389907248903 0.0034625308592804421 0 -0.014375039557836138 0.0032943757986463205 0 -0.015439481895907114 0.002892734100270676 0 -0.014290389907248903 0.0034625308592804421 0 -0.014375039557836138 0.0032943757986463205 0 -0.014530920226035408 0.00331441500952636 0 -0.014472741565060915 0.0029523216193536777 0 -0.014350280653757274 0.0029090841818684111 0 -0.014371471452200293 0.0034083374335267679 0 -0.013569353889219257 0.003091167337549171 0 -0.014290202611936701 0.0028959637451081003 0 -0.014371471452200293 0.0034083374335267679 0 -0.014290202611936701 0.0028959637451081003 0 -0.014644924504801263 0.0031139363529567167 0 -0.014290202611936701 0.0028959637451081003 0 -0.014644924504801263 0.0031139363529567167 0 -0.014819217957262352 0.0028503610942864827 0 -0.014644924504801263 0.0031139363529567167 0 -0.014940563373360572 0.003113871868376169 0 -0.014819217957262352 0.0028503610942864827 0 -0.015296521033027177 0.002958441493780307 0 -0.014940563373360572 0.003113871868376169 0 -0.015117100630923154 0.0033038043197046452 0 -0.015296521033027177 0.002958441493780307 0 -0.014940563373360572 0.003113871868376169 0 -0.014819217957262352 0.0028503610942864827 0 -0.01636018085904126 0.003138145702586072 0 -0.015117100630923154 0.0033038043197046452 0 -0.015302385048214885 0.0036991354528065033 0 -0.014940563373360572 0.003113871868376169 0 -0.015117100630923154 0.0033038043197046452 0 -0.014842190898841168 0.0033109481113575276 0 -0.015117100630923154 0.0033038043197046452 0 -0.014842190898841168 0.0033109481113575276 0 -0.015302385048214885 0.0036991354528065033 0 -0.014842190898841168 0.0033109481113575276 0 -0.014530920226035408 0.00331441500952636 0 -0.015302385048214885 0.0036991354528065033 0 -0.014375039557836138 0.0032943757986463205 0 -0.014530920226035408 0.00331441500952636 0 -0.015302385048214885 0.0036991354528065033 0 -0.014371471452200293 0.0034083374335267679 0 -0.014644924504801263 0.0031139363529567167 0 -0.014842190898841168 0.0033109481113575276 0 -0.014644924504801263 0.0031139363529567167 0 -0.014940563373360572 0.003113871868376169 0 -0.014842190898841168 0.0033109481113575276 0 -0.014472741565060915 0.0029523216193536777 0 -0.014647384055234051 0.0030958660084632254 0 -0.014418788216829089 0.0032284559287133236 0 -0.014842190898841168 0.0033109481113575276 0 -0.014530920226035408 0.00331441500952636 0 -0.014472741565060915 0.0029523216193536777 0 -0.014517064758209835 0.0030001133487398469 0 -0.014375039557836138 0.0032943757986463205 0 -0.015302385048214885 0.0036991354528065033 0 -0.015600273442733945 0.0055580530373117677 0 -0.014491085892044845 0.0022400393187125256 0 -0.015096898395863607 0.001781606310154717 0 -0.013155986056725587 0.0010262948412478037 0 -0.014375039557836138 0.0032943757986463205 0 -0.014491085892044845 0.0022400393187125256 0 -0.013155986056725587 0.0010262948412478037 0 -0.012394559414778945 0.0038769507647392213 0 -0.021153009898643597 0.00055451021085117346 0 -0.014491085892044845 0.0022400393187125256 0 -0.015439481895907114 0.002892734100270676 0 -0.015096898395863607 0.001781606310154717 0 -0.014375039557836138 0.0032943757986463205 0 -0.014491085892044845 0.0022400393187125256 0 -0.015439481895907114 0.002892734100270676 0 -0.027369703316343433 -0.0026537304679726701 0 -0.028517822324733211 -0.0021560722554044816 0 -0.027270998941336839 -0.0017771475550472119 0 -0.021083236757898232 -0.00059146619035299922 0 -0.021153009898643597 0.00055451021085117346 0 -0.028517822324733211 -0.0021560722554044816 0 -0.028248049889010019 -0.0013920077902968469 0 -0.027270998941336839 -0.0017771475550472119 0 -0.029027064086329983 -0.0012739199591831219 0 -0.028248049889010019 -0.0013920077902968469 0 -0.028530161912804403 -0.00081639743972534583 0 -0.028248049889010019 -0.0013920077902968469 0 -0.027805731752850265 -0.00098535916424128214 0 -0.028530161912804403 -0.00081639743972534583 0 -0.027270998941336839 -0.0017771475550472119 0 -0.027805731752850265 -0.00098535916424128214 0 -0.026614444260178883 -0.00085386518254849204 0 -0.028248049889010019 -0.0013920077902968469 0 -0.027270998941336839 -0.0017771475550472119 0 -0.027805731752850265 -0.00098535916424128214 0 -0.027805731752850265 -0.00098535916424128214 0 -0.027796894241647194 -0.0002374373607465073 0 -0.026614444260178883 -0.00085386518254849204 0 -0.028048369562191186 0.00041098376396248867 0 -0.026817134373302274 6.781068174109499e-05 0 -0.027796894241647194 -0.0002374373607465073 0 -0.028148418426567009 0.00040768975210570148 0 -0.026566322389451367 0.00020876069995737044 0 -0.027796894241647194 -0.0002374373607465073 0 -0.028689773256692336 -0.00017589408221516762 0 -0.028148418426567009 0.00040768975210570148 0 -0.028689773256692336 -0.00017589408221516762 0 -0.028921294540909935 0.00033071880511778307 0 -0.028148418426567009 0.00040768975210570148 0 -0.027805731752850265 -0.00098535916424128214 0 -0.027796894241647194 -0.0002374373607465073 0 -0.028530161912804403 -0.00081639743972534583 0 -0.027796894241647194 -0.0002374373607465073 0 -0.028530161912804403 -0.00081639743972534583 0 -0.028689773256692336 -0.00017589408221516762 0 -0.029027064086329983 -0.0012739199591831219 0 -0.028530161912804403 -0.00081639743972534583 0 -0.029393864787024365 -0.0004856194238942937 0 -0.028530161912804403 -0.00081639743972534583 0 -0.029393864787024365 -0.0004856194238942937 0 -0.028689773256692336 -0.00017589408221516762 0 -0.028899785554991189 -0.0016995548402165966 0 -0.028923022538513886 -0.0008549770710171064 0 -0.029446418525149311 -8.9970519753007663e-05 0 -0.029458284558843327 -0.00097473837117319434 0 -0.028541119481823946 -0.001165803650139928 0 -0.029446418525149311 -8.9970519753007663e-05 0 -0.029393864787024365 -0.0004856194238942937 0 -0.029195829550473555 -1.6492561512484873e-05 0 -0.029446418525149311 -8.9970519753007663e-05 0 -0.029195829550473555 -1.6492561512484873e-05 0 -0.029352649043771911 0.00014939386165731193 0 -0.029405677823838478 -0.00015878085276649381 0 -0.028923022538513886 -0.0008549770710171064 0 -0.029446418525149311 -8.9970519753007663e-05 0 -0.02947353534052264 0.00012389778174095933 0 -0.029352649043771911 0.00014939386165731193 0 -0.029393864787024365 -0.0004856194238942937 0 -0.028689773256692336 -0.00017589408221516762 0 -0.029195829550473555 -1.6492561512484873e-05 0 -0.028689773256692336 -0.00017589408221516762 0 -0.029195829550473555 -1.6492561512484873e-05 0 -0.028921294540909935 0.00033071880511778307 0 -0.028921294540909935 0.00033071880511778307 0 -0.029141957662887918 0.00057495531159347491 0 -0.028969936964369648 0.00084982759640887188 0 -0.028921294540909935 0.00033071880511778307 0 -0.029141957662887918 0.00057495531159347491 0 -0.029215297246006536 0.00029876655687367944 0 -0.029195829550473555 -1.6492561512484873e-05 0 -0.028921294540909935 0.00033071880511778307 0 -0.029215297246006536 0.00029876655687367944 0 -0.029141957662887918 0.00057495531159347491 0 -0.029215297246006536 0.00029876655687367944 0 -0.029303758233933764 0.00054597489958302847 0 -0.029667689654756149 0.0001054478508246828 0 -0.029469541584116115 0.00053359372111366407 0 -0.029500543882711734 0.00076887659804185415 0 -0.029667689654756149 0.0001054478508246828 0 -0.029475213569998604 0.0003350172909369063 0 -0.029469541584116115 0.00053359372111366407 0 -0.029475213569998604 0.0003350172909369063 0 -0.02947353534052264 0.00012389778174095933 0 -0.029352649043771911 0.00014939386165731193 0 -0.029475213569998604 0.0003350172909369063 0 -0.029352649043771911 0.00014939386165731193 0 -0.029361062364114145 0.00037259184642770242 0 -0.029195829550473555 -1.6492561512484873e-05 0 -0.029352649043771911 0.00014939386165731193 0 -0.029215297246006536 0.00029876655687367944 0 -0.029352649043771911 0.00014939386165731193 0 -0.029215297246006536 0.00029876655687367944 0 -0.029361062364114145 0.00037259184642770242 0 -0.029215297246006536 0.00029876655687367944 0 -0.029303758233933764 0.00054597489958302847 0 -0.029361062364114145 0.00037259184642770242 0 -0.029303758233933764 0.00054597489958302847 0 -0.029469541584116115 0.00053359372111366407 0 -0.029410764898231061 0.00068117526467575214 0 -0.029303758233933764 0.00054597489958302847 0 -0.029361062364114145 0.00037259184642770242 0 -0.029469541584116115 0.00053359372111366407 0 -0.029475213569998604 0.0003350172909369063 0 -0.029361062364114145 0.00037259184642770242 0 -0.029469541584116115 0.00053359372111366407 0 -0.029469541584116115 0.00053359372111366407 0 -0.029500543882711734 0.00076887659804185415 0 -0.029410764898231061 0.00068117526467575214 0 -0.029500543882711734 0.00076887659804185415 0 -0.029436331655246974 0.00082397243414242846 0 -0.029410764898231061 0.00068117526467575214 0 -0.029195725451498983 0.00071212500497473512 0 -0.029259483735341495 0.00070343453809848272 0 -0.029303758233933764 0.00054597489958302847 0 -0.029410764898231061 0.00068117526467575214 0 -0.029263094614754008 0.00087445892844594377 0 -0.029436331655246974 0.00082397243414242846 0 -0.029410764898231061 0.00068117526467575214 0 -0.029263094614754008 0.00087445892844594377 0 -0.029201579740058832 0.0012711134350248832 0 -0.029195725451498983 0.00071212500497473512 0 -0.029343627236962995 0.0011631106354974938 0 -0.029498452711942558 0.00078823191093288362 0 -0.029436331655246974 0.00082397243414242846 0 -0.029343627236962995 0.0011631106354974938 0 -0.029436331655246974 0.00082397243414242846 0 -0.029263094614754008 0.00087445892844594377 0 -0.028819179277424174 0.0013384129503215729 0 -0.029086986022411235 0.0013106841758026941 0 -0.028889902621960298 0.0014981570482443974 0 -0.029141957662887918 0.00057495531159347491 0 -0.029303758233933764 0.00054597489958302847 0 -0.029263094614754008 0.00087445892844594377 0 -0.029141957662887918 0.00057495531159347491 0 -0.028969936964369648 0.00084982759640887188 0 -0.029263094614754008 0.00087445892844594377 0 -0.02928534913409292 0.0012366793681347782 0 -0.029343627236962995 0.0011631106354974938 0 -0.029263094614754008 0.00087445892844594377 0 -0.02928534913409292 0.0012366793681347782 0 -0.028969936964369648 0.00084982759640887188 0 -0.029263094614754008 0.00087445892844594377 0 -0.028790090059293727 0.001236823595276833 0 -0.02928534913409292 0.0012366793681347782 0 -0.028969936964369648 0.00084982759640887188 0 -0.028790090059293727 0.001236823595276833 0 -0.028969936964369648 0.00084982759640887188 0 -0.028267664032930798 0.00093136750880868724 0 -0.027960139473485898 0.0013313356066167305 0 -0.028790090059293727 0.001236823595276833 0 -0.028267664032930798 0.00093136750880868724 0 -0.027960139473485898 0.0013313356066167305 0 -0.028267664032930798 0.00093136750880868724 0 -0.02726638034331905 0.00091088637857203339 0 -0.028267664032930798 0.00093136750880868724 0 -0.028148418426567009 0.00040768975210570148 0 -0.02726638034331905 0.00091088637857203339 0 -0.028921294540909935 0.00033071880511778307 0 -0.028969936964369648 0.00084982759640887188 0 -0.028148418426567009 0.00040768975210570148 0 -0.028969936964369648 0.00084982759640887188 0 -0.028267664032930798 0.00093136750880868724 0 -0.028148418426567009 0.00040768975210570148 0 -0.026214669875234867 0.00092691200771438751 0 -0.02726638034331905 0.00091088637857203339 0 -0.026277710352071441 0.00036037070956696686 0 -0.026214669875234867 0.00092691200771438751 0 -0.025555038816273534 0.00069483687522778196 0 -0.026277710352071441 0.00036037070956696686 0 -0.028148418426567009 0.00040768975210570148 0 -0.02726638034331905 0.00091088637857203339 0 -0.02705670601177183 -5.0619169835441586e-05 0 -0.02726638034331905 0.00091088637857203339 0 -0.026277710352071441 0.00036037070956696686 0 -0.02705670601177183 -5.0619169835441586e-05 0 -0.027203355205120003 0.0018830710178964162 0 -0.027960139473485898 0.0013313356066167305 0 -0.02726638034331905 0.00091088637857203339 0 -0.027203355205120003 0.0018830710178964162 0 -0.02726638034331905 0.00091088637857203339 0 -0.02639614846227057 0.0014046432735989938 0 -0.026214669875234867 0.00092691200771438751 0 -0.02726638034331905 0.00091088637857203339 0 -0.02639614846227057 0.0014046432735989938 0 -0.026214669875234867 0.00092691200771438751 0 -0.02639614846227057 0.0014046432735989938 0 -0.025514910286582971 0.00089908880863217113 0 -0.029161217831746505 -0.00020846605773545244 0 -0.028945905426011623 -0.00021865727414265403 0 -0.028854263611573974 -0.00052084197587150553 0 -0.02905451957933395 -4.7136145292753086e-05 0 -0.029161217831746505 -0.00020846605773545244 0 -0.028945905426011623 -0.00021865727414265403 0 -0.027936786098753507 0.00066972058089907445 0 -0.026076916963842574 0.00028887898810686446 0 -0.028870110250990788 7.9359468961271464e-07 0 -0.028945905426011623 -0.00021865727414265403 0 -0.028771140072981514 -0.00024970199420931032 0 -0.029090119366708578 8.3573646652854278e-05 0 -0.026799698755095396 0.00017872926062311343 0 -0.026799698755095396 0.00017872926062311343 0 -0.026076916963842574 0.00028887898810686446 0 -0.028945905426011623 -0.00021865727414265403 0 -0.028711131187499586 -0.00025261809413942371 0 -0.028854263611573974 -0.00052084197587150553 0 -0.023006831507407607 0.00023352824723619258 0 -0.022977782327706142 0.00014717461896091103 0 -0.023068829430199961 0.00010769088942852015 0 -0.023006831507407607 0.00023352824723619258 0 -0.022977782327706142 0.00014717461896091103 0 -0.022863807244911608 0.00020293970810173514 0 -0.026799698755095396 0.00017872926062311343 0 -0.025203770345698158 2.2556415528185322e-05 0 -0.027721469781080539 0.00016835369686151778 0 -0.027521500035130667 0.00030118062275095791 0 -0.027750382138702758 0.00033718669891798041 0 -0.022719005557132656 0.00049380383985149121 0 -0.025203770345698158 2.2556415528185322e-05 0 -0.022977782327706142 0.00014717461896091103 0 -0.022900248365738105 7.5190506033817988e-05 0 -0.022863807244911608 0.00020293970810173514 0 -0.022977782327706142 0.00014717461896091103 0 -0.022900248365738105 7.5190506033817988e-05 0 -0.023068829430199961 0.00010769088942852015 0 -0.026076916963842574 0.00028887898810686446 0 -0.023345386393066353 9.2464997486614372e-05 0 -0.022900248365738105 7.5190506033817988e-05 0 -0.023068829430199961 0.00010769088942852015 0 -0.022899614019500057 -1.1980701348021645e-05 0 -0.022900248365738105 7.5190506033817988e-05 0 -0.022899614019500057 -1.1980701348021645e-05 0 -0.022813676187219398 2.1023496485089178e-05 0 -0.022900248365738105 7.5190506033817988e-05 0 -0.022813676187219398 2.1023496485089178e-05 0 -0.022716662811139481 7.0873761649797103e-05 0 -0.025309203017361809 0.0011613793917021197 0 -0.025555038816273534 0.00069483687522778196 0 -0.024229828314220724 0.00045740417249453392 0 -0.026214669875234867 0.00092691200771438751 0 -0.025514910286582971 0.00089908880863217113 0 -0.025555038816273534 0.00069483687522778196 0 -0.026076916963842574 0.00028887898810686446 0 -0.025676606074794665 0.00081298533529968093 0 -0.025555038816273534 0.00069483687522778196 0 -0.024722183096108137 -2.8487129870399628e-05 0 -0.024229828314220724 0.00045740417249453392 0 -0.024722183096108137 -2.8487129870399628e-05 0 -0.025435823339659613 -0.00058565502482796654 0 -0.026277710352071441 0.00036037070956696686 0 -0.025555038816273534 0.00069483687522778196 0 -0.024722183096108137 -2.8487129870399628e-05 0 -0.026277710352071441 0.00036037070956696686 0 -0.024722183096108137 -2.8487129870399628e-05 0 -0.024229828314220724 0.00045740417249453392 0 -0.02297168371583309 -0.00016072744776026546 0 -0.022899614019500057 -1.1980701348021645e-05 0 -0.022798738098454362 -8.6684793544139259e-06 0 -0.022813676187219398 2.1023496485089178e-05 0 -0.023345386393066353 9.2464997486614372e-05 0 -0.023075034925501271 -0.00013068306694761421 0 -0.024722183096108137 -2.8487129870399628e-05 0 -0.023404595744075302 -0.00083058469191964375 0 -0.02297168371583309 -0.00016072744776026546 0 -0.025194817845707672 -0.00040217458104524533 0 -0.023542143364028999 -0.00084139980402718104 0 -0.025002551452714971 -0.00024873540415301421 0 -0.024343845642515533 -0.0011468481381090875 0 -0.023404595744075302 -0.00083058469191964375 0 -0.024722183096108137 -2.8487129870399628e-05 0 -0.025435823339659613 -0.00058565502482796654 0 -0.023404595744075302 -0.00083058469191964375 0 -0.025002551452714971 -0.00024873540415301421 0 -0.025333135989008593 -0.0011983249492903835 0 -0.024343845642515533 -0.0011468481381090875 0 -0.025002551452714971 -0.00024873540415301421 0 -0.026566322389451367 0.00020876069995737044 0 -0.026614444260178883 -0.00085386518254849204 0 -0.025002551452714971 -0.00024873540415301421 0 -0.026614444260178883 -0.00085386518254849204 0 -0.025333135989008593 -0.0011983249492903835 0 -0.025194817845707672 -0.00040217458104524533 0 -0.026817134373302274 6.781068174109499e-05 0 -0.025435823339659613 -0.00058565502482796654 0 -0.026277710352071441 0.00036037070956696686 0 -0.02705670601177183 -5.0619169835441586e-05 0 -0.027796894241647194 -0.0002374373607465073 0 -0.026566322389451367 0.00020876069995737044 0 -0.026614444260178883 -0.00085386518254849204 0 -0.027270998941336839 -0.0017771475550472119 0 -0.026614444260178883 -0.00085386518254849204 0 -0.026252596268364736 -0.0016744683196961143 0 -0.026614444260178883 -0.00085386518254849204 0 -0.026252596268364736 -0.0016744683196961143 0 -0.025333135989008593 -0.0011983249492903835 0 -0.026252596268364736 -0.0016744683196961143 0 -0.025333135989008593 -0.0011983249492903835 0 -0.025346007388797279 -0.0022382368267374188 0 -0.026252596268364736 -0.0016744683196961143 0 -0.025346007388797279 -0.0022382368267374188 0 -0.026125536462834369 -0.0031425765190803106 0 -0.027270998941336839 -0.0017771475550472119 0 -0.026252596268364736 -0.0016744683196961143 0 -0.026125536462834369 -0.0031425765190803106 0 -0.027369703316343433 -0.0026537304679726701 0 -0.027270998941336839 -0.0017771475550472119 0 -0.026125536462834369 -0.0031425765190803106 0 -0.015439481895907114 0.002892734100270676 0 -0.017415054435109063 0.0025117939002966875 0 -0.016678131412188275 0.0036832344709981429 0 -0.021083236757898232 -0.00059146619035299922 0 -0.022049651923626803 -0.00026357992027845848 0 -0.015439481895907114 0.002892734100270676 0 -0.015096898395863607 0.001781606310154717 0 -0.017415054435109063 0.0025117939002966875 0 -0.026125536462834369 -0.0031425765190803106 0 -0.024758457999797805 -0.0036362705070658234 0 -0.025167940808473437 -0.0030138813137286394 0 -0.022049651923626803 -0.00026357992027845848 0 -0.021140122800574458 6.8808602997439301e-06 0 -0.025346007388797279 -0.0022382368267374188 0 -0.026125536462834369 -0.0031425765190803106 0 -0.025167940808473437 -0.0030138813137286394 0 -0.017415054435109063 0.0025117939002966875 0 -0.019159440750623521 0.0038185877828189104 0 -0.019943671695887774 0.003377455275569837 0 -0.017720088472372924 0.001958735025019402 0 -0.014274339174141126 0.0023219360986137063 0 -0.015570839926723977 0.0023590912684759613 0 -0.016768468834033955 0.002435505057179196 0 -0.015754580489678947 0.0031768131091670067 0 -0.017415054435109063 0.0025117939002966875 0 -0.016678131412188275 0.0036832344709981429 0 -0.019159440750623521 0.0038185877828189104 0 -0.016160197687646372 0.0031199331385404388 0 -0.017720088472372924 0.001958735025019402 0 -0.015076512184288118 0.0027265480409929287 0 -0.015570839926723977 0.0023590912684759613 0 -0.015754580489678947 0.0031768131091670067 0 -0.019216626756947578 0.00033819467259080992 0 -0.018828051219727464 0.00077115422051334274 0 -0.018866231434622516 0.00035143196071830827 0 -0.01842681064309323 0.00062704983088230672 0 -0.017851020344862082 0.00026973334337501991 0 -0.019536129925842066 0.00032119107838862921 0 -0.01962766403695836 0.00036118480760579259 0 -0.019436444312242149 0.00031257783935937473 0 -0.019536129925842066 0.00032119107838862921 0 -0.019585870921964385 0.00024774432777046137 0 -0.019442466317316224 0.0002599432649172226 0 -0.019585870921964385 0.00024774432777046137 0 -0.01962766403695836 0.00036118480760579259 0 -0.019737080805227583 0.00019885348779334288 0 -0.019536129925842066 0.00032119107838862921 0 -0.019585870921964385 0.00024774432777046137 0 -0.01962766403695836 0.00036118480760579259 0 -0.01842681064309323 0.00062704983088230672 0 -0.017851020344862082 0.00026973334337501991 0 -0.018253141710640613 0.00098679595663163605 0 -0.017720088472372924 0.001958735025019402 0 -0.018828051219727464 0.00077115422051334274 0 -0.017720088472372924 0.001958735025019402 0 -0.021140122800574458 6.8808602997439301e-06 0 -0.018440873762531618 0.0015047872956510742 0 -0.019708415963764443 0.0015938792905782399 0 -0.019820546326050948 0.00075062826106688462 0 -0.019536129925842066 0.00032119107838862921 0 -0.01944108536996679 0.00027582897956908708 0 -0.019442466317316224 0.0002599432649172226 0 -0.019536129925842066 0.00032119107838862921 0 -0.019436444312242149 0.00031257783935937473 0 -0.019444623858252071 0.00027169038184174664 0 -0.019402313819412598 -2.7832937492187254e-05 0 -0.021140122800574458 6.8808602997439301e-06 0 -0.018828051219727464 0.00077115422051334274 0 -0.021140122800574458 6.8808602997439301e-06 0 -0.021140122800574458 6.8808602997439301e-06 0 -0.021993300149263144 -0.0012882330327881847 0 -0.021993300149263144 -0.0012882330327881847 0 -0.024598130658913961 -0.0030142858042367794 0 -0.024749636690437258 -0.0035488130736999459 0 -0.025167940808473437 -0.0030138813137286394 0 -0.024645187715475209 -0.0026629160309900226 0 -0.024758457999797805 -0.0036362705070658234 0 -0.024749636690437258 -0.0035488130736999459 0 -0.025167940808473437 -0.0030138813137286394 0 -0.025346007388797279 -0.0022382368267374188 0 -0.025167940808473437 -0.0030138813137286394 0 -0.024645187715475209 -0.0026629160309900226 0 -0.021993300149263144 -0.0012882330327881847 0 -0.021659381550720988 -0.0013681908883129293 0 -0.024599529641721192 -0.0033878133576891213 0 -0.024518037733670638 -0.0025704167016149049 0 -0.023672523858380774 -0.0027477502728691957 0 -0.019585870921964385 0.00024774432777046137 0 -0.019442466317316224 0.0002599432649172226 0 -0.019611973583811896 9.301839909183263e-05 0 -0.019585870921964385 0.00024774432777046137 0 -0.019611973583811896 9.301839909183263e-05 0 -0.019737080805227583 0.00019885348779334288 0 -0.023672523858380774 -0.0027477502728691957 0 -0.0240601433037602 -0.0021887838026444402 0 -0.023517637425757347 -0.0016887299026423193 0 -0.024518037733670638 -0.0025704167016149049 0 -0.023672523858380774 -0.0027477502728691957 0 -0.0240601433037602 -0.0021887838026444402 0 -0.0240601433037602 -0.0021887838026444402 0 -0.023517637425757347 -0.0016887299026423193 0 -0.024490771373407935 -0.0017210304935791813 0 -0.024518037733670638 -0.0025704167016149049 0 -0.0240601433037602 -0.0021887838026444402 0 -0.024490771373407935 -0.0017210304935791813 0 -0.024598130658913961 -0.0030142858042367794 0 -0.024476977842451651 -0.0016927697931088225 0 -0.025346007388797279 -0.0022382368267374188 0 -0.024645187715475209 -0.0026629160309900226 0 -0.024490771373407935 -0.0017210304935791813 0 -0.025333135989008593 -0.0011983249492903835 0 -0.025346007388797279 -0.0022382368267374188 0 -0.024490771373407935 -0.0017210304935791813 0 -0.025333135989008593 -0.0011983249492903835 0 -0.024490771373407935 -0.0017210304935791813 0 -0.024343845642515533 -0.0011468481381090875 0 -0.023517637425757347 -0.0016887299026423193 0 -0.024490771373407935 -0.0017210304935791813 0 -0.024343845642515533 -0.0011468481381090875 0 -0.023517637425757347 -0.0016887299026423193 0 -0.024343845642515533 -0.0011468481381090875 0 -0.023404595744075302 -0.00083058469191964375 0 -0.022980317429199686 -0.0012256834559293986 0 -0.022348726281218971 -0.000466764700908702 0 -0.022549805435617382 -0.001954771591600569 0 -0.023517637425757347 -0.0016887299026423193 0 -0.023404595744075302 -0.00083058469191964375 0 -0.022980317429199686 -0.0012256834559293986 0 -0.023404595744075302 -0.00083058469191964375 0 -0.022980317429199686 -0.0012256834559293986 0 -0.022348726281218971 -0.000466764700908702 0 -0.022348726281218971 -0.000466764700908702 0 -0.022549805435617382 -0.001954771591600569 0 -0.021119098683537181 -0.00048415713040000073 0 -0.021221938977575641 -0.00099841405140435927 0 -0.021072479309453971 -0.00057999906940131021 0 -0.022348726281218971 -0.000466764700908702 0 -0.021119098683537181 -0.00048415713040000073 0 -0.021869898155236631 -0.0001551497253290676 0 -0.020214309239212691 -7.8385018280448474e-05 0 -0.019839009692379748 -0.00015804154175859294 0 -0.021119098683537181 -0.00048415713040000073 0 -0.020214309239212691 -7.8385018280448474e-05 0 -0.019839009692379748 -0.00015804154175859294 0 -0.019955736689299272 0.00010370869373363906 0 -0.021659381550720988 -0.0013681908883129293 0 -0.021221938977575641 -0.00099841405140435927 0 -0.019611973583811896 9.301839909183263e-05 0 -0.019839009692379748 -0.00015804154175859294 0 -0.019788112624167402 5.0970055062329243e-05 0 -0.023672523858380774 -0.0027477502728691957 0 -0.023517637425757347 -0.0016887299026423193 0 -0.022549805435617382 -0.001954771591600569 0 -0.023517637425757347 -0.0016887299026423193 0 -0.022980317429199686 -0.0012256834559293986 0 -0.022549805435617382 -0.001954771591600569 0 -0.019839009692379748 -0.00015804154175859294 0 -0.019788112624167402 5.0970055062329243e-05 0 -0.019955736689299272 0.00010370869373363906 0 -0.019611973583811896 9.301839909183263e-05 0 -0.019737080805227583 0.00019885348779334288 0 -0.019788112624167402 5.0970055062329243e-05 0 -0.019737080805227583 0.00019885348779334288 0 -0.019955736689299272 0.00010370869373363906 0 -0.01982475929425959 0.00029555073927275266 0 -0.019737080805227583 0.00019885348779334288 0 -0.019788112624167402 5.0970055062329243e-05 0 -0.019955736689299272 0.00010370869373363906 0 -0.020214309239212691 -7.8385018280448474e-05 0 -0.019955736689299272 0.00010370869373363906 0 -0.02005992853120786 0.0002740704122484466 0 -0.020214309239212691 -7.8385018280448474e-05 0 -0.018769011384506266 0.00020598861213737965 0 -0.01934959479180904 8.4443929748753956e-05 0 -0.020013329700515427 -2.670786702320716e-05 0 -0.019646838028846054 0.00035204072853064973 0 -0.019955736689299272 0.00010370869373363906 0 -0.02005992853120786 0.0002740704122484466 0 -0.01982475929425959 0.00029555073927275266 0 -0.02005992853120786 0.0002740704122484466 0 -0.019868705834124614 0.00050811317052340652 0 -0.019976772348936883 0.0011951951146295671 0 -0.019646838028846054 0.00035204072853064973 0 -0.017726518141215838 7.7570855822686174e-05 0 -0.02005992853120786 0.0002740704122484466 0 -0.019868705834124614 0.00050811317052340652 0 -0.01982475929425959 0.00029555073927275266 0 -0.018769011384506266 0.00020598861213737965 0 -0.018402300749497304 0.00015968670496091457 0 -0.018420821441965756 -0.00025993613551230569 0 -0.019216626756947578 0.00033819467259080992 0 -0.019837251659034352 0.0004808732034256087 0 -0.018866231434622516 0.00035143196071830827 0 -0.019868705834124614 0.00050811317052340652 0 -0.019351127057331118 0.00092006197224412517 0 -0.01962766403695836 0.00036118480760579259 0 -0.019868705834124614 0.00050811317052340652 0 -0.01982475929425959 0.00029555073927275266 0 -0.01962766403695836 0.00036118480760579259 0 -0.019737080805227583 0.00019885348779334288 0 -0.01982475929425959 0.00029555073927275266 0 -0.019217458443965021 2.3541052908824625e-07 0 -0.018815669352391026 8.3471586690316691e-05 0 -0.017375498761719826 1.3754044113260614e-07 0 -0.017867949790311664 4.3286722340324401e-05 0 -0.018815669352391026 8.3471586690316691e-05 0 -0.017375498761719826 1.3754044113260614e-07 0 -0.018769011384506266 0.00020598861213737965 0 -0.018402300749497304 0.00015968670496091457 0 -0.01934959479180904 8.4443929748753956e-05 0 -0.018402300749497304 0.00015968670496091457 0 -0.01934959479180904 8.4443929748753956e-05 0 -0.018815669352391026 8.3471586690316691e-05 0 -0.017867949790311664 4.3286722340324401e-05 0 -0.018402300749497304 0.00015968670496091457 0 -0.018815669352391026 8.3471586690316691e-05 0 -0.017867949790311664 4.3286722340324401e-05 0 -0.018402300749497304 0.00015968670496091457 0 -0.017805489090410423 -5.3527024868788057e-05 0 -0.01934959479180904 8.4443929748753956e-05 0 -0.018815669352391026 8.3471586690316691e-05 0 -0.020170405005530682 -6.6539991540653311e-06 0 -0.019217458443965021 2.3541052908824625e-07 0 -0.018815669352391026 8.3471586690316691e-05 0 -0.020170405005530682 -6.6539991540653311e-06 0 -0.019217458443965021 2.3541052908824625e-07 0 -0.020170405005530682 -6.6539991540653311e-06 0 -0.021059036258973426 -3.3123805313226163e-07 0 -0.020214309239212691 -7.8385018280448474e-05 0 -0.01934959479180904 8.4443929748753956e-05 0 -0.020170405005530682 -6.6539991540653311e-06 0 -0.020214309239212691 -7.8385018280448474e-05 0 -0.020170405005530682 -6.6539991540653311e-06 0 -0.021119098683537181 -0.00048415713040000073 0 -0.020170405005530682 -6.6539991540653311e-06 0 -0.021119098683537181 -0.00048415713040000073 0 -0.021036311072729852 -0.00017254573604506728 0 -0.021119098683537181 -0.00048415713040000073 0 -0.021036311072729852 -0.00017254573604506728 0 -0.021826106280178562 -2.2750475824824753e-05 0 -0.020170405005530682 -6.6539991540653311e-06 0 -0.021036311072729852 -0.00017254573604506728 0 -0.021059036258973426 -3.3123805313226163e-07 0 -0.021036311072729852 -0.00017254573604506728 0 -0.021059036258973426 -3.3123805313226163e-07 0 -0.021826106280178562 -2.2750475824824753e-05 0 -0.021059036258973426 -3.3123805313226163e-07 0 -0.022901275720821474 7.7943099229754529e-07 0 -0.021826106280178562 -2.2750475824824753e-05 0 -0.022901275720821474 7.7943099229754529e-07 0 -0.022829467603109756 9.8624536919108359e-05 0 -0.024739875609303921 -1.649187338906504e-06 0 -0.022901275720821474 7.7943099229754529e-07 0 -0.022829467603109756 9.8624536919108359e-05 0 -0.021826106280178562 -2.2750475824824753e-05 0 -0.022829467603109756 9.8624536919108359e-05 0 -0.02220805429582131 4.3385406676322533e-05 0 -0.021826106280178562 -2.2750475824824753e-05 0 -0.022829467603109756 9.8624536919108359e-05 0 -0.02220805429582131 4.3385406676322533e-05 0 -0.022433163904342322 -7.3356185851502659e-06 0 -0.021119098683537181 -0.00048415713040000073 0 -0.021826106280178562 -2.2750475824824753e-05 0 -0.021869898155236631 -0.0001551497253290676 0 -0.02220805429582131 4.3385406676322533e-05 0 -0.021826106280178562 -2.2750475824824753e-05 0 -0.021869898155236631 -0.0001551497253290676 0 -0.02220805429582131 4.3385406676322533e-05 0 -0.021869898155236631 -0.0001551497253290676 0 -0.022447250434883142 3.4468301843904906e-06 0 -0.022348726281218971 -0.000466764700908702 0 -0.021869898155236631 -0.0001551497253290676 0 -0.022447250434883142 3.4468301843904906e-06 0 -0.022348726281218971 -0.000466764700908702 0 -0.02297168371583309 -0.00016072744776026546 0 -0.022447250434883142 3.4468301843904906e-06 0 -0.023404595744075302 -0.00083058469191964375 0 -0.022348726281218971 -0.000466764700908702 0 -0.02297168371583309 -0.00016072744776026546 0 -0.022899614019500057 -1.1980701348021645e-05 0 -0.02297168371583309 -0.00016072744776026546 0 -0.022798738098454362 -8.6684793544139259e-06 0 -0.02297168371583309 -0.00016072744776026546 0 -0.022798738098454362 -8.6684793544139259e-06 0 -0.022447250434883142 3.4468301843904906e-06 0 -0.022798738098454362 -8.6684793544139259e-06 0 -0.022447250434883142 3.4468301843904906e-06 0 -0.022618848200380581 3.1578115428838791e-05 0 -0.022798738098454362 -8.6684793544139259e-06 0 -0.022813676187219398 2.1023496485089178e-05 0 -0.022618848200380581 3.1578115428838791e-05 0 -0.02220805429582131 4.3385406676322533e-05 0 -0.022447250434883142 3.4468301843904906e-06 0 -0.022433163904342322 -7.3356185851502659e-06 0 -0.022447250434883142 3.4468301843904906e-06 0 -0.022433163904342322 -7.3356185851502659e-06 0 -0.022618848200380581 3.1578115428838791e-05 0 -0.022433163904342322 -7.3356185851502659e-06 0 -0.022618848200380581 3.1578115428838791e-05 0 -0.022516194289533005 -2.1265057889018805e-05 0 -0.022433163904342322 -7.3356185851502659e-06 0 -0.022516194289533005 -2.1265057889018805e-05 0 -0.02279561926239226 -0.00039670779022255752 0 -0.022618848200380581 3.1578115428838791e-05 0 -0.022716662811139481 7.0873761649797103e-05 0 -0.022516194289533005 -2.1265057889018805e-05 0 -0.022813676187219398 2.1023496485089178e-05 0 -0.022618848200380581 3.1578115428838791e-05 0 -0.022716662811139481 7.0873761649797103e-05 0 -0.022900248365738105 7.5190506033817988e-05 0 -0.022716662811139481 7.0873761649797103e-05 0 -0.022762409875431756 0.00018629913471297134 0 -0.027805563816352321 -0.00017886121735537054 0 -0.027619826431123613 -9.9571016914753777e-05 0 -0.027464204446453311 -0.00029791542964118124 0 -0.025203770345698158 2.2556415528185322e-05 0 -0.025015758126502485 -0.00017419810415886502 0 -0.022716662811139481 7.0873761649797103e-05 0 -0.022762409875431756 0.00018629913471297134 0 -0.022516194289533005 -2.1265057889018805e-05 0 -0.02799285142670975 -4.8920434523416013e-05 0 -0.025203770345698158 2.2556415528185322e-05 0 -0.027616611613380249 0.0001035726580182526 0 -0.027805563816352321 -0.00017886121735537054 0 -0.027619826431123613 -9.9571016914753777e-05 0 -0.027898831089413663 0.00010515730443974403 0 -0.027721469781080539 0.00016835369686151778 0 -0.027750382138702758 0.00033718669891798041 0 -0.027213171532733806 0.00010540620290515832 0 -0.027480864547233728 6.0546006266922236e-05 0 -0.027464204446453311 -0.00029791542964118124 0 -0.027480864547233728 6.0546006266922236e-05 0 -0.027619826431123613 -9.9571016914753777e-05 0 -0.027464204446453311 -0.00029791542964118124 0 -0.027213171532733806 0.00010540620290515832 0 -0.027464204446453311 -0.00029791542964118124 0 -0.026549866384327023 -0.0004590197461833372 0 -0.027213171532733806 0.00010540620290515832 0 -0.024746966820304427 -1.0286015003890591e-07 0 -0.026549866384327023 -0.0004590197461833372 0 -0.022829467603109756 9.8624536919108359e-05 0 -0.024739875609303921 -1.649187338906504e-06 0 -0.02279561926239226 -0.00039670779022255752 0 -0.024743374625266892 -1.9727972425022024e-07 0 -0.024722764578124567 -0.00033593711370274125 0 -0.025015758126502485 -0.00017419810415886502 0 -0.024722764578124567 -0.00033593711370274125 0 -0.022829467603109756 9.8624536919108359e-05 0 -0.022433163904342322 -7.3356185851502659e-06 0 -0.02279561926239226 -0.00039670779022255752 0 -0.0094367492936714044 3.2861610961361095e-05 0 -0.0097393554305057108 -0.00020622142607266945 0 -0.010206593854446538 2.857325795841583e-05 0 -0.0097240736619216735 8.0626575722799755e-07 0 -0.010206593854446538 2.857325795841583e-05 0 -0.01172946621660948 -1.2861657845881168e-06 0 -0.0094367492936714044 3.2861610961361095e-05 0 -0.0097240736619216735 8.0626575722799755e-07 0 -0.010206593854446538 2.857325795841583e-05 0 -0.0094367492936714044 3.2861610961361095e-05 0 -0.0097240736619216735 8.0626575722799755e-07 0 -0.0087602671160128265 0.00014665191956669837 0 -0.0094367492936714044 3.2861610961361095e-05 0 -0.0087602671160128265 0.00014665191956669837 0 -0.0088978977507791282 0.00020699628870538849 0 -0.0094218376186260121 -0.00042781356054434269 0 -0.0096568068683181157 -0.00016773844859944959 0 -0.0094367492936714044 3.2861610961361095e-05 0 -0.0088978977507791282 0.00020699628870538849 0 -0.0097393554305057108 -0.00020622142607266945 0 -0.0098943270120507801 -0.0011067992216537948 0 -0.010398374684896287 -0.00064615557702166334 0 -0.010700173030783036 -0.0011457290249740119 0 -0.010398374684896287 -0.00064615557702166334 0 -0.0097393554305057108 -0.00020622142607266945 0 -0.010258453186560927 -0.00021863496988227732 0 -0.010398374684896287 -0.00064615557702166334 0 -0.010258453186560927 -0.00021863496988227732 0 -0.010752187671912989 -0.00044288386521128015 0 -0.0098943270120507801 -0.0011067992216537948 0 -0.010398374684896287 -0.00064615557702166334 0 -0.0097393554305057108 -0.00020622142607266945 0 -0.0097393554305057108 -0.00020622142607266945 0 -0.0099707938949707194 -0.0001493266008616685 0 -0.010258453186560927 -0.00021863496988227732 0 -0.0099707938949707194 -0.0001493266008616685 0 -0.010258453186560927 -0.00021863496988227732 0 -0.010277943727320349 -2.0434886042377368e-05 0 -0.010258453186560927 -0.00021863496988227732 0 -0.01064478401181046 -8.5859746543541211e-05 0 -0.010752187671912989 -0.00044288386521128015 0 -0.010258453186560927 -0.00021863496988227732 0 -0.010277943727320349 -2.0434886042377368e-05 0 -0.01064478401181046 -8.5859746543541211e-05 0 -0.010277943727320349 -2.0434886042377368e-05 0 -0.010138158948092599 3.7164438674367609e-05 0 -0.010330011538318837 0.00017266033675319745 0 -0.010277943727320349 -2.0434886042377368e-05 0 -0.010609803139058722 0.00018975019305447069 0 -0.01064478401181046 -8.5859746543541211e-05 0 -0.010277943727320349 -2.0434886042377368e-05 0 -0.010330011538318837 0.00017266033675319745 0 -0.010609803139058722 0.00018975019305447069 0 -0.0099707938949707194 -0.0001493266008616685 0 -0.010074645076063201 -0.00033939819807105801 0 -0.010138158948092599 3.7164438674367609e-05 0 -0.0099707938949707194 -0.0001493266008616685 0 -0.010277943727320349 -2.0434886042377368e-05 0 -0.010138158948092599 3.7164438674367609e-05 0 -0.0099707938949707194 -0.0001493266008616685 0 -0.010074645076063201 -0.00033939819807105801 0 -0.010206593854446538 2.857325795841583e-05 0 -0.0097393554305057108 -0.00020622142607266945 0 -0.0099707938949707194 -0.0001493266008616685 0 -0.010206593854446538 2.857325795841583e-05 0 -0.010206593854446538 2.857325795841583e-05 0 -0.01172946621660948 -1.2861657845881168e-06 0 -0.011507700832704297 -0.00023748791582252511 0 -0.010074645076063201 -0.00033939819807105801 0 -0.010206593854446538 2.857325795841583e-05 0 -0.011507700832704297 -0.00023748791582252511 0 -0.011736184306827232 -3.7785188930982793e-06 0 -0.013069732932815608 -0.00044579390858283309 0 -0.011903067823678577 -4.7311602900636194e-07 0 -0.013692027902277653 -2.7058255249002277e-07 0 -0.014039461571886354 -0.00014041167292023706 0 -0.013069732932815608 -0.00044579390858283309 0 -0.015393363155049031 -0.00038092177824641034 0 -0.013569443988427656 -0.000705842055615038 0 -0.013069732932815608 -0.00044579390858283309 0 -0.016860607498953298 -0.0010155487445212582 0 -0.016118390135738143 -0.0014835651691074547 0 -0.016495622450129321 -0.00082281408590290973 0 -0.013692027902277653 -2.7058255249002277e-07 0 -0.014039461571886354 -0.00014041167292023706 0 -0.015886405520210912 -9.7563192088442511e-05 0 -0.016495622450129321 -0.00082281408590290973 0 -0.016886503660728414 -0.00065168426353231948 0 -0.016887751190276051 -0.00030321445144533836 0 -0.016860607498953298 -0.0010155487445212582 0 -0.016886503660728414 -0.00065168426353231948 0 -0.017395316362935637 -0.00060856059684744176 0 -0.016886503660728414 -0.00065168426353231948 0 -0.016887751190276051 -0.00030321445144533836 0 -0.017395316362935637 -0.00060856059684744176 0 -0.015393363155049031 -0.00038092177824641034 0 -0.016400093434238178 -0.00014298376347714054 0 -0.016860607498953298 -0.0010155487445212582 0 -0.016495622450129321 -0.00082281408590290973 0 -0.016886503660728414 -0.00065168426353231948 0 -0.013692027902277653 -2.7058255249002277e-07 0 -0.015886405520210912 -9.7563192088442511e-05 0 -0.015533714477366515 8.1768886371350605e-08 0 -0.015886405520210912 -9.7563192088442511e-05 0 -0.015533714477366515 8.1768886371350605e-08 0 -0.016976459332775713 2.7962877060285703e-05 0 -0.015886405520210912 -9.7563192088442511e-05 0 -0.017270778648972751 7.5240860171310403e-06 0 -0.016976459332775713 2.7962877060285703e-05 0 -0.016400093434238178 -0.00014298376347714054 0 -0.017138953965656671 8.6576546114224852e-05 0 -0.018402300749497304 0.00015968670496091457 0 -0.017805489090410423 -5.3527024868788057e-05 0 -0.018420821441965756 -0.00025993613551230569 0 -0.017270778648972751 7.5240860171310403e-06 0 -0.017805489090410423 -5.3527024868788057e-05 0 -0.016976459332775713 2.7962877060285703e-05 0 -0.017867949790311664 4.3286722340324401e-05 0 -0.017805489090410423 -5.3527024868788057e-05 0 -0.016976459332775713 2.7962877060285703e-05 0 -0.017867949790311664 4.3286722340324401e-05 0 -0.017375498761719826 1.3754044113260614e-07 0 -0.016976459332775713 2.7962877060285703e-05 0 -0.015533714477366515 8.1768886371350605e-08 0 -0.017375498761719826 1.3754044113260614e-07 0 -0.016976459332775713 2.7962877060285703e-05 0 -0.019351127057331118 0.00092006197224412517 0 -0.019976772348936883 0.0011951951146295671 0 -0.019164657498469576 0.0016690739210777675 0 -0.019351127057331118 0.00092006197224412517 0 -0.019164657498469576 0.0016690739210777675 0 -0.018769440801165597 0.0010099520431413361 0 -0.018866231434622516 0.00035143196071830827 0 -0.019351127057331118 0.00092006197224412517 0 -0.018769440801165597 0.0010099520431413361 0 -0.019868705834124614 0.00050811317052340652 0 -0.019351127057331118 0.00092006197224412517 0 -0.019976772348936883 0.0011951951146295671 0 -0.017270778648972751 7.5240860171310403e-06 0 -0.017805489090410423 -5.3527024868788057e-05 0 -0.017244166046697318 -1.4944005471755583e-05 0 -0.017832886513892539 -9.1925038724500343e-05 0 -0.017726518141215838 7.7570855822686174e-05 0 -0.017270778648972751 7.5240860171310403e-06 0 -0.017244166046697318 -1.4944005471755583e-05 0 -0.017352492621351384 -0.00017683960969283708 0 -0.016887751190276051 -0.00030321445144533836 0 -0.017270778648972751 7.5240860171310403e-06 0 -0.017352492621351384 -0.00017683960969283708 0 -0.017726518141215838 7.7570855822686174e-05 0 -0.016630256038852612 -0.00016954539095660799 0 -0.015894146214396297 -0.00044626821602270232 0 -0.015437867073436765 -0.00022214955025611806 0 -0.015815903094233509 2.9721074364763244e-05 0 -0.017726518141215838 7.7570855822686174e-05 0 -0.017611032755186953 0.00062111116062617375 0 -0.015437867073436765 -0.00022214955025611806 0 -0.01536737948025387 0.00024980612420776532 0 -0.015815903094233509 2.9721074364763244e-05 0 -0.01536737948025387 0.00024980612420776532 0 -0.015815903094233509 2.9721074364763244e-05 0 -0.015738976940080671 0.00049194818540791079 0 -0.012607346163566447 0.00029239622112697784 0 -0.014134318579277954 -2.3009440916229586e-05 0 -0.016630256038852612 -0.00016954539095660799 0 -0.014134318579277954 -2.3009440916229586e-05 0 -0.016887751190276051 -0.00030321445144533836 0 -0.017352492621351384 -0.00017683960969283708 0 -0.017395316362935637 -0.00060856059684744176 0 -0.010074645076063201 -0.00033939819807105801 0 -0.010168903170905182 0.00035901007013483088 0 -0.010138158948092599 3.7164438674367609e-05 0 -0.013569443988427656 -0.000705842055615038 0 -0.014134318579277954 -2.3009440916229586e-05 0 -0.010168903170905182 0.00035901007013483088 0 -0.010138158948092599 3.7164438674367609e-05 0 -0.010330011538318837 0.00017266033675319745 0 -0.010585616879646334 0.00076472751239056388 0 -0.010168903170905182 0.00035901007013483088 0 -0.010458257893756451 0.00044011168856220517 0 -0.010168903170905182 0.00035901007013483088 0 -0.010458257893756451 0.00044011168856220517 0 -0.010330011538318837 0.00017266033675319745 0 -0.010458257893756451 0.00044011168856220517 0 -0.010330011538318837 0.00017266033675319745 0 -0.010609803139058722 0.00018975019305447069 0 -0.010458257893756451 0.00044011168856220517 0 -0.01095577472914796 0.00055244605036194525 0 -0.010609803139058722 0.00018975019305447069 0 -0.01095577472914796 0.00055244605036194525 0 -0.01107205572630004 0.00014197635927267277 0 -0.010609803139058722 0.00018975019305447069 0 -0.010585616879646334 0.00076472751239056388 0 -0.010458257893756451 0.00044011168856220517 0 -0.01095577472914796 0.00055244605036194525 0 -0.01095577472914796 0.00055244605036194525 0 -0.011503412637624333 0.00044393406053344452 0 -0.01107205572630004 0.00014197635927267277 0 -0.012104069830502209 0.0014636286625784075 0 -0.011604552522244458 0.00050111194197249734 0 -0.01095577472914796 0.00055244605036194525 0 -0.011449132648233796 0.00086155257669506553 0 -0.011503412637624333 0.00044393406053344452 0 -0.01095577472914796 0.00055244605036194525 0 -0.011449132648233796 0.00086155257669506553 0 -0.011021479854488201 0.0010678685114817832 0 -0.012104069830502209 0.0014636286625784075 0 -0.01471760505906403 0.0010536027559683936 0 -0.010585616879646334 0.00076472751239056388 0 -0.01095577472914796 0.00055244605036194525 0 -0.011021479854488201 0.0010678685114817832 0 -0.012607346163566447 0.00029239622112697784 0 -0.01471760505906403 0.0010536027559683936 0 -0.019164657498469576 0.0016690739210777675 0 -0.018494668783268803 0.0015251449899515231 0 -0.018294520854698668 0.0021081971511240439 0 -0.017611032755186953 0.00062111116062617375 0 -0.01471760505906403 0.0010536027559683936 0 -0.015437867073436765 -0.00022214955025611806 0 -0.01536737948025387 0.00024980612420776532 0 -0.014987507035081468 5.7554925651200316e-06 0 -0.019164657498469576 0.0016690739210777675 0 -0.018494668783268803 0.0015251449899515231 0 -0.018769440801165597 0.0010099520431413361 0 -0.011899065377069045 0.0013378202316441162 0 -0.011803472976689058 0.0020300799841897238 0 -0.01219212857168309 0.0016329889879034677 0 -0.01471760505906403 0.0010536027559683936 0 -0.014912408370319489 0.0018491895354835598 0 -0.013711308377694685 0.0017011567585916401 0 -0.014196627137338647 0.0014593189607409029 0 -0.013787414786283977 0.0011908382103619423 0 -0.018494668783268803 0.0015251449899515231 0 -0.018294520854698668 0.0021081971511240439 0 -0.017638476706194835 0.0016738476426227022 0 -0.012104069830502209 0.0014636286625784075 0 -0.014912408370319489 0.0018491895354835598 0 -0.016123578719984242 0.0009994481159937361 0 -0.016456386469982789 0.0010224399159304441 0 -0.016251312583799742 0.0024386185207238681 0 -0.018828051219727464 0.00077115422051334274 0 -0.014912408370319489 0.0018491895354835598 0 -0.018494668783268803 0.0015251449899515231 0 -0.017638476706194835 0.0016738476426227022 0 -0.018253141710640613 0.00098679595663163605 0 -0.017851020344862082 0.00026973334337501991 0 -0.017638476706194835 0.0016738476426227022 0 -0.018253141710640613 0.00098679595663163605 0 -0.01842681064309323 0.00062704983088230672 0 -0.018253141710640613 0.00098679595663163605 0 -0.018769440801165597 0.0010099520431413361 0 -0.018866231434622516 0.00035143196071830827 0 -0.01842681064309323 0.00062704983088230672 0 -0.018769440801165597 0.0010099520431413361 0 -0.018494668783268803 0.0015251449899515231 0 -0.018253141710640613 0.00098679595663163605 0 -0.018769440801165597 0.0010099520431413361 0 -0.012959255892018982 0.0024093019091953375 0 -0.01282643185355159 0.0026950879188713953 0 -0.012678550859006051 0.002145329279605283 0 -0.012959255892018982 0.0024093019091953375 0 -0.013271813385723899 0.0024081408978680998 0 -0.012898732572432754 0.0026484331225777439 0 -0.012959255892018982 0.0024093019091953375 0 -0.012898732572432754 0.0026484331225777439 0 -0.01282643185355159 0.0026950879188713953 0 -0.013271813385723899 0.0024081408978680998 0 -0.012898732572432754 0.0026484331225777439 0 -0.013598938323522627 0.002696192546814428 0 -0.012959255892018982 0.0024093019091953375 0 -0.013271813385723899 0.0024081408978680998 0 -0.013074220425484671 0.002161337457218354 0 -0.013569353889219257 0.003091167337549171 0 -0.012898732572432754 0.0026484331225777439 0 -0.013598938323522627 0.002696192546814428 0 -0.013569353889219257 0.003091167337549171 0 -0.012898732572432754 0.0026484331225777439 0 -0.01282615350202242 0.0027032183477776182 0 -0.014350280653757274 0.0029090841818684111 0 -0.014274339174141126 0.0023219360986137063 0 -0.014137150310911457 0.002401539477236665 0 -0.014274339174141126 0.0023219360986137063 0 -0.011803472976689058 0.0020300799841897238 0 -0.01282643185355159 0.0026950879188713953 0 -0.012678550859006051 0.002145329279605283 0 -0.014912408370319489 0.0018491895354835598 0 -0.014274339174141126 0.0023219360986137063 0 -0.016123578719984242 0.0009994481159937361 0 -0.016251312583799742 0.0024386185207238681 0 -0.015146592397898369 0.0017126735109387259 0 -0.011803472976689058 0.0020300799841897238 0 -0.01248815673776609 0.0018096226903449183 0 -0.012678550859006051 0.002145329279605283 0 -0.011803472976689058 0.0020300799841897238 0 -0.01219212857168309 0.0016329889879034677 0 -0.01248815673776609 0.0018096226903449183 0 -0.01219212857168309 0.0016329889879034677 0 -0.01248815673776609 0.0018096226903449183 0 -0.012507784902683361 0.0014464316744784529 0 -0.01248815673776609 0.0018096226903449183 0 -0.012960080773290094 0.0017820285661821226 0 -0.012678550859006051 0.002145329279605283 0 -0.01248815673776609 0.0018096226903449183 0 -0.012960080773290094 0.0017820285661821226 0 -0.012507784902683361 0.0014464316744784529 0 -0.012959255892018982 0.0024093019091953375 0 -0.012678550859006051 0.002145329279605283 0 -0.013074220425484671 0.002161337457218354 0 -0.012960080773290094 0.0017820285661821226 0 -0.012678550859006051 0.002145329279605283 0 -0.013074220425484671 0.002161337457218354 0 -0.012960080773290094 0.0017820285661821226 0 -0.013074220425484671 0.002161337457218354 0 -0.013428482942241611 0.0020726421217865123 0 -0.013271813385723899 0.0024081408978680998 0 -0.013074220425484671 0.002161337457218354 0 -0.013428482942241611 0.0020726421217865123 0 -0.012960080773290094 0.0017820285661821226 0 -0.01345227812772686 0.0016814360262712149 0 -0.013428482942241611 0.0020726421217865123 0 -0.012960080773290094 0.0017820285661821226 0 -0.012949836176132237 0.0012999299153868109 0 -0.01345227812772686 0.0016814360262712149 0 -0.012949836176132237 0.0012999299153868109 0 -0.013422945987076733 0.0012820815849475295 0 -0.01345227812772686 0.0016814360262712149 0 -0.012960080773290094 0.0017820285661821226 0 -0.012949836176132237 0.0012999299153868109 0 -0.012507784902683361 0.0014464316744784529 0 -0.012949836176132237 0.0012999299153868109 0 -0.012507784902683361 0.0014464316744784529 0 -0.012383934136287052 0.0010499397851538611 0 -0.012949836176132237 0.0012999299153868109 0 -0.012383934136287052 0.0010499397851538611 0 -0.012807221754687808 0.00091157315128608625 0 -0.012949836176132237 0.0012999299153868109 0 -0.013294019881134357 0.00082949076387686769 0 -0.013422945987076733 0.0012820815849475295 0 -0.012949836176132237 0.0012999299153868109 0 -0.012807221754687808 0.00091157315128608625 0 -0.013294019881134357 0.00082949076387686769 0 -0.01159343365742457 0.0014668327032975939 0 -0.012383934136287052 0.0010499397851538611 0 -0.011681215947515488 0.00065885231004965612 0 -0.011899065377069045 0.0013378202316441162 0 -0.01219212857168309 0.0016329889879034677 0 -0.012507784902683361 0.0014464316744784529 0 -0.011899065377069045 0.0013378202316441162 0 -0.012507784902683361 0.0014464316744784529 0 -0.012383934136287052 0.0010499397851538611 0 -0.012104069830502209 0.0014636286625784075 0 -0.012231094688473849 0.0011389454886038433 0 -0.012383934136287052 0.0010499397851538611 0 -0.011681215947515488 0.00065885231004965612 0 -0.012044388684490709 0.00037176548250011059 0 -0.012383934136287052 0.0010499397851538611 0 -0.012044388684490709 0.00037176548250011059 0 -0.012613062732254323 0.00045407850484909657 0 -0.012613062732254323 0.00045407850484909657 0 -0.01340306205141027 0.00035909302641496131 0 -0.013294019881134357 0.00082949076387686769 0 -0.012807221754687808 0.00091157315128608625 0 -0.012613062732254323 0.00045407850484909657 0 -0.013294019881134357 0.00082949076387686769 0 -0.012383934136287052 0.0010499397851538611 0 -0.012807221754687808 0.00091157315128608625 0 -0.012613062732254323 0.00045407850484909657 0 -0.012613062732254323 0.00045407850484909657 0 -0.013105184939431309 -0.00019490290538302967 0 -0.01340306205141027 0.00035909302641496131 0 -0.012613062732254323 0.00045407850484909657 0 -0.012232845169001574 -7.6894291772474589e-05 0 -0.013105184939431309 -0.00019490290538302967 0 -0.012043238470184566 -0.00050814456511874626 0 -0.012201862008698442 -0.00064977510400078791 0 -0.012299449713625578 -0.00045875396918959046 0 -0.012232845169001574 -7.6894291772474589e-05 0 -0.012043238470184566 -0.00050814456511874626 0 -0.013105184939431309 -0.00019490290538302967 0 -0.012147519970177033 -0.00048723896880262452 0 -0.01267422457373928 -0.0001982684727974402 0 -0.012043238470184566 -0.00050814456511874626 0 -0.012299449713625578 -0.00045875396918959046 0 -0.0122713436148913 -0.0002404036809197344 0 -0.012043238470184566 -0.00050814456511874626 0 -0.011636921154935174 -0.00039350362199059658 0 -0.011648080601820345 -0.00072373044158380426 0 -0.012232845169001574 -7.6894291772474589e-05 0 -0.012043238470184566 -0.00050814456511874626 0 -0.011636921154935174 -0.00039350362199059658 0 -0.011681215947515488 0.00065885231004965612 0 -0.012044388684490709 0.00037176548250011059 0 -0.011634545261961738 1.5300345399097228e-05 0 -0.011604552522244458 0.00050111194197249734 0 -0.011636421970394936 7.6559713655484205e-05 0 -0.012232845169001574 -7.6894291772474589e-05 0 -0.011636921154935174 -0.00039350362199059658 0 -0.011634545261961738 1.5300345399097228e-05 0 -0.012044388684490709 0.00037176548250011059 0 -0.012613062732254323 0.00045407850484909657 0 -0.012232845169001574 -7.6894291772474589e-05 0 -0.012044388684490709 0.00037176548250011059 0 -0.012232845169001574 -7.6894291772474589e-05 0 -0.011634545261961738 1.5300345399097228e-05 0 -0.011634545261961738 1.5300345399097228e-05 0 -0.01107205572630004 0.00014197635927267277 0 -0.011142250969586249 -0.00025177676798896452 0 -0.011503412637624333 0.00044393406053344452 0 -0.011634545261961738 1.5300345399097228e-05 0 -0.01107205572630004 0.00014197635927267277 0 -0.01107205572630004 0.00014197635927267277 0 -0.010609803139058722 0.00018975019305447069 0 -0.01064478401181046 -8.5859746543541211e-05 0 -0.01107205572630004 0.00014197635927267277 0 -0.01064478401181046 -8.5859746543541211e-05 0 -0.011142250969586249 -0.00025177676798896452 0 -0.01064478401181046 -8.5859746543541211e-05 0 -0.010752187671912989 -0.00044288386521128015 0 -0.011142250969586249 -0.00025177676798896452 0 -0.010752187671912989 -0.00044288386521128015 0 -0.011142250969586249 -0.00025177676798896452 0 -0.011248403861708264 -0.00060931017750584971 0 -0.011636921154935174 -0.00039350362199059658 0 -0.011634545261961738 1.5300345399097228e-05 0 -0.011142250969586249 -0.00025177676798896452 0 -0.011636921154935174 -0.00039350362199059658 0 -0.011142250969586249 -0.00025177676798896452 0 -0.011248403861708264 -0.00060931017750584971 0 -0.011248403861708264 -0.00060931017750584971 0 -0.010945593296816382 -0.00081705811534966608 0 -0.011319360345615388 -0.00095630217161767105 0 -0.011248403861708264 -0.00060931017750584971 0 -0.011319360345615388 -0.00095630217161767105 0 -0.011648080601820345 -0.00072373044158380426 0 -0.010398374684896287 -0.00064615557702166334 0 -0.010752187671912989 -0.00044288386521128015 0 -0.010945593296816382 -0.00081705811534966608 0 -0.010752187671912989 -0.00044288386521128015 0 -0.011248403861708264 -0.00060931017750584971 0 -0.010945593296816382 -0.00081705811534966608 0 -0.010398374684896287 -0.00064615557702166334 0 -0.010945593296816382 -0.00081705811534966608 0 -0.010700173030783036 -0.0011457290249740119 0 -0.010945593296816382 -0.00081705811534966608 0 -0.010700173030783036 -0.0011457290249740119 0 -0.011067809790547372 -0.0011979474253974213 0 -0.011067809790547372 -0.0011979474253974213 0 -0.011319360345615388 -0.00095630217161767105 0 -0.011321213154065684 -0.0013277564589810058 0 -0.010945593296816382 -0.00081705811534966608 0 -0.011067809790547372 -0.0011979474253974213 0 -0.011319360345615388 -0.00095630217161767105 0 -0.011319360345615388 -0.00095630217161767105 0 -0.011651487617506118 -0.0010517536448135135 0 -0.011648080601820345 -0.00072373044158380426 0 -0.011319360345615388 -0.00095630217161767105 0 -0.011651487617506118 -0.0010517536448135135 0 -0.011321213154065684 -0.0013277564589810058 0 -0.011651487617506118 -0.0010517536448135135 0 -0.011620210510857491 -0.0013107913295528695 0 -0.011321213154065684 -0.0013277564589810058 0 -0.011651487617506118 -0.0010517536448135135 0 -0.011919398752065803 -0.0012794698535434537 0 -0.011620210510857491 -0.0013107913295528695 0 -0.011651487617506118 -0.0010517536448135135 0 -0.011967290418538857 -0.00084319926152445941 0 -0.011919398752065803 -0.0012794698535434537 0 -0.011967290418538857 -0.00084319926152445941 0 -0.012218975001110164 -0.00098825883400989814 0 -0.011919398752065803 -0.0012794698535434537 0 -0.012218975001110164 -0.00098825883400989814 0 -0.01215588339626732 -0.0012919326186164408 0 -0.011919398752065803 -0.0012794698535434537 0 -0.012201862008698442 -0.00064977510400078791 0 -0.011967290418538857 -0.00084319926152445941 0 -0.012218975001110164 -0.00098825883400989814 0 -0.012043238470184566 -0.00050814456511874626 0 -0.012201862008698442 -0.00064977510400078791 0 -0.011967290418538857 -0.00084319926152445941 0 -0.011651487617506118 -0.0010517536448135135 0 -0.011967290418538857 -0.00084319926152445941 0 -0.011648080601820345 -0.00072373044158380426 0 -0.012043238470184566 -0.00050814456511874626 0 -0.011967290418538857 -0.00084319926152445941 0 -0.011648080601820345 -0.00072373044158380426 0 -0.011636921154935174 -0.00039350362199059658 0 -0.011248403861708264 -0.00060931017750584971 0 -0.011648080601820345 -0.00072373044158380426 0 -0.014713401272251335 -0.0014614341755923687 0 -0.015172922079261244 -0.00072481956696628048 0 -0.012599723439950245 -0.00085134954469250112 0 -0.012870888537361225 -0.00075543541149586987 0 -0.012588452727927229 -0.0002891769368612961 0 -0.012932904538219313 -0.00081047459970506571 0 -0.012870888537361225 -0.00075543541149586987 0 -0.012947924106926446 -0.00018456984531544705 0 -0.012599723439950245 -0.00085134954469250112 0 -0.012932986731260506 -0.00081172887594475657 0 -0.012870888537361225 -0.00075543541149586987 0 -0.014713401272251335 -0.0014614341755923687 0 -0.014263549613833464 -0.0011450173275154307 0 -0.012201862008698442 -0.00064977510400078791 0 -0.012218975001110164 -0.00098825883400989814 0 -0.012532443477502172 -0.00049710504248676819 0 -0.01231920009348661 -0.00092819904871128977 0 -0.012310589335981934 -0.00044261822845979241 0 -0.012599723439950245 -0.00085134954469250112 0 -0.012218975001110164 -0.00098825883400989814 0 -0.012588452727927229 -0.0002891769368612961 0 -0.012599723439950245 -0.00085134954469250112 0 -0.012218975001110164 -0.00098825883400989814 0 -0.012473765209513765 -0.0012477904836156193 0 -0.012218975001110164 -0.00098825883400989814 0 -0.012473765209513765 -0.0012477904836156193 0 -0.01215588339626732 -0.0012919326186164408 0 -0.012599723439950245 -0.00085134954469250112 0 -0.012932986731260506 -0.00081172887594475657 0 -0.012473765209513765 -0.0012477904836156193 0 -0.014713401272251335 -0.0014614341755923687 0 -0.010103113309161096 0.002201622641361348 0 -0.012283794692588267 -0.00074038894298871199 0 -0.011908840972073034 -0.0011595084831411118 0 -0.012265506420129357 -0.0011923343518460898 0 -0.014713401272251335 -0.0014614341755923687 0 -0.011938259505695922 -0.0012209189721396857 0 -0.018141076277490769 0.00019765130006417595 0 -0.017884873116923161 -5.2117952472340734e-05 0 -0.018848982722441055 -0.0008981668902394845 0 -0.013843736808341086 -9.7762490077634483e-05 0 -0.01321375355358583 0.00046766691213252174 0 -0.013810194073752098 0.0010874034024013336 0 -0.017001682343463345 0.00089105799788632306 0 -0.010103113309161096 0.002201622641361348 0 -0.017001682343463345 0.00089105799788632306 0 -0.018605738770197638 0.0015903604020587314 0 -0.017869044139811475 -0.00091457071172633636 0 -0.017001682343463345 0.00089105799788632306 0 -0.017869044139811475 -0.00091457071172633636 0 -0.017797242983078422 -0.0014433746179120252 0 -0.018245240045077236 -0.002442390204097851 0 -0.018130168836154526 -0.0023059450425147463 0 -0.018416615590200778 -0.0022887878193168449 0 -0.018245240045077236 -0.002442390204097851 0 -0.018067119619755601 -0.0026070625336584293 0 -0.018130168836154526 -0.0023059450425147463 0 -0.017616274799604408 -0.0022188733432887504 0 -0.018067119619755601 -0.0026070625336584293 0 -0.018130168836154526 -0.0023059450425147463 0 -0.014713401272251335 -0.0014614341755923687 0 -0.017001682343463345 0.00089105799788632306 0 -0.017869044139811475 -0.00091457071172633636 0 -0.019874751107313734 -0.0017453191671284356 0 -0.018141076277490769 0.00019765130006417595 0 -0.01966348797551928 0.00043116878795355484 0 -0.018848982722441055 -0.0008981668902394845 0 -0.01825092849825026 -0.0024492262031375178 0 -0.018416615590200778 -0.0022887878193168449 0 -0.019311664788868515 -0.0022858645646121876 0 -0.018735416319132014 -0.0017591256101659094 0 -0.018416615590200778 -0.0022887878193168449 0 -0.019311664788868515 -0.0022858645646121876 0 -0.018735416319132014 -0.0017591256101659094 0 -0.018971693455655608 -0.0015852531639422196 0 -0.019311664788868515 -0.0022858645646121876 0 -0.018735416319132014 -0.0017591256101659094 0 -0.018416615590200778 -0.0022887878193168449 0 -0.018317889136155684 -0.0019972759362978146 0 -0.018456654665901691 -0.0016940124415418256 0 -0.018735416319132014 -0.0017591256101659094 0 -0.018317889136155684 -0.0019972759362978146 0 -0.017616274799604408 -0.0022188733432887504 0 -0.018149202617384837 -0.0018551901221595772 0 -0.018371229182188857 -0.0013014881333662349 0 -0.014713401272251335 -0.0014614341755923687 0 -0.019129665873370311 -0.0014758032906335976 0 -0.017616274799604408 -0.0022188733432887504 0 -0.017992667842474528 -0.0020993333295684894 0 -0.018130168836154526 -0.0023059450425147463 0 -0.017616274799604408 -0.0022188733432887504 0 -0.017992667842474528 -0.0020993333295684894 0 -0.018149202617384837 -0.0018551901221595772 0 -0.018130168836154526 -0.0023059450425147463 0 -0.018416615590200778 -0.0022887878193168449 0 -0.018317889136155684 -0.0019972759362978146 0 -0.017992667842474528 -0.0020993333295684894 0 -0.018130168836154526 -0.0023059450425147463 0 -0.018317889136155684 -0.0019972759362978146 0 -0.017992667842474528 -0.0020993333295684894 0 -0.018317889136155684 -0.0019972759362978146 0 -0.018149202617384837 -0.0018551901221595772 0 -0.018456654665901691 -0.0016940124415418256 0 -0.018317889136155684 -0.0019972759362978146 0 -0.018149202617384837 -0.0018551901221595772 0 -0.018371229182188857 -0.0013014881333662349 0 -0.017871777220330919 -0.00082300677695265547 0 -0.017230158906615001 -0.0011973315426234384 0 -0.01721963548649446 -0.002657583730220956 0 -0.018371229182188857 -0.0013014881333662349 0 -0.017230158906615001 -0.0011973315426234384 0 -0.018456654665901691 -0.0016940124415418256 0 -0.018149202617384837 -0.0018551901221595772 0 -0.018371229182188857 -0.0013014881333662349 0 -0.018371229182188857 -0.0013014881333662349 0 -0.017871777220330919 -0.00082300677695265547 0 -0.018396751345847867 -0.00083533475977586795 0 -0.019197540999078583 -0.0016352549984356888 0 -0.018894264444390744 -0.0012037866426870187 0 -0.018735416319132014 -0.0017591256101659094 0 -0.018971693455655608 -0.0015852531639422196 0 -0.018633999217360812 -0.0015144883151776026 0 -0.018456654665901691 -0.0016940124415418256 0 -0.018371229182188857 -0.0013014881333662349 0 -0.018633999217360812 -0.0015144883151776026 0 -0.018971693455655608 -0.0015852531639422196 0 -0.018633999217360812 -0.0015144883151776026 0 -0.018812964759361707 -0.0010886424417359708 0 -0.018456654665901691 -0.0016940124415418256 0 -0.018735416319132014 -0.0017591256101659094 0 -0.018633999217360812 -0.0015144883151776026 0 -0.018371229182188857 -0.0013014881333662349 0 -0.018633999217360812 -0.0015144883151776026 0 -0.018812964759361707 -0.0010886424417359708 0 -0.018371229182188857 -0.0013014881333662349 0 -0.018812964759361707 -0.0010886424417359708 0 -0.018396751345847867 -0.00083533475977586795 0 -0.019236455227837981 -0.0018749705277548258 0 -0.018812964759361707 -0.0010886424417359708 0 -0.019396656216796298 -0.0012124971281183992 0 -0.018812964759361707 -0.0010886424417359708 0 -0.019396656216796298 -0.0012124971281183992 0 -0.019216312703504292 -0.00074233425620694063 0 -0.019216312703504292 -0.00074233425620694063 0 -0.018921219013942218 -0.0003105990315768845 0 -0.019750220212471203 -0.00027224771559692632 0 -0.018812964759361707 -0.0010886424417359708 0 -0.019216312703504292 -0.00074233425620694063 0 -0.018921219013942218 -0.0003105990315768845 0 -0.018812964759361707 -0.0010886424417359708 0 -0.018921219013942218 -0.0003105990315768845 0 -0.018396751345847867 -0.00083533475977586795 0 -0.018921219013942218 -0.0003105990315768845 0 -0.018396751345847867 -0.00083533475977586795 0 -0.018160091774610438 -0.00038776932096336731 0 -0.018509948190781243 -4.0014399701060674e-05 0 -0.018921219013942218 -0.0003105990315768845 0 -0.018160091774610438 -0.00038776932096336731 0 -0.018509948190781243 -4.0014399701060674e-05 0 -0.018921219013942218 -0.0003105990315768845 0 -0.018699110333306481 0.00041646211534665669 0 -0.018921219013942218 -0.0003105990315768845 0 -0.019297544713667476 0.00025953291855879769 0 -0.019750220212471203 -0.00027224771559692632 0 -0.01770751435848909 -0.00039601117525984688 0 -0.017871777220330919 -0.00082300677695265547 0 -0.017230158906615001 -0.0011973315426234384 0 -0.01770751435848909 -0.00039601117525984688 0 -0.017871777220330919 -0.00082300677695265547 0 -0.018160091774610438 -0.00038776932096336731 0 -0.017871777220330919 -0.00082300677695265547 0 -0.018396751345847867 -0.00083533475977586795 0 -0.018160091774610438 -0.00038776932096336731 0 -0.018509948190781243 -4.0014399701060674e-05 0 -0.018160091774610438 -0.00038776932096336731 0 -0.018059029453497636 0.00023736791346112233 0 -0.01770751435848909 -0.00039601117525984688 0 -0.018160091774610438 -0.00038776932096336731 0 -0.018059029453497636 0.00023736791346112233 0 -0.01770751435848909 -0.00039601117525984688 0 -0.017217322524675786 0.00019568059066582227 0 -0.018059029453497636 0.00023736791346112233 0 -0.012532443477502172 -0.00049710504248676819 0 -0.012508630784211024 -0.00021888465984311596 0 -0.012849857317978724 6.5739998293314173e-05 0 -0.012947924106926446 -0.00018456984531544705 0 -0.012588452727927229 -0.0002891769368612961 0 -0.012968216944349603 0.00042343299870457993 0 -0.012310589335981934 -0.00044261822845979241 0 -0.014433524684648643 0.00019317593506394125 0 -0.01770751435848909 -0.00039601117525984688 0 -0.017230158906615001 -0.0011973315426234384 0 -0.017217322524675786 0.00019568059066582227 0 -0.015172922079261244 -0.00072481956696628048 0 -0.014433524684648643 0.00019317593506394125 0 -0.012508630784211024 -0.00021888465984311596 0 -0.012849857317978724 6.5739998293314173e-05 0 -0.012626254875980682 7.011214014602507e-05 0 -0.012870888537361225 -0.00075543541149586987 0 -0.012947924106926446 -0.00018456984531544705 0 -0.012588452727927229 -0.0002891769368612961 0 -0.012201862008698442 -0.00064977510400078791 0 -0.012532443477502172 -0.00049710504248676819 0 -0.012299449713625578 -0.00045875396918959046 0 -0.012532443477502172 -0.00049710504248676819 0 -0.012299449713625578 -0.00045875396918959046 0 -0.012508630784211024 -0.00021888465984311596 0 -0.012299449713625578 -0.00045875396918959046 0 -0.0122713436148913 -0.0002404036809197344 0 -0.012508630784211024 -0.00021888465984311596 0 -0.0122713436148913 -0.0002404036809197344 0 -0.012508630784211024 -0.00021888465984311596 0 -0.012626254875980682 7.011214014602507e-05 0 -0.01267422457373928 -0.0001982684727974402 0 -0.01349208305774402 0.00012369324736454977 0 -0.013105184939431309 -0.00019490290538302967 0 -0.01340306205141027 0.00035909302641496131 0 -0.014054969070229111 0.00032661605442633828 0 -0.01340306205141027 0.00035909302641496131 0 -0.013646789203619811 0.0005784243438805625 0 -0.013294019881134357 0.00082949076387686769 0 -0.01340306205141027 0.00035909302641496131 0 -0.013646789203619811 0.0005784243438805625 0 -0.014054969070229111 0.00032661605442633828 0 -0.013646789203619811 0.0005784243438805625 0 -0.013852003081395925 0.00078696308061920533 0 -0.014054969070229111 0.00032661605442633828 0 -0.013646789203619811 0.0005784243438805625 0 -0.013852003081395925 0.00078696308061920533 0 -0.013294019881134357 0.00082949076387686769 0 -0.013852003081395925 0.00078696308061920533 0 -0.013294019881134357 0.00082949076387686769 0 -0.013619894247209705 0.0010272346809327348 0 -0.0137058095188011 9.0881386835763586e-06 0 -0.014391522922891819 0.00074128216643855088 0 -0.014392791428532711 0.00057284975730598708 0 -0.014433524684648643 0.00019317593506394125 0 -0.014519650152612515 0.00047924380203089072 0 -0.012849857317978724 6.5739998293314173e-05 0 -0.012626254875980682 7.011214014602507e-05 0 -0.012855050532890282 0.00025353640420632684 0 -0.01349208305774402 0.00012369324736454977 0 -0.014618842977643409 0.00067175589154735071 0 -0.01349208305774402 0.00012369324736454977 0 -0.014519650152612515 0.00047924380203089072 0 -0.013852003081395925 0.00078696308061920533 0 -0.014554001925130003 0.0007686108733797254 0 -0.014230978712744714 0.0010833333674585153 0 -0.013852003081395925 0.00078696308061920533 0 -0.014054969070229111 0.00032661605442633828 0 -0.014554001925130003 0.0007686108733797254 0 -0.015123925379056198 -8.4876335279746964e-05 0 -0.015121130886679875 0.00066336498713042715 0 -0.015725175669450385 0.0011570959912104554 0 -0.014433524684648643 0.00019317593506394125 0 -0.016706909849281221 0.0011132391156956024 0 -0.015524587283408216 0.00046409530373212662 0 -0.015525312798128153 0.000260585931088818 0 -0.016081661681061614 0.00071080919670324578 0 -0.014519650152612515 0.00047924380203089072 0 -0.016706909849281221 0.0011132391156956024 0 -0.014618842977643409 0.00067175589154735071 0 -0.014519650152612515 0.00047924380203089072 0 -0.01463646359656854 0.0006404690924836573 0 -0.014626993667332892 0.0013133769581888267 0 -0.015162204129447262 0.0012013251302890491 0 -0.014618842977643409 0.00067175589154735071 0 -0.014614780027223781 0.0012197288538564749 0 -0.014554001925130003 0.0007686108733797254 0 -0.014230978712744714 0.0010833333674585153 0 -0.014626993667332892 0.0013133769581888267 0 -0.014230978712744714 0.0010833333674585153 0 -0.014366498848495949 0.001514510076464147 0 -0.013898655825399286 0.0012454566330215014 0 -0.014230978712744714 0.0010833333674585153 0 -0.014366498848495949 0.001514510076464147 0 -0.014626993667332892 0.0013133769581888267 0 -0.014366498848495949 0.001514510076464147 0 -0.014626993667332892 0.0013133769581888267 0 -0.014965228972461988 0.0015545382658602007 0 -0.013422945987076733 0.0012820815849475295 0 -0.013619894247209705 0.0010272346809327348 0 -0.013898655825399286 0.0012454566330215014 0 -0.013294019881134357 0.00082949076387686769 0 -0.013422945987076733 0.0012820815849475295 0 -0.013619894247209705 0.0010272346809327348 0 -0.013852003081395925 0.00078696308061920533 0 -0.013619894247209705 0.0010272346809327348 0 -0.013898655825399286 0.0012454566330215014 0 -0.013852003081395925 0.00078696308061920533 0 -0.014230978712744714 0.0010833333674585153 0 -0.013898655825399286 0.0012454566330215014 0 -0.013422945987076733 0.0012820815849475295 0 -0.013898655825399286 0.0012454566330215014 0 -0.013859561511792632 0.0016031999291842812 0 -0.014366498848495949 0.001514510076464147 0 -0.013898655825399286 0.0012454566330215014 0 -0.013859561511792632 0.0016031999291842812 0 -0.013422945987076733 0.0012820815849475295 0 -0.013859561511792632 0.0016031999291842812 0 -0.01345227812772686 0.0016814360262712149 0 -0.01345227812772686 0.0016814360262712149 0 -0.013428482942241611 0.0020726421217865123 0 -0.013786525336894798 0.0019795030858025583 0 -0.013859561511792632 0.0016031999291842812 0 -0.01345227812772686 0.0016814360262712149 0 -0.013786525336894798 0.0019795030858025583 0 -0.013428482942241611 0.0020726421217865123 0 -0.013786525336894798 0.0019795030858025583 0 -0.013682835328396111 0.002348615038143884 0 -0.013786525336894798 0.0019795030858025583 0 -0.013682835328396111 0.002348615038143884 0 -0.014096181748054739 0.0022636303827018901 0 -0.013786525336894798 0.0019795030858025583 0 -0.014222803510908384 0.0018824510272207305 0 -0.014096181748054739 0.0022636303827018901 0 -0.013859561511792632 0.0016031999291842812 0 -0.013786525336894798 0.0019795030858025583 0 -0.014222803510908384 0.0018824510272207305 0 -0.014366498848495949 0.001514510076464147 0 -0.013859561511792632 0.0016031999291842812 0 -0.014222803510908384 0.0018824510272207305 0 -0.014366498848495949 0.001514510076464147 0 -0.014222803510908384 0.0018824510272207305 0 -0.014813922138637714 0.0019154901954846976 0 -0.014366498848495949 0.001514510076464147 0 -0.014813922138637714 0.0019154901954846976 0 -0.014965228972461988 0.0015545382658602007 0 -0.014813922138637714 0.0019154901954846976 0 -0.014558788598668604 0.0021658320809354406 0 -0.015053283391506052 0.0024255394639883347 0 -0.014222803510908384 0.0018824510272207305 0 -0.014558788598668604 0.0021658320809354406 0 -0.014096181748054739 0.0022636303827018901 0 -0.014222803510908384 0.0018824510272207305 0 -0.014813922138637714 0.0019154901954846976 0 -0.014558788598668604 0.0021658320809354406 0 -0.014558788598668604 0.0021658320809354406 0 -0.014478732727636723 0.002492871522740719 0 -0.014096181748054739 0.0022636303827018901 0 -0.014558788598668604 0.0021658320809354406 0 -0.014478732727636723 0.002492871522740719 0 -0.015053283391506052 0.0024255394639883347 0 -0.014478732727636723 0.002492871522740719 0 -0.014819217957262352 0.0028503610942864827 0 -0.015053283391506052 0.0024255394639883347 0 -0.014290202611936701 0.0028959637451081003 0 -0.014478732727636723 0.002492871522740719 0 -0.014819217957262352 0.0028503610942864827 0 -0.014290202611936701 0.0028959637451081003 0 -0.014478732727636723 0.002492871522740719 0 -0.014034387810799177 0.0025382152694462612 0 -0.014290202611936701 0.0028959637451081003 0 -0.013598938323522627 0.002696192546814428 0 -0.014034387810799177 0.0025382152694462612 0 -0.013569353889219257 0.003091167337549171 0 -0.014290202611936701 0.0028959637451081003 0 -0.013598938323522627 0.002696192546814428 0 -0.013598938323522627 0.002696192546814428 0 -0.013682835328396111 0.002348615038143884 0 -0.014034387810799177 0.0025382152694462612 0 -0.013271813385723899 0.0024081408978680998 0 -0.013598938323522627 0.002696192546814428 0 -0.013682835328396111 0.002348615038143884 0 -0.013271813385723899 0.0024081408978680998 0 -0.013428482942241611 0.0020726421217865123 0 -0.013682835328396111 0.002348615038143884 0 -0.013682835328396111 0.002348615038143884 0 -0.014096181748054739 0.0022636303827018901 0 -0.014034387810799177 0.0025382152694462612 0 -0.014478732727636723 0.002492871522740719 0 -0.014096181748054739 0.0022636303827018901 0 -0.014034387810799177 0.0025382152694462612 0 -0.029304779667979269 -0.0025997036680064423 0 -0.029018132635684719 -0.0029467905599078253 0 -0.029099329269989305 -0.0030046225085280133 0 -0.029304779667979269 -0.0025997036680064423 0 -0.029099329269989305 -0.0030046225085280133 0 -0.02915893308785019 -0.0030648652629713864 0 -0.020609076652646524 0.00011884901579389598 0 -0.025933650495697062 -0.001727017022921405 0 -0.029018132635684719 -0.0029467905599078253 0 -0.029099329269989305 -0.0030046225085280133 0 -0.029159002037495146 -0.0030617254643655928 0 -0.027393013214929259 -0.0028234108918979619 0 -0.025933650495697062 -0.001727017022921405 0 -0.015296521033027177 0.002958441493780307 0 -0.015820847939883836 0.002520867836578883 0 -0.015053283391506052 0.0024255394639883347 0 -0.015439732943317819 0.0028974469276471402 0 -0.020609076652646524 0.00011884901579389598 0 -0.015820847939883836 0.002520867836578883 0 -0.015053283391506052 0.0024255394639883347 0 -0.01554464166905821 0.0019735711565364296 0 -0.015296521033027177 0.002958441493780307 0 -0.014819217957262352 0.0028503610942864827 0 -0.015053283391506052 0.0024255394639883347 0 -0.014813922138637714 0.0019154901954846976 0 -0.01554464166905821 0.0019735711565364296 0 -0.014965228972461988 0.0015545382658602007 0 -0.014813922138637714 0.0019154901954846976 0 -0.015053283391506052 0.0024255394639883347 0 -0.01554464166905821 0.0019735711565364296 0 -0.018282456573206162 0.00076018555952678951 0 -0.018779499963399553 0.00011639155026848782 0 -0.01554464166905821 0.0019735711565364296 0 -0.014965228972461988 0.0015545382658602007 0 -0.015299640318055282 0.0013496653624755865 0 -0.020866767420264467 -0.00037856161268714404 0 -0.021670346447422276 -1.0950800679874168e-05 0 -0.020564616572088707 -0.0011297022400670344 0 -0.022112822761013038 0.00036437965276649766 0 -0.021248918196747669 -0.00051583801517125283 0 -0.022277792211565988 0.00022139863502251521 0 -0.025933650495697062 -0.001727017022921405 0 -0.018779499963399553 0.00011639155026848782 0 -0.02123460178591597 0.00036054016671000584 0 -0.020866767420264467 -0.00037856161268714404 0 -0.021670346447422276 -1.0950800679874168e-05 0 -0.020609076652646524 0.00011884901579389598 0 -0.018282456573206162 0.00076018555952678951 0 -0.025933650495697062 -0.001727017022921405 0 -0.024948536559496127 -0.00079862832640431169 0 -0.025933650495697062 -0.001727017022921405 0 -0.025913595573915829 -0.0015692086339613412 0 -0.021248918196747669 -0.00051583801517125283 0 -0.022317777569569697 -0.00074636390087938855 0 -0.022277792211565988 0.00022139863502251521 0 -0.018042588290082841 0.0017228068696714912 0 -0.018304894541668892 0.0015828331396904017 0 -0.019629535795642833 0.0013808298124918851 0 -0.018779499963399553 0.00011639155026848782 0 -0.021221001106970724 0.00046718528930264971 0 -0.018814573905653203 0.0010945871619752166 0 -0.018304894541668892 0.0015828331396904017 0 -0.019629535795642833 0.0013808298124918851 0 -0.018814573905653203 0.0010945871619752166 0 -0.018304894541668892 0.0015828331396904017 0 -0.018274449924691155 0.00092481321629598516 0 -0.014626993667332892 0.0013133769581888267 0 -0.014965228972461988 0.0015545382658602007 0 -0.015162204129447262 0.0012013251302890491 0 -0.014965228972461988 0.0015545382658602007 0 -0.015299640318055282 0.0013496653624755865 0 -0.015162204129447262 0.0012013251302890491 0 -0.018779499963399553 0.00011639155026848782 0 -0.01708408402884852 0.0007646456646074588 0 -0.018042588290082841 0.0017228068696714912 0 -0.018304894541668892 0.0015828331396904017 0 -0.017842517848939709 0.0015173480767023625 0 -0.018304894541668892 0.0015828331396904017 0 -0.01761270437054159 0.0010209171034108566 0 -0.018274449924691155 0.00092481321629598516 0 -0.018258335040870245 0.001666589306531821 0 -0.016706909849281221 0.0011132391156956024 0 -0.015524587283408216 0.00046409530373212662 0 -0.016422553368911609 0.0014073062988049503 0 -0.016081661681061614 0.00071080919670324578 0 -0.01708408402884852 0.0007646456646074588 0 -0.016706909849281221 0.0011132391156956024 0 -0.014618842977643409 0.00067175589154735071 0 -0.01708408402884852 0.0007646456646074588 0 -0.018304894541668892 0.0015828331396904017 0 -0.017842517848939709 0.0015173480767023625 0 -0.017585893926719713 0.00098512515193866163 0 -0.017217322524675786 0.00019568059066582227 0 -0.01761270437054159 0.0010209171034108566 0 -0.01779052822552854 0.00059447763821601698 0 -0.01761270437054159 0.0010209171034108566 0 -0.018274449924691155 0.00092481321629598516 0 -0.01779052822552854 0.00059447763821601698 0 -0.018509948190781243 -4.0014399701060674e-05 0 -0.018059029453497636 0.00023736791346112233 0 -0.018699110333306481 0.00041646211534665669 0 -0.018274449924691155 0.00092481321629598516 0 -0.018059029453497636 0.00023736791346112233 0 -0.01779052822552854 0.00059447763821601698 0 -0.018274449924691155 0.00092481321629598516 0 -0.018059029453497636 0.00023736791346112233 0 -0.018699110333306481 0.00041646211534665669 0 -0.017217322524675786 0.00019568059066582227 0 -0.018059029453497636 0.00023736791346112233 0 -0.01779052822552854 0.00059447763821601698 0 -0.019066277125430416 0.00078154914588164539 0 -0.019297544713667476 0.00025953291855879769 0 -0.019629535795642833 0.0013808298124918851 0 -0.018814573905653203 0.0010945871619752166 0 -0.019066277125430416 0.00078154914588164539 0 -0.019629535795642833 0.0013808298124918851 0 -0.018814573905653203 0.0010945871619752166 0 -0.018274449924691155 0.00092481321629598516 0 -0.018713348456560631 0.00080448002396914134 0 -0.018814573905653203 0.0010945871619752166 0 -0.019066277125430416 0.00078154914588164539 0 -0.018713348456560631 0.00080448002396914134 0 -0.018274449924691155 0.00092481321629598516 0 -0.018713348456560631 0.00080448002396914134 0 -0.018699110333306481 0.00041646211534665669 0 -0.019066277125430416 0.00078154914588164539 0 -0.018713348456560631 0.00080448002396914134 0 -0.018699110333306481 0.00041646211534665669 0 -0.019066277125430416 0.00078154914588164539 0 -0.018699110333306481 0.00041646211534665669 0 -0.019297544713667476 0.00025953291855879769 0 -0.018921219013942218 -0.0003105990315768845 0 -0.018699110333306481 0.00041646211534665669 0 -0.019297544713667476 0.00025953291855879769 0 -0.021221001106970724 0.00046718528930264971 0 -0.019660815416075991 -0.00023239927951690574 0 -0.019888789678617697 0.00097597663050455041 0 -0.02056339256588597 0.00082989626104189144 0 -0.019937150318174907 -0.00048386611950094772 0 -0.019297544713667476 0.00025953291855879769 0 -0.019629535795642833 0.0013808298124918851 0 -0.019750220212471203 -0.00027224771559692632 0 -0.02056339256588597 0.00082989626104189144 0 -0.020640625461995517 -0.00072836612388334243 0 -0.019937150318174907 -0.00048386611950094772 0 -0.024378222587154167 -0.00035501821182472933 0 -0.023934000957419609 5.6210967922364267e-05 0 -0.024036902311426443 -0.0017924731640358465 0 -0.02318904137059212 0.00022825110667264317 0 -0.022280970661476902 -0.0012417140246119638 0 -0.024378222587154167 -0.00035501821182472933 0 -0.025061127726273391 -0.00095989642749933651 0 -0.024036902311426443 -0.0017924731640358465 0 -0.024378222587154167 -0.00035501821182472933 0 -0.024907277103032848 -0.00016126925743421359 0 -0.023934000957419609 5.6210967922364267e-05 0 -0.024378222587154167 -0.00035501821182472933 0 -0.024910742961795899 -0.00015910220182349327 0 -0.025061127726273391 -0.00095989642749933651 0 -0.024742093054900792 -0.00076245814095521325 0 -0.025681322560514089 -0.00092988686718364216 0 -0.02553149439150966 -0.00099273306515810286 0 -0.024725334276012357 -0.00081564827748733691 0 -0.024678926276494623 -1.8464053212621739e-05 0 -0.02553149439150966 -0.00099273306515810286 0 -0.024678926276494623 -1.8464053212621739e-05 0 -0.025731514833532313 -0.00091881174853262744 0 -0.025024311467468814 -0.00066270541356655305 0 -0.026885236575935442 -0.0013007215734587147 0 -0.026310337111024391 -0.0012673335889548704 0 -0.026726173534904248 -0.0012564875147369205 0 -0.027329131107995324 -0.0021286780669426929 0 -0.025681322560514089 -0.00092988686718364216 0 -0.02318904137059212 0.00022825110667264317 0 -0.023779186374739844 0.00015754986316037392 0 -0.023296997127470222 0.00026359420964627405 0 -0.023338470349567743 -0.00032346724842733022 0 -0.021221001106970724 0.00046718528930264971 0 -0.02318904137059212 0.00022825110667264317 0 -0.02318904137059212 0.00022825110667264317 0 -0.025024311467468814 -0.00066270541356655305 0 -0.028010082907269817 -0.0024742670108388147 0 -0.028531584940170218 -0.00279358758492109 0 -0.028384409981074023 -0.0023887139453251873 0 -0.025913595573915829 -0.0015692086339613412 0 -0.027786954211066545 -0.0021277668051045157 0 -0.025621721793659531 -0.00058553047297483466 0 -0.026301808409705158 -0.0011314230521095885 0 -0.026726173534904248 -0.0012564875147369205 0 -0.021221001106970724 0.00046718528930264971 0 -0.024948536559496127 -0.00079862832640431169 0 -0.023779186374739844 0.00015754986316037392 0 -0.023853747501255421 -0.00076661868947994118 0 -0.023338470349567743 -0.00032346724842733022 0 -0.025621721793659531 -0.00058553047297483466 0 -0.025630024525010543 -0.00070355770560900162 0 -0.026301808409705158 -0.0011314230521095885 0 -0.02564777718838343 -0.0016691449154319295 0 -0.025527871745195406 -0.0016321799941404025 0 -0.025522814355773363 -0.0015590355482798196 0 -0.027913218338519834 -0.0024441916812596698 0 -0.02800862186252432 -0.0024737931242664771 0 -0.028007819814361557 -0.0024367413864602007 0 -0.025913595573915829 -0.0015692086339613412 0 -0.025965502328041817 -0.0016542167097784246 0 -0.025913595573915829 -0.0015692086339613412 0 -0.024948536559496127 -0.00079862832640431169 0 -0.025630024525010543 -0.00070355770560900162 0 -0.026301808409705158 -0.0011314230521095885 0 -0.026310074312234609 -0.0012692901183280825 0 -0.024948536559496127 -0.00079862832640431169 0 -0.025024311467468814 -0.00066270541356655305 0 -0.025118089392379656 -0.00079947411645768073 0 -0.025024311467468814 -0.00066270541356655305 0 -0.028531584940170218 -0.00279358758492109 0 -0.028384409981074023 -0.0023887139453251873 0 -0.028863114587755635 -0.0023168640066911169 0 -0.026301808409705158 -0.0011314230521095885 0 -0.026310337111024391 -0.0012673335889548704 0 -0.026726173534904248 -0.0012564875147369205 0 -0.028438431583894554 -0.0019351664021321428 0 -0.028384409981074023 -0.0023887139453251873 0 -0.028863114587755635 -0.0023168640066911169 0 -0.028438431583894554 -0.0019351664021321428 0 -0.027913218338519834 -0.0024441916812596698 0 -0.028007819814361557 -0.0024367413864602007 0 -0.028438431583894554 -0.0019351664021321428 0 -0.028384409981074023 -0.0023887139453251873 0 -0.028007819814361557 -0.0024367413864602007 0 -0.029414152304101229 -0.0023314092341673773 0 -0.025933650495697062 -0.001727017022921405 0 -0.028010082907269817 -0.0024742670108388147 0 -0.028384409981074023 -0.0023887139453251873 0 -0.028007819814361557 -0.0024367413864602007 0 -0.029439290219824586 -0.0022791497757592562 0 -0.028863114587755635 -0.0023168640066911169 0 -0.029120099574699802 -0.0026715225849224962 0 -0.029172329880930239 -0.0018673633339862466 0 -0.029439290219824586 -0.0022791497757592562 0 -0.028863114587755635 -0.0023168640066911169 0 -0.028531584940170218 -0.00279358758492109 0 -0.028863114587755635 -0.0023168640066911169 0 -0.029120099574699802 -0.0026715225849224962 0 -0.030985471487346747 -0.0030541007877730036 0 -0.030107409147637591 -0.0024583645172446566 0 -0.029439290219824586 -0.0022791497757592562 0 -0.029120099574699802 -0.0026715225849224962 0 -0.029556941313202387 -0.0029127451747180027 0 -0.028773613419006749 -0.0016807984119091219 0 -0.029362726184680773 -0.00205069347365361 0 -0.029590790604702925 -0.0013715628744154461 0 -0.028576452588611547 -0.0019839006871814743 0 -0.030107409147637591 -0.0024583645172446566 0 -0.029120099574699802 -0.0026715225849224962 0 -0.029036607648514897 -0.0031041694095690418 0 -0.029556941313202387 -0.0029127451747180027 0 -0.027786954211066545 -0.0021277668051045157 0 -0.028576452588611547 -0.0019839006871814743 0 -0.026726173534904248 -0.0012564875147369205 0 -0.027832585240791994 -0.0019414687183015966 0 -0.027329131107995324 -0.0021286780669426929 0 -0.028531584940170218 -0.00279358758492109 0 -0.029120099574699802 -0.0026715225849224962 0 -0.029036607648514897 -0.0031041694095690418 0 -0.028576452588611547 -0.0019839006871814743 0 -0.026885236575935442 -0.0013007215734587147 0 -0.028658369929477144 -0.0015679633333530627 0 -0.028200775000592447 -0.0017316470139977604 0 -0.028364409150554489 -0.0018709965873583893 0 -0.025377471851127056 -0.00026253363504208659 0 -0.025061127726273391 -0.00095989642749933651 0 -0.026378166162723461 -0.0011227848923293171 0 -0.024910742961795899 -0.00015910220182349327 0 -0.025377471851127056 -0.00026253363504208659 0 -0.025061127726273391 -0.00095989642749933651 0 -0.025681322560514089 -0.00092988686718364216 0 -0.027166029242394037 -0.0013292443846428092 0 -0.026291113598868741 -0.0010855459562770105 0 -0.026652742792055699 -0.00095032136801242333 0 -0.02698749090211244 -0.0012378619436573389 0 -0.025681322560514089 -0.00092988686718364216 0 -0.026885236575935442 -0.0013007215734587147 0 -0.026885236575935442 -0.0013007215734587147 0 -0.027166029242394037 -0.0013292443846428092 0 -0.027166029242394037 -0.0013292443846428092 0 -0.029371003519472135 -0.0020721340088337759 0 -0.028658369929477144 -0.0015679633333530627 0 -0.028364409150554489 -0.0018709965873583893 0 -0.029076102638280834 -0.0020279238032744938 0 -0.027166029242394037 -0.0013292443846428092 0 -0.027621719938289949 -0.0017007174882391759 0 -0.029362726184680773 -0.00205069347365361 0 -0.029534932054462008 -0.0021624339235421261 0 -0.029590790604702925 -0.0013715628744154461 0 -0.029362726184680773 -0.00205069347365361 0 -0.029076102638280834 -0.0020279238032744938 0 -0.029258391674614061 -0.002229007092483463 0 -0.028576452588611547 -0.0019839006871814743 0 -0.029284244575065274 -0.0019768065365857483 0 -0.028658369929477144 -0.0015679633333530627 0 -0.029362726184680773 -0.00205069347365361 0 -0.029076102638280834 -0.0020279238032744938 0 -0.02842057994708019 -0.0018855629087583302 0 -0.029076102638280834 -0.0020279238032744938 0 -0.029096545322564255 -0.002415794060228738 0 -0.029076102638280834 -0.0020279238032744938 0 -0.029258391674614061 -0.002229007092483463 0 -0.029096545322564255 -0.002415794060228738 0 -0.029258391674614061 -0.002229007092483463 0 -0.029384376698491893 -0.0023203706226466335 0 -0.029096545322564255 -0.002415794060228738 0 -0.029258391674614061 -0.002229007092483463 0 -0.029384376698491893 -0.0023203706226466335 0 -0.029534932054462008 -0.0021624339235421261 0 -0.029362726184680773 -0.00205069347365361 0 -0.029258391674614061 -0.002229007092483463 0 -0.029534932054462008 -0.0021624339235421261 0 -0.026378166162723461 -0.0011227848923293171 0 -0.026258644334806503 -0.0024632866836540365 0 -0.02738224470471182 -0.001984285237277005 0 -0.029096545322564255 -0.002415794060228738 0 -0.029670101378496141 -0.002819526604856766 0 -0.029612726454717291 -0.0024539246365853722 0 -0.029384376698491893 -0.0023203706226466335 0 -0.029096545322564255 -0.002415794060228738 0 -0.029612726454717291 -0.0024539246365853722 0 -0.027621719938289949 -0.0017007174882391759 0 -0.029138421914849413 -0.002155379992759031 0 -0.029411113090557165 -0.0028097231181088023 0 -0.02930930372688835 -0.0028245569566275777 0 -0.029619420865205519 -0.0022376912189030307 0 -0.026258644334806503 -0.0024632866836540365 0 -0.02675410268700229 -0.0035689192547496908 0 -0.02738224470471182 -0.001984285237277005 0 -0.025251332667225745 -0.0025977647658817528 0 -0.02477693142368281 -0.0031304753084665242 0 -0.025741277577337126 -0.0037304105540592694 0 -0.026258644334806503 -0.0024632866836540365 0 -0.025251332667225745 -0.0025977647658817528 0 -0.025741277577337126 -0.0037304105540592694 0 -0.026258644334806503 -0.0024632866836540365 0 -0.025251332667225745 -0.0025977647658817528 0 -0.02539682372179931 -0.0017871152945198488 0 -0.026378166162723461 -0.0011227848923293171 0 -0.026258644334806503 -0.0024632866836540365 0 -0.02539682372179931 -0.0017871152945198488 0 -0.025061127726273391 -0.00095989642749933651 0 -0.026378166162723461 -0.0011227848923293171 0 -0.02539682372179931 -0.0017871152945198488 0 -0.025061127726273391 -0.00095989642749933651 0 -0.02539682372179931 -0.0017871152945198488 0 -0.024036902311426443 -0.0017924731640358465 0 -0.025251332667225745 -0.0025977647658817528 0 -0.02539682372179931 -0.0017871152945198488 0 -0.024036902311426443 -0.0017924731640358465 0 -0.019396656216796298 -0.0012124971281183992 0 -0.019216312703504292 -0.00074233425620694063 0 -0.019750220212471203 -0.00027224771559692632 0 -0.020640625461995517 -0.00072836612388334243 0 -0.019937150318174907 -0.00048386611950094772 0 -0.019935648318590172 -0.0020893789274579423 0 -0.019660815416075991 -0.00023239927951690574 0 -0.019979292131760827 -0.0020784334176494452 0 -0.019396656216796298 -0.0012124971281183992 0 -0.019750220212471203 -0.00027224771559692632 0 -0.019935648318590172 -0.0020893789274579423 0 -0.020640625461995517 -0.00072836612388334243 0 -0.020763228582314226 -0.0024813841315249473 0 -0.019935648318590172 -0.0020893789274579423 0 -0.019236455227837981 -0.0018749705277548258 0 -0.019396656216796298 -0.0012124971281183992 0 -0.019935648318590172 -0.0020893789274579423 0 -0.022280970661476902 -0.0012417140246119638 0 -0.021954908775538028 -0.002939273642823479 0 -0.024036902311426443 -0.0017924731640358465 0 -0.02477693142368281 -0.0031304753084665242 0 -0.024133047305029704 -0.0036468954147395329 0 -0.025251332667225745 -0.0025977647658817528 0 -0.024036902311426443 -0.0017924731640358465 0 -0.02477693142368281 -0.0031304753084665242 0 -0.02477693142368281 -0.0031304753084665242 0 -0.024133047305029704 -0.0036468954147395329 0 -0.024725988553067443 -0.0038894001115512703 0 -0.021872509957001296 -0.0028461636845151686 0 -0.023654170714160726 -0.0034638992445057645 0 -0.021954908775538028 -0.002939273642823479 0 -0.023654170714160726 -0.0034638992445057645 0 -0.022128698419537969 -0.002792707387265446 0 -0.022161884334815352 -0.0033410516832583985 0 -0.023109934475058727 -0.0031896047317208054 0 -0.021954908775538028 -0.002939273642823479 0 -0.021872509957001296 -0.0028461636845151686 0 -0.022735612745834251 -0.0036420186144713591 0 -0.022926572531356878 -0.0036137720718437362 0 -0.022916946925577272 -0.0038552698960510035 0 -0.019197540999078583 -0.0016352549984356888 0 -0.019874751107313734 -0.0017453191671284356 0 -0.019236455227837981 -0.0018749705277548258 0 -0.020763228582314226 -0.0024813841315249473 0 -0.019935648318590172 -0.0020893789274579423 0 -0.019197540999078583 -0.0016352549984356888 0 -0.021954908775538028 -0.002939273642823479 0 -0.019574297008914065 -0.001482155539624366 0 -0.021335072689549196 -0.0021947841080515755 0 -0.020207696637152175 -0.002767191423385963 0 -0.021335072689549196 -0.0021947841080515755 0 -0.021358701574707761 -0.0025853104989849011 0 -0.020207696637152175 -0.002767191423385963 0 -0.021872509957001296 -0.0028461636845151686 0 -0.019874751107313734 -0.0017453191671284356 0 -0.01966348797551928 0.00043116878795355484 0 -0.020198193745777516 -0.00063852400005866619 0 -0.018848982722441055 -0.0008981668902394845 0 -0.019874751107313734 -0.0017453191671284356 0 -0.020500914815870727 -0.0013591955406881762 0 -0.02129411765337209 -0.0020020850697373641 0 -0.02076761817020982 -0.0020816454683295869 0 -0.021073191762600831 -0.0026926772920419914 0 -0.02129411765337209 -0.0020020850697373641 0 -0.021336490706082973 -0.0026527965930794222 0 -0.021073191762600831 -0.0026926772920419914 0 -0.021872509957001296 -0.0028461636845151686 0 -0.022063118294190644 -0.0034218933041968427 0 -0.022735612745834251 -0.0036420186144713591 0 -0.022916946925577272 -0.0038552698960510035 0 -0.022763743818283281 -0.0040440106283352907 0 -0.022926572531356878 -0.0036137720718437362 0 -0.022916946925577272 -0.0038552698960510035 0 -0.02312738721043615 -0.0038833088819767185 0 -0.022916946925577272 -0.0038552698960510035 0 -0.022763743818283281 -0.0040440106283352907 0 -0.023028445435579147 -0.0040893620516013638 0 -0.02369040886990886 -0.004308223399421684 0 -0.023103029824296361 -0.0043673701104101218 0 -0.02312738721043615 -0.0038833088819767185 0 -0.023154270120155807 -0.0040584585692257343 0 -0.023028445435579147 -0.0040893620516013638 0 -0.023654170714160726 -0.0034638992445057645 0 -0.02369040886990886 -0.004308223399421684 0 -0.022916946925577272 -0.0038552698960510035 0 -0.02312738721043615 -0.0038833088819767185 0 -0.023028445435579147 -0.0040893620516013638 0 -0.02325861145015512 -0.0039694030269267974 0 -0.023462309084191817 -0.003831184038948205 0 -0.023226129891906425 -0.004202169918241956 0 -0.022926572531356878 -0.0036137720718437362 0 -0.02312738721043615 -0.0038833088819767185 0 -0.023462309084191817 -0.003831184038948205 0 -0.02312738721043615 -0.0038833088819767185 0 -0.02325861145015512 -0.0039694030269267974 0 -0.023462309084191817 -0.003831184038948205 0 -0.02312738721043615 -0.0038833088819767185 0 -0.02325861145015512 -0.0039694030269267974 0 -0.023154270120155807 -0.0040584585692257343 0 -0.023118053067790481 -0.0043811912824417397 0 -0.023130266014196196 -0.0044985122295044993 0 -0.02332304592539625 -0.0044680667630160858 0 -0.02498312915504013 -0.004174256067807209 0 -0.025305424242047861 -0.0033654945502269748 0 -0.024464682475246198 -0.0035021979208866077 0 -0.026258644334806503 -0.0024632866836540365 0 -0.02675410268700229 -0.0035689192547496908 0 -0.025741277577337126 -0.0037304105540592694 0 -0.022986434023934119 -0.0043019364547306187 0 -0.023142277709391465 -0.0040384930520307198 0 -0.023182273178288651 -0.0042726486277045407 0 -0.024787931643613169 -0.0047387732588470306 0 -0.026010572030900493 -0.0027932827614122516 0 -0.0255319287856858 -0.0028696743471087901 0 -0.02369040886990886 -0.004308223399421684 0 -0.0265567999768405 -0.0032804816948737753 0 -0.02369040886990886 -0.004308223399421684 0 -0.026724275695557232 -0.0032016108811384124 0 -0.026724275695557232 -0.0032016108811384124 0 -0.0265567999768405 -0.0032804816948737753 0 -0.0265567999768405 -0.0032804816948737753 0 -0.025088520171490911 -0.0035983645300485369 0 -0.023629515820075265 -0.0036363643117590565 0 -0.02498312915504013 -0.004174256067807209 0 -0.024464682475246198 -0.0035021979208866077 0 -0.02477693142368281 -0.0031304753084665242 0 -0.024725988553067443 -0.0038894001115512703 0 -0.025741277577337126 -0.0037304105540592694 0 -0.023654170714160726 -0.0034638992445057645 0 -0.025088520171490911 -0.0035983645300485369 0 -0.023021613153248136 -0.0045709897129613984 0 -0.02307372962285573 -0.0045856930179378405 0 -0.023039508705514564 -0.0045511635514949847 0 -0.023021613153248136 -0.0045709897129613984 0 -0.023039508705514564 -0.0045511635514949847 0 -0.022979828966181493 -0.0045485503470574966 0 -0.022994112365649293 -0.0045778310719793176 0 -0.022979828966181493 -0.0045485503470574966 0 -0.022953804065966657 -0.0045809115959479039 0 -0.023021613153248136 -0.0045709897129613984 0 -0.022994112365649293 -0.0045778310719793176 0 -0.022979828966181493 -0.0045485503470574966 0 -0.023021613153248136 -0.0045709897129613984 0 -0.023038857487364679 -0.004597576802445753 0 -0.02307372962285573 -0.0045856930179378405 0 -0.023021613153248136 -0.0045709897129613984 0 -0.022994112365649293 -0.0045778310719793176 0 -0.023038857487364679 -0.004597576802445753 0 -0.023038857487364679 -0.004597576802445753 0 -0.023126060616820911 -0.0046370740700041393 0 -0.023088212058839756 -0.0046438500909065494 0 -0.023038857487364679 -0.004597576802445753 0 -0.023126060616820911 -0.0046370740700041393 0 -0.02307372962285573 -0.0045856930179378405 0 -0.023126060616820911 -0.0046370740700041393 0 -0.023235596188200227 -0.0046830402793376757 0 -0.023194765543545048 -0.0047026128802593907 0 -0.023126060616820911 -0.0046370740700041393 0 -0.023150051936633598 -0.0046062753885565601 0 -0.023235596188200227 -0.0046830402793376757 0 -0.02307372962285573 -0.0045856930179378405 0 -0.023108862937619348 -0.0045560320899751192 0 -0.023039508705514564 -0.0045511635514949847 0 -0.023150051936633598 -0.0046062753885565601 0 -0.02307372962285573 -0.0045856930179378405 0 -0.023108862937619348 -0.0045560320899751192 0 -0.023126060616820911 -0.0046370740700041393 0 -0.023150051936633598 -0.0046062753885565601 0 -0.02307372962285573 -0.0045856930179378405 0 -0.02369040886990886 -0.004308223399421684 0 -0.02288857839472639 -0.0046261623115520026 0 -0.023108862937619348 -0.0045560320899751192 0 -0.023130266014196196 -0.0044985122295044993 0 -0.023039508705514564 -0.0045511635514949847 0 -0.023118053067790481 -0.0043811912824417397 0 -0.023130266014196196 -0.0044985122295044993 0 -0.023039508705514564 -0.0045511635514949847 0 -0.023150051936633598 -0.0046062753885565601 0 -0.023108862937619348 -0.0045560320899751192 0 -0.023214262719667943 -0.0045918157218084151 0 -0.023108862937619348 -0.0045560320899751192 0 -0.023130266014196196 -0.0044985122295044993 0 -0.023214262719667943 -0.0045918157218084151 0 -0.023041843459080422 -0.0045257659639549976 0 -0.023039508705514564 -0.0045511635514949847 0 -0.022979828966181493 -0.0045485503470574966 0 -0.023103029824296361 -0.0043673701104101218 0 -0.023003545589533419 -0.0045321717786732316 0 -0.023104706550625673 -0.0044603476801564328 0 -0.023041843459080422 -0.0045257659639549976 0 -0.023039508705514564 -0.0045511635514949847 0 -0.023226129891906425 -0.004202169918241956 0 -0.023001666906515048 -0.0043126388642658253 0 -0.022979828966181493 -0.0045485503470574966 0 -0.02325861145015512 -0.0039694030269267974 0 -0.023226129891906425 -0.004202169918241956 0 -0.023154270120155807 -0.0040584585692257343 0 -0.023226129891906425 -0.004202169918241956 0 -0.023098903839389513 -0.0041786129159438554 0 -0.023001666906515048 -0.0043126388642658253 0 -0.023098903839389513 -0.0041786129159438554 0 -0.023028445435579147 -0.0040893620516013638 0 -0.023001666906515048 -0.0043126388642658253 0 -0.023226129891906425 -0.004202169918241956 0 -0.023098903839389513 -0.0041786129159438554 0 -0.023154270120155807 -0.0040584585692257343 0 -0.023098903839389513 -0.0041786129159438554 0 -0.023154270120155807 -0.0040584585692257343 0 -0.023028445435579147 -0.0040893620516013638 0 -0.022763743818283281 -0.0040440106283352907 0 -0.023001666906515048 -0.0043126388642658253 0 -0.022803856024361829 -0.0044289738731918731 0 -0.022763743818283281 -0.0040440106283352907 0 -0.023028445435579147 -0.0040893620516013638 0 -0.023001666906515048 -0.0043126388642658253 0 -0.022063118294190644 -0.0034218933041968427 0 -0.021868322534066908 -0.0034415499466591199 0 -0.020500914815870727 -0.0013591955406881762 0 -0.021868322534066908 -0.0034415499466591199 0 -0.021336490706082973 -0.0026527965930794222 0 -0.021073191762600831 -0.0026926772920419914 0 -0.021386911232877951 -0.0033105943379567369 0 -0.020198193745777516 -0.00063852400005866619 0 -0.019820929740465093 -0.001757143041450047 0 -0.020747372811301706 -0.0017244382515627698 0 -0.020198193745777516 -0.00063852400005866619 0 -0.019820929740465093 -0.001757143041450047 0 -0.018848982722441055 -0.0008981668902394845 0 -0.020156663160775256 0.0023490458280238696 0 -0.020115926778617128 0.00079837137796048385 0 -0.018073963276749854 0.0017637446046313407 0 -0.020156663160775256 0.0023490458280238696 0 -0.021882104790557501 0.00085703977780898072 0 -0.020115926778617128 0.00079837137796048385 0 -0.019827508390365563 0.00049208269745378735 0 -0.021875765815612066 -0.0025017454663754123 0 -0.022933514907466354 -0.0044317610064522747 0 -0.022803856024361829 -0.0044289738731918731 0 -0.022917084872267256 -0.004561652172354826 0 -0.022933514907466354 -0.0044317610064522747 0 -0.022917084872267256 -0.004561652172354826 0 -0.022979828966181493 -0.0045485503470574966 0 -0.023001666906515048 -0.0043126388642658253 0 -0.022933514907466354 -0.0044317610064522747 0 -0.022803856024361829 -0.0044289738731918731 0 -0.023001666906515048 -0.0043126388642658253 0 -0.022933514907466354 -0.0044317610064522747 0 -0.022979828966181493 -0.0045485503470574966 0 -0.021868322534066908 -0.0034415499466591199 0 -0.022721105609667478 -0.0046558968015497576 0 -0.019820929740465093 -0.001757143041450047 0 -0.020747372811301706 -0.0017244382515627698 0 -0.020810931832196119 -0.0026281800703847643 0 -0.021868322534066908 -0.0034415499466591199 0 -0.021875765815612066 -0.0025017454663754123 0 -0.022879503840728222 -0.0045237250981826731 0 -0.022917084872267256 -0.004561652172354826 0 -0.02292517730658163 -0.0045809146502132714 0 -0.022917084872267256 -0.004561652172354826 0 -0.022979828966181493 -0.0045485503470574966 0 -0.022953804065966657 -0.0045809115959479039 0 -0.022917084872267256 -0.004561652172354826 0 -0.02292517730658163 -0.0045809146502132714 0 -0.022953804065966657 -0.0045809115959479039 0 -0.021875765815612066 -0.0025017454663754123 0 -0.023429345192269017 -0.0050307493230993365 0 -0.021875765815612066 -0.0025017454663754123 0 -0.022428853934386116 -0.0030099276783256456 0 -0.022777551039201361 -0.0044089836455849137 0 -0.022748584758107669 -0.0045711443419615234 0 -0.022924753021359653 -0.0045576369257291005 0 -0.021882104790557501 0.00085703977780898072 0 -0.020819783389783724 -0.00047982609290036967 0 -0.022099374548513247 -0.0016828252854067798 0 -0.02292517730658163 -0.0045809146502132714 0 -0.022924753021359653 -0.0045576369257291005 0 -0.022953804065966657 -0.0045809115959479039 0 -0.021882104790557501 0.00085703977780898072 0 -0.020115926778617128 0.00079837137796048385 0 -0.020819783389783724 -0.00047982609290036967 0 -0.020115926778617128 0.00079837137796048385 0 -0.020819783389783724 -0.00047982609290036967 0 -0.019058958553699545 -0.00075632740276784338 0 -0.020679494359524837 -0.0018601362031255137 0 -0.019641163409895166 -0.002972035449893501 0 -0.019058958553699545 -0.00075632740276784338 0 -0.020819783389783724 -0.00047982609290036967 0 -0.020679494359524837 -0.0018601362031255137 0 -0.019058958553699545 -0.00075632740276784338 0 -0.020819783389783724 -0.00047982609290036967 0 -0.020679494359524837 -0.0018601362031255137 0 -0.022099374548513247 -0.0016828252854067798 0 -0.020679494359524837 -0.0018601362031255137 0 -0.022099374548513247 -0.0016828252854067798 0 -0.021077797503386703 -0.0030660596755447186 0 -0.0228764262693157 -0.0045837982445588099 0 -0.022924753021359653 -0.0045576369257291005 0 -0.023032981042929522 -0.0046234155586436379 0 -0.022748584758107669 -0.0045711443419615234 0 -0.0228764262693157 -0.0045837982445588099 0 -0.022924753021359653 -0.0045576369257291005 0 -0.022988023176373693 -0.00458881587704686 0 -0.023088212058839756 -0.0046438500909065494 0 -0.023032981042929522 -0.0046234155586436379 0 -0.022924753021359653 -0.0045576369257291005 0 -0.022988023176373693 -0.00458881587704686 0 -0.023032981042929522 -0.0046234155586436379 0 -0.023038857487364679 -0.004597576802445753 0 -0.022988023176373693 -0.00458881587704686 0 -0.023088212058839756 -0.0046438500909065494 0 -0.022994112365649293 -0.0045778310719793176 0 -0.023038857487364679 -0.004597576802445753 0 -0.022988023176373693 -0.00458881587704686 0 -0.022924753021359653 -0.0045576369257291005 0 -0.022988023176373693 -0.00458881587704686 0 -0.022953804065966657 -0.0045809115959479039 0 -0.022994112365649293 -0.0045778310719793176 0 -0.022988023176373693 -0.00458881587704686 0 -0.022953804065966657 -0.0045809115959479039 0 -0.023088212058839756 -0.0046438500909065494 0 -0.023032981042929522 -0.0046234155586436379 0 -0.023207245931247091 -0.0047380871525417338 0 -0.023126060616820911 -0.0046370740700041393 0 -0.023088212058839756 -0.0046438500909065494 0 -0.023194765543545048 -0.0047026128802593907 0 -0.023088212058839756 -0.0046438500909065494 0 -0.023207245931247091 -0.0047380871525417338 0 -0.023194765543545048 -0.0047026128802593907 0 -0.023032981042929522 -0.0046234155586436379 0 -0.023145069267152187 -0.0047090584461274036 0 -0.023207245931247091 -0.0047380871525417338 0 -0.0228764262693157 -0.0045837982445588099 0 -0.023032981042929522 -0.0046234155586436379 0 -0.023145069267152187 -0.0047090584461274036 0 -0.023145069267152187 -0.0047090584461274036 0 -0.023290455950611116 -0.0048187722062554708 0 -0.022985890543777192 -0.0047504967345831537 0 -0.023145069267152187 -0.0047090584461274036 0 -0.023290455950611116 -0.0048187722062554708 0 -0.023274258292183162 -0.0048086101819405204 0 -0.0228764262693157 -0.0045837982445588099 0 -0.022985890543777192 -0.0047504967345831537 0 -0.022275765355218313 -0.0045026726396502166 0 -0.0228764262693157 -0.0045837982445588099 0 -0.023145069267152187 -0.0047090584461274036 0 -0.022985890543777192 -0.0047504967345831537 0 -0.022985890543777192 -0.0047504967345831537 0 -0.022588436224251298 -0.0052396410614127193 0 -0.023442198520472884 -0.004897573960754925 0 -0.022985890543777192 -0.0047504967345831537 0 -0.022588436224251298 -0.0052396410614127193 0 -0.022275765355218313 -0.0045026726396502166 0 -0.023290455950611116 -0.0048187722062554708 0 -0.022985890543777192 -0.0047504967345831537 0 -0.023442198520472884 -0.004897573960754925 0 -0.023552863352018935 -0.0053008957573120333 0 -0.02273095583296884 -0.0036716180881645371 0 -0.023546179643429685 -0.0039441347406443629 0 -0.02273095583296884 -0.0036716180881645371 0 -0.023442198520472884 -0.004897573960754925 0 -0.023545785905497836 -0.0043200444881034122 0 -0.024205468611988711 -0.004422131699537318 0 -0.022588436224251298 -0.0052396410614127193 0 -0.023442198520472884 -0.004897573960754925 0 -0.022727780238146353 -0.0059551614618536895 0 -0.023244501832775023 -0.0035078149057495437 0 -0.023108360990103827 -0.0033042363467552182 0 -0.023180067970063115 -0.0034233219747292851 0 -0.023108360990103827 -0.0033042363467552182 0 -0.023180067970063115 -0.0034233219747292851 0 -0.023077918307967734 -0.0033903421898077608 0 -0.023180067970063115 -0.0034233219747292851 0 -0.023077918307967734 -0.0033903421898077608 0 -0.023180486915755635 -0.0034229363559686986 0 -0.023180067970063115 -0.0034233219747292851 0 -0.0232246597665462 -0.0034874205782150537 0 -0.023180486915755635 -0.0034229363559686986 0 -0.0232246597665462 -0.0034874205782150537 0 -0.023204428570051932 -0.0036277637770327107 0 -0.023177465009392436 -0.0033978277763189726 0 -0.023244501832775023 -0.0035078149057495437 0 -0.0232246597665462 -0.0034874205782150537 0 -0.023204428570051932 -0.0036277637770327107 0 -0.023244501832775023 -0.0035078149057495437 0 -0.023180067970063115 -0.0034233219747292851 0 -0.0232246597665462 -0.0034874205782150537 0 -0.0039810872034935401 0.0015628068631894677 0 -0.003939289410561435 0.0027533129326223651 0 -0.0034418263458611963 0.0019231331862465978 0 -0.013583697985517503 -0.00093335756685009724 0 -0.014575181491827474 -0.0011956723111060225 0 -0.016822443196730458 -0.0043402111632896449 0 -0.019342838280086067 -0.0027839394253357068 0 -0.016613718194931189 -0.00039337876385673107 0 -0.02260834283049443 -0.0033602226157590106 0 -0.022908773060164065 -0.0032868537160056924 0 -0.022846215946586351 -0.0034133571198075169 0 -0.013583697985517503 -0.00093335756685009724 0 -0.02176980956097678 -0.0027164561336896582 0 -0.023108360990103827 -0.0033042363467552182 0 -0.023077918307967734 -0.0033903421898077608 0 -0.022908773060164065 -0.0032868537160056924 0 -0.023077918307967734 -0.0033903421898077608 0 -0.022908773060164065 -0.0032868537160056924 0 -0.022846215946586351 -0.0034133571198075169 0 -0.02273095583296884 -0.0036716180881645371 0 -0.02176980956097678 -0.0027164561336896582 0 -0.022588436224251298 -0.0052396410614127193 0 -0.021690846977544417 -0.0061290771027909816 0 -0.021267794121786015 -0.0054197038342710035 0 -0.022588436224251298 -0.0052396410614127193 0 -0.022727780238146353 -0.0059551614618536895 0 -0.021690846977544417 -0.0061290771027909816 0 -0.02273095583296884 -0.0036716180881645371 0 -0.021000394577315677 -0.0035112869599511045 0 -0.019342838280086067 -0.0027839394253357068 0 -0.019239128622006305 -0.0008022866266915715 0 -0.016613718194931189 -0.00039337876385673107 0 -0.021872656361448955 -0.0012254504863666545 0 -0.019342838280086067 -0.0027839394253357068 0 -0.019239128622006305 -0.0008022866266915715 0 -0.020257762638082374 -0.0061687621797812094 0 -0.020086011282439233 -0.0053505536980028639 0 -0.021267794121786015 -0.0054197038342710035 0 -0.021690846977544417 -0.0061290771027909816 0 -0.020257762638082374 -0.0061687621797812094 0 -0.021267794121786015 -0.0054197038342710035 0 -0.021000394577315677 -0.0035112869599511045 0 -0.014575181491827474 -0.0011956723111060225 0 -0.014575181491827474 -0.0011956723111060225 0 -0.018143859130710316 -0.0062882907134321131 0 -0.020086011282439233 -0.0053505536980028639 0 -0.021267794121786015 -0.0054197038342710035 0 -0.020783702743904744 -0.004268920462656112 0 -0.020086011282439233 -0.0053505536980028639 0 -0.020783702743904744 -0.004268920462656112 0 -0.01970718774071473 -0.0042412155006460199 0 -0.022588436224251298 -0.0052396410614127193 0 -0.021267794121786015 -0.0054197038342710035 0 -0.022275765355218313 -0.0045026726396502166 0 -0.021267794121786015 -0.0054197038342710035 0 -0.020783702743904744 -0.004268920462656112 0 -0.022275765355218313 -0.0045026726396502166 0 -0.022748584758107669 -0.0045711443419615234 0 -0.0228764262693157 -0.0045837982445588099 0 -0.022275765355218313 -0.0045026726396502166 0 -0.022428853934386116 -0.0030099276783256456 0 -0.022323644678687728 -0.0044933143270852469 0 -0.022099374548513247 -0.0016828252854067798 0 -0.022275765355218313 -0.0045026726396502166 0 -0.021077797503386703 -0.0030660596755447186 0 -0.020783702743904744 -0.004268920462656112 0 -0.022275765355218313 -0.0045026726396502166 0 -0.021077797503386703 -0.0030660596755447186 0 -0.020783702743904744 -0.004268920462656112 0 -0.01970718774071473 -0.0042412155006460199 0 -0.019641163409895166 -0.002972035449893501 0 -0.020783702743904744 -0.004268920462656112 0 -0.021077797503386703 -0.0030660596755447186 0 -0.019641163409895166 -0.002972035449893501 0 -0.020679494359524837 -0.0018601362031255137 0 -0.021077797503386703 -0.0030660596755447186 0 -0.019641163409895166 -0.002972035449893501 0 -0.019641163409895166 -0.002972035449893501 0 -0.018291702096059199 -0.0043159715031133332 0 -0.017858455306523073 -0.002265278385835962 0 -0.01970718774071473 -0.0042412155006460199 0 -0.019641163409895166 -0.002972035449893501 0 -0.018291702096059199 -0.0043159715031133332 0 -0.01617083445037339 -0.0030661021494203431 0 -0.018291702096059199 -0.0043159715031133332 0 -0.017858455306523073 -0.002265278385835962 0 -0.01617083445037339 -0.0030661021494203431 0 -0.018291702096059199 -0.0043159715031133332 0 -0.016395184578642176 -0.005985718261682072 0 -0.018291702096059199 -0.0043159715031133332 0 -0.018213896003660225 -0.0062762017513688919 0 -0.016395184578642176 -0.005985718261682072 0 -0.0093602504363301496 -0.00012171216687856761 0 -0.0070611443816818685 -0.00089890206269596206 0 -0.020086011282439233 -0.0053505536980028639 0 -0.018291702096059199 -0.0043159715031133332 0 -0.018213896003660225 -0.0062762017513688919 0 -0.020086011282439233 -0.0053505536980028639 0 -0.01970718774071473 -0.0042412155006460199 0 -0.018291702096059199 -0.0043159715031133332 0 -0.003939289410561435 0.0027533129326223651 0 -0.0032392249031507362 0.002378258142976829 0 -0.0030955537427828964 0.0028625507384264989 0 -0.014575181491827474 -0.0011956723111060225 0 -0.010653820938536665 -0.0016752556997169403 0 -0.020112466864716027 -0.0065440886357666555 0 -0.020086011282439233 -0.0053505536980028639 0 -0.018213896003660225 -0.0062762017513688919 0 -0.003939289410561435 0.0027533129326223651 0 -0.0032392249031507362 0.002378258142976829 0 -0.0034418263458611963 0.0019231331862465978 0 -0.0032392249031507362 0.002378258142976829 0 -0.0030955537427828964 0.0028625507384264989 0 -0.0027434736747740359 0.0024753770587710943 0 -0.0032392249031507362 0.002378258142976829 0 -0.0027434736747740359 0.0024753770587710943 0 -0.0027461896432810352 0.0021557100274866951 0 -0.0030955537427828964 0.0028625507384264989 0 -0.002245983835659689 0.0029105908837437099 0 -0.0022577752770665338 0.0026204128341180051 0 -0.0030955537427828964 0.0028625507384264989 0 -0.0022577752770665338 0.0026204128341180051 0 -0.0027434736747740359 0.0024753770587710943 0 -0.010653820938536665 -0.0016752556997169403 0 -0.0070611443816818685 -0.00089890206269596206 0 -0.0070611443816818685 -0.00089890206269596206 0 -0.0056543279051641882 0.0017263826293716406 0 -0.0022124737391546628 0.0027689190962387942 0 -0.0022577752770665338 0.0026204128341180051 0 -0.0019427431380755506 0.0025908617563636929 0 -0.0022577752770665338 0.0026204128341180051 0 -0.002119640786826396 0.0023097540052485679 0 -0.0019427431380755506 0.0025908617563636929 0 -0.0022577752770665338 0.0026204128341180051 0 -0.002413285978583242 0.0023848140906023688 0 -0.002119640786826396 0.0023097540052485679 0 -0.0022577752770665338 0.0026204128341180051 0 -0.002413285978583242 0.0023848140906023688 0 -0.0027434736747740359 0.0024753770587710943 0 -0.002413285978583242 0.0023848140906023688 0 -0.0027434736747740359 0.0024753770587710943 0 -0.0027461896432810352 0.0021557100274866951 0 -0.002413285978583242 0.0023848140906023688 0 -0.0027461896432810352 0.0021557100274866951 0 -0.0024042142645934357 0.0020812081072448434 0 -0.0027461896432810352 0.0021557100274866951 0 -0.0024042142645934357 0.0020812081072448434 0 -0.0027304930798044726 0.0018546731155697843 0 -0.002119640786826396 0.0023097540052485679 0 -0.0024042142645934357 0.0020812081072448434 0 -0.0020607961276066233 0.002075190165349673 0 -0.002413285978583242 0.0023848140906023688 0 -0.002119640786826396 0.0023097540052485679 0 -0.0024042142645934357 0.0020812081072448434 0 -0.0024042142645934357 0.0020812081072448434 0 -0.0020607961276066233 0.002075190165349673 0 -0.0022042265671119677 0.001787813158727588 0 -0.0024042142645934357 0.0020812081072448434 0 -0.0022042265671119677 0.001787813158727588 0 -0.0027304930798044726 0.0018546731155697843 0 -0.0022042265671119677 0.001787813158727588 0 -0.0027304930798044726 0.0018546731155697843 0 -0.0026071813885832889 0.0015298137175764877 0 -0.0027304930798044726 0.0018546731155697843 0 -0.0030575207155250522 0.0016489310318086848 0 -0.0026071813885832889 0.0015298137175764877 0 -0.0027304930798044726 0.0018546731155697843 0 -0.0030634484516585893 0.001938295659276052 0 -0.0030575207155250522 0.0016489310318086848 0 -0.0030634484516585893 0.001938295659276052 0 -0.0030575207155250522 0.0016489310318086848 0 -0.0034418263458611963 0.0019231331862465978 0 -0.0030575207155250522 0.0016489310318086848 0 -0.0034418263458611963 0.0019231331862465978 0 -0.0033954529506095028 0.0012379387097279212 0 -0.0039810872034935401 0.0015628068631894677 0 -0.0034418263458611963 0.0019231331862465978 0 -0.0033954529506095028 0.0012379387097279212 0 -0.0032392249031507362 0.002378258142976829 0 -0.0030634484516585893 0.001938295659276052 0 -0.0034418263458611963 0.0019231331862465978 0 -0.0032392249031507362 0.002378258142976829 0 -0.0027461896432810352 0.0021557100274866951 0 -0.0030634484516585893 0.001938295659276052 0 -0.0027461896432810352 0.0021557100274866951 0 -0.0027304930798044726 0.0018546731155697843 0 -0.0030634484516585893 0.001938295659276052 0 -0.00096565911480260916 0.0020413283820438044 0 -0.0013481414666249149 0.0020234352846859893 0 -0.001301678547606243 0.00235678190186273 0 -0.0013481414666249149 0.0020234352846859893 0 -0.001526370274613921 0.0022494671586667371 0 -0.001301678547606243 0.00235678190186273 0 -0.00096565911480260916 0.0020413283820438044 0 -0.0013481414666249149 0.0020234352846859893 0 -0.0010420251707713313 0.0017164467905949009 0 -0.0013481414666249149 0.0020234352846859893 0 -0.0014459666916706469 0.0017504359007390108 0 -0.0010420251707713313 0.0017164467905949009 0 -0.0013481414666249149 0.0020234352846859893 0 -0.0017341807244821111 0.0019709698145077021 0 -0.0014459666916706469 0.0017504359007390108 0 -0.0022042265671119677 0.001787813158727588 0 -0.0017341807244821111 0.0019709698145077021 0 -0.0017969534232698968 0.0015240185683070466 0 -0.0020607961276066233 0.002075190165349673 0 -0.0022042265671119677 0.001787813158727588 0 -0.0017341807244821111 0.0019709698145077021 0 -0.0020607961276066233 0.002075190165349673 0 -0.0017341807244821111 0.0019709698145077021 0 -0.0018078700682818357 0.0023228300788709099 0 -0.002119640786826396 0.0023097540052485679 0 -0.0020607961276066233 0.002075190165349673 0 -0.0018078700682818357 0.0023228300788709099 0 -0.0017341807244821111 0.0019709698145077021 0 -0.001526370274613921 0.0022494671586667371 0 -0.0018078700682818357 0.0023228300788709099 0 -0.0013481414666249149 0.0020234352846859893 0 -0.0017341807244821111 0.0019709698145077021 0 -0.001526370274613921 0.0022494671586667371 0 -0.001526370274613921 0.0022494671586667371 0 -0.0018078700682818357 0.0023228300788709099 0 -0.0015820211522407604 0.0025300124813477276 0 -0.0018078700682818357 0.0023228300788709099 0 -0.0019427431380755506 0.0025908617563636929 0 -0.0015820211522407604 0.0025300124813477276 0 -0.002119640786826396 0.0023097540052485679 0 -0.0018078700682818357 0.0023228300788709099 0 -0.0019427431380755506 0.0025908617563636929 0 -0.0019427431380755506 0.0025908617563636929 0 -0.0015820211522407604 0.0025300124813477276 0 -0.0017901493526739909 0.0027154304755784568 0 -0.0070611443816818685 -0.00089890206269596206 0 -0.0010074818983721147 0.0018950412494821234 0 -0.0022124737391546628 0.0027689190962387942 0 -0.0019427431380755506 0.0025908617563636929 0 -0.0017901493526739909 0.0027154304755784568 0 -0.0015820211522407604 0.0025300124813477276 0 -0.0013610486618009638 0.0027696979779982742 0 -0.0017901493526739909 0.0027154304755784568 0 -0.0010575099138909435 0.0024933760010831451 0 -0.001301678547606243 0.00235678190186273 0 -0.0013610486618009638 0.0027696979779982742 0 -0.00096565911480260916 0.0020413283820438044 0 -0.0010575099138909435 0.0024933760010831451 0 -0.001301678547606243 0.00235678190186273 0 -0.0015820211522407604 0.0025300124813477276 0 -0.001301678547606243 0.00235678190186273 0 -0.0013610486618009638 0.0027696979779982742 0 -0.001526370274613921 0.0022494671586667371 0 -0.0015820211522407604 0.0025300124813477276 0 -0.001301678547606243 0.00235678190186273 0 -0.0013610486618009638 0.0027696979779982742 0 -0.0014459238372930461 0.0031921790438409641 0 -0.00098989292865740014 0.0029628170667302775 0 -0.0010575099138909435 0.0024933760010831451 0 -0.0013610486618009638 0.0027696979779982742 0 -0.00098989292865740014 0.0029628170667302775 0 -0.0013610486618009638 0.0027696979779982742 0 -0.001735582792721155 0.0029044926652634839 0 -0.0014459238372930461 0.0031921790438409641 0 -0.0020063156349429314 0.0031970332491820914 0 -0.0020392256842733636 0.0026438234476129966 0 -0.001735582792721155 0.0029044926652634839 0 -0.0020392256842733636 0.0026438234476129966 0 -0.0017901493526739909 0.0027154304755784568 0 -0.001735582792721155 0.0029044926652634839 0 -0.0013610486618009638 0.0027696979779982742 0 -0.0017901493526739909 0.0027154304755784568 0 -0.001735582792721155 0.0029044926652634839 0 -0.0020063156349429314 0.0031970332491820914 0 -0.001735582792721155 0.0029044926652634839 0 -0.0014459238372930461 0.0031921790438409641 0 -0.0014459238372930461 0.0031921790438409641 0 -0.0010706480328025968 0.0035488834118204008 0 -0.00098989292865740014 0.0029628170667302775 0 -0.0014459238372930461 0.0031921790438409641 0 -0.0015754291931578031 0.0036747119058531366 0 -0.0010706480328025968 0.0035488834118204008 0 -0.0015754291931578031 0.0036747119058531366 0 -0.0012474979090266638 0.0039021292545604871 0 -0.0015033979617630571 0.0040808069155900155 0 -0.0012474979090266638 0.0039021292545604871 0 -0.0015033979617630571 0.0040808069155900155 0 -0.0014297958366699319 0.0043483975743195081 0 -0.0015754291931578031 0.0036747119058531366 0 -0.0015033979617630571 0.0040808069155900155 0 -0.0017788505000711386 0.0040788664078506712 0 -0.0015754291931578031 0.0036747119058531366 0 -0.0012474979090266638 0.0039021292545604871 0 -0.0010706480328025968 0.0035488834118204008 0 -0.0015754291931578031 0.0036747119058531366 0 -0.0020310414618749063 0.0038200609531671608 0 -0.0017788505000711386 0.0040788664078506712 0 -0.0020063156349429314 0.0031970332491820914 0 -0.0014459238372930461 0.0031921790438409641 0 -0.0015754291931578031 0.0036747119058531366 0 -0.0020063156349429314 0.0031970332491820914 0 -0.0015754291931578031 0.0036747119058531366 0 -0.0020310414618749063 0.0038200609531671608 0 -0.015896920977589806 -0.00017557749331676954 0 -0.017858455306523073 -0.002265278385835962 0 -0.019058958553699545 -0.00075632740276784338 0 -0.0093602504363301496 -0.00012171216687856761 0 -0.0089317993107673448 0.0018609589524202111 0 -0.01617083445037339 -0.0030661021494203431 0 -0.015896920977589806 -0.00017557749331676954 0 -0.017858455306523073 -0.002265278385835962 0 -0.019641163409895166 -0.002972035449893501 0 -0.017858455306523073 -0.002265278385835962 0 -0.019058958553699545 -0.00075632740276784338 0 -0.020115926778617128 0.00079837137796048385 0 -0.019058958553699545 -0.00075632740276784338 0 -0.018073963276749854 0.0017637446046313407 0 -0.015896920977589806 -0.00017557749331676954 0 -0.019058958553699545 -0.00075632740276784338 0 -0.018073963276749854 0.0017637446046313407 0 -0.018073963276749854 0.0017637446046313407 0 -0.015629855257764346 0.0027058775128833618 0 -0.015661186992153374 0.0023699062366357676 0 -0.015896920977589806 -0.00017557749331676954 0 -0.018073963276749854 0.0017637446046313407 0 -0.015661186992153374 0.0023699062366357676 0 -0.020156663160775256 0.0023490458280238696 0 -0.018073963276749854 0.0017637446046313407 0 -0.018437384817406685 0.0038116525862366738 0 -0.018073963276749854 0.0017637446046313407 0 -0.018437384817406685 0.0038116525862366738 0 -0.016901458188517838 0.003540810045920779 0 -0.019827508390365563 0.00049208269745378735 0 -0.018605738770197638 0.0015903604020587314 0 -0.016749400206604564 0.0052459553240477236 0 -0.016901458188517838 0.003540810045920779 0 -0.015623020189556903 0.0041523980190138043 0 -0.016749400206604564 0.0052459553240477236 0 -0.018437384817406685 0.0038116525862366738 0 -0.016901458188517838 0.003540810045920779 0 -0.018073963276749854 0.0017637446046313407 0 -0.016901458188517838 0.003540810045920779 0 -0.015629855257764346 0.0027058775128833618 0 -0.016901458188517838 0.003540810045920779 0 -0.015623020189556903 0.0041523980190138043 0 -0.015629855257764346 0.0027058775128833618 0 -0.0021362945234187866 0.0049040645167211482 0 -0.0014297958366699319 0.0043483975743195081 0 -0.0018288793366495826 0.0043974014648284895 0 -0.011908840972073034 -0.0011595084831411118 0 -0.012265506420129357 -0.0011923343518460898 0 -0.01178476845505229 -0.0016875580994901457 0 -0.0021362945234187866 0.0049040645167211482 0 -0.0020835132929294411 0.0045330944630030809 0 -0.0018288793366495826 0.0043974014648284895 0 -0.010103113309161096 0.002201622641361348 0 -0.0060538627991938536 0.0011280695967889754 0 -0.010103113309161096 0.002201622641361348 0 -0.0088011052115210368 0.0039159281587012292 0 -0.011908840972073034 -0.0011595084831411118 0 -0.01178476845505229 -0.0016875580994901457 0 -0.011620231461901996 -0.0015978334927617321 0 -0.011938259505695922 -0.0012209189721396857 0 -0.01185696435729962 -0.0015955013807173132 0 -0.012473765209513765 -0.0012477904836156193 0 -0.01215588339626732 -0.0012919326186164408 0 -0.012011599736850835 -0.0016510337782397852 0 -0.0015033979617630571 0.0040808069155900155 0 -0.0014297958366699319 0.0043483975743195081 0 -0.0018288793366495826 0.0043974014648284895 0 -0.0017788505000711386 0.0040788664078506712 0 -0.0020769961045962364 0.0044468668963096886 0 -0.0018288793366495826 0.0043974014648284895 0 -0.0089317993107673448 0.0018609589524202111 0 -0.0088483207335792284 0.0034794550727971279 0 -0.0015033979617630571 0.0040808069155900155 0 -0.0017788505000711386 0.0040788664078506712 0 -0.0018288793366495826 0.0043974014648284895 0 -0.0020310414618749063 0.0038200609531671608 0 -0.0017788505000711386 0.0040788664078506712 0 -0.0020769961045962364 0.0044468668963096886 0 -0.0020835132929294411 0.0045330944630030809 0 -0.0020769961045962364 0.0044468668963096886 0 -0.0018288793366495826 0.0043974014648284895 0 -0.0088011052115210368 0.0039159281587012292 0 -0.0088483207335792284 0.0034794550727971279 0 -0.011621878827699848 -0.0017085670451054051 0 -0.011727120017480107 -0.0015009400016335634 0 -0.011489260667407969 -0.001559347034770963 0 -0.011621878827699848 -0.0017085670451054051 0 -0.011355975942600346 -0.0017903615537040666 0 -0.011489260667407969 -0.001559347034770963 0 -0.011355975942600346 -0.0017903615537040666 0 -0.011489260667407969 -0.001559347034770963 0 -0.011237124746327359 -0.0016174424375238023 0 -0.011355975942600346 -0.0017903615537040666 0 -0.011091563595783163 -0.0018266494455050802 0 -0.011268780352032404 -0.0019933313845086906 0 -0.011621878827699848 -0.0017085670451054051 0 -0.011355975942600346 -0.0017903615537040666 0 -0.01146374198063619 -0.0019769746079742077 0 -0.01178476845505229 -0.0016875580994901457 0 -0.011620231461901996 -0.0015978334927617321 0 -0.01146374198063619 -0.0019769746079742077 0 -0.011621878827699848 -0.0017085670451054051 0 -0.012011599736850835 -0.0016510337782397852 0 -0.01146374198063619 -0.0019769746079742077 0 -0.01185696435729962 -0.0015955013807173132 0 -0.011492915649082416 -0.001952751243542315 0 -0.011621878827699848 -0.0017085670451054051 0 -0.012011599736850835 -0.0016510337782397852 0 -0.011727120017480107 -0.0015009400016335634 0 -0.012011599736850835 -0.0016510337782397852 0 -0.011727120017480107 -0.0015009400016335634 0 -0.011919398752065803 -0.0012794698535434537 0 -0.01215588339626732 -0.0012919326186164408 0 -0.012011599736850835 -0.0016510337782397852 0 -0.011919398752065803 -0.0012794698535434537 0 -0.011727120017480107 -0.0015009400016335634 0 -0.011919398752065803 -0.0012794698535434537 0 -0.011620210510857491 -0.0013107913295528695 0 -0.011727120017480107 -0.0015009400016335634 0 -0.011620210510857491 -0.0013107913295528695 0 -0.011489260667407969 -0.001559347034770963 0 -0.011489260667407969 -0.001559347034770963 0 -0.011321213154065684 -0.0013277564589810058 0 -0.011237124746327359 -0.0016174424375238023 0 -0.011620210510857491 -0.0013107913295528695 0 -0.011489260667407969 -0.001559347034770963 0 -0.011321213154065684 -0.0013277564589810058 0 -0.011067809790547372 -0.0011979474253974213 0 -0.011321213154065684 -0.0013277564589810058 0 -0.010927050952613926 -0.0015678843596464605 0 -0.011321213154065684 -0.0013277564589810058 0 -0.010927050952613926 -0.0015678843596464605 0 -0.011237124746327359 -0.0016174424375238023 0 -0.010700173030783036 -0.0011457290249740119 0 -0.010927050952613926 -0.0015678843596464605 0 -0.010415611723798207 -0.0014687900154820353 0 -0.010700173030783036 -0.0011457290249740119 0 -0.011067809790547372 -0.0011979474253974213 0 -0.010927050952613926 -0.0015678843596464605 0 -0.010927050952613926 -0.0015678843596464605 0 -0.010760056770116875 -0.001902575173716502 0 -0.010502715039067474 -0.0017378357590878259 0 -0.010927050952613926 -0.0015678843596464605 0 -0.010502715039067474 -0.0017378357590878259 0 -0.010415611723798207 -0.0014687900154820353 0 -0.010927050952613926 -0.0015678843596464605 0 -0.011091563595783163 -0.0018266494455050802 0 -0.010760056770116875 -0.001902575173716502 0 -0.010927050952613926 -0.0015678843596464605 0 -0.011237124746327359 -0.0016174424375238023 0 -0.011091563595783163 -0.0018266494455050802 0 -0.011355975942600346 -0.0017903615537040666 0 -0.011237124746327359 -0.0016174424375238023 0 -0.011091563595783163 -0.0018266494455050802 0 -0.011091563595783163 -0.0018266494455050802 0 -0.01097705679463846 -0.0020080778167155689 0 -0.011268780352032404 -0.0019933313845086906 0 -0.01097705679463846 -0.0020080778167155689 0 -0.010760056770116875 -0.001902575173716502 0 -0.010803987110874731 -0.0021989424483960058 0 -0.011091563595783163 -0.0018266494455050802 0 -0.01097705679463846 -0.0020080778167155689 0 -0.010760056770116875 -0.001902575173716502 0 -0.01097705679463846 -0.0020080778167155689 0 -0.011135204742977512 -0.0021788359416114299 0 -0.010803987110874731 -0.0021989424483960058 0 -0.01097705679463846 -0.0020080778167155689 0 -0.011135204742977512 -0.0021788359416114299 0 -0.011268780352032404 -0.0019933313845086906 0 -0.010760056770116875 -0.001902575173716502 0 -0.010413622824339802 -0.0020606281467758702 0 -0.010502715039067474 -0.0017378357590878259 0 -0.010760056770116875 -0.001902575173716502 0 -0.010803987110874731 -0.0021989424483960058 0 -0.010413622824339802 -0.0020606281467758702 0 -0.010803987110874731 -0.0021989424483960058 0 -0.010514164139929382 -0.002337368733056774 0 -0.010413622824339802 -0.0020606281467758702 0 -0.010803987110874731 -0.0021989424483960058 0 -0.010514164139929382 -0.002337368733056774 0 -0.010662317469842607 -0.0025129565724708149 0 -0.010514164139929382 -0.002337368733056774 0 -0.010662317469842607 -0.0025129565724708149 0 -0.010403067548368087 -0.0025396032274028692 0 -0.010803987110874731 -0.0021989424483960058 0 -0.011014309843146419 -0.0025254921431461796 0 -0.010662317469842607 -0.0025129565724708149 0 -0.011135204742977512 -0.0021788359416114299 0 -0.010803987110874731 -0.0021989424483960058 0 -0.011014309843146419 -0.0025254921431461796 0 -0.00076416907648034081 0.0037806894847551885 0 -0.00062461528876544517 0.0032780860117835437 0 -0.00028640399107195076 0.0032590115672533958 0 -0.011135204742977512 -0.0021788359416114299 0 -0.011511300245612409 -0.0021106267447441401 0 -0.011014309843146419 -0.0025254921431461796 0 -0.0062072461925513625 0.00091944998427519685 0 -0.0058867271044319765 0.00016837767376003208 0 -0.011135204742977512 -0.0021788359416114299 0 -0.011268780352032404 -0.0019933313845086906 0 -0.011511300245612409 -0.0021106267447441401 0 -0.01146374198063619 -0.0019769746079742077 0 -0.011268780352032404 -0.0019933313845086906 0 -0.011511300245612409 -0.0021106267447441401 0 -0.011355975942600346 -0.0017903615537040666 0 -0.01146374198063619 -0.0019769746079742077 0 -0.011268780352032404 -0.0019933313845086906 0 -0.01178476845505229 -0.0016875580994901457 0 -0.01146374198063619 -0.0019769746079742077 0 -0.011511300245612409 -0.0021106267447441401 0 -0.0060538627991938536 0.0011280695967889754 0 -0.0062072461925513625 0.00091944998427519685 0 -0.0012474979090266638 0.0039021292545604871 0 -0.00076416907648034081 0.0037806894847551885 0 -0.0010706480328025968 0.0035488834118204008 0 -0.0012474979090266638 0.0039021292545604871 0 -0.0014297958366699319 0.0043483975743195081 0 -0.00076416907648034081 0.0037806894847551885 0 -0.00076416907648034081 0.0037806894847551885 0 -0.0010706480328025968 0.0035488834118204008 0 -0.00062461528876544517 0.0032780860117835437 0 -0.0010429376214180714 0.0035369989081488083 0 -0.00082875171618305738 0.0030041340446926908 0 -0.00062461528876544517 0.0032780860117835437 0 -0.00038552825048951075 0.0029773389118793693 0 -0.0006700177863231435 0.003002846803481177 0 -0.0010706480328025968 0.0035488834118204008 0 -0.00062461528876544517 0.0032780860117835437 0 -0.0006700177863231435 0.003002846803481177 0 -0.00062461528876544517 0.0032780860117835437 0 -0.00038552825048951075 0.0029773389118793693 0 -0.00028640399107195076 0.0032590115672533958 0 -0.00038552825048951075 0.0029773389118793693 0 -0.0006700177863231435 0.003002846803481177 0 -0.00028275523038173543 0.0028241740501652162 0 -0.0006700177863231435 0.003002846803481177 0 -0.00031218196535098234 0.0027752041066201271 0 -0.00028275523038173543 0.0028241740501652162 0 -0.00096565911480260916 0.0020413283820438044 0 -0.0010575099138909435 0.0024933760010831451 0 -0.00071721540259107018 0.002271450507053865 0 -0.0010575099138909435 0.0024933760010831451 0 -0.00098989292865740014 0.0029628170667302775 0 -0.00071721540259107018 0.002271450507053865 0 -0.00082875171618305738 0.0030041340446926908 0 -0.0005166921983768859 0.00251854695661068 0 -0.00031218196535098234 0.0027752041066201271 0 -0.00028275523038173543 0.0028241740501652162 0 -0.00012414072339133047 0.0026382196184003472 0 -0.00049858787673144676 0.002419691825101222 0 0.001213778626586666 0.003438552053085759 0 -0.00038552825048951075 0.0029773389118793693 0 -0.00028275523038173543 0.0028241740501652162 0 -0.00026959749961788005 0.0028625812455882289 0 0.00058887641897220112 0.0026837910441705887 0 -0.00012414072339133047 0.0026382196184003472 0 0.00087845248992065781 0.0030672619718035725 0 -0.00028275523038173543 0.0028241740501652162 0 -0.00012414072339133047 0.0026382196184003472 0 -0.00026959749961788005 0.0028625812455882289 0 0.00058887641897220112 0.0026837910441705887 0 0.0003951787647701342 0.0025133857286599517 0 -0.00012414072339133047 0.0026382196184003472 0 0.00058887641897220112 0.0026837910441705887 0 0.0003951787647701342 0.0025133857286599517 0 0.00073173619544057993 0.0024745656061105313 0 0.0003951787647701342 0.0025133857286599517 0 0.00073173619544057993 0.0024745656061105313 0 0.00036412093427163326 0.0022199901535517432 0 0.0003951787647701342 0.0025133857286599517 0 -0.00012414072339133047 0.0026382196184003472 0 0.00036412093427163326 0.0022199901535517432 0 -0.00096565911480260916 0.0020413283820438044 0 -0.00071721540259107018 0.002271450507053865 0 -0.00038704161708271844 0.0014853351228041355 0 -0.00031218196535098234 0.0027752041066201271 0 -0.00012414072339133047 0.0026382196184003472 0 4.3482064883444993e-05 0.001901729747959869 0 -0.0005166921983768859 0.00251854695661068 0 -0.0001641335467564246 0.0016784561279504138 0 0.0013253992046575816 0.0027163018697467412 0 0.0015457733520052841 0.0026167029004664851 0 0.0012164711083529811 0.0025186505379895881 0 0.0015457733520052841 0.0026167029004664851 0 0.0015555784016901741 0.0023793785207714209 0 0.0012164711083529811 0.0025186505379895881 0 0.0015457733520052841 0.0026167029004664851 0 0.0017645065884240039 0.0026815678608278441 0 0.0017426365195902826 0.0024809430619271637 0 0.0015457733520052841 0.0026167029004664851 0 0.0015555784016901741 0.0023793785207714209 0 0.0017426365195902826 0.0024809430619271637 0 0.0015555784016901741 0.0023793785207714209 0 0.0017518266009412544 0.0022967516494790531 0 0.0017426365195902826 0.0024809430619271637 0 0.0015555784016901741 0.0023793785207714209 0 0.0012164711083529811 0.0025186505379895881 0 0.0012935724834994846 0.0021166287428036278 0 0.0010311737216100667 0.0023094262887063313 0 0.0012164711083529811 0.0025186505379895881 0 0.0012935724834994846 0.0021166287428036278 0 0.0010311737216100667 0.0023094262887063313 0 0.00073173619544057993 0.0024745656061105313 0 0.0012164711083529811 0.0025186505379895881 0 0.0010311737216100667 0.0023094262887063313 0 0.00073173619544057993 0.0024745656061105313 0 0.00088580118714042715 0.0020916974476873317 0 0.00073173619544057993 0.0024745656061105313 0 0.00098649198730817547 0.0027433936362719689 0 0.0012164711083529811 0.0025186505379895881 0 0.00058887641897220112 0.0026837910441705887 0 0.00073173619544057993 0.0024745656061105313 0 0.00098649198730817547 0.0027433936362719689 0 0.0013253992046575816 0.0027163018697467412 0 0.00098649198730817547 0.0027433936362719689 0 0.0012164711083529811 0.0025186505379895881 0 0.0013253992046575816 0.0027163018697467412 0 0.00098649198730817547 0.0027433936362719689 0 0.0012143192747220931 0.00292277801221682 0 0.00098649198730817547 0.0027433936362719689 0 0.0012143192747220931 0.00292277801221682 0 0.00087845248992065781 0.0030672619718035725 0 0.0012143192747220931 0.00292277801221682 0 0.00087845248992065781 0.0030672619718035725 0 0.001432133677647136 0.003358646873204447 0 0.00058887641897220112 0.0026837910441705887 0 0.00098649198730817547 0.0027433936362719689 0 0.00087845248992065781 0.0030672619718035725 0 0.0012143192747220931 0.00292277801221682 0 0.0015328601173089202 0.0028621031719469185 0 0.0016167825482610173 0.0030880007420219339 0 0.0015353839086892816 0.0031467746276683702 0 0.00043809724091984498 0.0029068878900475196 0 0.0013253992046575816 0.0027163018697467412 0 0.0012143192747220931 0.00292277801221682 0 0.0015328601173089202 0.0028621031719469185 0 0.0013253992046575816 0.0027163018697467412 0 0.0015457733520052841 0.0026167029004664851 0 0.0015328601173089202 0.0028621031719469185 0 0.0015457733520052841 0.0026167029004664851 0 0.0015328601173089202 0.0028621031719469185 0 0.0017645065884240039 0.0026815678608278441 0 0.0015328601173089202 0.0028621031719469185 0 0.0016642206061024606 0.002887758878860855 0 0.0017645065884240039 0.0026815678608278441 0 0.0015328601173089202 0.0028621031719469185 0 0.0016167825482610173 0.0030880007420219339 0 0.0016642206061024606 0.002887758878860855 0 0.00043809724091984498 0.0029068878900475196 0 0.0010548253386226867 0.0026800404471101001 0 0.0012143192747220931 0.00292277801221682 0 0.0015241856079585248 0.0032640185079809763 0 0.001432133677647136 0.003358646873204447 0 0.0016167825482610173 0.0030880007420219339 0 0.0017018854583744614 0.0029801571142153947 0 0.0016642206061024606 0.002887758878860855 0 0.00043809724091984498 0.0029068878900475196 0 -0.0036466221849206244 0.0014596929318855898 0 -0.00038552825048951075 0.0029773389118793693 0 -0.00026959749961788005 0.0028625812455882289 0 -0.00025415755656199492 0.0030013314582246205 0 0.001213778626586666 0.003438552053085759 0 -0.0036466221849206244 0.0014596929318855898 0 -0.00026959749961788005 0.0028625812455882289 0 -0.0001034475121022262 0.0029715994104836715 0 -0.00025415755656199492 0.0030013314582246205 0 -0.0001034475121022262 0.0029715994104836715 0 -0.00025415755656199492 0.0030013314582246205 0 -0.00028640399107195076 0.0032590115672533958 0 -0.00038552825048951075 0.0029773389118793693 0 -0.00025415755656199492 0.0030013314582246205 0 -0.00028640399107195076 0.0032590115672533958 0 -0.0036466221849206244 0.0014596929318855898 0 -0.0058867271044319765 0.00016837767376003208 0 -0.010513745724041115 -0.0028845435557529673 0 -0.010662317469842607 -0.0025129565724708149 0 -0.010403067548368087 -0.0025396032274028692 0 -0.010513745724041115 -0.0028845435557529673 0 -0.011014309843146419 -0.0025254921431461796 0 -0.010662317469842607 -0.0025129565724708149 0 -0.010513745724041115 -0.0028845435557529673 0 -0.010403067548368087 -0.0025396032274028692 0 -0.010074723507189277 -0.0025787295102472772 0 -0.0036466221849206244 0.0014596929318855898 0 -0.0047174464669124038 -0.00075812220778913254 0 -0.010403067548368087 -0.0025396032274028692 0 -0.010074723507189277 -0.0025787295102472772 0 -0.010294266974205771 -0.0023324382449501826 0 -0.0015746689317776362 -0.00037956795714439438 0 -0.0020759513741315278 -7.9899800191163007e-05 0 -0.0029321826223618979 -0.00013713190243240631 0 -0.0015011842890370072 -0.00028555084551607531 0 -0.0017750798403003037 -5.0537695559277658e-06 0 -0.0014206429998689335 0.00016593803939161955 0 -0.0015746689317776362 -0.00037956795714439438 0 -0.0015011842890370072 -0.00028555084551607531 0 -0.0020759513741315278 -7.9899800191163007e-05 0 -0.0039836042590026075 -0.00037941765330920649 0 -0.0047174464669124038 -0.00075812220778913254 0 -0.0015011842890370072 -0.00028555084551607531 0 -0.0017750798403003037 -5.0537695559277658e-06 0 -0.0020759513741315278 -7.9899800191163007e-05 0 -0.0017750798403003037 -5.0537695559277658e-06 0 -0.0020759513741315278 -7.9899800191163007e-05 0 -0.0019681089313273079 0.00011229158076132515 0 -0.0015011842890370072 -0.00028555084551607531 0 -0.0014206429998689335 0.00016593803939161955 0 -0.0010601573332824658 0.00027322364976130033 0 -0.0047174464669124038 -0.00075812220778913254 0 0.00088930277725571358 0.0021444582385294984 0 -0.0017750798403003037 -5.0537695559277658e-06 0 -0.0014206429998689335 0.00016593803939161955 0 -0.0019681089313273079 0.00011229158076132515 0 -0.0014206429998689335 0.00016593803939161955 0 -0.0010903811163599209 0.0002386800569500108 0 -0.0010601573332824658 0.00027322364976130033 0 -0.0014206429998689335 0.00016593803939161955 0 -0.0012669980451847226 0.00021906529532448509 0 -0.0019681089313273079 0.00011229158076132515 0 -0.0014206429998689335 0.00016593803939161955 0 -0.0010903811163599209 0.0002386800569500108 0 -0.0012669980451847226 0.00021906529532448509 0 0.00043809724091984498 0.0029068878900475196 0 -0.0047174464669124038 -0.00075812220778913254 0 0.0017840577558351873 0.0030977681671510932 0 0.0018940302557060682 0.003023751318165859 0 0.0017806670038658758 0.0030125079887318136 0 0.0016867761704016724 0.0030172196251455024 0 0.0017840577558351873 0.0030977681671510932 0 0.0017806670038658758 0.0030125079887318136 0 -0.0016745521054944408 0.0022133598982880739 0 -0.001128791445618327 0.0016663656079961625 0 -0.0045877550141533545 -0.00068212113739871084 0 0.0018940302557060682 0.003023751318165859 0 0.0017806670038658758 0.0030125079887318136 0 0.0018570986223119981 0.0028303493960066791 0 0.0016867761704016724 0.0030172196251455024 0 0.0017806670038658758 0.0030125079887318136 0 0.0017018854583744614 0.0029801571142153947 0 0.0017806670038658758 0.0030125079887318136 0 0.0017018854583744614 0.0029801571142153947 0 0.0017529315165088816 0.0028761963888598624 0 0.0017645065884240039 0.0026815678608278441 0 0.0018570986223119981 0.0028303493960066791 0 0.0019844615922294572 0.0024100360734197017 0 0.0017529315165088816 0.0028761963888598624 0 0.0016642206061024606 0.002887758878860855 0 0.0017645065884240039 0.0026815678608278441 0 0.0018944721566687786 0.002785585099616883 0 0.0019742198906013337 0.0020918250384236079 0 0.0017529315165088816 0.0028761963888598624 0 0.0017645065884240039 0.0026815678608278441 0 0.0018570986223119981 0.0028303493960066791 0 0.00088930277725571358 0.0021444582385294984 0 0.00099573519955318299 0.0011055657352519669 0 0.0017018854583744614 0.0029801571142153947 0 0.0017529315165088816 0.0028761963888598624 0 0.0016642206061024606 0.002887758878860855 0 0.0018940302557060682 0.003023751318165859 0 0.0018570986223119981 0.0028303493960066791 0 0.0020923629127091743 0.0020720217749382696 0 0.0017806670038658758 0.0030125079887318136 0 0.0017529315165088816 0.0028761963888598624 0 0.0018570986223119981 0.0028303493960066791 0 -0.0010903811163599209 0.0002386800569500108 0 -0.0010601573332824658 0.00027322364976130033 0 -0.00062728950530880343 0.0002506162920350834 0 -0.0010601573332824658 0.00027322364976130033 0 -0.00062728950530880343 0.0002506162920350834 0 -2.9405999854688363e-05 0.00024182699406737965 0 -0.0012669980451847226 0.00021906529532448509 0 -0.00062728950530880343 0.0002506162920350834 0 -0.00085400198130910685 0.00021007526105963837 0 -0.0010903811163599209 0.0002386800569500108 0 -0.0012669980451847226 0.00021906529532448509 0 -0.00062728950530880343 0.0002506162920350834 0 -0.00062728950530880343 0.0002506162920350834 0 -0.00014240036526394416 0.00023315939864586546 0 -0.00085400198130910685 0.00021007526105963837 0 -0.00062728950530880343 0.0002506162920350834 0 -0.00014240036526394416 0.00023315939864586546 0 -2.9405999854688363e-05 0.00024182699406737965 0 -0.00014240036526394416 0.00023315939864586546 0 0.00043742964773234739 0.00024022396299360437 0 0.00050709320222736074 0.00025705781989480194 0 -0.00014240036526394416 0.00023315939864586546 0 -2.9405999854688363e-05 0.00024182699406737965 0 0.00050709320222736074 0.00025705781989480194 0 0.0019720686464466341 0.0017619329891975933 0 0.0020923629127091743 0.0020720217749382696 0 0.0022048508064913827 0.0011085645663310611 0 0.0018570986223119981 0.0028303493960066791 0 0.0019720686464466341 0.0017619329891975933 0 0.0020923629127091743 0.0020720217749382696 0 0.0019844615922294572 0.0024100360734197017 0 0.0017518266009412544 0.0022967516494790531 0 0.0017426365195902826 0.0024809430619271637 0 0.0017645065884240039 0.0026815678608278441 0 0.0019844615922294572 0.0024100360734197017 0 0.0017426365195902826 0.0024809430619271637 0 -0.00023999602240508329 0.00015431143750442984 0 -0.0016817486502148278 3.1255103699056906e-07 0 0.00032839954223820502 3.5384805300758861e-07 0 -0.00014240036526394416 0.00023315939864586546 0 -0.00023999602240508329 0.00015431143750442984 0 0.00043742964773234739 0.00024022396299360437 0 -0.00014240036526394416 0.00023315939864586546 0 -0.00023999602240508329 0.00015431143750442984 0 -0.00085400198130910685 0.00021007526105963837 0 -0.0012669980451847226 0.00021906529532448509 0 -0.00085400198130910685 0.00021007526105963837 0 -0.0018439839150087725 0.00014471184966192719 0 -0.00023999602240508329 0.00015431143750442984 0 -0.00085400198130910685 0.00021007526105963837 0 -0.0016817486502148278 3.1255103699056906e-07 0 -0.00085400198130910685 0.00021007526105963837 0 -0.0016817486502148278 3.1255103699056906e-07 0 -0.0018439839150087725 0.00014471184966192719 0 -0.0016817486502148278 3.1255103699056906e-07 0 -0.0018439839150087725 0.00014471184966192719 0 -0.0036918152615561602 2.0503989206537487e-07 0 -0.0018439839150087725 0.00014471184966192719 0 -0.0028315134984663328 2.9792134206604321e-05 0 -0.0036918152615561602 2.0503989206537487e-07 0 -0.0012669980451847226 0.00021906529532448509 0 -0.0018439839150087725 0.00014471184966192719 0 -0.0019681089313273079 0.00011229158076132515 0 -0.0018439839150087725 0.00014471184966192719 0 -0.0019681089313273079 0.00011229158076132515 0 -0.0028315134984663328 2.9792134206604321e-05 0 -0.0028315134984663328 2.9792134206604321e-05 0 -0.0029321826223618979 -0.00013713190243240631 0 -0.0041869576764035406 -0.00013010248142899064 0 -0.0020759513741315278 -7.9899800191163007e-05 0 -0.0019681089313273079 0.00011229158076132515 0 -0.0025096096943943093 -1.1370709101284003e-05 0 -0.0020759513741315278 -7.9899800191163007e-05 0 -0.0025096096943943093 -1.1370709101284003e-05 0 -0.0029321826223618979 -0.00013713190243240631 0 -0.0019681089313273079 0.00011229158076132515 0 -0.0025096096943943093 -1.1370709101284003e-05 0 -0.0028315134984663328 2.9792134206604321e-05 0 -0.0025096096943943093 -1.1370709101284003e-05 0 -0.0028315134984663328 2.9792134206604321e-05 0 -0.0029321826223618979 -0.00013713190243240631 0 -0.0028315134984663328 2.9792134206604321e-05 0 -0.0036918152615561602 2.0503989206537487e-07 0 -0.0041869576764035406 -0.00013010248142899064 0 -0.0036918152615561602 2.0503989206537487e-07 0 -0.0041869576764035406 -0.00013010248142899064 0 -0.0057026953975555811 -1.3084483441897073e-06 0 -0.0041869576764035406 -0.00013010248142899064 0 -0.0051408953283909068 -0.00022338916369960424 0 -0.0057026953975555811 -1.3084483441897073e-06 0 -0.0041869576764035406 -0.00013010248142899064 0 -0.0051408953283909068 -0.00022338916369960424 0 -0.004274499176669621 -0.00034227178253514633 0 -0.0057026953975555811 -1.3084483441897073e-06 0 -0.0062231762007299287 -0.00038512914555279573 0 -0.0077128049201526227 2.4718177025095811e-07 0 -0.0051408953283909068 -0.00022338916369960424 0 -0.0057026953975555811 -1.3084483441897073e-06 0 -0.0062231762007299287 -0.00038512914555279573 0 -0.0051408953283909068 -0.00022338916369960424 0 -0.0062231762007299287 -0.00038512914555279573 0 -0.004274499176669621 -0.00034227178253514633 0 -0.0062231762007299287 -0.00038512914555279573 0 -0.0077840782943382888 -0.00043643574824189037 0 -0.0076444960507691135 -0.0015864361856622886 0 -0.0058815581368951491 -0.00038363453950796054 0 -0.0057851963313736458 -0.0010104370917485899 0 -0.0062231762007299287 -0.00038512914555279573 0 -0.0034576219890296105 -0.00038426646276353238 0 -0.004274499176669621 -0.00034227178253514633 0 -0.0020111312121017647 0.0006653244842943954 0 -0.0034576219890296105 -0.00038426646276353238 0 -0.004274499176669621 -0.00034227178253514633 0 -0.0039836042590026075 -0.00037941765330920649 0 -0.0031703553408907017 -3.5733995672721509e-05 0 -0.0015746689317776362 -0.00037956795714439438 0 -0.0029321826223618979 -0.00013713190243240631 0 -0.004274499176669621 -0.00034227178253514633 0 -0.0029321826223618979 -0.00013713190243240631 0 -0.0041869576764035406 -0.00013010248142899064 0 -0.004274499176669621 -0.00034227178253514633 0 -0.0084939607938486136 -0.0024006501416402272 0 -0.0085728035620535777 -0.0024828156138506107 0 -0.0085288482820891336 -0.0010520452849040476 0 -0.0039836042590026075 -0.00037941765330920649 0 -0.0057851963313736458 -0.0010104370917485899 0 -0.0047174464669124038 -0.00075812220778913254 0 -0.0097758264577875939 -0.0020219884722600299 0 -0.0084939607938486136 -0.0024006501416402272 0 -0.0076444960507691135 -0.0015864361856622886 0 -0.0085288482820891336 -0.0010520452849040476 0 -0.010074723507189277 -0.0025787295102472772 0 -0.010294266974205771 -0.0023324382449501826 0 -0.010071891806873135 -0.0021437506834108238 0 -0.010514164139929382 -0.002337368733056774 0 -0.010403067548368087 -0.0025396032274028692 0 -0.010294266974205771 -0.0023324382449501826 0 -0.010514164139929382 -0.002337368733056774 0 -0.010294266974205771 -0.0023324382449501826 0 -0.010413622824339802 -0.0020606281467758702 0 -0.010294266974205771 -0.0023324382449501826 0 -0.010413622824339802 -0.0020606281467758702 0 -0.010071891806873135 -0.0021437506834108238 0 -0.010413622824339802 -0.0020606281467758702 0 -0.010071891806873135 -0.0021437506834108238 0 -0.010016390627735263 -0.0016728534646782533 0 -0.0077840782943382888 -0.00043643574824189037 0 -0.0076444960507691135 -0.0015864361856622886 0 -0.0085288482820891336 -0.0010520452849040476 0 -0.0097758264577875939 -0.0020219884722600299 0 -0.0092001231911555195 -0.00071755160919569083 0 -0.0077840782943382888 -0.00043643574824189037 0 -0.0085288482820891336 -0.0010520452849040476 0 -0.0084450815612190366 4.8877840448978959e-05 0 -0.010016390627735263 -0.0016728534646782533 0 -0.010502715039067474 -0.0017378357590878259 0 -0.010415611723798207 -0.0014687900154820353 0 -0.010413622824339802 -0.0020606281467758702 0 -0.010016390627735263 -0.0016728534646782533 0 -0.010502715039067474 -0.0017378357590878259 0 -0.0098943270120507801 -0.0011067992216537948 0 -0.010700173030783036 -0.0011457290249740119 0 -0.010415611723798207 -0.0014687900154820353 0 -0.0094218376186260121 -0.00042781356054434269 0 -0.0092001231911555195 -0.00071755160919569083 0 -0.0098943270120507801 -0.0011067992216537948 0 -0.010016390627735263 -0.0016728534646782533 0 -0.010415611723798207 -0.0014687900154820353 0 -0.0088978977507791282 0.00020699628870538849 0 -0.0084450815612190366 4.8877840448978959e-05 0 -0.0079947917750742212 0.000119635241113865 0 -0.0087602671160128265 0.00014665191956669837 0 -0.0088978977507791282 0.00020699628870538849 0 -0.0079947917750742212 0.000119635241113865 0 -0.0097240736619216735 8.0626575722799755e-07 0 -0.0087602671160128265 0.00014665191956669837 0 -0.0077128049201526227 2.4718177025095811e-07 0 -0.0087602671160128265 0.00014665191956669837 0 -0.0077128049201526227 2.4718177025095811e-07 0 -0.0079947917750742212 0.000119635241113865 0 -0.0062231762007299287 -0.00038512914555279573 0 -0.0077128049201526227 2.4718177025095811e-07 0 -0.0079947917750742212 0.000119635241113865 0 -0.0077840782943382888 -0.00043643574824189037 0 -0.0084450815612190366 4.8877840448978959e-05 0 -0.0079947917750742212 0.000119635241113865 0 -0.0062231762007299287 -0.00038512914555279573 0 -0.0077840782943382888 -0.00043643574824189037 0 -0.0079947917750742212 0.000119635241113865 0 -0.027848316057022274 -0.003704449744365798 0 -0.027981658770480037 -0.0037064612583175738 0 -0.027964423023258023 -0.0040044362380711471 0 -0.027848316057022274 -0.003704449744365798 0 -0.027981658770480037 -0.0037064612583175738 0 -0.027908714308274841 -0.0036585243255654494 0 -0.027981658770480037 -0.0037064612583175738 0 -0.027914931861976376 -0.0036999193106009827 0 -0.027908714308274841 -0.0036585243255654494 0 -0.027981658770480037 -0.0037064612583175738 0 -0.027914931861976376 -0.0036999193106009827 0 -0.027821948626341537 -0.0037381409710466138 0 -0.027914931861976376 -0.0036999193106009827 0 -0.027908714308274841 -0.0036585243255654494 0 -0.027910053240433785 -0.0036633818363044214 0 -0.027848316057022274 -0.003704449744365798 0 -0.027908714308274841 -0.0036585243255654494 0 -0.027822212991884109 -0.0035542702376581701 0 -0.027908714308274841 -0.0036585243255654494 0 -0.027822212991884109 -0.0035542702376581701 0 -0.027910053240433785 -0.0036633818363044214 0 -0.027822212991884109 -0.0035542702376581701 0 -0.027604175042178325 -0.0035820306537794771 0 -0.027706410836424184 -0.0033701787166106794 0 -0.027848316057022274 -0.003704449744365798 0 -0.027822212991884109 -0.0035542702376581701 0 -0.027604175042178325 -0.0035820306537794771 0 -0.027706410836424184 -0.0033701787166106794 0 -0.027606387749585824 -0.0031599235677469539 0 -0.027380589219363843 -0.0034193722495709255 0 -0.027604175042178325 -0.0035820306537794771 0 -0.027706410836424184 -0.0033701787166106794 0 -0.027380589219363843 -0.0034193722495709255 0 -0.027604175042178325 -0.0035820306537794771 0 -0.027575010085845821 -0.0037929897596071928 0 -0.027132990095994028 -0.0038006748915375447 0 -0.027604175042178325 -0.0035820306537794771 0 -0.027132990095994028 -0.0038006748915375447 0 -0.027380589219363843 -0.0034193722495709255 0 -0.027848316057022274 -0.003704449744365798 0 -0.027604175042178325 -0.0035820306537794771 0 -0.027575010085845821 -0.0037929897596071928 0 -0.027848316057022274 -0.003704449744365798 0 -0.027575010085845821 -0.0037929897596071928 0 -0.027745040893888542 -0.0038997255758224606 0 -0.027745040893888542 -0.0038997255758224606 0 -0.027672648253893848 -0.0041671603362955882 0 -0.027964423023258023 -0.0040044362380711471 0 -0.027575010085845821 -0.0037929897596071928 0 -0.027745040893888542 -0.0038997255758224606 0 -0.027453514672429753 -0.0040284728725822963 0 -0.027745040893888542 -0.0038997255758224606 0 -0.027672648253893848 -0.0041671603362955882 0 -0.027453514672429753 -0.0040284728725822963 0 -0.027453514672429753 -0.0040284728725822963 0 -0.027029143921410068 -0.0041874601307458643 0 -0.027132990095994028 -0.0038006748915375447 0 -0.027575010085845821 -0.0037929897596071928 0 -0.027453514672429753 -0.0040284728725822963 0 -0.027132990095994028 -0.0038006748915375447 0 -0.027029143921410068 -0.0041874601307458643 0 -0.027376225029742834 -0.0043922482107642468 0 -0.026951784412519358 -0.0046361173121302031 0 -0.027453514672429753 -0.0040284728725822963 0 -0.027029143921410068 -0.0041874601307458643 0 -0.027376225029742834 -0.0043922482107642468 0 -0.027376225029742834 -0.0043922482107642468 0 -0.026951784412519358 -0.0046361173121302031 0 -0.027274606693066437 -0.0048047897431781166 0 -0.027672648253893848 -0.0041671603362955882 0 -0.027376225029742834 -0.0043922482107642468 0 -0.027733972273042015 -0.0046019719663522576 0 -0.027672648253893848 -0.0041671603362955882 0 -0.027964423023258023 -0.0040044362380711471 0 -0.027733972273042015 -0.0046019719663522576 0 -0.027672648253893848 -0.0041671603362955882 0 -0.027453514672429753 -0.0040284728725822963 0 -0.027376225029742834 -0.0043922482107642468 0 -0.027376225029742834 -0.0043922482107642468 0 -0.027733972273042015 -0.0046019719663522576 0 -0.027274606693066437 -0.0048047897431781166 0 -0.027695096234775916 -0.0037730819094170141 0 -0.027723175132937757 -0.0036404554011088388 0 -0.027535270320090469 -0.0037992706515418135 0 -0.027792192709154354 -0.0038622236296869034 0 -0.027880501908467428 -0.0041400080303444923 0 -0.02766135292254886 -0.0038078353819579734 0 -0.027695096234775916 -0.0037730819094170141 0 -0.027535270320090469 -0.0037992706515418135 0 -0.027546340817174317 -0.0027258585776096735 0 -0.027531306460392719 -0.0026969483833719551 0 -0.027577105465692916 -0.0026477919313146439 0 -0.02763630910923014 -0.0032624567856897203 0 -0.027681571312271606 -0.0032070621569846359 0 -0.02766135292254886 -0.0038078353819579734 0 -0.027695096234775916 -0.0037730819094170141 0 -0.027639835931640332 -0.0038451779867187505 0 -0.027478624876520988 -0.0027201801175976564 0 -0.027437572935346426 -0.0027125577983720104 0 -0.027456014275287478 -0.0026882346477714318 0 -0.027478624876520988 -0.0027201801175976564 0 -0.027491455985799503 -0.0026873453470899582 0 -0.027456014275287478 -0.0026882346477714318 0 -0.027478624876520988 -0.0027201801175976564 0 -0.027514598767826529 -0.0026949466505199562 0 -0.027491455985799503 -0.0026873453470899582 0 -0.027478624876520988 -0.0027201801175976564 0 -0.027502703720311647 -0.0027254654879610369 0 -0.027471463114258743 -0.0027658595759132761 0 -0.027546340817174317 -0.0027258585776096735 0 -0.027502703720311647 -0.0027254654879610369 0 -0.027514598767826529 -0.0026949466505199562 0 -0.027478624876520988 -0.0027201801175976564 0 -0.027502703720311647 -0.0027254654879610369 0 -0.027514598767826529 -0.0026949466505199562 0 -0.027546340817174317 -0.0027258585776096735 0 -0.027514598767826529 -0.0026949466505199562 0 -0.027531306460392719 -0.0026969483833719551 0 -0.027546340817174317 -0.0027258585776096735 0 -0.027502703720311647 -0.0027254654879610369 0 -0.027471463114258743 -0.0027658595759132761 0 -0.027478624876520988 -0.0027201801175976564 0 -0.027471463114258743 -0.0027658595759132761 0 -0.027441430032046129 -0.0027450425893695641 0 -0.027695096234775916 -0.0037730819094170141 0 -0.027723175132937757 -0.0036404554011088388 0 -0.027827312170387489 -0.0036175463447795514 0 -0.027848316057022274 -0.003704449744365798 0 -0.027745040893888542 -0.0038997255758224606 0 -0.027964423023258023 -0.0040044362380711471 0 -0.027646772058637758 -0.0032526310620474082 0 -0.027573028573141825 -0.0033390514839299872 0 -0.027576216211756939 -0.0033309104324507352 0 -0.027906465602518405 -0.0036649931329587309 0 -0.027792192709154354 -0.0038622236296869034 0 -0.027834135618144733 -0.0036040957512537713 0 -0.027723175132937757 -0.0036404554011088388 0 -0.027827312170387489 -0.0036175463447795514 0 -0.02733744688804781 -0.0029682563874814209 0 -0.027327376189878207 -0.0029102591540228237 0 -0.02737415066511624 -0.002854598447689555 0 -0.02733744688804781 -0.0029682563874814209 0 -0.027312486081655287 -0.0029444164670175757 0 -0.02729560408637351 -0.0029894877662095583 0 -0.027312486081655287 -0.0029444164670175757 0 -0.027327376189878207 -0.0029102591540228237 0 -0.027289380425448279 -0.0029109971623132863 0 -0.02733744688804781 -0.0029682563874814209 0 -0.027312486081655287 -0.0029444164670175757 0 -0.027327376189878207 -0.0029102591540228237 0 -0.027327376189878207 -0.0029102591540228237 0 -0.027316141376940637 -0.0028530980168732121 0 -0.027289380425448279 -0.0029109971623132863 0 -0.027546340817174317 -0.0027258585776096735 0 -0.027471463114258743 -0.0027658595759132761 0 -0.02733744688804781 -0.0029682563874814209 0 -0.02763630910923014 -0.0032624567856897203 0 -0.027445743273374394 -0.0031021572354833623 0 -0.027471463114258743 -0.0027658595759132761 0 -0.02733744688804781 -0.0029682563874814209 0 -0.02737415066511624 -0.002854598447689555 0 -0.02763630910923014 -0.0032624567856897203 0 -0.027705418079569177 -0.0035323640080233468 0 -0.027316141376940637 -0.0028530980168732121 0 -0.027308688562804936 -0.0027586225141340332 0 -0.027209593593084565 -0.002829760971066127 0 -0.027327376189878207 -0.0029102591540228237 0 -0.027316141376940637 -0.0028530980168732121 0 -0.02737415066511624 -0.002854598447689555 0 -0.027316141376940637 -0.0028530980168732121 0 -0.02736722420696755 -0.0028031163758033611 0 -0.027308688562804936 -0.0027586225141340332 0 -0.027316141376940637 -0.0028530980168732121 0 -0.02737415066511624 -0.002854598447689555 0 -0.02736722420696755 -0.0028031163758033611 0 -0.027471463114258743 -0.0027658595759132761 0 -0.02737415066511624 -0.002854598447689555 0 -0.027420405398780594 -0.0027821350242584744 0 -0.02737415066511624 -0.002854598447689555 0 -0.02736722420696755 -0.0028031163758033611 0 -0.027420405398780594 -0.0027821350242584744 0 -0.027471463114258743 -0.0027658595759132761 0 -0.027441430032046129 -0.0027450425893695641 0 -0.027420405398780594 -0.0027821350242584744 0 -0.027441430032046129 -0.0027450425893695641 0 -0.027420405398780594 -0.0027821350242584744 0 -0.027397354686209869 -0.0027437271919257124 0 -0.02736722420696755 -0.0028031163758033611 0 -0.027397354686209869 -0.0027437271919257124 0 -0.027308688562804936 -0.0027586225141340332 0 -0.02736722420696755 -0.0028031163758033611 0 -0.027420405398780594 -0.0027821350242584744 0 -0.027397354686209869 -0.0027437271919257124 0 -0.027397354686209869 -0.0027437271919257124 0 -0.027308688562804936 -0.0027586225141340332 0 -0.027399841241309144 -0.0026600374653744092 0 -0.027397354686209869 -0.0027437271919257124 0 -0.027437572935346426 -0.0027125577983720104 0 -0.027399841241309144 -0.0026600374653744092 0 -0.027441430032046129 -0.0027450425893695641 0 -0.027397354686209869 -0.0027437271919257124 0 -0.027437572935346426 -0.0027125577983720104 0 -0.027478624876520988 -0.0027201801175976564 0 -0.027441430032046129 -0.0027450425893695641 0 -0.027437572935346426 -0.0027125577983720104 0 -0.027209593593084565 -0.002829760971066127 0 -0.027100532596126905 -0.0027949168584628183 0 -0.027027348660908109 -0.002588503560264042 0 -0.027308688562804936 -0.0027586225141340332 0 -0.027209593593084565 -0.002829760971066127 0 -0.027027348660908109 -0.002588503560264042 0 -0.027316141376940637 -0.0028530980168732121 0 -0.027209593593084565 -0.002829760971066127 0 -0.027289380425448279 -0.0029109971623132863 0 -0.027209593593084565 -0.002829760971066127 0 -0.027247445141049386 -0.0029232685487377906 0 -0.027200139825282091 -0.0029226388687056222 0 -0.027209593593084565 -0.002829760971066127 0 -0.027289380425448279 -0.0029109971623132863 0 -0.027247445141049386 -0.0029232685487377906 0 -0.027209593593084565 -0.002829760971066127 0 -0.027100532596126905 -0.0027949168584628183 0 -0.027200139825282091 -0.0029226388687056222 0 -0.027029918207939894 -0.0027270198462376136 0 -0.027100532596126905 -0.0027949168584628183 0 -0.027027348660908109 -0.002588503560264042 0 -0.027029918207939894 -0.0027270198462376136 0 -0.027078343971564434 -0.0028594484786588843 0 -0.027100532596126905 -0.0027949168584628183 0 -0.027029918207939894 -0.0027270198462376136 0 -0.027078343971564434 -0.0028594484786588843 0 -0.027018402803709318 -0.0028594210504289171 0 -0.027078343971564434 -0.0028594484786588843 0 -0.027100532596126905 -0.0027949168584628183 0 -0.027153286492590894 -0.0029594394458260821 0 -0.027100532596126905 -0.0027949168584628183 0 -0.027153286492590894 -0.0029594394458260821 0 -0.027200139825282091 -0.0029226388687056222 0 -0.027153286492590894 -0.0029594394458260821 0 -0.02708898676121203 -0.0029884122753952285 0 -0.027155889503949818 -0.0030630583841696202 0 -0.027078343971564434 -0.0028594484786588843 0 -0.027153286492590894 -0.0029594394458260821 0 -0.02708898676121203 -0.0029884122753952285 0 -0.027078343971564434 -0.0028594484786588843 0 -0.02708898676121203 -0.0029884122753952285 0 -0.027018402803709318 -0.0028594210504289171 0 -0.02708898676121203 -0.0029884122753952285 0 -0.027155889503949818 -0.0030630583841696202 0 -0.027130455471531714 -0.0031559225403717675 0 -0.02708898676121203 -0.0029884122753952285 0 -0.027055843360710596 -0.0030881902226875999 0 -0.027130455471531714 -0.0031559225403717675 0 -0.027153286492590894 -0.0029594394458260821 0 -0.027197168663867732 -0.0030606373800998593 0 -0.027155889503949818 -0.0030630583841696202 0 -0.027153286492590894 -0.0029594394458260821 0 -0.027197168663867732 -0.0030606373800998593 0 -0.027223233192116825 -0.003026168219341689 0 -0.027155889503949818 -0.0030630583841696202 0 -0.02719629707908133 -0.0031366507335320081 0 -0.027130455471531714 -0.0031559225403717675 0 -0.027197168663867732 -0.0030606373800998593 0 -0.027155889503949818 -0.0030630583841696202 0 -0.02719629707908133 -0.0031366507335320081 0 -0.027197168663867732 -0.0030606373800998593 0 -0.027233921429486035 -0.0031103622784801757 0 -0.02719629707908133 -0.0031366507335320081 0 -0.02733744688804781 -0.0029682563874814209 0 -0.027278765295619806 -0.0030872550863096245 0 -0.027285512815691526 -0.0032750100210379453 0 -0.027573028573141825 -0.0033390514839299872 0 -0.027576216211756939 -0.0033309104324507352 0 -0.027509377467768156 -0.003414117761289959 0 -0.027197168663867732 -0.0030606373800998593 0 -0.027233921429486035 -0.0031103622784801757 0 -0.027223233192116825 -0.003026168219341689 0 -0.027233921429486035 -0.0031103622784801757 0 -0.027223233192116825 -0.003026168219341689 0 -0.027278765295619806 -0.0030872550863096245 0 -0.027223233192116825 -0.003026168219341689 0 -0.027278765295619806 -0.0030872550863096245 0 -0.027262651168871093 -0.0029993569357575855 0 -0.02733744688804781 -0.0029682563874814209 0 -0.027278765295619806 -0.0030872550863096245 0 -0.02729560408637351 -0.0029894877662095583 0 -0.027278765295619806 -0.0030872550863096245 0 -0.027262651168871093 -0.0029993569357575855 0 -0.02729560408637351 -0.0029894877662095583 0 -0.027262651168871093 -0.0029993569357575855 0 -0.027286600494994508 -0.0029513137093797647 0 -0.027247445141049386 -0.0029232685487377906 0 -0.027262651168871093 -0.0029993569357575855 0 -0.02729560408637351 -0.0029894877662095583 0 -0.027286600494994508 -0.0029513137093797647 0 -0.027312486081655287 -0.0029444164670175757 0 -0.02729560408637351 -0.0029894877662095583 0 -0.027286600494994508 -0.0029513137093797647 0 -0.027286600494994508 -0.0029513137093797647 0 -0.027289380425448279 -0.0029109971623132863 0 -0.027247445141049386 -0.0029232685487377906 0 -0.027312486081655287 -0.0029444164670175757 0 -0.027286600494994508 -0.0029513137093797647 0 -0.027289380425448279 -0.0029109971623132863 0 -0.027262651168871093 -0.0029993569357575855 0 -0.027247445141049386 -0.0029232685487377906 0 -0.027200139825282091 -0.0029226388687056222 0 -0.027153286492590894 -0.0029594394458260821 0 -0.027223233192116825 -0.003026168219341689 0 -0.027200139825282091 -0.0029226388687056222 0 -0.027223233192116825 -0.003026168219341689 0 -0.027262651168871093 -0.0029993569357575855 0 -0.027200139825282091 -0.0029226388687056222 0 -0.026540505519029558 -0.0028612724837439245 0 -0.026593376030639906 -0.0026060830273382006 0 -0.026726214072209962 -0.0027846261884922254 0 -0.026593376030639906 -0.0026060830273382006 0 -0.026726214072209962 -0.0027846261884922254 0 -0.026803440001790441 -0.0026409946434514664 0 -0.026565787303660441 -0.00240749925510621 0 -0.026593376030639906 -0.0026060830273382006 0 -0.026803440001790441 -0.0026409946434514664 0 -0.026726214072209962 -0.0027846261884922254 0 -0.026922235617148661 -0.0027784359687622719 0 -0.026857099466636822 -0.0029067334383017819 0 -0.026726214072209962 -0.0027846261884922254 0 -0.026803440001790441 -0.0026409946434514664 0 -0.026922235617148661 -0.0027784359687622719 0 -0.026803440001790441 -0.0026409946434514664 0 -0.026922235617148661 -0.0027784359687622719 0 -0.026954215699705034 -0.002670574361847265 0 -0.027029918207939894 -0.0027270198462376136 0 -0.026922235617148661 -0.0027784359687622719 0 -0.026954215699705034 -0.002670574361847265 0 -0.027029918207939894 -0.0027270198462376136 0 -0.026922235617148661 -0.0027784359687622719 0 -0.027018402803709318 -0.0028594210504289171 0 -0.026922235617148661 -0.0027784359687622719 0 -0.027018402803709318 -0.0028594210504289171 0 -0.02697594420608718 -0.0029884455971263394 0 -0.02708898676121203 -0.0029884122753952285 0 -0.027018402803709318 -0.0028594210504289171 0 -0.02697594420608718 -0.0029884455971263394 0 -0.02697594420608718 -0.0029884455971263394 0 -0.027055843360710596 -0.0030881902226875999 0 -0.027020455043681012 -0.0032266605244778844 0 -0.02708898676121203 -0.0029884122753952285 0 -0.02697594420608718 -0.0029884455971263394 0 -0.027055843360710596 -0.0030881902226875999 0 -0.02697594420608718 -0.0029884455971263394 0 -0.026787228815626434 -0.0030824256753548026 0 -0.027020455043681012 -0.0032266605244778844 0 -0.02697594420608718 -0.0029884455971263394 0 -0.026857099466636822 -0.0029067334383017819 0 -0.026787228815626434 -0.0030824256753548026 0 -0.026922235617148661 -0.0027784359687622719 0 -0.02697594420608718 -0.0029884455971263394 0 -0.026857099466636822 -0.0029067334383017819 0 -0.026726214072209962 -0.0027846261884922254 0 -0.026857099466636822 -0.0029067334383017819 0 -0.026787228815626434 -0.0030824256753548026 0 -0.026478748682367825 -0.0030911443344549144 0 -0.026540505519029558 -0.0028612724837439245 0 -0.026787228815626434 -0.0030824256753548026 0 -0.026540505519029558 -0.0028612724837439245 0 -0.026726214072209962 -0.0027846261884922254 0 -0.026787228815626434 -0.0030824256753548026 0 -0.026618194624916495 -0.0034211066028495612 0 -0.026787228815626434 -0.0030824256753548026 0 -0.026922514055299544 -0.0034749903122964485 0 -0.026478748682367825 -0.0030911443344549144 0 -0.026618194624916495 -0.0034211066028495612 0 -0.026787228815626434 -0.0030824256753548026 0 -0.026787228815626434 -0.0030824256753548026 0 -0.026922514055299544 -0.0034749903122964485 0 -0.027020455043681012 -0.0032266605244778844 0 -0.026922514055299544 -0.0034749903122964485 0 -0.027020455043681012 -0.0032266605244778844 0 -0.027128044913637663 -0.0035156043977008083 0 -0.027020455043681012 -0.0032266605244778844 0 -0.027130455471531714 -0.0031559225403717675 0 -0.027139509457092405 -0.0032916445652349056 0 -0.027055843360710596 -0.0030881902226875999 0 -0.027020455043681012 -0.0032266605244778844 0 -0.027130455471531714 -0.0031559225403717675 0 -0.027020455043681012 -0.0032266605244778844 0 -0.027128044913637663 -0.0035156043977008083 0 -0.027139509457092405 -0.0032916445652349056 0 -0.026922514055299544 -0.0034749903122964485 0 -0.027128044913637663 -0.0035156043977008083 0 -0.027126453470247197 -0.0038853103115725372 0 -0.026922514055299544 -0.0034749903122964485 0 -0.026783243803546748 -0.003873199452744482 0 -0.027126453470247197 -0.0038853103115725372 0 -0.026618194624916495 -0.0034211066028495612 0 -0.026922514055299544 -0.0034749903122964485 0 -0.026783243803546748 -0.003873199452744482 0 -0.027834135618144733 -0.0036040957512537713 0 -0.027766093283388693 -0.0036093404522257034 0 -0.027752914309214727 -0.003618562261379423 0 -0.027705418079569177 -0.0035323640080233468 0 -0.027516793480667979 -0.0034388498464661432 0 -0.027445743273374394 -0.0031021572354833623 0 -0.027516793480667979 -0.0034388498464661432 0 -0.027834135618144733 -0.0036040957512537713 0 -0.027827312170387489 -0.0036175463447795514 0 -0.027766093283388693 -0.0036093404522257034 0 -0.027233921429486035 -0.0031103622784801757 0 -0.027278765295619806 -0.0030872550863096245 0 -0.027244033500203119 -0.0031909430466690674 0 -0.027278765295619806 -0.0030872550863096245 0 -0.027285512815691526 -0.0032750100210379453 0 -0.027244033500203119 -0.0031909430466690674 0 -0.027233921429486035 -0.0031103622784801757 0 -0.02719629707908133 -0.0031366507335320081 0 -0.027244033500203119 -0.0031909430466690674 0 -0.02719629707908133 -0.0031366507335320081 0 -0.027199824485416205 -0.0032433377132741678 0 -0.027244033500203119 -0.0031909430466690674 0 -0.027199824485416205 -0.0032433377132741678 0 -0.027244033500203119 -0.0031909430466690674 0 -0.027247408847827753 -0.0032744874490368749 0 -0.02719629707908133 -0.0031366507335320081 0 -0.027199824485416205 -0.0032433377132741678 0 -0.027130455471531714 -0.0031559225403717675 0 -0.027199824485416205 -0.0032433377132741678 0 -0.027130455471531714 -0.0031559225403717675 0 -0.027139509457092405 -0.0032916445652349056 0 -0.027128044913637663 -0.0035156043977008083 0 -0.027205923981477954 -0.0033311511453174756 0 -0.027287275225550231 -0.0033436028379518349 0 -0.027128044913637663 -0.0035156043977008083 0 -0.027139509457092405 -0.0032916445652349056 0 -0.027205923981477954 -0.0033311511453174756 0 -0.027199824485416205 -0.0032433377132741678 0 -0.027139509457092405 -0.0032916445652349056 0 -0.027205923981477954 -0.0033311511453174756 0 -0.027285512815691526 -0.0032750100210379453 0 -0.027244033500203119 -0.0031909430466690674 0 -0.027247408847827753 -0.0032744874490368749 0 -0.027285512815691526 -0.0032750100210379453 0 -0.027247408847827753 -0.0032744874490368749 0 -0.027287275225550231 -0.0033436028379518349 0 -0.027205923981477954 -0.0033311511453174756 0 -0.027247408847827753 -0.0032744874490368749 0 -0.027287275225550231 -0.0033436028379518349 0 -0.027199824485416205 -0.0032433377132741678 0 -0.027205923981477954 -0.0033311511453174756 0 -0.027247408847827753 -0.0032744874490368749 0 -0.027516793480667979 -0.0034388498464661432 0 -0.027504147546970191 -0.0034855542861292315 0 -0.027752914309214727 -0.003618562261379423 0 -0.027821948626341537 -0.0037381409710466138 0 -0.027498394914060562 -0.0038519206904259863 0 -0.027504147546970191 -0.0034855542861292315 0 -0.027305671340875762 -0.0038908321676694589 0 -0.027128044913637663 -0.0035156043977008083 0 -0.027287275225550231 -0.0033436028379518349 0 -0.027126453470247197 -0.0038853103115725372 0 -0.027834135618144733 -0.0036040957512537713 0 -0.027752914309214727 -0.003618562261379423 0 -0.027821948626341537 -0.0037381409710466138 0 -0.027906465602518405 -0.0036649931329587309 0 -0.02782212354314699 -0.0037413752392082104 0 -0.027821948626341537 -0.0037381409710466138 0 -0.027771587325559417 -0.0041132444062830335 0 -0.027886465987766392 -0.0038427967812897776 0 -0.027914931861976376 -0.0036999193106009827 0 -0.027821948626341537 -0.0037381409710466138 0 -0.027886465987766392 -0.0038427967812897776 0 -0.027821948626341537 -0.0037381409710466138 0 -0.027771587325559417 -0.0041132444062830335 0 -0.027498394914060562 -0.0038519206904259863 0 -0.027771587325559417 -0.0041132444062830335 0 -0.027881819146273606 -0.0040275233957059366 0 -0.027886465987766392 -0.0038427967812897776 0 -0.026783243803546748 -0.003873199452744482 0 -0.027126453470247197 -0.0038853103115725372 0 -0.027035208251850393 -0.0044270984544068958 0 -0.027305671340875762 -0.0038908321676694589 0 -0.027025647826963328 -0.0043908708021212347 0 -0.027498394914060562 -0.0038519206904259863 0 -0.027511188008502697 -0.0044005238522636684 0 -0.027035208251850393 -0.0044270984544068958 0 -0.027771587325559417 -0.0041132444062830335 0 -0.027498394914060562 -0.0038519206904259863 0 -0.027511188008502697 -0.0044005238522636684 0 -0.027511188008502697 -0.0044005238522636684 0 -0.027035208251850393 -0.0044270984544068958 0 -0.027557392643121601 -0.0049783316605213459 0 -0.027511188008502697 -0.0044005238522636684 0 -0.027557392643121601 -0.0049783316605213459 0 -0.02769545878650052 -0.0045210408625780798 0 -0.027802521379052158 -0.0047313807159946892 0 -0.027557392643121601 -0.0049783316605213459 0 -0.02769545878650052 -0.0045210408625780798 0 -0.027771587325559417 -0.0041132444062830335 0 -0.027834929883744339 -0.0043477368903800558 0 -0.027881819146273606 -0.0040275233957059366 0 -0.027771587325559417 -0.0041132444062830335 0 -0.02769545878650052 -0.0045210408625780798 0 -0.027834929883744339 -0.0043477368903800558 0 -0.027771587325559417 -0.0041132444062830335 0 -0.027511188008502697 -0.0044005238522636684 0 -0.02769545878650052 -0.0045210408625780798 0 -0.027802521379052158 -0.0047313807159946892 0 -0.02769545878650052 -0.0045210408625780798 0 -0.027834929883744339 -0.0043477368903800558 0 -0.027889801299474652 -0.0045005135395260283 0 -0.027802521379052158 -0.0047313807159946892 0 -0.027834929883744339 -0.0043477368903800558 0 -0.027889801299474652 -0.0045005135395260283 0 -0.027834929883744339 -0.0043477368903800558 0 -0.027913854661746194 -0.0041878897457021062 0 -0.027913854661746194 -0.0041878897457021062 0 -0.027927700637293489 -0.0039102104960305941 0 -0.027982140594333169 -0.0039722733934173726 0 -0.027927700637293489 -0.0039102104960305941 0 -0.027942138026594805 -0.0036467095828270615 0 -0.027982140594333169 -0.0039722733934173726 0 -0.027927700637293489 -0.0039102104960305941 0 -0.027912626774166168 -0.0037542682290401344 0 -0.027942138026594805 -0.0036467095828270615 0 -0.027927700637293489 -0.0039102104960305941 0 -0.027881819146273606 -0.0040275233957059366 0 -0.027912626774166168 -0.0037542682290401344 0 -0.027913854661746194 -0.0041878897457021062 0 -0.027927700637293489 -0.0039102104960305941 0 -0.027881819146273606 -0.0040275233957059366 0 -0.027834929883744339 -0.0043477368903800558 0 -0.027913854661746194 -0.0041878897457021062 0 -0.027881819146273606 -0.0040275233957059366 0 -0.027881819146273606 -0.0040275233957059366 0 -0.027912626774166168 -0.0037542682290401344 0 -0.027886465987766392 -0.0038427967812897776 0 -0.027822212991884109 -0.0035542702376581701 0 -0.027910053240433785 -0.0036633818363044214 0 -0.027868963056237483 -0.0035238684684252971 0 -0.027912626774166168 -0.0037542682290401344 0 -0.027910053240433785 -0.0036633818363044214 0 -0.027868963056237483 -0.0035238684684252971 0 -0.027914931861976376 -0.0036999193106009827 0 -0.027910053240433785 -0.0036633818363044214 0 -0.027886465987766392 -0.0038427967812897776 0 -0.027912626774166168 -0.0037542682290401344 0 -0.027910053240433785 -0.0036633818363044214 0 -0.027886465987766392 -0.0038427967812897776 0 -0.027706410836424184 -0.0033701787166106794 0 -0.027850513178628931 -0.0032542409291516626 0 -0.027606387749585824 -0.0031599235677469539 0 -0.027706410836424184 -0.0033701787166106794 0 -0.027868963056237483 -0.0035238684684252971 0 -0.027850513178628931 -0.0032542409291516626 0 -0.027822212991884109 -0.0035542702376581701 0 -0.027706410836424184 -0.0033701787166106794 0 -0.027868963056237483 -0.0035238684684252971 0 -0.027868963056237483 -0.0035238684684252971 0 -0.027850513178628931 -0.0032542409291516626 0 -0.027942138026594805 -0.0036467095828270615 0 -0.027912626774166168 -0.0037542682290401344 0 -0.027868963056237483 -0.0035238684684252971 0 -0.027942138026594805 -0.0036467095828270615 0 -0.028034482146721346 -0.0035027980839034468 0 -0.027942138026594805 -0.0036467095828270615 0 -0.028050243104129079 -0.0037797480231494917 0 -0.027850513178628931 -0.0032542409291516626 0 -0.028034482146721346 -0.0035027980839034468 0 -0.027942138026594805 -0.0036467095828270615 0 -0.027942138026594805 -0.0036467095828270615 0 -0.027982140594333169 -0.0039722733934173726 0 -0.028050243104129079 -0.0037797480231494917 0 -0.028160844956463739 -0.0040345555536494861 0 -0.027982140594333169 -0.0039722733934173726 0 -0.028050243104129079 -0.0037797480231494917 0 -0.028160844956463739 -0.0040345555536494861 0 -0.028050243104129079 -0.0037797480231494917 0 -0.028319939728654136 -0.0036983871692624565 0 -0.028034482146721346 -0.0035027980839034468 0 -0.028050243104129079 -0.0037797480231494917 0 -0.028319939728654136 -0.0036983871692624565 0 -0.028034482146721346 -0.0035027980839034468 0 -0.028319939728654136 -0.0036983871692624565 0 -0.028199212087041355 -0.0032293309886442748 0 -0.027850513178628931 -0.0032542409291516626 0 -0.028034482146721346 -0.0035027980839034468 0 -0.028199212087041355 -0.0032293309886442748 0 -0.028199212087041355 -0.0032293309886442748 0 -0.028674623668652862 -0.0034843528535296433 0 -0.029098372422287785 -0.0031430238257433595 0 -0.028199212087041355 -0.0032293309886442748 0 -0.029098372422287785 -0.0031430238257433595 0 -0.02801301214260021 -0.0027864959932428759 0 -0.029070693060050983 -0.0037602137618761937 0 -0.028319939728654136 -0.0036983871692624565 0 -0.028674623668652862 -0.0034843528535296433 0 -0.028319939728654136 -0.0036983871692624565 0 -0.028199212087041355 -0.0032293309886442748 0 -0.028674623668652862 -0.0034843528535296433 0 -0.029070693060050983 -0.0037602137618761937 0 -0.028674623668652862 -0.0034843528535296433 0 -0.029098372422287785 -0.0031430238257433595 0 -0.029948155379392685 -0.0035599339514988922 0 -0.029070693060050983 -0.0037602137618761937 0 -0.029098372422287785 -0.0031430238257433595 0 -0.029948155379392685 -0.0035599339514988922 0 -0.029929749671969888 -0.0030012679110586523 0 -0.029098372422287785 -0.0031430238257433595 0 -0.029929749671969888 -0.0030012679110586523 0 -0.029098372422287785 -0.0031430238257433595 0 -0.029410835442174391 -0.0026578108273034033 0 -0.029098372422287785 -0.0031430238257433595 0 -0.029410835442174391 -0.0026578108273034033 0 -0.02801301214260021 -0.0027864959932428759 0 -0.029410835442174391 -0.0026578108273034033 0 -0.028991561100005905 -0.0021906036478775881 0 -0.02801301214260021 -0.0027864959932428759 0 -0.02942013929726519 -0.0023348674377949193 0 -0.028991561100005905 -0.0021906036478775881 0 -0.029453845501395289 -0.0021919527020594449 0 -0.029410835442174391 -0.0026578108273034033 0 -0.02942013929726519 -0.0023348674377949193 0 -0.028991561100005905 -0.0021906036478775881 0 -0.029410835442174391 -0.0026578108273034033 0 -0.02942013929726519 -0.0023348674377949193 0 -0.02963433707295194 -0.0024769087692098741 0 -0.027634325166596582 -0.0025874596089017631 0 -0.027893238893668501 -0.0027691540599694719 0 -0.026331667644178557 -0.0028168710811165929 0 -0.027226808831815452 -0.0030952993514370935 0 -0.02801301214260021 -0.0027864959932428759 0 -0.027226808831815452 -0.0030952993514370935 0 -0.027606387749585824 -0.0031599235677469539 0 -0.02801301214260021 -0.0027864959932428759 0 -0.027850513178628931 -0.0032542409291516626 0 -0.027606387749585824 -0.0031599235677469539 0 -0.02801301214260021 -0.0027864959932428759 0 -0.027850513178628931 -0.0032542409291516626 0 -0.028199212087041355 -0.0032293309886442748 0 -0.02801301214260021 -0.0027864959932428759 0 -0.030985471487346747 -0.0030541007877730036 0 -0.031655386509114938 -0.0027624918735304873 0 -0.03067864552371077 -0.0026527666894719075 0 -0.030107409147637591 -0.0024583645172446566 0 -0.031594943120529108 -0.0029063440277660459 0 -0.031491563315118785 -0.0027139891662846679 0 -0.031575763078060912 -0.0026623500808755727 0 -0.031491563315118785 -0.0027139891662846679 0 -0.0313552974895141 -0.0027107094538526147 0 -0.031575763078060912 -0.0026623500808755727 0 -0.031530265025847146 -0.0032088362318484082 0 -0.031629296431798556 -0.0030662993324954498 0 -0.031450889281082979 -0.0030108148797681699 0 -0.031629296431798556 -0.0030662993324954498 0 -0.031491563315118785 -0.0027139891662846679 0 -0.031450889281082979 -0.0030108148797681699 0 -0.031456956772970689 -0.0032886641366969634 0 -0.031450889281082979 -0.0030108148797681699 0 -0.031245336633357223 -0.0029978278868265144 0 -0.031450889281082979 -0.0030108148797681699 0 -0.031245336633357223 -0.0029978278868265144 0 -0.0313552974895141 -0.0027107094538526147 0 -0.031491563315118785 -0.0027139891662846679 0 -0.031450889281082979 -0.0030108148797681699 0 -0.0313552974895141 -0.0027107094538526147 0 -0.029793932270382066 -0.0026233263393921533 0 -0.029770346657367552 -0.0027520959396636442 0 -0.029759140747614488 -0.0026337171725802308 0 -0.03067864552371077 -0.0026527666894719075 0 -0.030307297808389266 -0.0027614923199984365 0 -0.031245336633357223 -0.0029978278868265144 0 -0.0313552974895141 -0.0027107094538526147 0 -0.030947650184702018 -0.0026989377825967489 0 -0.029770346657367552 -0.0027520959396636442 0 -0.029714460336622547 -0.0026945842503993379 0 -0.029759140747614488 -0.0026337171725802308 0 -0.030848438549541723 -0.0032278061979239291 0 -0.031245336633357223 -0.0029978278868265144 0 -0.030947650184702018 -0.0026989377825967489 0 -0.030848438549541723 -0.0032278061979239291 0 -0.029948155379392685 -0.0035599339514988922 0 -0.029929749671969888 -0.0030012679110586523 0 -0.030848438549541723 -0.0032278061979239291 0 -0.029929749671969888 -0.0030012679110586523 0 -0.030947650184702018 -0.0026989377825967489 0 -0.029929749671969888 -0.0030012679110586523 0 -0.029410835442174391 -0.0026578108273034033 0 -0.029714460336622547 -0.0026945842503993379 0 -0.029949086886173804 -0.0029644601715107951 0 -0.030307297808389266 -0.0027614923199984365 0 -0.029929749671969888 -0.0030012679110586523 0 -0.029770346657367552 -0.0027520959396636442 0 -0.029714460336622547 -0.0026945842503993379 0 -0.029714460336622547 -0.0026945842503993379 0 -0.02963433707295194 -0.0024769087692098741 0 -0.029724958035552002 -0.0025398944304317593 0 -0.029410835442174391 -0.0026578108273034033 0 -0.029714460336622547 -0.0026945842503993379 0 -0.02963433707295194 -0.0024769087692098741 0 -0.02942013929726519 -0.0023348674377949193 0 -0.02963433707295194 -0.0024769087692098741 0 -0.0295818441690355 -0.0023179433105650904 0 -0.02963433707295194 -0.0024769087692098741 0 -0.029680039372771534 -0.0024182625921386541 0 -0.0295818441690355 -0.0023179433105650904 0 -0.02963433707295194 -0.0024769087692098741 0 -0.029680039372771534 -0.0024182625921386541 0 -0.029724958035552002 -0.0025398944304317593 0 -0.029680039372771534 -0.0024182625921386541 0 -0.029708064400843229 -0.002386929943336385 0 -0.02973744811820931 -0.0024577602956192711 0 -0.029680039372771534 -0.0024182625921386541 0 -0.029708064400843229 -0.002386929943336385 0 -0.029655919071271651 -0.0023314193815119045 0 -0.029680039372771534 -0.0024182625921386541 0 -0.029724958035552002 -0.0025398944304317593 0 -0.02973744811820931 -0.0024577602956192711 0 -0.029724958035552002 -0.0025398944304317593 0 -0.029772353672625144 -0.0025375372082072647 0 -0.02973744811820931 -0.0024577602956192711 0 -0.029724958035552002 -0.0025398944304317593 0 -0.029759140747614488 -0.0026337171725802308 0 -0.029772353672625144 -0.0025375372082072647 0 -0.029714460336622547 -0.0026945842503993379 0 -0.029724958035552002 -0.0025398944304317593 0 -0.029759140747614488 -0.0026337171725802308 0 -0.029793932270382066 -0.0026233263393921533 0 -0.029759140747614488 -0.0026337171725802308 0 -0.029772353672625144 -0.0025375372082072647 0 -0.029793932270382066 -0.0026233263393921533 0 -0.029810828765046371 -0.0025515893870419804 0 -0.029772353672625144 -0.0025375372082072647 0 -0.029772353672625144 -0.0025375372082072647 0 -0.029770152569511567 -0.0024539738170925116 0 -0.029801826298105929 -0.0024963561188282536 0 -0.029810828765046371 -0.0025515893870419804 0 -0.029772353672625144 -0.0025375372082072647 0 -0.029801826298105929 -0.0024963561188282536 0 -0.02973744811820931 -0.0024577602956192711 0 -0.02974640403425572 -0.0024126294576648651 0 -0.029770152569511567 -0.0024539738170925116 0 -0.029772353672625144 -0.0025375372082072647 0 -0.02973744811820931 -0.0024577602956192711 0 -0.029770152569511567 -0.0024539738170925116 0 -0.029708064400843229 -0.002386929943336385 0 -0.02973744811820931 -0.0024577602956192711 0 -0.02974640403425572 -0.0024126294576648651 0 -0.029708064400843229 -0.002386929943336385 0 -0.02974640403425572 -0.0024126294576648651 0 -0.029730342141339385 -0.0023709738776592827 0 -0.02974640403425572 -0.0024126294576648651 0 -0.029762743839852657 -0.0023985237696553131 0 -0.029770152569511567 -0.0024539738170925116 0 -0.02974640403425572 -0.0024126294576648651 0 -0.029762743839852657 -0.0023985237696553131 0 -0.029730342141339385 -0.0023709738776592827 0 -0.029762743839852657 -0.0023985237696553131 0 -0.029770152569511567 -0.0024539738170925116 0 -0.029787278205129542 -0.0024263998987434474 0 -0.02967107082079885 -0.0021181529586043885 0 -0.030107409147637591 -0.0024583645172446566 0 -0.02976514395111127 -0.0023507064620235879 0 -0.029534932054462008 -0.0021624339235421261 0 -0.029590790604702925 -0.0013715628744154461 0 -0.029770152569511567 -0.0024539738170925116 0 -0.029787278205129542 -0.0024263998987434474 0 -0.029801826298105929 -0.0024963561188282536 0 -0.029787278205129542 -0.0024263998987434474 0 -0.02976514395111127 -0.0023507064620235879 0 -0.029897885350143934 -0.002558693826377949 0 -0.029787278205129542 -0.0024263998987434474 0 -0.029774967936749632 -0.0023854701464039989 0 -0.02976514395111127 -0.0023507064620235879 0 -0.029762743839852657 -0.0023985237696553131 0 -0.029787278205129542 -0.0024263998987434474 0 -0.029774967936749632 -0.0023854701464039989 0 -0.029774967936749632 -0.0023854701464039989 0 -0.02976514395111127 -0.0023507064620235879 0 -0.029775817515447493 -0.0024239767452977571 0 -0.029762743839852657 -0.0023985237696553131 0 -0.029774967936749632 -0.0023854701464039989 0 -0.029750326509735487 -0.002384479221156928 0 -0.02976514395111127 -0.0023507064620235879 0 -0.029534932054462008 -0.0021624339235421261 0 -0.029612726454717291 -0.0024539246365853722 0 -0.029384376698491893 -0.0023203706226466335 0 -0.029534932054462008 -0.0021624339235421261 0 -0.029612726454717291 -0.0024539246365853722 0 -0.029787278205129542 -0.0024263998987434474 0 -0.029801826298105929 -0.0024963561188282536 0 -0.029897885350143934 -0.002558693826377949 0 -0.029793932270382066 -0.0026233263393921533 0 -0.029810828765046371 -0.0025515893870419804 0 -0.029897885350143934 -0.002558693826377949 0 -0.029810828765046371 -0.0025515893870419804 0 -0.029801826298105929 -0.0024963561188282536 0 -0.029897885350143934 -0.002558693826377949 0 -0.029698930357262614 -0.0023105192560319236 0 -0.029697333179846484 -0.0023105223034814047 0 -0.029727854161609866 -0.0023476112459940792 0 -0.026724275695557232 -0.0032016108811384124 0 -0.030342812611267103 -0.0018333049100495247 0 -0.0265567999768405 -0.0032804816948737753 0 -0.029138421914849413 -0.002155379992759031 0 -0.029411113090557165 -0.0028097231181088023 0 -0.029727854161609866 -0.0023476112459940792 0 -0.029684218568225819 -0.0022927637766759945 0 -0.029411113090557165 -0.0028097231181088023 0 -0.029684218568225819 -0.0022927637766759945 0 -0.029619420865205519 -0.0022376912189030307 0 -0.029697333179846484 -0.0023105223034814047 0 -0.029727854161609866 -0.0023476112459940792 0 -0.029708701595629071 -0.0023245071113043854 0 -0.029727854161609866 -0.0023476112459940792 0 -0.029714484548815069 -0.0023286520185313284 0 -0.029708701595629071 -0.0023245071113043854 0 -0.029727854161609866 -0.0023476112459940792 0 -0.029726505434589892 -0.0023279266078703462 0 -0.029714484548815069 -0.0023286520185313284 0 -0.029727854161609866 -0.0023476112459940792 0 -0.029684218568225819 -0.0022927637766759945 0 -0.029726505434589892 -0.0023279266078703462 0 -0.029138421914849413 -0.002155379992759031 0 -0.029546986764126926 -0.0024216157841984672 0 -0.029684218568225819 -0.0022927637766759945 0 -0.029735284401132815 -0.0023126225064504535 0 -0.029716022934000202 -0.0023219001150896505 0 -0.029285891639304538 -0.0022480121637632605 0 -0.029138421914849413 -0.002155379992759031 0 -0.029670101378496141 -0.002819526604856766 0 -0.029612726454717291 -0.0024539246365853722 0 -0.029775817515447493 -0.0024239767452977571 0 -0.02976514395111127 -0.0023507064620235879 0 -0.029612726454717291 -0.0024539246365853722 0 -0.029775817515447493 -0.0024239767452977571 0 -0.029774967936749632 -0.0023854701464039989 0 -0.029750326509735487 -0.002384479221156928 0 -0.029775817515447493 -0.0024239767452977571 0 -0.029750326509735487 -0.002384479221156928 0 -0.029775817515447493 -0.0024239767452977571 0 -0.029738510580003204 -0.002361147555991424 0 -0.029750326509735487 -0.002384479221156928 0 -0.029738510580003204 -0.002361147555991424 0 -0.02972863689382263 -0.0023512400801406061 0 -0.029738510580003204 -0.002361147555991424 0 -0.029726505434589892 -0.0023279266078703462 0 -0.02972863689382263 -0.0023512400801406061 0 -0.029735284401132815 -0.0023126225064504535 0 -0.029775817515447493 -0.0024239767452977571 0 -0.029738510580003204 -0.002361147555991424 0 -0.029735284401132815 -0.0023126225064504535 0 -0.029738510580003204 -0.002361147555991424 0 -0.029716022934000202 -0.0023219001150896505 0 -0.029738510580003204 -0.002361147555991424 0 -0.029716022934000202 -0.0023219001150896505 0 -0.029726505434589892 -0.0023279266078703462 0 -0.029684218568225819 -0.0022927637766759945 0 -0.029716022934000202 -0.0023219001150896505 0 -0.029726505434589892 -0.0023279266078703462 0 -0.02972863689382263 -0.0023512400801406061 0 -0.029730342141339385 -0.0023709738776592827 0 -0.029706156112809058 -0.0023317840210785204 0 -0.029726505434589892 -0.0023279266078703462 0 -0.029715921364323401 -0.0023311881505980584 0 -0.02972863689382263 -0.0023512400801406061 0 -0.029726505434589892 -0.0023279266078703462 0 -0.029715921364323401 -0.0023311881505980584 0 -0.029714484548815069 -0.0023286520185313284 0 -0.029715921364323401 -0.0023311881505980584 0 -0.02972863689382263 -0.0023512400801406061 0 -0.029706156112809058 -0.0023317840210785204 0 -0.029762743839852657 -0.0023985237696553131 0 -0.029750326509735487 -0.002384479221156928 0 -0.029730342141339385 -0.0023709738776592827 0 -0.029750326509735487 -0.002384479221156928 0 -0.02972863689382263 -0.0023512400801406061 0 -0.029730342141339385 -0.0023709738776592827 0 -0.029708064400843229 -0.002386929943336385 0 -0.029730342141339385 -0.0023709738776592827 0 -0.029688192701634711 -0.0023331100642130721 0 -0.029730342141339385 -0.0023709738776592827 0 -0.029688192701634711 -0.0023331100642130721 0 -0.029706156112809058 -0.0023317840210785204 0 -0.029688192701634711 -0.0023331100642130721 0 -0.029706156112809058 -0.0023317840210785204 0 -0.029678801460193471 -0.0023079324667940695 0 -0.029706156112809058 -0.0023317840210785204 0 -0.029678801460193471 -0.0023079324667940695 0 -0.029696283685623832 -0.0023109850998373634 0 -0.029678801460193471 -0.0023079324667940695 0 -0.029696283685623832 -0.0023109850998373634 0 -0.029649926479944307 -0.0022781283810927888 0 -0.029715921364323401 -0.0023311881505980584 0 -0.029706156112809058 -0.0023317840210785204 0 -0.029696283685623832 -0.0023109850998373634 0 -0.029715921364323401 -0.0023311881505980584 0 -0.029714484548815069 -0.0023286520185313284 0 -0.029696283685623832 -0.0023109850998373634 0 -0.029714484548815069 -0.0023286520185313284 0 -0.029708701595629071 -0.0023245071113043854 0 -0.029696283685623832 -0.0023109850998373634 0 -0.029697333179846484 -0.0023105223034814047 0 -0.029696283685623832 -0.0023109850998373634 0 -0.029677527378213532 -0.002287958781298081 0 -0.029697333179846484 -0.0023105223034814047 0 -0.029708701595629071 -0.0023245071113043854 0 -0.029696283685623832 -0.0023109850998373634 0 -0.029696283685623832 -0.0023109850998373634 0 -0.029649926479944307 -0.0022781283810927888 0 -0.029677527378213532 -0.002287958781298081 0 -0.029649926479944307 -0.0022781283810927888 0 -0.029589619537643372 -0.0022305522910647775 0 -0.029677527378213532 -0.002287958781298081 0 -0.026698196329083129 -0.0030080576945443632 0 -0.026591669545991053 -0.0031034187105422445 0 -0.024088740536770552 -0.0038213673408542992 0 -0.024188877694695 -0.0037047332571027609 0 -0.024166996136018332 -0.0037922408954961452 0 -0.026003870243248933 -0.0035056783752298992 0 -0.026698196329083129 -0.0030080576945443632 0 -0.029649926479944307 -0.0022781283810927888 0 -0.029605135644820368 -0.0022660111854320795 0 -0.029589619537643372 -0.0022305522910647775 0 -0.029678801460193471 -0.0023079324667940695 0 -0.029649926479944307 -0.0022781283810927888 0 -0.029652754515068686 -0.0022971620065785048 0 -0.029649926479944307 -0.0022781283810927888 0 -0.029652754515068686 -0.0022971620065785048 0 -0.029605135644820368 -0.0022660111854320795 0 -0.029688192701634711 -0.0023331100642130721 0 -0.029678801460193471 -0.0023079324667940695 0 -0.029652754515068686 -0.0022971620065785048 0 -0.029688192701634711 -0.0023331100642130721 0 -0.029652754515068686 -0.0022971620065785048 0 -0.029655919071271651 -0.0023314193815119045 0 -0.029708064400843229 -0.002386929943336385 0 -0.029688192701634711 -0.0023331100642130721 0 -0.029655919071271651 -0.0023314193815119045 0 -0.029680039372771534 -0.0024182625921386541 0 -0.029655919071271651 -0.0023314193815119045 0 -0.0295818441690355 -0.0023179433105650904 0 -0.029655919071271651 -0.0023314193815119045 0 -0.029605135644820368 -0.0022660111854320795 0 -0.0295818441690355 -0.0023179433105650904 0 -0.029652754515068686 -0.0022971620065785048 0 -0.029655919071271651 -0.0023314193815119045 0 -0.029605135644820368 -0.0022660111854320795 0 -0.02942013929726519 -0.0023348674377949193 0 -0.0295818441690355 -0.0023179433105650904 0 -0.029453845501395289 -0.0021919527020594449 0 -0.029605135644820368 -0.0022660111854320795 0 -0.0295818441690355 -0.0023179433105650904 0 -0.029453845501395289 -0.0021919527020594449 0 -0.029605135644820368 -0.0022660111854320795 0 -0.029589619537643372 -0.0022305522910647775 0 -0.029453845501395289 -0.0021919527020594449 0 -0.026698196329083129 -0.0030080576945443632 0 -0.027303919979055801 -0.0026919276564428599 0 -0.024188877694695 -0.0037047332571027609 0 -0.024623206276641829 -0.0037354525039215562 0 -0.025139064267327777 -0.0031755848122013374 0 -0.024188877694695 -0.0037047332571027609 0 -0.024341801640859004 -0.0037917772894528741 0 -0.024623206276641829 -0.0037354525039215562 0 -0.024188877694695 -0.0037047332571027609 0 -0.024239036012909169 -0.0037756315365905417 0 -0.024341801640859004 -0.0037917772894528741 0 -0.024239036012909169 -0.0037756315365905417 0 -0.024341801640859004 -0.0037917772894528741 0 -0.024255829158741145 -0.0038439261047622836 0 -0.024239036012909169 -0.0037756315365905417 0 -0.024166996136018332 -0.0037922408954961452 0 -0.024255829158741145 -0.0038439261047622836 0 -0.024188877694695 -0.0037047332571027609 0 -0.024239036012909169 -0.0037756315365905417 0 -0.024166996136018332 -0.0037922408954961452 0 -0.024341801640859004 -0.0037917772894528741 0 -0.024623206276641829 -0.0037354525039215562 0 -0.024364090857095792 -0.0038929854725548393 0 -0.024623206276641829 -0.0037354525039215562 0 -0.024689605871702283 -0.0039772407464166463 0 -0.025049265232127891 -0.0036341617673247418 0 -0.024509634733304066 -0.0039397856478824 0 -0.024689605871702283 -0.0039772407464166463 0 -0.024401202465559328 -0.0040947889546730501 0 -0.024623206276641829 -0.0037354525039215562 0 -0.024509634733304066 -0.0039397856478824 0 -0.024364090857095792 -0.0038929854725548393 0 -0.024623206276641829 -0.0037354525039215562 0 -0.024509634733304066 -0.0039397856478824 0 -0.024689605871702283 -0.0039772407464166463 0 -0.024341801640859004 -0.0037917772894528741 0 -0.024364090857095792 -0.0038929854725548393 0 -0.024255829158741145 -0.0038439261047622836 0 -0.024167194543494617 -0.0038744825537632348 0 -0.024236522104926224 -0.0039525989978647751 0 -0.024091014940559152 -0.0039489353215028831 0 -0.024166996136018332 -0.0037922408954961452 0 -0.024167194543494617 -0.0038744825537632348 0 -0.024255829158741145 -0.0038439261047622836 0 -0.024364090857095792 -0.0038929854725548393 0 -0.024255829158741145 -0.0038439261047622836 0 -0.024236522104926224 -0.0039525989978647751 0 -0.024167194543494617 -0.0038744825537632348 0 -0.024255829158741145 -0.0038439261047622836 0 -0.024236522104926224 -0.0039525989978647751 0 -0.024236522104926224 -0.0039525989978647751 0 -0.024188800495075217 -0.0040747897014589366 0 -0.024091014940559152 -0.0039489353215028831 0 -0.024236522104926224 -0.0039525989978647751 0 -0.024342197469293406 -0.0039997649387488047 0 -0.024188800495075217 -0.0040747897014589366 0 -0.024509634733304066 -0.0039397856478824 0 -0.024364090857095792 -0.0038929854725548393 0 -0.024342197469293406 -0.0039997649387488047 0 -0.024509634733304066 -0.0039397856478824 0 -0.024342197469293406 -0.0039997649387488047 0 -0.024401202465559328 -0.0040947889546730501 0 -0.024364090857095792 -0.0038929854725548393 0 -0.024236522104926224 -0.0039525989978647751 0 -0.024342197469293406 -0.0039997649387488047 0 -0.024188800495075217 -0.0040747897014589366 0 -0.024239412648904529 -0.0042121933613535794 0 -0.024401202465559328 -0.0040947889546730501 0 -0.024342197469293406 -0.0039997649387488047 0 -0.024188800495075217 -0.0040747897014589366 0 -0.024401202465559328 -0.0040947889546730501 0 -0.024188800495075217 -0.0040747897014589366 0 -0.024239412648904529 -0.0042121933613535794 0 -0.024027827276848043 -0.0042092057316675952 0 -0.024239412648904529 -0.0042121933613535794 0 -0.024484173508472869 -0.0042076254096641676 0 -0.024401202465559328 -0.0040947889546730501 0 -0.024689605871702283 -0.0039772407464166463 0 -0.024484173508472869 -0.0042076254096641676 0 -0.024762518727501778 -0.0041436624140138573 0 -0.024689605871702283 -0.0039772407464166463 0 -0.024484173508472869 -0.0042076254096641676 0 -0.024401202465559328 -0.0040947889546730501 0 -0.024484173508472869 -0.0042076254096641676 0 -0.024762518727501778 -0.0041436624140138573 0 -0.024570834396560087 -0.0043467950908130026 0 -0.024484173508472869 -0.0042076254096641676 0 -0.024293962751255595 -0.0043608170941565544 0 -0.024570834396560087 -0.0043467950908130026 0 -0.024293962751255595 -0.0043608170941565544 0 -0.024366506700836642 -0.0045201136591953685 0 -0.024570834396560087 -0.0043467950908130026 0 -0.024239412648904529 -0.0042121933613535794 0 -0.024484173508472869 -0.0042076254096641676 0 -0.024293962751255595 -0.0043608170941565544 0 -0.024366506700836642 -0.0045201136591953685 0 -0.024079477721538463 -0.0045926924266059587 0 -0.024261139341504485 -0.0047564139911901839 0 -0.024293962751255595 -0.0043608170941565544 0 -0.024366506700836642 -0.0045201136591953685 0 -0.024079477721538463 -0.0045926924266059587 0 -0.024293962751255595 -0.0043608170941565544 0 -0.024079477721538463 -0.0045926924266059587 0 -0.024045129650301346 -0.0043685320645503829 0 -0.024239412648904529 -0.0042121933613535794 0 -0.024293962751255595 -0.0043608170941565544 0 -0.024045129650301346 -0.0043685320645503829 0 -0.024239412648904529 -0.0042121933613535794 0 -0.024045129650301346 -0.0043685320645503829 0 -0.024027827276848043 -0.0042092057316675952 0 -0.024045129650301346 -0.0043685320645503829 0 -0.023786789181647165 -0.0043137908348564735 0 -0.024027827276848043 -0.0042092057316675952 0 -0.024045129650301346 -0.0043685320645503829 0 -0.023795210327190969 -0.0045267525808637549 0 -0.023786789181647165 -0.0043137908348564735 0 -0.024079477721538463 -0.0045926924266059587 0 -0.024045129650301346 -0.0043685320645503829 0 -0.023795210327190969 -0.0045267525808637549 0 -0.023795210327190969 -0.0045267525808637549 0 -0.023786789181647165 -0.0043137908348564735 0 -0.023580366926411397 -0.0044458339348607909 0 -0.023786789181647165 -0.0043137908348564735 0 -0.023782209110451528 -0.004117148908129223 0 -0.024027827276848043 -0.0042092057316675952 0 -0.024149352160015077 -0.0037506325761746217 0 -0.023915166868731883 -0.0039249560218204312 0 -0.023553913133068129 -0.0039338012941221847 0 -0.023782209110451528 -0.004117148908129223 0 -0.024027827276848043 -0.0042092057316675952 0 -0.023999639670208846 -0.0040449468369594304 0 -0.024188800495075217 -0.0040747897014589366 0 -0.024027827276848043 -0.0042092057316675952 0 -0.023999639670208846 -0.0040449468369594304 0 -0.024088740536770552 -0.0038213673408542992 0 -0.024149352160015077 -0.0037506325761746217 0 -0.023915166868731883 -0.0039249560218204312 0 -0.023999639670208846 -0.0040449468369594304 0 -0.024091014940559152 -0.0039489353215028831 0 -0.023915166868731883 -0.0039249560218204312 0 -0.024188800495075217 -0.0040747897014589366 0 -0.023999639670208846 -0.0040449468369594304 0 -0.024091014940559152 -0.0039489353215028831 0 -0.024088740536770552 -0.0038213673408542992 0 -0.024091014940559152 -0.0039489353215028831 0 -0.023915166868731883 -0.0039249560218204312 0 -0.024088740536770552 -0.0038213673408542992 0 -0.024167194543494617 -0.0038744825537632348 0 -0.024091014940559152 -0.0039489353215028831 0 -0.024088740536770552 -0.0038213673408542992 0 -0.024166996136018332 -0.0037922408954961452 0 -0.024167194543494617 -0.0038744825537632348 0 -0.023782209110451528 -0.004117148908129223 0 -0.023999639670208846 -0.0040449468369594304 0 -0.023915166868731883 -0.0039249560218204312 0 -0.023782209110451528 -0.004117148908129223 0 -0.023915166868731883 -0.0039249560218204312 0 -0.023553913133068129 -0.0039338012941221847 0 -0.023786789181647165 -0.0043137908348564735 0 -0.023782209110451528 -0.004117148908129223 0 -0.023481771603752009 -0.0042467270901126904 0 -0.023782209110451528 -0.004117148908129223 0 -0.023553913133068129 -0.0039338012941221847 0 -0.023481771603752009 -0.0042467270901126904 0 -0.023786789181647165 -0.0043137908348564735 0 -0.023580366926411397 -0.0044458339348607909 0 -0.023481771603752009 -0.0042467270901126904 0 -0.023580366926411397 -0.0044458339348607909 0 -0.023481771603752009 -0.0042467270901126904 0 -0.02332304592539625 -0.0044680667630160858 0 -0.023481771603752009 -0.0042467270901126904 0 -0.02332304592539625 -0.0044680667630160858 0 -0.023182273178288651 -0.0042726486277045407 0 -0.02369040886990886 -0.004308223399421684 0 -0.023074461598762828 -0.0044144433711392934 0 -0.022986434023934119 -0.0043019364547306187 0 -0.02332304592539625 -0.0044680667630160858 0 -0.023182273178288651 -0.0042726486277045407 0 -0.026724275695557232 -0.0032016108811384124 0 -0.026591669545991053 -0.0031034187105422445 0 -0.023142277709391465 -0.0040384930520307198 0 -0.023553913133068129 -0.0039338012941221847 0 -0.023481771603752009 -0.0042467270901126904 0 -0.023142277709391465 -0.0040384930520307198 0 -0.023481771603752009 -0.0042467270901126904 0 -0.023182273178288651 -0.0042726486277045407 0 -0.029698930357262614 -0.0023105192560319236 0 -0.029697333179846484 -0.0023105223034814047 0 -0.029677527378213532 -0.002287958781298081 0 -0.026889718372427759 -0.0035079470270145811 0 -0.026138178488857883 -0.0034115916350264306 0 -0.026375126594643191 -0.0038593678195961729 0 -0.026889718372427759 -0.0035079470270145811 0 -0.027132990095994028 -0.0038006748915375447 0 -0.026375126594643191 -0.0038593678195961729 0 -0.026889718372427759 -0.0035079470270145811 0 -0.027132990095994028 -0.0038006748915375447 0 -0.027380589219363843 -0.0034193722495709255 0 -0.027226808831815452 -0.0030952993514370935 0 -0.026889718372427759 -0.0035079470270145811 0 -0.027380589219363843 -0.0034193722495709255 0 -0.027226808831815452 -0.0030952993514370935 0 -0.027606387749585824 -0.0031599235677469539 0 -0.027380589219363843 -0.0034193722495709255 0 -0.027226808831815452 -0.0030952993514370935 0 -0.026889718372427759 -0.0035079470270145811 0 -0.026138178488857883 -0.0034115916350264306 0 -0.026331667644178557 -0.0028168710811165929 0 -0.027226808831815452 -0.0030952993514370935 0 -0.026138178488857883 -0.0034115916350264306 0 -0.027634325166596582 -0.0025874596089017631 0 -0.027303919979055801 -0.0026919276564428599 0 -0.026331667644178557 -0.0028168710811165929 0 -0.026138178488857883 -0.0034115916350264306 0 -0.025139064267327777 -0.0031755848122013374 0 -0.026138178488857883 -0.0034115916350264306 0 -0.025139064267327777 -0.0031755848122013374 0 -0.025562498663266708 -0.003659705283518559 0 -0.024623206276641829 -0.0037354525039215562 0 -0.025139064267327777 -0.0031755848122013374 0 -0.025049265232127891 -0.0036341617673247418 0 -0.025139064267327777 -0.0031755848122013374 0 -0.025562498663266708 -0.003659705283518559 0 -0.025049265232127891 -0.0036341617673247418 0 -0.025562498663266708 -0.003659705283518559 0 -0.025049265232127891 -0.0036341617673247418 0 -0.025105074410914505 -0.0039779297935547304 0 -0.026138178488857883 -0.0034115916350264306 0 -0.025562498663266708 -0.003659705283518559 0 -0.025662592884002432 -0.0039502617967885553 0 -0.026138178488857883 -0.0034115916350264306 0 -0.025662592884002432 -0.0039502617967885553 0 -0.026375126594643191 -0.0038593678195961729 0 -0.025662592884002432 -0.0039502617967885553 0 -0.025856297225217272 -0.0041458065863814687 0 -0.026375126594643191 -0.0038593678195961729 0 -0.025662592884002432 -0.0039502617967885553 0 -0.025297746477452168 -0.004191015085576788 0 -0.025105074410914505 -0.0039779297935547304 0 -0.025662592884002432 -0.0039502617967885553 0 -0.025297746477452168 -0.004191015085576788 0 -0.025856297225217272 -0.0041458065863814687 0 -0.024689605871702283 -0.0039772407464166463 0 -0.025105074410914505 -0.0039779297935547304 0 -0.024762518727501778 -0.0041436624140138573 0 -0.024689605871702283 -0.0039772407464166463 0 -0.025049265232127891 -0.0036341617673247418 0 -0.025105074410914505 -0.0039779297935547304 0 -0.025562498663266708 -0.003659705283518559 0 -0.025662592884002432 -0.0039502617967885553 0 -0.025105074410914505 -0.0039779297935547304 0 -0.025297746477452168 -0.004191015085576788 0 -0.025105074410914505 -0.0039779297935547304 0 -0.024894925686608862 -0.0042734882890768716 0 -0.024762518727501778 -0.0041436624140138573 0 -0.024570834396560087 -0.0043467950908130026 0 -0.024894925686608862 -0.0042734882890768716 0 -0.025105074410914505 -0.0039779297935547304 0 -0.024762518727501778 -0.0041436624140138573 0 -0.024894925686608862 -0.0042734882890768716 0 -0.024570834396560087 -0.0043467950908130026 0 -0.024894925686608862 -0.0042734882890768716 0 -0.024640934084297222 -0.0045454760884132825 0 -0.025297746477452168 -0.004191015085576788 0 -0.024894925686608862 -0.0042734882890768716 0 -0.025008645072693882 -0.0044229513534656565 0 -0.024894925686608862 -0.0042734882890768716 0 -0.025008645072693882 -0.0044229513534656565 0 -0.024640934084297222 -0.0045454760884132825 0 -0.025008645072693882 -0.0044229513534656565 0 -0.024640934084297222 -0.0045454760884132825 0 -0.024920596399325708 -0.004661107823928418 0 -0.024366506700836642 -0.0045201136591953685 0 -0.024640934084297222 -0.0045454760884132825 0 -0.024261139341504485 -0.0047564139911901839 0 -0.024366506700836642 -0.0045201136591953685 0 -0.024570834396560087 -0.0043467950908130026 0 -0.024640934084297222 -0.0045454760884132825 0 -0.025856297225217272 -0.0041458065863814687 0 -0.025405745751503193 -0.0044209278999441642 0 -0.025887223481610301 -0.0044135127542695614 0 -0.025297746477452168 -0.004191015085576788 0 -0.025856297225217272 -0.0041458065863814687 0 -0.025405745751503193 -0.0044209278999441642 0 -0.025297746477452168 -0.004191015085576788 0 -0.025008645072693882 -0.0044229513534656565 0 -0.025405745751503193 -0.0044209278999441642 0 -0.025008645072693882 -0.0044229513534656565 0 -0.025405745751503193 -0.0044209278999441642 0 -0.024920596399325708 -0.004661107823928418 0 -0.025405745751503193 -0.0044209278999441642 0 -0.025427751752308804 -0.0047378494975265258 0 -0.024920596399325708 -0.004661107823928418 0 -0.025405745751503193 -0.0044209278999441642 0 -0.025887223481610301 -0.0044135127542695614 0 -0.025427751752308804 -0.0047378494975265258 0 -0.025887223481610301 -0.0044135127542695614 0 -0.026481336560210105 -0.0041856060016537498 0 -0.026287038735049725 -0.0046326938470642801 0 -0.025856297225217272 -0.0041458065863814687 0 -0.025887223481610301 -0.0044135127542695614 0 -0.026481336560210105 -0.0041856060016537498 0 -0.025887223481610301 -0.0044135127542695614 0 -0.026287038735049725 -0.0046326938470642801 0 -0.025427751752308804 -0.0047378494975265258 0 -0.025856297225217272 -0.0041458065863814687 0 -0.026375126594643191 -0.0038593678195961729 0 -0.026481336560210105 -0.0041856060016537498 0 -0.027029143921410068 -0.0041874601307458643 0 -0.027132990095994028 -0.0038006748915375447 0 -0.026481336560210105 -0.0041856060016537498 0 -0.027132990095994028 -0.0038006748915375447 0 -0.026375126594643191 -0.0038593678195961729 0 -0.026481336560210105 -0.0041856060016537498 0 -0.027029143921410068 -0.0041874601307458643 0 -0.026951784412519358 -0.0046361173121302031 0 -0.026688222668094161 -0.0044060833978503446 0 -0.026951784412519358 -0.0046361173121302031 0 -0.026688222668094161 -0.0044060833978503446 0 -0.026287038735049725 -0.0046326938470642801 0 -0.027029143921410068 -0.0041874601307458643 0 -0.026481336560210105 -0.0041856060016537498 0 -0.026688222668094161 -0.0044060833978503446 0 -0.026481336560210105 -0.0041856060016537498 0 -0.026688222668094161 -0.0044060833978503446 0 -0.026287038735049725 -0.0046326938470642801 0 -0.026951784412519358 -0.0046361173121302031 0 -0.026287038735049725 -0.0046326938470642801 0 -0.026591662697199005 -0.0051290317340020987 0 -0.026287038735049725 -0.0046326938470642801 0 -0.026591662697199005 -0.0051290317340020987 0 -0.025880975944791915 -0.0050498665286325684 0 -0.022986532230052023 -0.0058215826902512247 0 -0.022747827251918113 -0.0055866029261224378 0 -0.022571133795796339 -0.0058506488657202593 0 -0.024376361046833689 -0.0058793309662303955 0 -0.025487009112125328 -0.004670447024990804 0 -0.026591662697199005 -0.0051290317340020987 0 -0.026077474457444547 -0.0057452717763523693 0 -0.027245488336819355 -0.0054100178591172171 0 -0.026591662697199005 -0.0051290317340020987 0 -0.026077474457444547 -0.0057452717763523693 0 -0.025880975944791915 -0.0050498665286325684 0 -0.026077474457444547 -0.0057452717763523693 0 -0.025124613110999852 -0.0051966238912193683 0 -0.024051424584611215 -0.0056050797736659098 0 -0.024376361046833689 -0.0058793309662303955 0 -0.024195928026878311 -0.0056094504891970485 0 -0.026077474457444547 -0.0057452717763523693 0 -0.025124613110999852 -0.0051966238912193683 0 -0.025880975944791915 -0.0050498665286325684 0 -0.026287038735049725 -0.0046326938470642801 0 -0.025880975944791915 -0.0050498665286325684 0 -0.025427751752308804 -0.0047378494975265258 0 -0.025124613110999852 -0.0051966238912193683 0 -0.025880975944791915 -0.0050498665286325684 0 -0.025427751752308804 -0.0047378494975265258 0 -0.025427751752308804 -0.0047378494975265258 0 -0.024920596399325708 -0.004661107823928418 0 -0.024660697240960004 -0.0050140828986094919 0 -0.025124613110999852 -0.0051966238912193683 0 -0.025427751752308804 -0.0047378494975265258 0 -0.024660697240960004 -0.0050140828986094919 0 -0.024640934084297222 -0.0045454760884132825 0 -0.024518773014053908 -0.0048130305079740632 0 -0.024261139341504485 -0.0047564139911901839 0 -0.024920596399325708 -0.004661107823928418 0 -0.024660697240960004 -0.0050140828986094919 0 -0.024518773014053908 -0.0048130305079740632 0 -0.024640934084297222 -0.0045454760884132825 0 -0.024920596399325708 -0.004661107823928418 0 -0.024518773014053908 -0.0048130305079740632 0 -0.024660697240960004 -0.0050140828986094919 0 -0.024518773014053908 -0.0048130305079740632 0 -0.024193978552721485 -0.0050397663256478466 0 -0.024518773014053908 -0.0048130305079740632 0 -0.024193978552721485 -0.0050397663256478466 0 -0.024261139341504485 -0.0047564139911901839 0 -0.024193978552721485 -0.0050397663256478466 0 -0.024051424584611215 -0.0056050797736659098 0 -0.023850515120414001 -0.0051870646433308789 0 -0.024660697240960004 -0.0050140828986094919 0 -0.024193978552721485 -0.0050397663256478466 0 -0.024051424584611215 -0.0056050797736659098 0 -0.025124613110999852 -0.0051966238912193683 0 -0.024660697240960004 -0.0050140828986094919 0 -0.024051424584611215 -0.0056050797736659098 0 -0.024051424584611215 -0.0056050797736659098 0 -0.023415417354144125 -0.0053524852867035747 0 -0.023722235773752157 -0.0053535821000482422 0 -0.024051424584611215 -0.0056050797736659098 0 -0.023415417354144125 -0.0053524852867035747 0 -0.023426640254294587 -0.0054520518570373546 0 -0.024051424584611215 -0.0056050797736659098 0 -0.023722235773752157 -0.0053535821000482422 0 -0.023850515120414001 -0.0051870646433308789 0 -0.023722235773752157 -0.0053535821000482422 0 -0.023850515120414001 -0.0051870646433308789 0 -0.023656515673521609 -0.0051978776179166511 0 -0.023722235773752157 -0.0053535821000482422 0 -0.023523277455146669 -0.0052148931786123497 0 -0.023656515673521609 -0.0051978776179166511 0 -0.023523277455146669 -0.0052148931786123497 0 -0.023269235549128586 -0.0051715548523218998 0 -0.023419661678129013 -0.0050669201279193166 0 -0.023722235773752157 -0.0053535821000482422 0 -0.023523277455146669 -0.0052148931786123497 0 -0.023398749113853465 -0.005274043312965656 0 -0.023523277455146669 -0.0052148931786123497 0 -0.023398749113853465 -0.005274043312965656 0 -0.023269235549128586 -0.0051715548523218998 0 -0.023415417354144125 -0.0053524852867035747 0 -0.023722235773752157 -0.0053535821000482422 0 -0.023398749113853465 -0.005274043312965656 0 -0.023415417354144125 -0.0053524852867035747 0 -0.023166245780146283 -0.0053037776851142518 0 -0.023079569502510996 -0.005322170291081901 0 -0.023415417354144125 -0.0053524852867035747 0 -0.023398749113853465 -0.005274043312965656 0 -0.023166245780146283 -0.0053037776851142518 0 -0.023398749113853465 -0.005274043312965656 0 -0.023269235549128586 -0.0051715548523218998 0 -0.023166245780146283 -0.0053037776851142518 0 -0.023269235549128586 -0.0051715548523218998 0 -0.023166245780146283 -0.0053037776851142518 0 -0.022946715517550165 -0.0052378137467610176 0 -0.023166245780146283 -0.0053037776851142518 0 -0.02295941705317301 -0.0053377170573749733 0 -0.022946715517550165 -0.0052378137467610176 0 -0.02295941705317301 -0.0053377170573749733 0 -0.022723176108955905 -0.0053965615776926925 0 -0.022946715517550165 -0.0052378137467610176 0 -0.023166245780146283 -0.0053037776851142518 0 -0.02295941705317301 -0.0053377170573749733 0 -0.023079569502510996 -0.005322170291081901 0 -0.02295941705317301 -0.0053377170573749733 0 -0.022936490025304401 -0.0053472453033587249 0 -0.022723176108955905 -0.0053965615776926925 0 -0.021958207535556409 -0.0059881939766491272 0 -0.022459309195428569 -0.0052779191592347919 0 -0.022723176108955905 -0.0053965615776926925 0 -0.022936490025304401 -0.0053472453033587249 0 -0.023016615132856171 -0.0053408578411095527 0 -0.022723176108955905 -0.0053965615776926925 0 -0.022936490025304401 -0.0053472453033587249 0 -0.023079569502510996 -0.005322170291081901 0 -0.023016615132856171 -0.0053408578411095527 0 -0.02295941705317301 -0.0053377170573749733 0 -0.022936490025304401 -0.0053472453033587249 0 -0.023079569502510996 -0.005322170291081901 0 -0.023415417354144125 -0.0053524852867035747 0 -0.023079569502510996 -0.005322170291081901 0 -0.023173916420216895 -0.0053318426749896083 0 -0.023079569502510996 -0.005322170291081901 0 -0.023101666843642853 -0.0053239740457997975 0 -0.023016615132856171 -0.0053408578411095527 0 -0.023079569502510996 -0.005322170291081901 0 -0.023101666843642853 -0.0053239740457997975 0 -0.023173916420216895 -0.0053318426749896083 0 -0.023104463110986673 -0.0053245581808514728 0 -0.023016615132856171 -0.0053408578411095527 0 -0.023239777919897092 -0.0053378684272207414 0 -0.023127645264958644 -0.0053164673408226558 0 -0.023239777919897092 -0.0053378684272207414 0 -0.023099111679099556 -0.0053285096149353825 0 -0.022605849638439542 -0.0053347936141598142 0 -0.02282792749198425 -0.0054211880999140132 0 -0.023127645264958644 -0.0053164673408226558 0 -0.023101666843642853 -0.0053239740457997975 0 -0.023173916420216895 -0.0053318426749896083 0 -0.023127645264958644 -0.0053164673408226558 0 -0.023173916420216895 -0.0053318426749896083 0 -0.023099111679099556 -0.0053285096149353825 0 -0.023127645264958644 -0.0053164673408226558 0 -0.023104463110986673 -0.0053245581808514728 0 -0.023101666843642853 -0.0053239740457997975 0 -0.023104463110986673 -0.0053245581808514728 0 -0.023101666843642853 -0.0053239740457997975 0 -0.023016615132856171 -0.0053408578411095527 0 -0.023127645264958644 -0.0053164673408226558 0 -0.023104463110986673 -0.0053245581808514728 0 -0.023239777919897092 -0.0053378684272207414 0 -0.022605849638439542 -0.0053347936141598142 0 -0.022131226296561009 -0.0056770301211828151 0 -0.022605849638439542 -0.0053347936141598142 0 -0.022697340306281791 -0.0054833892361401048 0 -0.021669506431763325 -0.0058731137644360727 0 -0.021859099380778579 -0.0057006985091298135 0 -0.021565039049800672 -0.0063255526283070712 0 -0.023016615132856171 -0.0053408578411095527 0 -0.023239777919897092 -0.0053378684272207414 0 -0.022723176108955905 -0.0053965615776926925 0 -0.021859099380778579 -0.0057006985091298135 0 -0.021565039049800672 -0.0063255526283070712 0 -0.022459309195428569 -0.0052779191592347919 0 -0.021669506431763325 -0.0058731137644360727 0 -0.021662366366341272 -0.0057061770344318521 0 -0.021560217737327615 -0.0058365013784629077 0 -0.021859099380778579 -0.0057006985091298135 0 -0.021662366366341272 -0.0057061770344318521 0 -0.021718964519035613 -0.0055810142024807739 0 -0.021669506431763325 -0.0058731137644360727 0 -0.021859099380778579 -0.0057006985091298135 0 -0.021662366366341272 -0.0057061770344318521 0 -0.021560217737327615 -0.0058365013784629077 0 -0.021565039049800672 -0.0063255526283070712 0 -0.021369210524201897 -0.0053699487029126493 0 -0.021669506431763325 -0.0058731137644360727 0 -0.021560217737327615 -0.0058365013784629077 0 -0.021565039049800672 -0.0063255526283070712 0 -0.023656159499888935 -0.0045178764140906061 0 -0.023131719894656382 -0.0042926228983201486 0 -0.023656306346618021 -0.0054584858087218776 0 -0.021662366366341272 -0.0057061770344318521 0 -0.021560217737327615 -0.0058365013784629077 0 -0.021546002200364824 -0.0055706282096546029 0 -0.023656159499888935 -0.0045178764140906061 0 -0.023793805655669627 -0.0041318672735961379 0 -0.024157863147673254 -0.004218411396409231 0 -0.023656159499888935 -0.0045178764140906061 0 -0.023793805655669627 -0.0041318672735961379 0 -0.023131719894656382 -0.0042926228983201486 0 -0.022605849638439542 -0.0053347936141598142 0 -0.02420740912396848 -0.0042140182914308134 0 -0.023793805655669627 -0.0041318672735961379 0 -0.023131719894656382 -0.0042926228983201486 0 -0.024015285859285394 -0.0036524354940118482 0 -0.023020893478682605 -0.0051791522661565493 0 -0.02300455547645559 -0.0054765888073282426 0 -0.022747827251918113 -0.0055866029261224378 0 -0.022878215709516862 -0.0058510860088525699 0 -0.023852767538667951 -0.0046251919560466905 0 -0.024232333629500443 -0.0049019290250006233 0 -0.022605849638439542 -0.0053347936141598142 0 -0.023151342525028228 -0.0052144575725586433 0 -0.022986532230052023 -0.0058215826902512247 0 -0.02300455547645559 -0.0054765888073282426 0 -0.022747827251918113 -0.0055866029261224378 0 -0.022986532230052023 -0.0058215826902512247 0 -0.024051424584611215 -0.0056050797736659098 0 -0.023426640254294587 -0.0054520518570373546 0 -0.022986532230052023 -0.0058215826902512247 0 -0.02300455547645559 -0.0054765888073282426 0 -0.023149978940146539 -0.0054682944497456689 0 -0.022986532230052023 -0.0058215826902512247 0 -0.023149978940146539 -0.0054682944497456689 0 -0.023426640254294587 -0.0054520518570373546 0 -0.023415417354144125 -0.0053524852867035747 0 -0.023426640254294587 -0.0054520518570373546 0 -0.023173916420216895 -0.0053318426749896083 0 -0.023149978940146539 -0.0054682944497456689 0 -0.023426640254294587 -0.0054520518570373546 0 -0.023173916420216895 -0.0053318426749896083 0 -0.023149978940146539 -0.0054682944497456689 0 -0.023173916420216895 -0.0053318426749896083 0 -0.023099111679099556 -0.0053285096149353825 0 -0.023020893478682605 -0.0051791522661565493 0 -0.02300455547645559 -0.0054765888073282426 0 -0.023099111679099556 -0.0053285096149353825 0 -0.02300455547645559 -0.0054765888073282426 0 -0.023149978940146539 -0.0054682944497456689 0 -0.023099111679099556 -0.0053285096149353825 0 -0.023235596188200227 -0.0046830402793376757 0 -0.023386935863078641 -0.0047240551958051043 0 -0.023313549907652956 -0.0047923788667379773 0 -0.023235596188200227 -0.0046830402793376757 0 -0.023214262719667943 -0.0045918157218084151 0 -0.023386935863078641 -0.0047240551958051043 0 -0.023150051936633598 -0.0046062753885565601 0 -0.023235596188200227 -0.0046830402793376757 0 -0.023214262719667943 -0.0045918157218084151 0 -0.02332304592539625 -0.0044680667630160858 0 -0.023214262719667943 -0.0045918157218084151 0 -0.023386935863078641 -0.0047240551958051043 0 -0.023130266014196196 -0.0044985122295044993 0 -0.02332304592539625 -0.0044680667630160858 0 -0.023214262719667943 -0.0045918157218084151 0 -0.02332304592539625 -0.0044680667630160858 0 -0.023562671598877823 -0.0046422060071273563 0 -0.023386935863078641 -0.0047240551958051043 0 -0.023580366926411397 -0.0044458339348607909 0 -0.02332304592539625 -0.0044680667630160858 0 -0.023562671598877823 -0.0046422060071273563 0 -0.023795210327190969 -0.0045267525808637549 0 -0.023580366926411397 -0.0044458339348607909 0 -0.023562671598877823 -0.0046422060071273563 0 -0.023562671598877823 -0.0046422060071273563 0 -0.023386935863078641 -0.0047240551958051043 0 -0.023579843459093631 -0.0048091404847172975 0 -0.023386935863078641 -0.0047240551958051043 0 -0.023579843459093631 -0.0048091404847172975 0 -0.023483596486416857 -0.004914992825000475 0 -0.023386935863078641 -0.0047240551958051043 0 -0.023483596486416857 -0.004914992825000475 0 -0.023313549907652956 -0.0047923788667379773 0 -0.023696738590817962 -0.0049585779725344397 0 -0.023579843459093631 -0.0048091404847172975 0 -0.023483596486416857 -0.004914992825000475 0 -0.023696738590817962 -0.0049585779725344397 0 -0.023770555396893715 -0.0047545358842878095 0 -0.023973331254152245 -0.0048882469973576866 0 -0.023696738590817962 -0.0049585779725344397 0 -0.023579843459093631 -0.0048091404847172975 0 -0.023770555396893715 -0.0047545358842878095 0 -0.023562671598877823 -0.0046422060071273563 0 -0.023579843459093631 -0.0048091404847172975 0 -0.023770555396893715 -0.0047545358842878095 0 -0.023795210327190969 -0.0045267525808637549 0 -0.023562671598877823 -0.0046422060071273563 0 -0.023770555396893715 -0.0047545358842878095 0 -0.024079477721538463 -0.0045926924266059587 0 -0.023795210327190969 -0.0045267525808637549 0 -0.023770555396893715 -0.0047545358842878095 0 -0.024079477721538463 -0.0045926924266059587 0 -0.023770555396893715 -0.0047545358842878095 0 -0.023973331254152245 -0.0048882469973576866 0 -0.024079477721538463 -0.0045926924266059587 0 -0.023973331254152245 -0.0048882469973576866 0 -0.024261139341504485 -0.0047564139911901839 0 -0.024193978552721485 -0.0050397663256478466 0 -0.023973331254152245 -0.0048882469973576866 0 -0.024261139341504485 -0.0047564139911901839 0 -0.024193978552721485 -0.0050397663256478466 0 -0.023973331254152245 -0.0048882469973576866 0 -0.023850515120414001 -0.0051870646433308789 0 -0.023696738590817962 -0.0049585779725344397 0 -0.023850515120414001 -0.0051870646433308789 0 -0.023616323692755247 -0.0050772858612312391 0 -0.023696738590817962 -0.0049585779725344397 0 -0.023973331254152245 -0.0048882469973576866 0 -0.023850515120414001 -0.0051870646433308789 0 -0.023850515120414001 -0.0051870646433308789 0 -0.023656515673521609 -0.0051978776179166511 0 -0.023616323692755247 -0.0050772858612312391 0 -0.023656515673521609 -0.0051978776179166511 0 -0.02353768155891723 -0.0051076393640989712 0 -0.023616323692755247 -0.0050772858612312391 0 -0.023523277455146669 -0.0052148931786123497 0 -0.023656515673521609 -0.0051978776179166511 0 -0.02353768155891723 -0.0051076393640989712 0 -0.023523277455146669 -0.0052148931786123497 0 -0.023419661678129013 -0.0050669201279193166 0 -0.02353768155891723 -0.0051076393640989712 0 -0.023419661678129013 -0.0050669201279193166 0 -0.02353768155891723 -0.0051076393640989712 0 -0.023439087803655317 -0.004985586587598425 0 -0.02353768155891723 -0.0051076393640989712 0 -0.023439087803655317 -0.004985586587598425 0 -0.023479665852317734 -0.0049952480704404051 0 -0.023439087803655317 -0.004985586587598425 0 -0.023479665852317734 -0.0049952480704404051 0 -0.023396618624469751 -0.0049255919241644628 0 -0.023696738590817962 -0.0049585779725344397 0 -0.023616323692755247 -0.0050772858612312391 0 -0.023483596486416857 -0.004914992825000475 0 -0.023479665852317734 -0.0049952480704404051 0 -0.023616323692755247 -0.0050772858612312391 0 -0.023483596486416857 -0.004914992825000475 0 -0.02353768155891723 -0.0051076393640989712 0 -0.023479665852317734 -0.0049952480704404051 0 -0.023616323692755247 -0.0050772858612312391 0 -0.023483596486416857 -0.004914992825000475 0 -0.023363370389347726 -0.0048805721683915235 0 -0.023313549907652956 -0.0047923788667379773 0 -0.023479665852317734 -0.0049952480704404051 0 -0.023483596486416857 -0.004914992825000475 0 -0.023363370389347726 -0.0048805721683915235 0 -0.023363370389347726 -0.0048805721683915235 0 -0.023396618624469751 -0.0049255919241644628 0 -0.023321936711614588 -0.0048618113744030396 0 -0.023363370389347726 -0.0048805721683915235 0 -0.023274258292183162 -0.0048086101819405204 0 -0.023321936711614588 -0.0048618113744030396 0 -0.023479665852317734 -0.0049952480704404051 0 -0.023363370389347726 -0.0048805721683915235 0 -0.023396618624469751 -0.0049255919241644628 0 -0.023363370389347726 -0.0048805721683915235 0 -0.023274258292183162 -0.0048086101819405204 0 -0.023207245931247091 -0.0047380871525417338 0 -0.023145069267152187 -0.0047090584461274036 0 -0.023274258292183162 -0.0048086101819405204 0 -0.023207245931247091 -0.0047380871525417338 0 -0.023207245931247091 -0.0047380871525417338 0 -0.023313549907652956 -0.0047923788667379773 0 -0.023194765543545048 -0.0047026128802593907 0 -0.023363370389347726 -0.0048805721683915235 0 -0.023207245931247091 -0.0047380871525417338 0 -0.023313549907652956 -0.0047923788667379773 0 -0.023235596188200227 -0.0046830402793376757 0 -0.023313549907652956 -0.0047923788667379773 0 -0.023194765543545048 -0.0047026128802593907 0 -0.023290455950611116 -0.0048187722062554708 0 -0.023442198520472884 -0.004897573960754925 0 -0.02324615025399843 -0.0047596613258239599 0 -0.02324615025399843 -0.0047596613258239599 0 -0.023277128197139025 -0.0048213884797792348 0 -0.023216698250306263 -0.004781494732588128 0 -0.023290455950611116 -0.0048187722062554708 0 -0.02324615025399843 -0.0047596613258239599 0 -0.023277128197139025 -0.0048213884797792348 0 -0.023290455950611116 -0.0048187722062554708 0 -0.023274258292183162 -0.0048086101819405204 0 -0.023277128197139025 -0.0048213884797792348 0 -0.023274258292183162 -0.0048086101819405204 0 -0.023277128197139025 -0.0048213884797792348 0 -0.023321936711614588 -0.0048618113744030396 0 -0.023321936711614588 -0.0048618113744030396 0 -0.023216698250306263 -0.004781494732588128 0 -0.02334183335184949 -0.0048560347844089444 0 -0.023277128197139025 -0.0048213884797792348 0 -0.023321936711614588 -0.0048618113744030396 0 -0.023216698250306263 -0.004781494732588128 0 -0.023396618624469751 -0.0049255919241644628 0 -0.023321936711614588 -0.0048618113744030396 0 -0.02334183335184949 -0.0048560347844089444 0 -0.023216698250306263 -0.004781494732588128 0 -0.023254842816133239 -0.004682369806684919 0 -0.023000656415704656 -0.0046384138866977639 0 -0.02324615025399843 -0.0047596613258239599 0 -0.023216698250306263 -0.004781494732588128 0 -0.023000656415704656 -0.0046384138866977639 0 -0.023216698250306263 -0.004781494732588128 0 -0.023254842816133239 -0.004682369806684919 0 -0.02334183335184949 -0.0048560347844089444 0 -0.023439087803655317 -0.004985586587598425 0 -0.023396618624469751 -0.0049255919241644628 0 -0.02334183335184949 -0.0048560347844089444 0 -0.023439087803655317 -0.004985586587598425 0 -0.02334183335184949 -0.0048560347844089444 0 -0.02336001661194859 -0.0048835719599002857 0 -0.023254842816133239 -0.004682369806684919 0 -0.02334183335184949 -0.0048560347844089444 0 -0.02336001661194859 -0.0048835719599002857 0 -0.023419661678129013 -0.0050669201279193166 0 -0.023439087803655317 -0.004985586587598425 0 -0.02336001661194859 -0.0048835719599002857 0 -0.023419661678129013 -0.0050669201279193166 0 -0.02336001661194859 -0.0048835719599002857 0 -0.02323723460366995 -0.0049570153163669365 0 -0.02336001661194859 -0.0048835719599002857 0 -0.023283941232653375 -0.0047068263337055874 0 -0.02323723460366995 -0.0049570153163669365 0 -0.023254842816133239 -0.004682369806684919 0 -0.023283941232653375 -0.0047068263337055874 0 -0.023354917327108569 -0.004311492668401147 0 -0.023254842816133239 -0.004682369806684919 0 -0.02336001661194859 -0.0048835719599002857 0 -0.023283941232653375 -0.0047068263337055874 0 -0.023283941232653375 -0.0047068263337055874 0 -0.023354917327108569 -0.004311492668401147 0 -0.023095766942293261 -0.0045456440009133082 0 -0.021376323051043863 -0.0041486649438582466 0 -0.022127986441559451 -0.0031313190801202564 0 -0.021028394313969294 -0.0031010424701784713 0 -0.021376323051043863 -0.0041486649438582466 0 -0.02257703832996848 -0.0038315969151696203 0 -0.022127986441559451 -0.0031313190801202564 0 -0.021376323051043863 -0.0041486649438582466 0 -0.023000656415704656 -0.0046384138866977639 0 -0.02257703832996848 -0.0038315969151696203 0 -0.022347282404361804 -0.0042021284650668291 0 -0.022958329806671538 -0.0046048818179811758 0 -0.023254842816133239 -0.004682369806684919 0 -0.023354917327108569 -0.004311492668401147 0 -0.023000656415704656 -0.0046384138866977639 0 -0.02324615025399843 -0.0047596613258239599 0 -0.023000656415704656 -0.0046384138866977639 0 -0.02311632677943291 -0.0039844151038157414 0 -0.023000656415704656 -0.0046384138866977639 0 -0.02257703832996848 -0.0038315969151696203 0 -0.02311632677943291 -0.0039844151038157414 0 -0.02257703832996848 -0.0038315969151696203 0 -0.02311632677943291 -0.0039844151038157414 0 -0.022884445161103894 -0.0033761075882322439 0 -0.02257703832996848 -0.0038315969151696203 0 -0.022884445161103894 -0.0033761075882322439 0 -0.022127986441559451 -0.0031313190801202564 0 -0.023546179643429685 -0.0039441347406443629 0 -0.023022863006674044 -0.0039384448373817743 0 -0.023204428570051932 -0.0036277637770327107 0 -0.023177465009392436 -0.0033978277763189726 0 -0.022884445161103894 -0.0033761075882322439 0 -0.02311632677943291 -0.0039844151038157414 0 -0.023204428570051932 -0.0036277637770327107 0 -0.022884445161103894 -0.0033761075882322439 0 -0.023244501832775023 -0.0035078149057495437 0 -0.02311632677943291 -0.0039844151038157414 0 -0.023204428570051932 -0.0036277637770327107 0 -0.023442198520472884 -0.004897573960754925 0 -0.023545785905497836 -0.0043200444881034122 0 -0.02324615025399843 -0.0047596613258239599 0 -0.023545785905497836 -0.0043200444881034122 0 -0.02324615025399843 -0.0047596613258239599 0 -0.02311632677943291 -0.0039844151038157414 0 -0.021689745695961105 -0.0047933278044531204 0 -0.021955812089788654 -0.0047174365774247697 0 -0.021484877712011349 -0.0045387114740462319 0 -0.021689745695961105 -0.0047933278044531204 0 -0.021484877712011349 -0.0045387114740462319 0 -0.021350469704238154 -0.0047686984954168829 0 -0.021689745695961105 -0.0047933278044531204 0 -0.021350469704238154 -0.0047686984954168829 0 -0.02163399932685868 -0.0049845622024928928 0 -0.021689745695961105 -0.0047933278044531204 0 -0.021955812089788654 -0.0047174365774247697 0 -0.021961957749701441 -0.0049543689196397348 0 -0.021955812089788654 -0.0047174365774247697 0 -0.022333673438603048 -0.0050066146519675237 0 -0.022426152600466778 -0.0048666096303232051 0 -0.021955812089788654 -0.0047174365774247697 0 -0.021484877712011349 -0.0045387114740462319 0 -0.021849021900203384 -0.0043329376269133314 0 -0.021955812089788654 -0.0047174365774247697 0 -0.022451654318449643 -0.0046361776639659942 0 -0.021849021900203384 -0.0043329376269133314 0 -0.021090827554313005 -0.0044824100505935754 0 -0.020963082410951107 -0.0047075611180238727 0 -0.020752211267930309 -0.0040156048146781937 0 -0.021484877712011349 -0.0045387114740462319 0 -0.021090827554313005 -0.0044824100505935754 0 -0.021350469704238154 -0.0047686984954168829 0 -0.022141973130062356 -0.0047825066822788642 0 -0.020587988418504333 -0.0038935397076481767 0 -0.021940264749118015 -0.0045350378103769396 0 -0.021879440862902673 -0.0046197959210416018 0 -0.021618948869301959 -0.0040611696827335467 0 -0.021484877712011349 -0.0045387114740462319 0 -0.021090827554313005 -0.0044824100505935754 0 -0.021042792922713133 -0.0041658550809275732 0 -0.021450260865887701 -0.0048473756825763107 0 -0.022141973130062356 -0.0047825066822788642 0 -0.021021123743762353 -0.0047059467224649792 0 -0.021206933599973291 -0.0048922610348445207 0 -0.021016501513941854 -0.004961536747045794 0 -0.022522165393861947 -0.0046461471464511756 0 -0.02241265063200986 -0.004795913591843083 0 -0.022528735362359102 -0.0050493929744328337 0 -0.022141973130062356 -0.0047825066822788642 0 -0.022797280784746719 -0.0050774093061212886 0 -0.022141973130062356 -0.0047825066822788642 0 -0.023113211439822118 -0.0047541181748448182 0 -0.021090827554313005 -0.0044824100505935754 0 -0.021021123743762353 -0.0047059467224649792 0 -0.021350469704238154 -0.0047686984954168829 0 -0.021021123743762353 -0.0047059467224649792 0 -0.021350469704238154 -0.0047686984954168829 0 -0.021206933599973291 -0.0048922610348445207 0 -0.023692765152110554 -0.0047451510783376068 0 -0.022797280784746719 -0.0050774093061212886 0 -0.022605849638439542 -0.0053347936141598142 0 -0.022797280784746719 -0.0050774093061212886 0 -0.021350469704238154 -0.0047686984954168829 0 -0.021375418950674185 -0.0050338022127594259 0 -0.02163399932685868 -0.0049845622024928928 0 -0.021565039049800672 -0.0063255526283070712 0 -0.021016501513941854 -0.004961536747045794 0 -0.021369210524201897 -0.0053699487029126493 0 -0.021350469704238154 -0.0047686984954168829 0 -0.021206933599973291 -0.0048922610348445207 0 -0.021375418950674185 -0.0050338022127594259 0 -0.021206933599973291 -0.0048922610348445207 0 -0.021226340730039091 -0.0050452595362662726 0 -0.021375418950674185 -0.0050338022127594259 0 -0.021226340730039091 -0.0050452595362662726 0 -0.021016501513941854 -0.004961536747045794 0 -0.021369210524201897 -0.0053699487029126493 0 -0.021226340730039091 -0.0050452595362662726 0 -0.021375418950674185 -0.0050338022127594259 0 -0.021369210524201897 -0.0053699487029126493 0 -0.021375418950674185 -0.0050338022127594259 0 -0.021554334510352938 -0.005230963933863084 0 -0.02163399932685868 -0.0049845622024928928 0 -0.021375418950674185 -0.0050338022127594259 0 -0.021554334510352938 -0.005230963933863084 0 -0.021369210524201897 -0.0053699487029126493 0 -0.023113211439822118 -0.0047541181748448182 0 -0.022797280784746719 -0.0050774093061212886 0 -0.021206933599973291 -0.0048922610348445207 0 -0.021226340730039091 -0.0050452595362662726 0 -0.021016501513941854 -0.004961536747045794 0 -0.021560217737327615 -0.0058365013784629077 0 -0.021369210524201897 -0.0053699487029126493 0 -0.021546002200364824 -0.0055706282096546029 0 -0.021554334510352938 -0.005230963933863084 0 -0.021369210524201897 -0.0053699487029126493 0 -0.021566022751889225 -0.0054346490621969756 0 -0.021369210524201897 -0.0053699487029126493 0 -0.021566022751889225 -0.0054346490621969756 0 -0.021546002200364824 -0.0055706282096546029 0 -0.021566022751889225 -0.0054346490621969756 0 -0.021546002200364824 -0.0055706282096546029 0 -0.021718964519035613 -0.0055810142024807739 0 -0.021662366366341272 -0.0057061770344318521 0 -0.021546002200364824 -0.0055706282096546029 0 -0.021718964519035613 -0.0055810142024807739 0 -0.021859099380778579 -0.0057006985091298135 0 -0.021981947434479857 -0.0054462298977696446 0 -0.022459309195428569 -0.0052779191592347919 0 -0.021859099380778579 -0.0057006985091298135 0 -0.021718964519035613 -0.0055810142024807739 0 -0.021981947434479857 -0.0054462298977696446 0 -0.021718964519035613 -0.0055810142024807739 0 -0.021981947434479857 -0.0054462298977696446 0 -0.021796802105772735 -0.0053518358647318947 0 -0.021566022751889225 -0.0054346490621969756 0 -0.021718964519035613 -0.0055810142024807739 0 -0.021796802105772735 -0.0053518358647318947 0 -0.022067289381844414 -0.0052620096777652465 0 -0.021877332086205677 -0.0051630405550558917 0 -0.022237608319388123 -0.0051304349756315986 0 -0.021981947434479857 -0.0054462298977696446 0 -0.022067289381844414 -0.0052620096777652465 0 -0.022459309195428569 -0.0052779191592347919 0 -0.021981947434479857 -0.0054462298977696446 0 -0.022067289381844414 -0.0052620096777652465 0 -0.021796802105772735 -0.0053518358647318947 0 -0.022067289381844414 -0.0052620096777652465 0 -0.021796802105772735 -0.0053518358647318947 0 -0.021877332086205677 -0.0051630405550558917 0 -0.021554334510352938 -0.005230963933863084 0 -0.021796802105772735 -0.0053518358647318947 0 -0.021877332086205677 -0.0051630405550558917 0 -0.021554334510352938 -0.005230963933863084 0 -0.021566022751889225 -0.0054346490621969756 0 -0.021796802105772735 -0.0053518358647318947 0 -0.021554334510352938 -0.005230963933863084 0 -0.021877332086205677 -0.0051630405550558917 0 -0.02163399932685868 -0.0049845622024928928 0 -0.021877332086205677 -0.0051630405550558917 0 -0.021961957749701441 -0.0049543689196397348 0 -0.02163399932685868 -0.0049845622024928928 0 -0.021877332086205677 -0.0051630405550558917 0 -0.021961957749701441 -0.0049543689196397348 0 -0.022237608319388123 -0.0051304349756315986 0 -0.021689745695961105 -0.0047933278044531204 0 -0.021961957749701441 -0.0049543689196397348 0 -0.02163399932685868 -0.0049845622024928928 0 -0.021955812089788654 -0.0047174365774247697 0 -0.021961957749701441 -0.0049543689196397348 0 -0.022333673438603048 -0.0050066146519675237 0 -0.021961957749701441 -0.0049543689196397348 0 -0.022333673438603048 -0.0050066146519675237 0 -0.022237608319388123 -0.0051304349756315986 0 -0.022333673438603048 -0.0050066146519675237 0 -0.022237608319388123 -0.0051304349756315986 0 -0.022595423038971125 -0.0052020508992052013 0 -0.022237608319388123 -0.0051304349756315986 0 -0.022595423038971125 -0.0052020508992052013 0 -0.022459309195428569 -0.0052779191592347919 0 -0.022595423038971125 -0.0052020508992052013 0 -0.022459309195428569 -0.0052779191592347919 0 -0.022723176108955905 -0.0053965615776926925 0 -0.022067289381844414 -0.0052620096777652465 0 -0.022237608319388123 -0.0051304349756315986 0 -0.022459309195428569 -0.0052779191592347919 0 -0.022595423038971125 -0.0052020508992052013 0 -0.022723176108955905 -0.0053965615776926925 0 -0.022946715517550165 -0.0052378137467610176 0 -0.022595423038971125 -0.0052020508992052013 0 -0.022946715517550165 -0.0052378137467610176 0 -0.022708121556188416 -0.0050885207867026935 0 -0.022946715517550165 -0.0052378137467610176 0 -0.022998749079928386 -0.0050571348849314992 0 -0.022708121556188416 -0.0050885207867026935 0 -0.023269235549128586 -0.0051715548523218998 0 -0.022946715517550165 -0.0052378137467610176 0 -0.022998749079928386 -0.0050571348849314992 0 -0.022998749079928386 -0.0050571348849314992 0 -0.022952991733288672 -0.0047961737164324506 0 -0.022714416347838478 -0.0048953898176976743 0 -0.022998749079928386 -0.0050571348849314992 0 -0.022708121556188416 -0.0050885207867026935 0 -0.022714416347838478 -0.0048953898176976743 0 -0.022333673438603048 -0.0050066146519675237 0 -0.022708121556188416 -0.0050885207867026935 0 -0.022426152600466778 -0.0048666096303232051 0 -0.022708121556188416 -0.0050885207867026935 0 -0.022426152600466778 -0.0048666096303232051 0 -0.022714416347838478 -0.0048953898176976743 0 -0.022333673438603048 -0.0050066146519675237 0 -0.022595423038971125 -0.0052020508992052013 0 -0.022708121556188416 -0.0050885207867026935 0 -0.023269235549128586 -0.0051715548523218998 0 -0.023419661678129013 -0.0050669201279193166 0 -0.02323723460366995 -0.0049570153163669365 0 -0.023269235549128586 -0.0051715548523218998 0 -0.022998749079928386 -0.0050571348849314992 0 -0.02323723460366995 -0.0049570153163669365 0 -0.022998749079928386 -0.0050571348849314992 0 -0.02323723460366995 -0.0049570153163669365 0 -0.022952991733288672 -0.0047961737164324506 0 -0.023283941232653375 -0.0047068263337055874 0 -0.023095766942293261 -0.0045456440009133082 0 -0.022952991733288672 -0.0047961737164324506 0 -0.023095766942293261 -0.0045456440009133082 0 -0.022952991733288672 -0.0047961737164324506 0 -0.022678622697884409 -0.0042667097929781636 0 -0.023283941232653375 -0.0047068263337055874 0 -0.02323723460366995 -0.0049570153163669365 0 -0.022952991733288672 -0.0047961737164324506 0 -0.022952991733288672 -0.0047961737164324506 0 -0.022451654318449643 -0.0046361776639659942 0 -0.022678622697884409 -0.0042667097929781636 0 -0.021955812089788654 -0.0047174365774247697 0 -0.022426152600466778 -0.0048666096303232051 0 -0.022451654318449643 -0.0046361776639659942 0 -0.022426152600466778 -0.0048666096303232051 0 -0.022714416347838478 -0.0048953898176976743 0 -0.022451654318449643 -0.0046361776639659942 0 -0.022952991733288672 -0.0047961737164324506 0 -0.022714416347838478 -0.0048953898176976743 0 -0.022451654318449643 -0.0046361776639659942 0 -0.022678622697884409 -0.0042667097929781636 0 -0.021624618605405464 -0.0038476333842346346 0 -0.021849021900203384 -0.0043329376269133314 0 -0.022451654318449643 -0.0046361776639659942 0 -0.022678622697884409 -0.0042667097929781636 0 -0.021849021900203384 -0.0043329376269133314 0 -0.023354917327108569 -0.004311492668401147 0 -0.023095766942293261 -0.0045456440009133082 0 -0.022678622697884409 -0.0042667097929781636 0 -0.023354917327108569 -0.004311492668401147 0 -0.022678622697884409 -0.0042667097929781636 0 -0.022516952558803174 -0.0033521937824805745 0 -0.022347282404361804 -0.0042021284650668291 0 -0.021186562028505499 -0.0033312192486485192 0 -0.021376323051043863 -0.0041486649438582466 0 -0.019882618322991347 -0.0032893423637237831 0 -0.021028394313969294 -0.0031010424701784713 0 -0.022678622697884409 -0.0042667097929781636 0 -0.022516952558803174 -0.0033521937824805745 0 -0.021624618605405464 -0.0038476333842346346 0 -0.022516952558803174 -0.0033521937824805745 0 -0.021624618605405464 -0.0038476333842346346 0 -0.019749275275382065 -0.0025322630014073082 0 -0.021186562028505499 -0.0033312192486485192 0 -0.019854724278627531 -0.0026007934011569472 0 -0.020613007297414391 -0.0036501151455702102 0 -0.021624618605405464 -0.0038476333842346346 0 -0.019749275275382065 -0.0025322630014073082 0 -0.021624618605405464 -0.0038476333842346346 0 -0.021849021900203384 -0.0043329376269133314 0 -0.021042792922713133 -0.0041658550809275732 0 -0.020613007297414391 -0.0036501151455702102 0 -0.021624618605405464 -0.0038476333842346346 0 -0.021042792922713133 -0.0041658550809275732 0 -0.021484877712011349 -0.0045387114740462319 0 -0.021849021900203384 -0.0043329376269133314 0 -0.021042792922713133 -0.0041658550809275732 0 -0.021940264749118015 -0.0045350378103769396 0 -0.021920142027960998 -0.0038523682647094819 0 -0.021618948869301959 -0.0040611696827335467 0 -0.021090827554313005 -0.0044824100505935754 0 -0.021042792922713133 -0.0041658550809275732 0 -0.020752211267930309 -0.0040156048146781937 0 -0.020613007297414391 -0.0036501151455702102 0 -0.021042792922713133 -0.0041658550809275732 0 -0.020752211267930309 -0.0040156048146781937 0 -0.02043462654431227 -0.0038613569320452034 0 -0.020587988418504333 -0.0038935397076481767 0 -0.020613007297414391 -0.0036501151455702102 0 -0.019297008959257345 -0.002989858377376327 0 -0.019749275275382065 -0.0025322630014073082 0 -0.020613007297414391 -0.0036501151455702102 0 -0.019358852304499276 -0.0045251056506413947 0 -0.019297008959257345 -0.002989858377376327 0 -0.020587988418504333 -0.0038935397076481767 0 -0.019733613576332409 -0.0029021345853449199 0 -0.020183073218500883 -0.0032973192937366092 0 -0.020166811831285932 -0.0028149484243023483 0 -0.019671308694011517 -0.0030144726959061129 0 -0.020166811831285932 -0.0028149484243023483 0 -0.019671308694011517 -0.0030144726959061129 0 -0.019860881461442458 -0.0026768804435945595 0 -0.019671308694011517 -0.0030144726959061129 0 -0.019451593464166937 -0.0025402722979568182 0 -0.019860881461442458 -0.0026768804435945595 0 -0.019705647903509881 -0.0024090710222698037 0 -0.019150383379323049 -0.0022568019174024762 0 -0.01981604479102474 -0.0021606979436029406 0 -0.0196861982647142 -0.0020688962314671681 0 -0.019874424137115276 -0.0020207840256885618 0 -0.019950934175811407 -0.0021824672627847861 0 -0.01981604479102474 -0.0021606979436029406 0 -0.019874424137115276 -0.0020207840256885618 0 -0.019950934175811407 -0.0021824672627847861 0 -0.01981604479102474 -0.0021606979436029406 0 -0.019861544379338566 -0.0022992732577405547 0 -0.019861544379338566 -0.0022992732577405547 0 -0.019729099911108102 -0.0022940744412992173 0 -0.019786005678222824 -0.0024685910246231898 0 -0.019861544379338566 -0.0022992732577405547 0 -0.020035155240948736 -0.0023533452209183801 0 -0.019786005678222824 -0.0024685910246231898 0 -0.01981604479102474 -0.0021606979436029406 0 -0.019861544379338566 -0.0022992732577405547 0 -0.019729099911108102 -0.0022940744412992173 0 -0.019950934175811407 -0.0021824672627847861 0 -0.019861544379338566 -0.0022992732577405547 0 -0.020035155240948736 -0.0023533452209183801 0 -0.019705647903509881 -0.0024090710222698037 0 -0.021971305808536488 -0.0036354830283804977 0 -0.020183073218500883 -0.0032973192937366092 0 -0.019671308694011517 -0.0030144726959061129 0 -0.019899039397127085 -0.0034944864858912302 0 -0.020587988418504333 -0.0038935397076481767 0 -0.021971305808536488 -0.0036354830283804977 0 -0.019436344377163909 -0.0021233211637918066 0 -0.019588985615069252 -0.0022357361341479262 0 -0.019398166684576661 -0.0022317310110913343 0 -0.019399677892774948 -0.0021320834459400968 0 -0.019713782410838099 -0.002033494981203162 0 -0.019436344377163909 -0.0021233211637918066 0 -0.019588985615069252 -0.0022357361341479262 0 -0.0196861982647142 -0.0020688962314671681 0 -0.019588985615069252 -0.0022357361341479262 0 -0.019729099911108102 -0.0022940744412992173 0 -0.0196861982647142 -0.0020688962314671681 0 -0.01981604479102474 -0.0021606979436029406 0 -0.019729099911108102 -0.0022940744412992173 0 -0.0196861982647142 -0.0020688962314671681 0 -0.019588985615069252 -0.0022357361341479262 0 -0.019729099911108102 -0.0022940744412992173 0 -0.019661918703941038 -0.0024331770791708634 0 -0.019588985615069252 -0.0022357361341479262 0 -0.019532916337141645 -0.0023355178205086346 0 -0.019398166684576661 -0.0022317310110913343 0 -0.019588985615069252 -0.0022357361341479262 0 -0.019532916337141645 -0.0023355178205086346 0 -0.019661918703941038 -0.0024331770791708634 0 -0.019532916337141645 -0.0023355178205086346 0 -0.019677068554657135 -0.0025181786535979746 0 -0.019484720173306661 -0.0024269843150662544 0 -0.019532916337141645 -0.0023355178205086346 0 -0.019661918703941038 -0.0024331770791708634 0 -0.019677068554657135 -0.0025181786535979746 0 -0.019661918703941038 -0.0024331770791708634 0 -0.019592811569708209 -0.0023878057191977367 0 -0.019786005678222824 -0.0024685910246231898 0 -0.019729099911108102 -0.0022940744412992173 0 -0.019661918703941038 -0.0024331770791708634 0 -0.019786005678222824 -0.0024685910246231898 0 -0.02625021092869129 -0.0038939960086421064 0 -0.025569915952312613 -0.0043961528446158265 0 -0.025547230616115912 -0.0039072480727128179 0 -0.022953828327221062 -0.0031115930310120221 0 -0.0227600749047038 -0.0034048205385587491 0 -0.02625021092869129 -0.0038939960086421064 0 -0.025547230616115912 -0.0039072480727128179 0 -0.025799144892431236 -0.003559653101458045 0 -0.019592811569708209 -0.0023878057191977367 0 -0.019677068554657135 -0.0025181786535979746 0 -0.020097060022835143 -0.0022604511256401013 0 -0.019661918703941038 -0.0024331770791708634 0 -0.019592811569708209 -0.0023878057191977367 0 -0.019677068554657135 -0.0025181786535979746 0 -0.023113211439822118 -0.0047541181748448182 0 -0.021971305808536488 -0.0036354830283804977 0 -0.024589800447522875 -0.0043041037283395615 0 -0.024839630401454035 -0.0048798518004951686 0 -0.025125287718661904 -0.0041758192542299044 0 -0.021971305808536488 -0.0036354830283804977 0 -0.0227600749047038 -0.0034048205385587491 0 -0.024839630401454035 -0.0048798518004951686 0 -0.025569915952312613 -0.0043961528446158265 0 -0.025125287718661904 -0.0041758192542299044 0 -0.025547230616115912 -0.0039072480727128179 0 -0.025125287718661904 -0.0041758192542299044 0 -0.025161638128416649 -0.0036173121067020089 0 -0.025569915952312613 -0.0043961528446158265 0 -0.025547230616115912 -0.0039072480727128179 0 -0.025125287718661904 -0.0041758192542299044 0 -0.023113211439822118 -0.0047541181748448182 0 -0.025065661385440266 -0.0040900792842837918 0 -0.023770504007269797 -0.0056867854299531466 0 -0.023663906260981041 -0.0054501650975894347 0 -0.024626908450935344 -0.0045629630841662215 0 -0.024589800447522875 -0.0043041037283395615 0 -0.025125287718661904 -0.0041758192542299044 0 -0.025161638128416649 -0.0036173121067020089 0 -0.023656159499888935 -0.0045178764140906061 0 -0.023663906260981041 -0.0054501650975894347 0 -0.024626908450935344 -0.0045629630841662215 0 -0.023656159499888935 -0.0045178764140906061 0 -0.024626908450935344 -0.0045629630841662215 0 -0.024157863147673254 -0.004218411396409231 0 -0.024626908450935344 -0.0045629630841662215 0 -0.024401803057843296 -0.0038587607312177284 0 -0.024818353481099946 -0.0037444007582676346 0 -0.024626908450935344 -0.0045629630841662215 0 -0.024157863147673254 -0.004218411396409231 0 -0.024401803057843296 -0.0038587607312177284 0 -0.023793805655669627 -0.0041318672735961379 0 -0.024157863147673254 -0.004218411396409231 0 -0.024091829109289115 -0.0039655734497437102 0 -0.024401803057843296 -0.0038587607312177284 0 -0.024818353481099946 -0.0037444007582676346 0 -0.024908685904049686 -0.0029855641947874969 0 -0.024232333629500443 -0.0049019290250006233 0 -0.024735823746059531 -0.0041114181276098146 0 -0.025587176004758273 -0.0039026953133920904 0 -0.02420740912396848 -0.0042140182914308134 0 -0.025190711862043916 -0.0034715338834703886 0 -0.024015285859285394 -0.0036524354940118482 0 -0.024401803057843296 -0.0038587607312177284 0 -0.024908685904049686 -0.0029855641947874969 0 -0.023793805655669627 -0.0041318672735961379 0 -0.024091829109289115 -0.0039655734497437102 0 -0.024015285859285394 -0.0036524354940118482 0 -0.024091829109289115 -0.0039655734497437102 0 -0.024015285859285394 -0.0036524354940118482 0 -0.024401803057843296 -0.0038587607312177284 0 -0.024157863147673254 -0.004218411396409231 0 -0.024091829109289115 -0.0039655734497437102 0 -0.024401803057843296 -0.0038587607312177284 0 -0.023852767538667951 -0.0046251919560466905 0 -0.024232333629500443 -0.0049019290250006233 0 -0.024735823746059531 -0.0041114181276098146 0 -0.024626908450935344 -0.0045629630841662215 0 -0.02550829182658684 -0.0034107108865427528 0 -0.024818353481099946 -0.0037444007582676346 0 -0.025065661385440266 -0.0040900792842837918 0 -0.0255437411125648 -0.0032167606947181276 0 -0.02550829182658684 -0.0034107108865427528 0 -0.024818353481099946 -0.0037444007582676346 0 -0.024908685904049686 -0.0029855641947874969 0 -0.025547230616115912 -0.0039072480727128179 0 -0.025161638128416649 -0.0036173121067020089 0 -0.025799144892431236 -0.003559653101458045 0 -0.025161638128416649 -0.0036173121067020089 0 -0.02573859595861188 -0.0030120599192235225 0 -0.025799144892431236 -0.003559653101458045 0 -0.02625021092869129 -0.0038939960086421064 0 -0.025799144892431236 -0.003559653101458045 0 -0.026173579027207426 -0.0033452526072242569 0 -0.022953828327221062 -0.0031115930310120221 0 -0.023341100383531807 -0.0026853910634910549 0 -0.02625021092869129 -0.0038939960086421064 0 -0.026173579027207426 -0.0033452526072242569 0 -0.026812678173674172 -0.003399536864267689 0 -0.026173579027207426 -0.0033452526072242569 0 -0.026417501008755659 -0.003046397945824262 0 -0.026812678173674172 -0.003399536864267689 0 -0.026417501008755659 -0.003046397945824262 0 -0.026181350955316082 -0.0029977382606479809 0 -0.026365831864940747 -0.0028157443255277964 0 -0.026173579027207426 -0.0033452526072242569 0 -0.026417501008755659 -0.003046397945824262 0 -0.026181350955316082 -0.0029977382606479809 0 -0.02573859595861188 -0.0030120599192235225 0 -0.026173579027207426 -0.0033452526072242569 0 -0.026181350955316082 -0.0029977382606479809 0 -0.02573859595861188 -0.0030120599192235225 0 -0.025799144892431236 -0.003559653101458045 0 -0.026173579027207426 -0.0033452526072242569 0 -0.02550829182658684 -0.0034107108865427528 0 -0.026394862886170736 -0.0022336350393791279 0 -0.025820046805255143 -0.0023383195968541483 0 -0.02573859595861188 -0.0030120599192235225 0 -0.026195064668955274 -0.0027889125546696554 0 -0.026275311910392687 -0.0025023861559757723 0 -0.0255437411125648 -0.0032167606947181276 0 -0.026674133109134409 -0.0024881520746744168 0 -0.02573859595861188 -0.0030120599192235225 0 -0.026181350955316082 -0.0029977382606479809 0 -0.026195064668955274 -0.0027889125546696554 0 -0.026417501008755659 -0.003046397945824262 0 -0.026537019351393243 -0.0028305928286539647 0 -0.026365831864940747 -0.0028157443255277964 0 -0.026417501008755659 -0.003046397945824262 0 -0.026537019351393243 -0.0028305928286539647 0 -0.026660764684952841 -0.0029215830418453845 0 -0.026537019351393243 -0.0028305928286539647 0 -0.02673026882484817 -0.0027355431743072093 0 -0.026660764684952841 -0.0029215830418453845 0 -0.026181350955316082 -0.0029977382606479809 0 -0.026195064668955274 -0.0027889125546696554 0 -0.026365831864940747 -0.0028157443255277964 0 -0.026537019351393243 -0.0028305928286539647 0 -0.026365831864940747 -0.0028157443255277964 0 -0.026493285180684466 -0.0026386908488508836 0 -0.026195064668955274 -0.0027889125546696554 0 -0.026493285180684466 -0.0026386908488508836 0 -0.026275311910392687 -0.0025023861559757723 0 -0.026195064668955274 -0.0027889125546696554 0 -0.026365831864940747 -0.0028157443255277964 0 -0.026493285180684466 -0.0026386908488508836 0 -0.026537019351393243 -0.0028305928286539647 0 -0.026493285180684466 -0.0026386908488508836 0 -0.02673026882484817 -0.0027355431743072093 0 -0.026493285180684466 -0.0026386908488508836 0 -0.026275311910392687 -0.0025023861559757723 0 -0.027027348660908109 -0.002588503560264042 0 -0.027461499742656451 -0.0025196629925138023 0 -0.027399841241309144 -0.0026600374653744092 0 -0.027027348660908109 -0.002588503560264042 0 -0.027308688562804936 -0.0027586225141340332 0 -0.027399841241309144 -0.0026600374653744092 0 -0.027027348660908109 -0.002588503560264042 0 -0.026674133109134409 -0.0024881520746744168 0 -0.027068486907832111 -0.0025717249600543295 0 -0.027461499742656451 -0.0025196629925138023 0 -0.027399841241309144 -0.0026600374653744092 0 -0.027465104704234088 -0.0025918276599986691 0 -0.027399841241309144 -0.0026600374653744092 0 -0.027465104704234088 -0.0025918276599986691 0 -0.027462156149743438 -0.0026274345207705119 0 -0.027399841241309144 -0.0026600374653744092 0 -0.027470552281218634 -0.0026591862630269314 0 -0.027456014275287478 -0.0026882346477714318 0 -0.027399841241309144 -0.0026600374653744092 0 -0.027462156149743438 -0.0026274345207705119 0 -0.027470552281218634 -0.0026591862630269314 0 -0.027437572935346426 -0.0027125577983720104 0 -0.027399841241309144 -0.0026600374653744092 0 -0.027456014275287478 -0.0026882346477714318 0 -0.027572022639565298 -0.0025566181322536322 0 -0.027596454742989406 -0.0025416444422194265 0 -0.027506755060399485 -0.0025507745392982476 0 -0.027461499742656451 -0.0025196629925138023 0 -0.027565337348122488 -0.0025288943031850941 0 -0.027596454742989406 -0.0025416444422194265 0 -0.027572022639565298 -0.0025566181322536322 0 -0.027543120737146227 -0.0025564704927407253 0 -0.02752317446980266 -0.0025468303887864968 0 -0.027572022639565298 -0.0025566181322536322 0 -0.027560338904429063 -0.0025853305094904354 0 -0.027578753916906451 -0.0025725592727031724 0 -0.027572022639565298 -0.0025566181322536322 0 -0.027543120737146227 -0.0025564704927407253 0 -0.027560338904429063 -0.0025853305094904354 0 -0.027543120737146227 -0.0025564704927407253 0 -0.027560338904429063 -0.0025853305094904354 0 -0.027533280509583858 -0.0025922945314730459 0 -0.027560338904429063 -0.0025853305094904354 0 -0.027581299953584656 -0.0025902258157916012 0 -0.027583472370912722 -0.0026125008297836678 0 -0.027560338904429063 -0.0025853305094904354 0 -0.027581299953584656 -0.0025902258157916012 0 -0.027578753916906451 -0.0025725592727031724 0 -0.027581299953584656 -0.0025902258157916012 0 -0.027600218433115768 -0.0025982872097434148 0 -0.027594012231265577 -0.0025760225177664485 0 -0.027581299953584656 -0.0025902258157916012 0 -0.027578753916906451 -0.0025725592727031724 0 -0.027594012231265577 -0.0025760225177664485 0 -0.027600218433115768 -0.0025982872097434148 0 -0.027609990415972712 -0.0025612929546384683 0 -0.027615652409825754 -0.0025849356384846211 0 -0.027594012231265577 -0.0025760225177664485 0 -0.027589010255655425 -0.0025589695012518112 0 -0.027609990415972712 -0.0025612929546384683 0 -0.027600218433115768 -0.0025982872097434148 0 -0.027594012231265577 -0.0025760225177664485 0 -0.027609990415972712 -0.0025612929546384683 0 -0.027578753916906451 -0.0025725592727031724 0 -0.027594012231265577 -0.0025760225177664485 0 -0.027589010255655425 -0.0025589695012518112 0 -0.027572022639565298 -0.0025566181322536322 0 -0.027578753916906451 -0.0025725592727031724 0 -0.027589010255655425 -0.0025589695012518112 0 -0.027572022639565298 -0.0025566181322536322 0 -0.027589010255655425 -0.0025589695012518112 0 -0.027596454742989406 -0.0025416444422194265 0 -0.027589010255655425 -0.0025589695012518112 0 -0.027609990415972712 -0.0025612929546384683 0 -0.027596454742989406 -0.0025416444422194265 0 -0.027609990415972712 -0.0025612929546384683 0 -0.027596454742989406 -0.0025416444422194265 0 -0.027626314013687044 -0.0025491643467500987 0 -0.026674133109134409 -0.0024881520746744168 0 -0.026718643113047554 -0.002714157115101745 0 -0.027461499742656451 -0.0025196629925138023 0 -0.027596454742989406 -0.0025416444422194265 0 -0.027506755060399485 -0.0025507745392982476 0 -0.027461499742656451 -0.0025196629925138023 0 -0.027484554960643118 -0.0025562278183313414 0 -0.027465104704234088 -0.0025918276599986691 0 -0.027461499742656451 -0.0025196629925138023 0 -0.027484554960643118 -0.0025562278183313414 0 -0.027506755060399485 -0.0025507745392982476 0 -0.027484554960643118 -0.0025562278183313414 0 -0.02748465161824265 -0.002585279808387706 0 -0.027506755060399485 -0.0025507745392982476 0 -0.02748465161824265 -0.002585279808387706 0 -0.027506812757104579 -0.0025746170674287327 0 -0.027505464374463905 -0.0025989500531504689 0 -0.02748465161824265 -0.002585279808387706 0 -0.027506755060399485 -0.0025507745392982476 0 -0.027506812757104579 -0.0025746170674287327 0 -0.027484554960643118 -0.0025562278183313414 0 -0.02748465161824265 -0.002585279808387706 0 -0.027465104704234088 -0.0025918276599986691 0 -0.027572022639565298 -0.0025566181322536322 0 -0.02752317446980266 -0.0025468303887864968 0 -0.027506755060399485 -0.0025507745392982476 0 -0.027543120737146227 -0.0025564704927407253 0 -0.027530592724593239 -0.002570052849063943 0 -0.027506755060399485 -0.0025507745392982476 0 -0.027543120737146227 -0.0025564704927407253 0 -0.02752317446980266 -0.0025468303887864968 0 -0.027506755060399485 -0.0025507745392982476 0 -0.027506755060399485 -0.0025507745392982476 0 -0.027506812757104579 -0.0025746170674287327 0 -0.027533280509583858 -0.0025922945314730459 0 -0.027506812757104579 -0.0025746170674287327 0 -0.027533280509583858 -0.0025922945314730459 0 -0.027505464374463905 -0.0025989500531504689 0 -0.027530592724593239 -0.002570052849063943 0 -0.027506755060399485 -0.0025507745392982476 0 -0.027533280509583858 -0.0025922945314730459 0 -0.027543120737146227 -0.0025564704927407253 0 -0.027530592724593239 -0.002570052849063943 0 -0.027533280509583858 -0.0025922945314730459 0 -0.027533280509583858 -0.0025922945314730459 0 -0.027506446856103716 -0.0026261260670007152 0 -0.027528106222584631 -0.0026173041662925982 0 -0.027533280509583858 -0.0025922945314730459 0 -0.027528106222584631 -0.0026173041662925982 0 -0.027550062454178435 -0.0026320030341026842 0 -0.027533280509583858 -0.0025922945314730459 0 -0.027505464374463905 -0.0025989500531504689 0 -0.027506446856103716 -0.0026261260670007152 0 -0.027528106222584631 -0.0026173041662925982 0 -0.027527652316389529 -0.0026427259784795559 0 -0.027550062454178435 -0.0026320030341026842 0 -0.027506446856103716 -0.0026261260670007152 0 -0.027528106222584631 -0.0026173041662925982 0 -0.027527652316389529 -0.0026427259784795559 0 -0.02748465161824265 -0.002585279808387706 0 -0.027465104704234088 -0.0025918276599986691 0 -0.027462156149743438 -0.0026274345207705119 0 -0.02748465161824265 -0.002585279808387706 0 -0.027505464374463905 -0.0025989500531504689 0 -0.027506446856103716 -0.0026261260670007152 0 -0.02748465161824265 -0.002585279808387706 0 -0.02748807088704815 -0.002618195280025392 0 -0.027462156149743438 -0.0026274345207705119 0 -0.02748465161824265 -0.002585279808387706 0 -0.027506446856103716 -0.0026261260670007152 0 -0.02748807088704815 -0.002618195280025392 0 -0.02749058086262542 -0.0026382507015227357 0 -0.02748807088704815 -0.002618195280025392 0 -0.027462156149743438 -0.0026274345207705119 0 -0.027506446856103716 -0.0026261260670007152 0 -0.02749058086262542 -0.0026382507015227357 0 -0.02748807088704815 -0.002618195280025392 0 -0.02749058086262542 -0.0026382507015227357 0 -0.027462156149743438 -0.0026274345207705119 0 -0.027470552281218634 -0.0026591862630269314 0 -0.02749058086262542 -0.0026382507015227357 0 -0.027470552281218634 -0.0026591862630269314 0 -0.027500647490788163 -0.0026581167795570711 0 -0.027470552281218634 -0.0026591862630269314 0 -0.027491455985799503 -0.0026873453470899582 0 -0.027500647490788163 -0.0026581167795570711 0 -0.027470552281218634 -0.0026591862630269314 0 -0.027491455985799503 -0.0026873453470899582 0 -0.027456014275287478 -0.0026882346477714318 0 -0.027527652316389529 -0.0026427259784795559 0 -0.027526918786212634 -0.0026688518583456726 0 -0.027548058259787584 -0.002659261481191505 0 -0.027506446856103716 -0.0026261260670007152 0 -0.027527652316389529 -0.0026427259784795559 0 -0.027500647490788163 -0.0026581167795570711 0 -0.027527652316389529 -0.0026427259784795559 0 -0.027500647490788163 -0.0026581167795570711 0 -0.027526918786212634 -0.0026688518583456726 0 -0.027506446856103716 -0.0026261260670007152 0 -0.02749058086262542 -0.0026382507015227357 0 -0.027500647490788163 -0.0026581167795570711 0 -0.027491455985799503 -0.0026873453470899582 0 -0.027500647490788163 -0.0026581167795570711 0 -0.027526918786212634 -0.0026688518583456726 0 -0.027514598767826529 -0.0026949466505199562 0 -0.027491455985799503 -0.0026873453470899582 0 -0.027526918786212634 -0.0026688518583456726 0 -0.027531306460392719 -0.0026969483833719551 0 -0.027526918786212634 -0.0026688518583456726 0 -0.027548058259787584 -0.002659261481191505 0 -0.027514598767826529 -0.0026949466505199562 0 -0.027531306460392719 -0.0026969483833719551 0 -0.027526918786212634 -0.0026688518583456726 0 -0.027546340817174317 -0.0027258585776096735 0 -0.027577105465692916 -0.0026477919313146439 0 -0.027599239507225305 -0.0026163088091409555 0 -0.027546340817174317 -0.0027258585776096735 0 -0.027599239507225305 -0.0026163088091409555 0 -0.027599838767811958 -0.0026465277850415865 0 -0.027531306460392719 -0.0026969483833719551 0 -0.027577105465692916 -0.0026477919313146439 0 -0.027548058259787584 -0.002659261481191505 0 -0.027527652316389529 -0.0026427259784795559 0 -0.027548058259787584 -0.002659261481191505 0 -0.027550062454178435 -0.0026320030341026842 0 -0.027577105465692916 -0.0026477919313146439 0 -0.027548058259787584 -0.002659261481191505 0 -0.027550062454178435 -0.0026320030341026842 0 -0.027550062454178435 -0.0026320030341026842 0 -0.027565150351583103 -0.0026293626294787275 0 -0.027561171203264678 -0.0026103106468802931 0 -0.027577105465692916 -0.0026477919313146439 0 -0.027565150351583103 -0.0026293626294787275 0 -0.027583472370912722 -0.0026125008297836678 0 -0.027577105465692916 -0.0026477919313146439 0 -0.027550062454178435 -0.0026320030341026842 0 -0.027565150351583103 -0.0026293626294787275 0 -0.027560338904429063 -0.0025853305094904354 0 -0.027561171203264678 -0.0026103106468802931 0 -0.027583472370912722 -0.0026125008297836678 0 -0.027565150351583103 -0.0026293626294787275 0 -0.027561171203264678 -0.0026103106468802931 0 -0.027583472370912722 -0.0026125008297836678 0 -0.027560338904429063 -0.0025853305094904354 0 -0.027533280509583858 -0.0025922945314730459 0 -0.027561171203264678 -0.0026103106468802931 0 -0.027533280509583858 -0.0025922945314730459 0 -0.027550062454178435 -0.0026320030341026842 0 -0.027561171203264678 -0.0026103106468802931 0 -0.027600218433115768 -0.0025982872097434148 0 -0.027599239507225305 -0.0026163088091409555 0 -0.027615652409825754 -0.0025849356384846211 0 -0.027581299953584656 -0.0025902258157916012 0 -0.027600218433115768 -0.0025982872097434148 0 -0.027583472370912722 -0.0026125008297836678 0 -0.027600218433115768 -0.0025982872097434148 0 -0.027599239507225305 -0.0026163088091409555 0 -0.027583472370912722 -0.0026125008297836678 0 -0.027577105465692916 -0.0026477919313146439 0 -0.027599239507225305 -0.0026163088091409555 0 -0.027583472370912722 -0.0026125008297836678 0 -0.027639835931640332 -0.0038451779867187505 0 -0.027535270320090469 -0.0037992706515418135 0 -0.027482794348345743 -0.0039680249975949482 0 -0.02766135292254886 -0.0038078353819579734 0 -0.027639835931640332 -0.0038451779867187505 0 -0.027535270320090469 -0.0037992706515418135 0 -0.027880501908467428 -0.0041400080303444923 0 -0.025487009112125328 -0.004670447024990804 0 -0.027535270320090469 -0.0037992706515418135 0 -0.027482794348345743 -0.0039680249975949482 0 -0.027217629658140497 -0.0041428738091987853 0 -0.027639835931640332 -0.0038451779867187505 0 -0.027482794348345743 -0.0039680249975949482 0 -0.027434157720607748 -0.0040979006044018626 0 -0.027565337348122488 -0.0025288943031850941 0 -0.027596454742989406 -0.0025416444422194265 0 -0.02770578774139559 -0.0025128908128894717 0 -0.027599239507225305 -0.0026163088091409555 0 -0.027599838767811958 -0.0026465277850415865 0 -0.02770578774139559 -0.0025128908128894717 0 -0.027596454742989406 -0.0025416444422194265 0 -0.027626314013687044 -0.0025491643467500987 0 -0.02770578774139559 -0.0025128908128894717 0 -0.027615652409825754 -0.0025849356384846211 0 -0.027626314013687044 -0.0025491643467500987 0 -0.02770578774139559 -0.0025128908128894717 0 -0.027599239507225305 -0.0026163088091409555 0 -0.027615652409825754 -0.0025849356384846211 0 -0.02770578774139559 -0.0025128908128894717 0 -0.027681571312271606 -0.0032070621569846359 0 -0.02697534013086517 -0.0032449190786882705 0 -0.027609990415972712 -0.0025612929546384683 0 -0.027615652409825754 -0.0025849356384846211 0 -0.027626314013687044 -0.0025491643467500987 0 -0.027733972273042015 -0.0046019719663522576 0 -0.027274606693066437 -0.0048047897431781166 0 -0.027245488336819355 -0.0054100178591172171 0 -0.026951784412519358 -0.0046361173121302031 0 -0.027274606693066437 -0.0048047897431781166 0 -0.027021389073143189 -0.0050434129258920216 0 -0.026591662697199005 -0.0051290317340020987 0 -0.027021389073143189 -0.0050434129258920216 0 -0.027245488336819355 -0.0054100178591172171 0 -0.026951784412519358 -0.0046361173121302031 0 -0.026591662697199005 -0.0051290317340020987 0 -0.027021389073143189 -0.0050434129258920216 0 -0.027274606693066437 -0.0048047897431781166 0 -0.027021389073143189 -0.0050434129258920216 0 -0.027245488336819355 -0.0054100178591172171 0 -0.024835656290744103 -0.0033753004306277656 0 -0.025256716963621018 -0.0035734559166142208 0 -0.025715775276309406 -0.0031582786009748021 0 -0.023852767538667951 -0.0046251919560466905 0 -0.024835656290744103 -0.0033753004306277656 0 -0.024735823746059531 -0.0041114181276098146 0 -0.025487009112125328 -0.004670447024990804 0 -0.02697534013086517 -0.0032449190786882705 0 -0.023151342525028228 -0.0052144575725586433 0 -0.025487009112125328 -0.004670447024990804 0 -0.024835656290744103 -0.0033753004306277656 0 -0.025256716963621018 -0.0035734559166142208 0 -0.024735823746059531 -0.0041114181276098146 0 -0.025256716963621018 -0.0035734559166142208 0 -0.024735823746059531 -0.0041114181276098146 0 -0.025587176004758273 -0.0039026953133920904 0 -0.026718643113047554 -0.002714157115101745 0 -0.025190711862043916 -0.0034715338834703886 0 -0.02694686350170997 -0.0029252112813112929 0 -0.025587176004758273 -0.0039026953133920904 0 -0.025715775276309406 -0.0031582786009748021 0 -0.02550829182658684 -0.0034107108865427528 0 -0.025820046805255143 -0.0023383195968541483 0 -0.024908685904049686 -0.0029855641947874969 0 -0.026718643113047554 -0.002714157115101745 0 -0.02697534013086517 -0.0032449190786882705 0 -0.025256716963621018 -0.0035734559166142208 0 -0.025587176004758273 -0.0039026953133920904 0 -0.025715775276309406 -0.0031582786009748021 0 -0.027482794348345743 -0.0039680249975949482 0 -0.027217629658140497 -0.0041428738091987853 0 -0.027434157720607748 -0.0040979006044018626 0 -0.026898393554520422 -0.0025743336871099148 0 -0.027056402534816545 -0.0026594980366830665 0 -0.027032664096553968 -0.0025092175087003386 0 -0.026290225667046981 -0.001701060131548702 0 -0.024876546276373205 -0.0016196738067618829 0 -0.026898393554520422 -0.0025743336871099148 0 -0.026914934995435878 -0.0026060839767982173 0 -0.027056402534816545 -0.0026594980366830665 0 -0.026886523975162568 -0.0030804897908732415 0 -0.024876546276373205 -0.0016196738067618829 0 -0.02680467155902725 -0.0025897623929753951 0 -0.026898393554520422 -0.0025743336871099148 0 -0.026914934995435878 -0.0026060839767982173 0 -0.025775921537390237 -0.0020235983656974963 0 -0.026290225667046981 -0.001701060131548702 0 -0.02489104743315575 -0.0013818152025997362 0 -0.025246875011868196 -0.00100833986536318 0 -0.024982419546257125 -0.00091135290636847673 0 -0.026565787303660441 -0.00240749925510621 0 -0.026803440001790441 -0.0026409946434514664 0 -0.026914934995435878 -0.0026060839767982173 0 -0.026784871509855753 -0.0025197412284007287 0 -0.026832510424021131 -0.0025854437289144364 0 -0.02680467155902725 -0.0025897623929753951 0 -0.026813835802002556 -0.0026418498922789655 0 -0.026914934995435878 -0.0026060839767982173 0 -0.026803440001790441 -0.0026409946434514664 0 -0.026954215699705034 -0.002670574361847265 0 -0.026914934995435878 -0.0026060839767982173 0 -0.026914934995435878 -0.0026060839767982173 0 -0.027026322040875819 -0.0026458669604518836 0 -0.027056402534816545 -0.0026594980366830665 0 -0.026954215699705034 -0.002670574361847265 0 -0.026914934995435878 -0.0026060839767982173 0 -0.027026322040875819 -0.0026458669604518836 0 -0.027029918207939894 -0.0027270198462376136 0 -0.026954215699705034 -0.002670574361847265 0 -0.027026322040875819 -0.0026458669604518836 0 -0.027029918207939894 -0.0027270198462376136 0 -0.027026322040875819 -0.0026458669604518836 0 -0.027027348660908109 -0.002588503560264042 0 -0.027026322040875819 -0.0026458669604518836 0 -0.027027348660908109 -0.002588503560264042 0 -0.026982776458501542 -0.0026959761960039666 0 -0.027027348660908109 -0.002588503560264042 0 -0.02673026882484817 -0.0027355431743072093 0 -0.026982776458501542 -0.0026959761960039666 0 -0.026493285180684466 -0.0026386908488508836 0 -0.027027348660908109 -0.002588503560264042 0 -0.02673026882484817 -0.0027355431743072093 0 -0.02673026882484817 -0.0027355431743072093 0 -0.026854338382182583 -0.0029086462473763498 0 -0.026982776458501542 -0.0026959761960039666 0 -0.02673026882484817 -0.0027355431743072093 0 -0.026854338382182583 -0.0029086462473763498 0 -0.026660764684952841 -0.0029215830418453845 0 -0.027026322040875819 -0.0026458669604518836 0 -0.027056402534816545 -0.0026594980366830665 0 -0.026982776458501542 -0.0026959761960039666 0 -0.026854338382182583 -0.0029086462473763498 0 -0.026982776458501542 -0.0026959761960039666 0 -0.027010892876200506 -0.0028687884131159791 0 -0.027056402534816545 -0.0026594980366830665 0 -0.027010892876200506 -0.0028687884131159791 0 -0.027189272628495863 -0.0029748981260783753 0 -0.027056402534816545 -0.0026594980366830665 0 -0.026982776458501542 -0.0026959761960039666 0 -0.027010892876200506 -0.0028687884131159791 0 -0.027010892876200506 -0.0028687884131159791 0 -0.026812678173674172 -0.003399536864267689 0 -0.027189272628495863 -0.0029748981260783753 0 -0.023341100383531807 -0.0026853910634910549 0 -0.024876546276373205 -0.0016196738067618829 0 -0.026854338382182583 -0.0029086462473763498 0 -0.027010892876200506 -0.0028687884131159791 0 -0.026812678173674172 -0.003399536864267689 0 -0.026854338382182583 -0.0029086462473763498 0 -0.026660764684952841 -0.0029215830418453845 0 -0.026812678173674172 -0.003399536864267689 0 -0.026417501008755659 -0.003046397945824262 0 -0.026660764684952841 -0.0029215830418453845 0 -0.026812678173674172 -0.003399536864267689 0 -0.019592811569708209 -0.0023878057191977367 0 -0.020197599952616767 -0.0017471049780882668 0 -0.020097060022835143 -0.0022604511256401013 0 -0.020197599952616767 -0.0017471049780882668 0 -0.021090979205895914 -0.0019879270136473294 0 -0.020097060022835143 -0.0022604511256401013 0 -0.020197599952616767 -0.0017471049780882668 0 -0.021090979205895914 -0.0019879270136473294 0 -0.021048738611415638 -0.0011670850268781989 0 -0.025467989768142393 -0.00022020072328837509 0 -0.025136994405563984 -0.00025747978524948801 0 -0.02522102237320965 -1.982746586867776e-05 0 -0.023303386352885123 -0.00086268321518137591 0 -0.024876546276373205 -0.0016196738067618829 0 -0.025467989768142393 -0.00022020072328837509 0 -0.025237338329699377 -0.00061645319359679169 0 -0.025136994405563984 -0.00025747978524948801 0 -0.025467989768142393 -0.00022020072328837509 0 -0.025575135736511687 -0.00071770953026822752 0 -0.025237338329699377 -0.00061645319359679169 0 -0.025246875011868196 -0.00100833986536318 0 -0.025575135736511687 -0.00071770953026822752 0 -0.025237338329699377 -0.00061645319359679169 0 -0.025246875011868196 -0.00100833986536318 0 -0.024982419546257125 -0.00091135290636847673 0 -0.025237338329699377 -0.00061645319359679169 0 -0.024982419546257125 -0.00091135290636847673 0 -0.025237338329699377 -0.00061645319359679169 0 -0.024953585077337522 -0.0005703623330091381 0 -0.025237338329699377 -0.00061645319359679169 0 -0.024953585077337522 -0.0005703623330091381 0 -0.025136994405563984 -0.00025747978524948801 0 -0.024854284209114938 -0.00026753044561557074 0 -0.024953585077337522 -0.0005703623330091381 0 -0.025136994405563984 -0.00025747978524948801 0 -0.024854284209114938 -0.00026753044561557074 0 -0.025136994405563984 -0.00025747978524948801 0 -0.025021938538309731 -3.3612659693868972e-05 0 -0.024784502820416037 -0.00038042200802599322 0 -0.02515285208551472 0.00051850929103514662 0 -0.025021938538309731 -3.3612659693868972e-05 0 -0.02522102237320965 -1.982746586867776e-05 0 -0.025130221470394596 0.00020537289223563552 0 -0.02515285208551472 0.00051850929103514662 0 -0.020050619476423687 -0.00056646211332457802 0 -0.025136994405563984 -0.00025747978524948801 0 -0.025021938538309731 -3.3612659693868972e-05 0 -0.02522102237320965 -1.982746586867776e-05 0 -0.025467989768142393 -0.00022020072328837509 0 -0.02522102237320965 -1.982746586867776e-05 0 -0.025352765114045266 0.00018078969531370908 0 -0.023303386352885123 -0.00086268321518137591 0 -0.021235722425998763 -0.0018867199814297764 0 -0.021235722425998763 -0.0018867199814297764 0 -0.020050619476423687 -0.00056646211332457802 0 -0.019100364549206689 -0.0024994819118070635 0 -0.01918780986907483 -0.0023782778824670927 0 -0.019067526620597318 -0.0022642907061759475 0 -0.021235722425998763 -0.0018867199814297764 0 -0.017294280134662086 -0.0017086318240908042 0 -0.019254147622177711 -0.0011225146836217369 0 -0.019637055472661969 -0.0011635405292392169 0 -0.019300907352898362 -0.0017877813340211315 0 -0.02522102237320965 -1.982746586867776e-05 0 -0.025352765114045266 0.00018078969531370908 0 -0.025130221470394596 0.00020537289223563552 0 -0.012657475464716373 0.00022938327913952291 0 -0.012491489310045279 0.00015775787182861566 0 -0.012492251894018352 4.7576497139002233e-05 0 -0.024496394597097581 0.00051802090139851627 0 -0.024948439561533441 0.0001181615697268278 0 -0.025054871867963353 0.00042444179081886765 0 -0.019677068554657135 -0.0025181786535979746 0 -0.020097060022835143 -0.0022604511256401013 0 -0.020414240895660577 -0.0026990524446285167 0 -0.021090979205895914 -0.0019879270136473294 0 -0.020097060022835143 -0.0022604511256401013 0 -0.020414240895660577 -0.0026990524446285167 0 -0.021090979205895914 -0.0019879270136473294 0 -0.021156271364388163 -0.0027818622799587966 0 -0.020414240895660577 -0.0026990524446285167 0 -0.019325555703611649 -0.0025355515031917331 0 -0.01930900448515083 -0.0023144283303028982 0 -0.01918780986907483 -0.0023782778824670927 0 -0.019100364549206689 -0.0024994819118070635 0 -0.019325555703611649 -0.0025355515031917331 0 -0.01918780986907483 -0.0023782778824670927 0 -0.021235722425998763 -0.0018867199814297764 0 -0.019661750613152749 -0.0026284144488957057 0 -0.01977196533978131 -0.0025455634221040026 0 -0.019661750613152749 -0.0026284144488957057 0 -0.019325555703611649 -0.0025355515031917331 0 -0.019484720173306661 -0.0024269843150662544 0 -0.01930900448515083 -0.0023144283303028982 0 -0.019677068554657135 -0.0025181786535979746 0 -0.019325555703611649 -0.0025355515031917331 0 -0.019484720173306661 -0.0024269843150662544 0 -0.019398166684576661 -0.0022317310110913343 0 -0.01930900448515083 -0.0023144283303028982 0 -0.019269132921618679 -0.0021573569924816542 0 -0.019532916337141645 -0.0023355178205086346 0 -0.019484720173306661 -0.0024269843150662544 0 -0.019398166684576661 -0.0022317310110913343 0 -0.019484720173306661 -0.0024269843150662544 0 -0.019398166684576661 -0.0022317310110913343 0 -0.01930900448515083 -0.0023144283303028982 0 -0.01930900448515083 -0.0023144283303028982 0 -0.019184166408937949 -0.0022423502362112851 0 -0.019269132921618679 -0.0021573569924816542 0 -0.01930900448515083 -0.0023144283303028982 0 -0.01918780986907483 -0.0023782778824670927 0 -0.019184166408937949 -0.0022423502362112851 0 -0.019269132921618679 -0.0021573569924816542 0 -0.019127912759512075 -0.0021444628737584933 0 -0.019142828484906241 -0.0020435291908109943 0 -0.019184166408937949 -0.0022423502362112851 0 -0.019269132921618679 -0.0021573569924816542 0 -0.019127912759512075 -0.0021444628737584933 0 -0.019436344377163909 -0.0021233211637918066 0 -0.019269132921618679 -0.0021573569924816542 0 -0.019301143956176992 -0.0020260074537557758 0 -0.019436344377163909 -0.0021233211637918066 0 -0.019398166684576661 -0.0022317310110913343 0 -0.019269132921618679 -0.0021573569924816542 0 -0.012491489310045279 0.00015775787182861566 0 -0.012492251894018352 4.7576497139002233e-05 0 -0.012432971932123877 1.4448001059755199e-05 0 -0.012492251894018352 4.7576497139002233e-05 0 -0.012432971932123877 1.4448001059755199e-05 0 -0.012460979019169106 -3.4832590833446873e-05 0 -0.020050619476423687 -0.00056646211332457802 0 -0.017294280134662086 -0.0017086318240908042 0 -0.01918780986907483 -0.0023782778824670927 0 -0.019184166408937949 -0.0022423502362112851 0 -0.019067526620597318 -0.0022642907061759475 0 -0.017294280134662086 -0.0017086318240908042 0 -0.01570965589285581 -0.00090525694842573357 0 -0.012432971932123877 1.4448001059755199e-05 0 -0.01244536121364387 -5.8382536996044065e-05 0 -0.012460979019169106 -3.4832590833446873e-05 0 -0.018949594107515188 -0.0023179147492507057 0 -0.019040885558262256 -0.0021841400259493761 0 -0.018943931973084489 -0.0021184522812753045 0 -0.019184166408937949 -0.0022423502362112851 0 -0.019067526620597318 -0.0022642907061759475 0 -0.019127912759512075 -0.0021444628737584933 0 -0.017294280134662086 -0.0017086318240908042 0 -0.019036881504904214 -0.002088942886981486 0 -0.012427998572339904 -6.8715209995884324e-05 0 -0.012492251894018352 4.7576497139002233e-05 0 -0.012460979019169106 -3.4832590833446873e-05 0 -0.01244536121364387 -5.8382536996044065e-05 0 -0.012460979019169106 -3.4832590833446873e-05 0 -0.01246465941052234 -5.9763701783514415e-05 0 -0.012427998572339904 -6.8715209995884324e-05 0 -0.012460979019169106 -3.4832590833446873e-05 0 -0.01246465941052234 -5.9763701783514415e-05 0 -0.01244536121364387 -5.8382536996044065e-05 0 -0.01246465941052234 -5.9763701783514415e-05 0 -0.012454237649485641 -0.00010449452293211256 0 -0.012057209265733214 -0.00024495545255090115 0 -0.013444320153285663 -0.0015013865205453932 0 -0.019040885558262256 -0.0021841400259493761 0 -0.018943931973084489 -0.0021184522812753045 0 -0.019142828484906241 -0.0020435291908109943 0 -0.01570965589285581 -0.00090525694842573357 0 -0.013444320153285663 -0.0015013865205453932 0 -0.018943931973084489 -0.0021184522812753045 0 -0.018927549782374146 -0.0019281224390890511 0 -0.019142828484906241 -0.0020435291908109943 0 -0.013444320153285663 -0.0015013865205453932 0 -0.016028414165754113 -0.0025041883645921074 0 -0.01181822252467859 -0.00040193327246185325 0 -0.011355458376605444 -0.00082053470068007184 0 -0.011960557752872442 -0.00086497415388232357 0 -0.011355458376605444 -0.00082053470068007184 0 -0.011608760598844086 -0.0012023009098368269 0 -0.011960557752872442 -0.00086497415388232357 0 -0.019269132921618679 -0.0021573569924816542 0 -0.019301143956176992 -0.0020260074537557758 0 -0.019142828484906241 -0.0020435291908109943 0 -0.019301143956176992 -0.0020260074537557758 0 -0.019142828484906241 -0.0020435291908109943 0 -0.019181053312805549 -0.0019307265833362495 0 -0.019036881504904214 -0.002088942886981486 0 -0.019126595557569064 -0.0020638904221198908 0 -0.019181053312805549 -0.0019307265833362495 0 -0.019327460102989549 -0.001924693167308105 0 -0.0191118136470525 -0.0018005100704720502 0 -0.018927549782374146 -0.0019281224390890511 0 -0.019181053312805549 -0.0019307265833362495 0 -0.0191118136470525 -0.0018005100704720502 0 -0.018927549782374146 -0.0019281224390890511 0 -0.019142828484906241 -0.0020435291908109943 0 -0.019181053312805549 -0.0019307265833362495 0 -0.019301143956176992 -0.0020260074537557758 0 -0.019181053312805549 -0.0019307265833362495 0 -0.019327460102989549 -0.001924693167308105 0 -0.0191118136470525 -0.0018005100704720502 0 -0.019239420978688988 -0.0016844544483356036 0 -0.019349761014871149 -0.0017928910913378813 0 -0.019327460102989549 -0.001924693167308105 0 -0.0191118136470525 -0.0018005100704720502 0 -0.019349761014871149 -0.0017928910913378813 0 -0.016028414165754113 -0.0025041883645921074 0 -0.016155343959743423 -0.0019519350406385161 0 -0.012430141128155542 -0.0029840904890667992 0 -0.012565577510456673 -0.0020471478774656349 0 -0.011809911219277273 -0.0021906538120555147 0 -0.012430141128155542 -0.0029840904890667992 0 -0.012565577510456673 -0.0020471478774656349 0 -0.013292093373787605 -0.0022360752837931289 0 -0.011608760598844086 -0.0012023009098368269 0 -0.011403513076189796 -0.0015127607695965919 0 -0.011712980401793782 -0.0016068861300086975 0 -0.011608760598844086 -0.0012023009098368269 0 -0.011960557752872442 -0.00086497415388232357 0 -0.011712980401793782 -0.0016068861300086975 0 -0.011355458376605444 -0.00082053470068007184 0 -0.011608760598844086 -0.0012023009098368269 0 -0.011403513076189796 -0.0015127607695965919 0 -0.013444320153285663 -0.0015013865205453932 0 -0.011276360515571165 -0.0022229611829585627 0 -0.011723918900498013 -0.0036665221499025966 0 -0.012430141128155542 -0.0029840904890667992 0 -0.011575862133017185 -0.0026516944890978573 0 -0.011575862133017185 -0.0026516944890978573 0 -0.011809911219277273 -0.0021906538120555147 0 -0.011467113998160033 -0.0018297526332755898 0 -0.012430141128155542 -0.0029840904890667992 0 -0.011575862133017185 -0.0026516944890978573 0 -0.011809911219277273 -0.0021906538120555147 0 -0.011276360515571165 -0.0022229611829585627 0 -0.011513720713209595 -0.0017843805094933018 0 -0.011403513076189796 -0.0015127607695965919 0 -0.011525573397552408 -0.0017125538834035659 0 -0.011712980401793782 -0.0016068861300086975 0 -0.011403513076189796 -0.0015127607695965919 0 -0.011525573397552408 -0.0017125538834035659 0 -0.011467113998160033 -0.0018297526332755898 0 -0.011525573397552408 -0.0017125538834035659 0 -0.011426965897242415 -0.0017578325936572234 0 -0.011356287401196472 -0.001725068910550266 0 -0.011525573397552408 -0.0017125538834035659 0 -0.011467113998160033 -0.0018297526332755898 0 -0.011426965897242415 -0.0017578325936572234 0 -0.011467113998160033 -0.0018297526332755898 0 -0.011426965897242415 -0.0017578325936572234 0 -0.011367733489826235 -0.0017136745595775149 0 -0.011426965897242415 -0.0017578325936572234 0 -0.011367733489826235 -0.0017136745595775149 0 -0.011356287401196472 -0.001725068910550266 0 -0.011467113998160033 -0.0018297526332755898 0 -0.011367733489826235 -0.0017136745595775149 0 -0.011462511456282158 -0.0016304744416679503 0 -0.011367733489826235 -0.0017136745595775149 0 -0.011200950927090851 -0.0015977420379004413 0 -0.011356287401196472 -0.001725068910550266 0 -0.011367733489826235 -0.0017136745595775149 0 -0.011462511456282158 -0.0016304744416679503 0 -0.011200950927090851 -0.0015977420379004413 0 -0.011467113998160033 -0.0018297526332755898 0 -0.011462511456282158 -0.0016304744416679503 0 -0.01192438455380925 -0.0018647267096645673 0 -0.011462511456282158 -0.0016304744416679503 0 -0.01192438455380925 -0.0018647267096645673 0 -0.011872444325062832 -0.0014525974431823809 0 -0.011823017072392932 -0.0021480256675137318 0 -0.012159057205473858 -0.0016017581766378643 0 -0.011809911219277273 -0.0021906538120555147 0 -0.011467113998160033 -0.0018297526332755898 0 -0.01192438455380925 -0.0018647267096645673 0 -0.012565577510456673 -0.0020471478774656349 0 -0.011809911219277273 -0.0021906538120555147 0 -0.012344463232628675 -0.0013348480651029721 0 -0.012565577510456673 -0.0020471478774656349 0 -0.012344463232628675 -0.0013348480651029721 0 -0.013171005430566646 -0.0013418647965148878 0 -0.012565577510456673 -0.0020471478774656349 0 -0.013292093373787605 -0.0022360752837931289 0 -0.013171005430566646 -0.0013418647965148878 0 -0.013292093373787605 -0.0022360752837931289 0 -0.013171005430566646 -0.0013418647965148878 0 -0.014171091064034944 -0.001383699148689555 0 -0.013171005430566646 -0.0013418647965148878 0 -0.012877520784731885 -0.0005186376725590877 0 -0.013775322946001416 -0.00054084172073667186 0 -0.012159057205473858 -0.0016017581766378643 0 -0.012461969660905089 -0.0010488830332047341 0 -0.012344463232628675 -0.0013348480651029721 0 -0.013171005430566646 -0.0013418647965148878 0 -0.012877520784731885 -0.0005186376725590877 0 -0.01192438455380925 -0.0018647267096645673 0 -0.01230060307938983 -0.0015437855900970502 0 -0.011872444325062832 -0.0014525974431823809 0 -0.01230060307938983 -0.0015437855900970502 0 -0.011872444325062832 -0.0014525974431823809 0 -0.012314023028039467 -0.0012166108008546601 0 -0.012314023028039467 -0.0012166108008546601 0 -0.012536645151359521 -0.0009644019335741437 0 -0.012242583893495279 -0.00095233677418666163 0 -0.012314023028039467 -0.0012166108008546601 0 -0.012002497502205878 -0.0011607124399798038 0 -0.012242583893495279 -0.00095233677418666163 0 -0.011872444325062832 -0.0014525974431823809 0 -0.012002497502205878 -0.0011607124399798038 0 -0.011692927170976688 -0.0010972174830810582 0 -0.011872444325062832 -0.0014525974431823809 0 -0.012314023028039467 -0.0012166108008546601 0 -0.012002497502205878 -0.0011607124399798038 0 -0.01230060307938983 -0.0015437855900970502 0 -0.012314023028039467 -0.0012166108008546601 0 -0.012808276405087003 -0.00098425071256417725 0 -0.012877520784731885 -0.0005186376725590877 0 -0.013399554998147562 0.00028533207547955388 0 -0.013775322946001416 -0.00054084172073667186 0 -0.014837591790834973 -0.00083127600039989479 0 -0.015269040681029127 -0.00070625558368045036 0 -0.012461969660905089 -0.0010488830332047341 0 -0.014837591790834973 -0.00083127600039989479 0 -0.012314023028039467 -0.0012166108008546601 0 -0.012808276405087003 -0.00098425071256417725 0 -0.012536645151359521 -0.0009644019335741437 0 -0.016035920235579874 -0.0014054534296773624 0 -0.015820118162683857 -0.00089241862558523245 0 -0.016378591770495499 -0.00067660168150585846 0 -0.012808276405087003 -0.00098425071256417725 0 -0.012536645151359521 -0.0009644019335741437 0 -0.012582073923742354 -0.00046332326587625018 0 -0.012689721981292644 -0.00083389729579405397 0 -0.013508042888127686 -0.00059474827236296235 0 -0.014837591790834973 -0.00083127600039989479 0 -0.013508042888127686 -0.00059474827236296235 0 -0.012536645151359521 -0.0009644019335741437 0 -0.012424300451919496 -0.00070668156147761854 0 -0.012740488640013673 -0.00034019934275120444 0 -0.012002497502205878 -0.0011607124399798038 0 -0.011935751779016603 -0.00085860593176695843 0 -0.011692927170976688 -0.0010972174830810582 0 -0.011935751779016603 -0.00085860593176695843 0 -0.012242583893495279 -0.00095233677418666163 0 -0.012186786822706401 -0.00066229660687328246 0 -0.012002497502205878 -0.0011607124399798038 0 -0.011935751779016603 -0.00085860593176695843 0 -0.012242583893495279 -0.00095233677418666163 0 -0.012536645151359521 -0.0009644019335741437 0 -0.012242583893495279 -0.00095233677418666163 0 -0.012424300451919496 -0.00070668156147761854 0 -0.012242583893495279 -0.00095233677418666163 0 -0.012424300451919496 -0.00070668156147761854 0 -0.012186786822706401 -0.00066229660687328246 0 -0.012457515453511593 -0.00041981777083948053 0 -0.012186786822706401 -0.00066229660687328246 0 -0.012259338826697254 -0.00027604143755881739 0 -0.012424300451919496 -0.00070668156147761854 0 -0.012457515453511593 -0.00041981777083948053 0 -0.012186786822706401 -0.00066229660687328246 0 -0.012424300451919496 -0.00070668156147761854 0 -0.012457515453511593 -0.00041981777083948053 0 -0.012740488640013673 -0.00034019934275120444 0 -0.011935751779016603 -0.00085860593176695843 0 -0.011931454733930936 -0.00048333203867503914 0 -0.012186786822706401 -0.00066229660687328246 0 -0.011931454733930936 -0.00048333203867503914 0 -0.012186786822706401 -0.00066229660687328246 0 -0.012259338826697254 -0.00027604143755881739 0 -0.011641096413207966 -0.00070972101842396306 0 -0.011323041474628075 -0.00047082987365520913 0 -0.01162509831813089 -0.00025952135943362346 0 -0.011931454733930936 -0.00048333203867503914 0 -0.011641096413207966 -0.00070972101842396306 0 -0.01162509831813089 -0.00025952135943362346 0 -0.011935751779016603 -0.00085860593176695843 0 -0.011931454733930936 -0.00048333203867503914 0 -0.011641096413207966 -0.00070972101842396306 0 -0.011641096413207966 -0.00070972101842396306 0 -0.011376926666676241 -0.00091641613127401334 0 -0.011692927170976688 -0.0010972174830810582 0 -0.011935751779016603 -0.00085860593176695843 0 -0.011641096413207966 -0.00070972101842396306 0 -0.011692927170976688 -0.0010972174830810582 0 -0.011376926666676241 -0.00091641613127401334 0 -0.011102699828440359 -0.0010804531320151578 0 -0.011467130865671802 -0.0013373157246366091 0 -0.011641096413207966 -0.00070972101842396306 0 -0.011376926666676241 -0.00091641613127401334 0 -0.011323041474628075 -0.00047082987365520913 0 -0.011376926666676241 -0.00091641613127401334 0 -0.011323041474628075 -0.00047082987365520913 0 -0.011029921245068405 -0.00065713440016761755 0 -0.011029921245068405 -0.00065713440016761755 0 -0.010674904611277477 -0.00077707073366319339 0 -0.010689461432883648 -6.2793971677550141e-05 0 -0.010674904611277477 -0.00077707073366319339 0 -0.010689461432883648 -6.2793971677550141e-05 0 -0.010131292214452296 -0.00046166317862349942 0 -0.010674904611277477 -0.00077707073366319339 0 -0.010409722705403659 -0.00090976913795032699 0 -0.010131292214452296 -0.00046166317862349942 0 -0.010409722705403659 -0.00090976913795032699 0 -0.010761905783861251 -0.0011772932413927919 0 -0.010039789682576128 -0.0012519759720321729 0 -0.010674904611277477 -0.00077707073366319339 0 -0.010761905783861251 -0.0011772932413927919 0 -0.011102699828440359 -0.0010804531320151578 0 -0.010674904611277477 -0.00077707073366319339 0 -0.010409722705403659 -0.00090976913795032699 0 -0.010761905783861251 -0.0011772932413927919 0 -0.011029921245068405 -0.00065713440016761755 0 -0.010674904611277477 -0.00077707073366319339 0 -0.011102699828440359 -0.0010804531320151578 0 -0.011376926666676241 -0.00091641613127401334 0 -0.011029921245068405 -0.00065713440016761755 0 -0.011102699828440359 -0.0010804531320151578 0 -0.010761905783861251 -0.0011772932413927919 0 -0.011102699828440359 -0.0010804531320151578 0 -0.011171644676964342 -0.0013885053744847086 0 -0.011102699828440359 -0.0010804531320151578 0 -0.011171644676964342 -0.0013885053744847086 0 -0.011467130865671802 -0.0013373157246366091 0 -0.010761905783861251 -0.0011772932413927919 0 -0.011200950927090851 -0.0015977420379004413 0 -0.010559509494873762 -0.0011785614748879285 0 -0.010761905783861251 -0.0011772932413927919 0 -0.011171644676964342 -0.0013885053744847086 0 -0.011200950927090851 -0.0015977420379004413 0 -0.011462511456282158 -0.0016304744416679503 0 -0.011171644676964342 -0.0013885053744847086 0 -0.011200950927090851 -0.0015977420379004413 0 -0.011462511456282158 -0.0016304744416679503 0 -0.011171644676964342 -0.0013885053744847086 0 -0.011467130865671802 -0.0013373157246366091 0 -0.011462511456282158 -0.0016304744416679503 0 -0.011872444325062832 -0.0014525974431823809 0 -0.011467130865671802 -0.0013373157246366091 0 -0.011872444325062832 -0.0014525974431823809 0 -0.011692927170976688 -0.0010972174830810582 0 -0.011467130865671802 -0.0013373157246366091 0 -0.011376926666676241 -0.00091641613127401334 0 -0.011692927170976688 -0.0010972174830810582 0 -0.011467130865671802 -0.0013373157246366091 0 -0.0177513535840691 -0.0012148703398535666 0 -0.017325264309644536 -0.00098683260321722637 0 -0.017560791919397582 -0.0013221262068966583 0 -0.0177513535840691 -0.0012148703398535666 0 -0.017981449161599102 -0.0013062166340944577 0 -0.017914742513818072 -0.0011692186230446793 0 -0.0177513535840691 -0.0012148703398535666 0 -0.017981449161599102 -0.0013062166340944577 0 -0.0178696576450969 -0.0013816168286131226 0 -0.017981449161599102 -0.0013062166340944577 0 -0.017914742513818072 -0.0011692186230446793 0 -0.018038642510583257 -0.0013285392061900827 0 -0.017914742513818072 -0.0011692186230446793 0 -0.018038642510583257 -0.0013285392061900827 0 -0.018052629543740508 -0.001335191214314772 0 -0.0177513535840691 -0.0012148703398535666 0 -0.017914742513818072 -0.0011692186230446793 0 -0.017325264309644536 -0.00098683260321722637 0 -0.017376696628652894 -0.00084691197281427065 0 -0.017319929180143048 -0.0010103070951499342 0 -0.017050129890215999 -0.00059035678701262423 0 -0.017325264309644536 -0.00098683260321722637 0 -0.017178898388547865 -0.00073500278088764665 0 -0.016990532647499685 -0.00088577148233938332 0 -0.017325264309644536 -0.00098683260321722637 0 -0.017103585248633209 -0.00071138877974831266 0 -0.017325264309644536 -0.00098683260321722637 0 -0.017103585248633209 -0.00071138877974831266 0 -0.017178898388547865 -0.00073500278088764665 0 -0.016990532647499685 -0.00088577148233938332 0 -0.01701066927113971 -0.0010437691842317086 0 -0.017325264309644536 -0.00098683260321722637 0 -0.014837591790834973 -0.00083127600039989479 0 -0.01723936348793648 -0.0006790567538918213 0 -0.016838830311558146 -0.00097783323322436517 0 -0.016990532647499685 -0.00088577148233938332 0 -0.016750587760920553 -0.00065343035321828013 0 -0.016838830311558146 -0.00097783323322436517 0 -0.016990532647499685 -0.00088577148233938332 0 -0.01701066927113971 -0.0010437691842317086 0 -0.01701066927113971 -0.0010437691842317086 0 -0.017325264309644536 -0.00098683260321722637 0 -0.017258691842813246 -0.0012827256618249863 0 -0.01701066927113971 -0.0010437691842317086 0 -0.016997800241563516 -0.0012318812399699786 0 -0.017258691842813246 -0.0012827256618249863 0 -0.016838830311558146 -0.00097783323322436517 0 -0.01701066927113971 -0.0010437691842317086 0 -0.016997800241563516 -0.0012318812399699786 0 -0.017325264309644536 -0.00098683260321722637 0 -0.017560791919397582 -0.0013221262068966583 0 -0.017258691842813246 -0.0012827256618249863 0 -0.017560791919397582 -0.0013221262068966583 0 -0.017467078149396326 -0.0014447922966105108 0 -0.017630511614941783 -0.0015243567173802894 0 -0.017560791919397582 -0.0013221262068966583 0 -0.017258691842813246 -0.0012827256618249863 0 -0.017467078149396326 -0.0014447922966105108 0 -0.017258691842813246 -0.0012827256618249863 0 -0.017261254503296596 -0.0014944924797724434 0 -0.017467078149396326 -0.0014447922966105108 0 -0.015269040681029127 -0.00070625558368045036 0 -0.017282185732200965 -0.0016014242600693477 0 -0.013171005430566646 -0.0013418647965148878 0 -0.013775322946001416 -0.00054084172073667186 0 -0.014171091064034944 -0.001383699148689555 0 -0.016997800241563516 -0.0012318812399699786 0 -0.017258691842813246 -0.0012827256618249863 0 -0.017261254503296596 -0.0014944924797724434 0 -0.016155343959743423 -0.0019519350406385161 0 -0.017282185732200965 -0.0016014242600693477 0 -0.017261254503296596 -0.0014944924797724434 0 -0.017467078149396326 -0.0014447922966105108 0 -0.017630511614941783 -0.0015243567173802894 0 -0.017282185732200965 -0.0016014242600693477 0 -0.01861022995761746 -0.0017593645515700748 0 -0.017261254503296596 -0.0014944924797724434 0 -0.017630511614941783 -0.0015243567173802894 0 -0.017508287618166307 -0.0017428445096987894 0 -0.017630511614941783 -0.0015243567173802894 0 -0.017882116682720328 -0.0015048754073478973 0 -0.017885662582490428 -0.0016912421570779755 0 -0.017630511614941783 -0.0015243567173802894 0 -0.017882116682720328 -0.0015048754073478973 0 -0.0178696576450969 -0.0013816168286131226 0 -0.0177513535840691 -0.0012148703398535666 0 -0.017560791919397582 -0.0013221262068966583 0 -0.0178696576450969 -0.0013816168286131226 0 -0.017560791919397582 -0.0013221262068966583 0 -0.017630511614941783 -0.0015243567173802894 0 -0.0178696576450969 -0.0013816168286131226 0 -0.017981449161599102 -0.0013062166340944577 0 -0.0178696576450969 -0.0013816168286131226 0 -0.01807884841419977 -0.0013820370687633869 0 -0.017882116682720328 -0.0015048754073478973 0 -0.0178696576450969 -0.0013816168286131226 0 -0.018141948661927337 -0.0014580783854736636 0 -0.0178696576450969 -0.0013816168286131226 0 -0.01807884841419977 -0.0013820370687633869 0 -0.018141948661927337 -0.0014580783854736636 0 -0.018141948661927337 -0.0014580783854736636 0 -0.017885662582490428 -0.0016912421570779755 0 -0.018370915027449343 -0.0015821433894517929 0 -0.017882116682720328 -0.0015048754073478973 0 -0.018141948661927337 -0.0014580783854736636 0 -0.017885662582490428 -0.0016912421570779755 0 -0.017630511614941783 -0.0015243567173802894 0 -0.017885662582490428 -0.0016912421570779755 0 -0.017508287618166307 -0.0017428445096987894 0 -0.017885662582490428 -0.0016912421570779755 0 -0.017508287618166307 -0.0017428445096987894 0 -0.017687707157850448 -0.0020890195396547273 0 -0.017885662582490428 -0.0016912421570779755 0 -0.018052211355466603 -0.0019342658733600582 0 -0.017687707157850448 -0.0020890195396547273 0 -0.018052211355466603 -0.0019342658733600582 0 -0.018370915027449343 -0.0015821433894517929 0 -0.018375231317267392 -0.0020385133730268833 0 -0.017885662582490428 -0.0016912421570779755 0 -0.018052211355466603 -0.0019342658733600582 0 -0.018370915027449343 -0.0015821433894517929 0 -0.019239420978688988 -0.0016844544483356036 0 -0.019457801157781337 -0.0017152560111337318 0 -0.019349761014871149 -0.0017928910913378813 0 -0.019239420978688988 -0.0016844544483356036 0 -0.019355727040316847 -0.0015520028588517187 0 -0.019457801157781337 -0.0017152560111337318 0 -0.01861022995761746 -0.0017593645515700748 0 -0.018553231291841617 -0.0019683715397582299 0 -0.019457801157781337 -0.0017152560111337318 0 -0.019349761014871149 -0.0017928910913378813 0 -0.019551778036540235 -0.0018866501679032665 0 -0.019301143956176992 -0.0020260074537557758 0 -0.019327460102989549 -0.001924693167308105 0 -0.019455079318698488 -0.0019707052830590507 0 -0.019327460102989549 -0.001924693167308105 0 -0.019349761014871149 -0.0017928910913378813 0 -0.019455079318698488 -0.0019707052830590507 0 -0.019455079318698488 -0.0019707052830590507 0 -0.019551778036540235 -0.0018866501679032665 0 -0.019617285047976447 -0.0020360763911954592 0 -0.019349761014871149 -0.0017928910913378813 0 -0.019455079318698488 -0.0019707052830590507 0 -0.019551778036540235 -0.0018866501679032665 0 -0.019455079318698488 -0.0019707052830590507 0 -0.019503096288951541 -0.0020702776957206071 0 -0.019617285047976447 -0.0020360763911954592 0 -0.019436344377163909 -0.0021233211637918066 0 -0.019455079318698488 -0.0019707052830590507 0 -0.019503096288951541 -0.0020702776957206071 0 -0.019436344377163909 -0.0021233211637918066 0 -0.019301143956176992 -0.0020260074537557758 0 -0.019455079318698488 -0.0019707052830590507 0 -0.018049392874763794 -0.002221116041945915 0 -0.018375145233917388 -0.0023987971334137239 0 -0.018375231317267392 -0.0020385133730268833 0 -0.018052211355466603 -0.0019342658733600582 0 -0.018049392874763794 -0.002221116041945915 0 -0.018375231317267392 -0.0020385133730268833 0 -0.018049392874763794 -0.002221116041945915 0 -0.017687707157850448 -0.0020890195396547273 0 -0.017888628305925292 -0.0025307832826602906 0 -0.018553231291841617 -0.0019683715397582299 0 -0.019150383379323049 -0.0022568019174024762 0 -0.018052211355466603 -0.0019342658733600582 0 -0.018049392874763794 -0.002221116041945915 0 -0.017687707157850448 -0.0020890195396547273 0 -0.019713782410838099 -0.002033494981203162 0 -0.019150383379323049 -0.0022568019174024762 0 -0.019150383379323049 -0.0022568019174024762 0 -0.019101648236935154 -0.0024684345562528739 0 -0.019451593464166937 -0.0025402722979568182 0 -0.019860881461442458 -0.0026768804435945595 0 -0.02015355250749503 -0.0023391912206581194 0 -0.018049392874763794 -0.002221116041945915 0 -0.017888628305925292 -0.0025307832826602906 0 -0.018375145233917388 -0.0023987971334137239 0 -0.019733613576332409 -0.0029021345853449199 0 -0.019101648236935154 -0.0024684345562528739 0 -0.019297008959257345 -0.002989858377376327 0 -0.019749275275382065 -0.0025322630014073082 0 -0.0192331503530014 -0.002303784418940036 0 -0.020166811831285932 -0.0028149484243023483 0 -0.019860881461442458 -0.0026768804435945595 0 -0.02015355250749503 -0.0023391912206581194 0 -0.019101648236935154 -0.0024684345562528739 0 -0.019201401010937903 -0.0023876561672850185 0 -0.019749275275382065 -0.0025322630014073082 0 -0.0192331503530014 -0.002303784418940036 0 -0.019270555896406919 -0.0023521347886929656 0 -0.01878654854476507 -0.0024451496234505314 0 -0.018969908281676197 -0.0019504086245771533 0 -0.018598244056630676 -0.0017829679464847023 0 -0.019101648236935154 -0.0024684345562528739 0 -0.018473855548512115 -0.001888581277638908 0 -0.01878654854476507 -0.0024451496234505314 0 -0.019270555896406919 -0.0023521347886929656 0 -0.018969908281676197 -0.0019504086245771533 0 -0.018969908281676197 -0.0019504086245771533 0 -0.019195003252707669 -0.0019815325424127296 0 -0.018731022906686528 -0.0015748770958370205 0 -0.019270555896406919 -0.0023521347886929656 0 -0.018969908281676197 -0.0019504086245771533 0 -0.019195003252707669 -0.0019815325424127296 0 -0.019270555896406919 -0.0023521347886929656 0 -0.019195003252707669 -0.0019815325424127296 0 -0.019588835546710825 -0.0025467942274218979 0 -0.019195003252707669 -0.0019815325424127296 0 -0.019588835546710825 -0.0025467942274218979 0 -0.01973456007667319 -0.0024396466236965998 0 -0.019882618322991347 -0.0032893423637237831 0 -0.019749275275382065 -0.0025322630014073082 0 -0.019588835546710825 -0.0025467942274218979 0 -0.019749275275382065 -0.0025322630014073082 0 -0.019270555896406919 -0.0023521347886929656 0 -0.019588835546710825 -0.0025467942274218979 0 -0.019882618322991347 -0.0032893423637237831 0 -0.020299851906817015 -0.0024486895656635945 0 -0.01973456007667319 -0.0024396466236965998 0 -0.019882618322991347 -0.0032893423637237831 0 -0.019588835546710825 -0.0025467942274218979 0 -0.01973456007667319 -0.0024396466236965998 0 -0.019882618322991347 -0.0032893423637237831 0 -0.020299851906817015 -0.0024486895656635945 0 -0.021028394313969294 -0.0031010424701784713 0 -0.020299851906817015 -0.0024486895656635945 0 -0.02054432051449279 -0.0016228472542250175 0 -0.020913875485441494 -0.0022044704077911806 0 -0.020299851906817015 -0.0024486895656635945 0 -0.019709960187881324 -0.0019939452260748923 0 -0.02054432051449279 -0.0016228472542250175 0 -0.019195003252707669 -0.0019815325424127296 0 -0.01973456007667319 -0.0024396466236965998 0 -0.019709960187881324 -0.0019939452260748923 0 -0.020299851906817015 -0.0024486895656635945 0 -0.01973456007667319 -0.0024396466236965998 0 -0.019709960187881324 -0.0019939452260748923 0 -0.019123401562539513 -0.0010192498703236856 0 -0.018877346392964067 -0.0011768446781429672 0 -0.019709960187881324 -0.0019939452260748923 0 -0.02054432051449279 -0.0016228472542250175 0 -0.018894396654668875 -0.0012349573386137742 0 -0.019195003252707669 -0.0019815325424127296 0 -0.019709960187881324 -0.0019939452260748923 0 -0.018894396654668875 -0.0012349573386137742 0 -0.017717002734738085 -0.00035672938942059746 0 -0.017823610287616733 -0.0011457970289297794 0 -0.018894396654668875 -0.0012349573386137742 0 -0.017823610287616733 -0.0011457970289297794 0 -0.018894396654668875 -0.0012349573386137742 0 -0.018220780287208884 -0.0014315675514184503 0 -0.018500868770642925 -0.001394231161484763 0 -0.018894396654668875 -0.0012349573386137742 0 -0.018731022906686528 -0.0015748770958370205 0 -0.018500868770642925 -0.001394231161484763 0 -0.018894396654668875 -0.0012349573386137742 0 -0.018220780287208884 -0.0014315675514184503 0 -0.018141948661927337 -0.0014580783854736636 0 -0.018500868770642925 -0.001394231161484763 0 -0.018370915027449343 -0.0015821433894517929 0 -0.018500868770642925 -0.001394231161484763 0 -0.018370915027449343 -0.0015821433894517929 0 -0.018731022906686528 -0.0015748770958370205 0 -0.018370915027449343 -0.0015821433894517929 0 -0.018598244056630676 -0.0017829679464847023 0 -0.018731022906686528 -0.0015748770958370205 0 -0.018406582338059946 -0.0016021846170220799 0 -0.018473855548512115 -0.001888581277638908 0 -0.018969908281676197 -0.0019504086245771533 0 -0.018598244056630676 -0.0017829679464847023 0 -0.018731022906686528 -0.0015748770958370205 0 -0.019195003252707669 -0.0019815325424127296 0 -0.018894396654668875 -0.0012349573386137742 0 -0.018731022906686528 -0.0015748770958370205 0 -0.018929375497189857 -0.0011428538712478468 0 -0.013903711659667794 -0.00016112503313758203 0 -0.015309641816758961 0.00022874342183756049 0 -0.015078299142144881 -5.3370220747045249e-05 0 -0.014872267534659332 2.368380787489526e-05 0 -0.015309641816758961 0.00022874342183756049 0 -0.015403879251498396 -0.00013468103404211805 0 -0.015078299142144881 -5.3370220747045249e-05 0 -0.023041646500617158 -0.0029504251657923265 0 -0.023031772801607404 -0.0031956678497851647 0 -0.022815688076877446 -0.0030353268179705534 0 -0.023041646500617158 -0.0029504251657923265 0 -0.023154350565324604 -0.0032556678518524352 0 -0.023031772801607404 -0.0031956678497851647 0 -0.023177465009392436 -0.0033978277763189726 0 -0.023031772801607404 -0.0031956678497851647 0 -0.022884445161103894 -0.0033761075882322439 0 -0.023154350565324604 -0.0032556678518524352 0 -0.023177465009392436 -0.0033978277763189726 0 -0.023031772801607404 -0.0031956678497851647 0 -0.022884445161103894 -0.0033761075882322439 0 -0.022568077693625538 -0.0030282502022761348 0 -0.022127986441559451 -0.0031313190801202564 0 -0.022815688076877446 -0.0030353268179705534 0 -0.022884445161103894 -0.0033761075882322439 0 -0.022568077693625538 -0.0030282502022761348 0 -0.023031772801607404 -0.0031956678497851647 0 -0.022815688076877446 -0.0030353268179705534 0 -0.022884445161103894 -0.0033761075882322439 0 -0.018929375497189857 -0.0011428538712478468 0 -0.022442711529851379 -0.0023897811284573837 0 -0.018929375497189857 -0.0011428538712478468 0 -0.01867611166039625 -0.00086816218277362958 0 -0.021357674953448216 -0.0020278457190352449 0 -0.021233768916110292 -0.0020363108843053541 0 -0.021169621755899422 -0.001923718566037839 0 -0.015309641816758961 0.00022874342183756049 0 -0.016468540930763737 0.00010071145281321575 0 -0.015852450121411069 -0.0001300127011272426 0 -0.023041646500617158 -0.0029504251657923265 0 -0.022815688076877446 -0.0030353268179705534 0 -0.02247968247774915 -0.0026629027026206795 0 -0.022815688076877446 -0.0030353268179705534 0 -0.022568077693625538 -0.0030282502022761348 0 -0.02247968247774915 -0.0026629027026206795 0 -0.021233768916110292 -0.0020363108843053541 0 -0.021169621755899422 -0.001923718566037839 0 -0.020913875485441494 -0.0022044704077911806 0 -0.022442711529851379 -0.0023897811284573837 0 -0.02103212358170389 -0.0023608861683740837 0 -0.022568077693625538 -0.0030282502022761348 0 -0.02247968247774915 -0.0026629027026206795 0 -0.022127986441559451 -0.0031313190801202564 0 -0.02247968247774915 -0.0026629027026206795 0 -0.022127986441559451 -0.0031313190801202564 0 -0.021494439466255611 -0.0024599467586815162 0 -0.022127986441559451 -0.0031313190801202564 0 -0.021028394313969294 -0.0031010424701784713 0 -0.021494439466255611 -0.0024599467586815162 0 -0.020299851906817015 -0.0024486895656635945 0 -0.021028394313969294 -0.0031010424701784713 0 -0.021494439466255611 -0.0024599467586815162 0 -0.02054432051449279 -0.0016228472542250175 0 -0.021169621755899422 -0.001923718566037839 0 -0.020913875485441494 -0.0022044704077911806 0 -0.020409030386188843 -0.0024353997472380392 0 -0.02103212358170389 -0.0023608861683740837 0 -0.019123401562539513 -0.0010192498703236856 0 -0.01867611166039625 -0.00086816218277362958 0 -0.017717002734738085 -0.00035672938942059746 0 -0.016468540930763737 0.00010071145281321575 0 -0.016984611427438387 -0.00061096133054651749 0 -0.017717002734738085 -0.00035672938942059746 0 -0.017823610287616733 -0.0011457970289297794 0 -0.016984611427438387 -0.00061096133054651749 0 -0.017823610287616733 -0.0011457970289297794 0 -0.016984611427438387 -0.00061096133054651749 0 -0.017189301409842251 -0.0011761089266640792 0 -0.016984611427438387 -0.00061096133054651749 0 -0.017189301409842251 -0.0011761089266640792 0 -0.016516529543050513 -0.0011458811318724078 0 -0.016302391859257994 -0.0004810638518197945 0 -0.015713467958040028 -0.00098652612783535791 0 -0.016516529543050513 -0.0011458811318724078 0 -0.016984611427438387 -0.00061096133054651749 0 -0.016302391859257994 -0.0004810638518197945 0 -0.016516529543050513 -0.0011458811318724078 0 -0.016468540930763737 0.00010071145281321575 0 -0.016984611427438387 -0.00061096133054651749 0 -0.016302391859257994 -0.0004810638518197945 0 -0.016468540930763737 0.00010071145281321575 0 -0.016302391859257994 -0.0004810638518197945 0 -0.015852450121411069 -0.0001300127011272426 0 -0.016302391859257994 -0.0004810638518197945 0 -0.015852450121411069 -0.0001300127011272426 0 -0.015596317008260828 -0.00047001010669301194 0 -0.015852450121411069 -0.0001300127011272426 0 -0.015596317008260828 -0.00047001010669301194 0 -0.015403879251498396 -0.00013468103404211805 0 -0.016302391859257994 -0.0004810638518197945 0 -0.015596317008260828 -0.00047001010669301194 0 -0.015713467958040028 -0.00098652612783535791 0 -0.015596317008260828 -0.00047001010669301194 0 -0.015713467958040028 -0.00098652612783535791 0 -0.015095736586711535 -0.00071504695348830827 0 -0.015713467958040028 -0.00098652612783535791 0 -0.015095736586711535 -0.00071504695348830827 0 -0.014910940421871152 -0.0011309805545490124 0 -0.015095736586711535 -0.00071504695348830827 0 -0.01511168589119922 -0.0003084626431320485 0 -0.014735872451061465 -0.00030864462753191517 0 -0.015596317008260828 -0.00047001010669301194 0 -0.01511168589119922 -0.0003084626431320485 0 -0.015403879251498396 -0.00013468103404211805 0 -0.015596317008260828 -0.00047001010669301194 0 -0.015095736586711535 -0.00071504695348830827 0 -0.01511168589119922 -0.0003084626431320485 0 -0.015309641816758961 0.00022874342183756049 0 -0.015852450121411069 -0.0001300127011272426 0 -0.015403879251498396 -0.00013468103404211805 0 -0.01511168589119922 -0.0003084626431320485 0 -0.015403879251498396 -0.00013468103404211805 0 -0.015078299142144881 -5.3370220747045249e-05 0 -0.015006438569727784 -0.0024112627699310538 0 -0.014910940421871152 -0.0011309805545490124 0 -0.015967868591840056 -0.0017398460274775209 0 -0.015006438569727784 -0.0024112627699310538 0 -0.014910940421871152 -0.0011309805545490124 0 -0.01366846132599016 -0.0015361365008475952 0 -0.015713467958040028 -0.00098652612783535791 0 -0.014910940421871152 -0.0011309805545490124 0 -0.015967868591840056 -0.0017398460274775209 0 -0.015713467958040028 -0.00098652612783535791 0 -0.015967868591840056 -0.0017398460274775209 0 -0.016516529543050513 -0.0011458811318724078 0 -0.015006438569727784 -0.0024112627699310538 0 -0.015967868591840056 -0.0017398460274775209 0 -0.016739847698639915 -0.0026311392890330798 0 -0.015967868591840056 -0.0017398460274775209 0 -0.016922862603685605 -0.0016526152897656727 0 -0.016739847698639915 -0.0026311392890330798 0 -0.015967868591840056 -0.0017398460274775209 0 -0.016516529543050513 -0.0011458811318724078 0 -0.016922862603685605 -0.0016526152897656727 0 -0.017189301409842251 -0.0011761089266640792 0 -0.016516529543050513 -0.0011458811318724078 0 -0.016922862603685605 -0.0016526152897656727 0 -0.017189301409842251 -0.0011761089266640792 0 -0.016922862603685605 -0.0016526152897656727 0 -0.01772690734660768 -0.0015665606936709536 0 -0.017443491128384097 -0.0016324936484382905 0 -0.017114082244898503 -0.0014703235252053481 0 -0.01772690734660768 -0.0015665606936709536 0 -0.016922862603685605 -0.0016526152897656727 0 -0.016739847698639915 -0.0026311392890330798 0 -0.01772690734660768 -0.0015665606936709536 0 -0.017287296524809509 -0.0018092865870596693 0 -0.017492347704114515 -0.0017145087082534463 0 -0.017443491128384097 -0.0016324936484382905 0 -0.017402422408310775 -0.0016902886126210141 0 -0.017230758819815874 -0.0017603645992752231 0 -0.017443491128384097 -0.0016324936484382905 0 -0.016988546189280834 -0.0017200391859699691 0 -0.017230758819815874 -0.0017603645992752231 0 -0.020022931453314546 -0.00090527900345763375 0 -0.010080723282603074 -0.0025408208081888176 0 -0.017443491128384097 -0.0016324936484382905 0 -0.016895187105003984 -0.0021442459602159783 0 -0.017114082244898503 -0.0014703235252053481 0 -0.016895187105003984 -0.0021442459602159783 0 -0.017114082244898503 -0.0014703235252053481 0 -0.016359242770189169 -0.0018265929220713044 0 -0.017287296524809509 -0.0018092865870596693 0 -0.014285850203276081 -0.0039135042701878738 0 -0.015006438569727784 -0.0024112627699310538 0 -0.016739847698639915 -0.0026311392890330798 0 -0.015236432599742776 -0.0037346236592303919 0 -0.010080723282603074 -0.0025408208081888176 0 -0.014285850203276081 -0.0039135042701878738 0 -0.0095856590129641869 -0.0058739086011680578 0 -0.010065535389590534 -0.006207072750641327 0 -0.0099350575941689091 -0.0056127216688110345 0 -0.010065535389590534 -0.006207072750641327 0 -0.01027079182773348 -0.0058413131001660871 0 -0.010653233619059278 -0.0059386194477559382 0 -0.014285850203276081 -0.0039135042701878738 0 -0.011476019710728364 -0.0056536045116502929 0 -0.010065535389590534 -0.006207072750641327 0 -0.01027079182773348 -0.0058413131001660871 0 -0.0099350575941689091 -0.0056127216688110345 0 -0.014285850203276081 -0.0039135042701878738 0 -0.013836101876151006 -0.0028685810352867651 0 -0.015006438569727784 -0.0024112627699310538 0 -0.015236432599742776 -0.0037346236592303919 0 -0.013457884646553989 -0.0028027121760015442 0 -0.018233480507634264 -0.0014002119392650411 0 -0.018220780287208884 -0.0014315675514184503 0 -0.01802354525472397 -0.0014607190476719684 0 -0.018233480507634264 -0.0014002119392650411 0 -0.01802354525472397 -0.0014607190476719684 0 -0.018091114717240595 -0.0013772868761300111 0 -0.01807884841419977 -0.0013820370687633869 0 -0.018233480507634264 -0.0014002119392650411 0 -0.018091114717240595 -0.0013772868761300111 0 -0.017981449161599102 -0.0013062166340944577 0 -0.01807884841419977 -0.0013820370687633869 0 -0.018091114717240595 -0.0013772868761300111 0 -0.01807884841419977 -0.0013820370687633869 0 -0.018141948661927337 -0.0014580783854736636 0 -0.018233480507634264 -0.0014002119392650411 0 -0.018141948661927337 -0.0014580783854736636 0 -0.018500868770642925 -0.001394231161484763 0 -0.018233480507634264 -0.0014002119392650411 0 -0.018500868770642925 -0.001394231161484763 0 -0.018233480507634264 -0.0014002119392650411 0 -0.018220780287208884 -0.0014315675514184503 0 -0.017823610287616733 -0.0011457970289297794 0 -0.018220780287208884 -0.0014315675514184503 0 -0.01772690734660768 -0.0015665606936709536 0 -0.017823610287616733 -0.0011457970289297794 0 -0.017189301409842251 -0.0011761089266640792 0 -0.01772690734660768 -0.0015665606936709536 0 -0.017443491128384097 -0.0016324936484382905 0 -0.01772690734660768 -0.0015665606936709536 0 -0.017889485594680704 -0.0015300991851464692 0 -0.018220780287208884 -0.0014315675514184503 0 -0.01772690734660768 -0.0015665606936709536 0 -0.017889485594680704 -0.0015300991851464692 0 -0.018220780287208884 -0.0014315675514184503 0 -0.017889485594680704 -0.0015300991851464692 0 -0.01802354525472397 -0.0014607190476719684 0 -0.017679792437757854 -0.0015906326014528017 0 -0.017840313281185172 -0.0015405653115105212 0 -0.01802354525472397 -0.0014607190476719684 0 -0.017889485594680704 -0.0015300991851464692 0 -0.017679792437757854 -0.0015906326014528017 0 -0.01802354525472397 -0.0014607190476719684 0 -0.017443491128384097 -0.0016324936484382905 0 -0.017889485594680704 -0.0015300991851464692 0 -0.017679792437757854 -0.0015906326014528017 0 -0.017443491128384097 -0.0016324936484382905 0 -0.017679792437757854 -0.0015906326014528017 0 -0.017402422408310775 -0.0016902886126210141 0 -0.017679792437757854 -0.0015906326014528017 0 -0.017523307261094169 -0.0016754927913483757 0 -0.017617794008300259 -0.0016805565998822367 0 -0.017679792437757854 -0.0015906326014528017 0 -0.017523307261094169 -0.0016754927913483757 0 -0.017402422408310775 -0.0016902886126210141 0 -0.017523307261094169 -0.0016754927913483757 0 -0.017402422408310775 -0.0016902886126210141 0 -0.01739356867234039 -0.001745575681984184 0 -0.017840313281185172 -0.0015405653115105212 0 -0.017853962082608411 -0.0015899013959887911 0 -0.017617794008300259 -0.0016805565998822367 0 -0.017679792437757854 -0.0015906326014528017 0 -0.017840313281185172 -0.0015405653115105212 0 -0.017617794008300259 -0.0016805565998822367 0 -0.017995843701056932 -0.0014394281201334106 0 -0.017986798021443647 -0.0014927920437717178 0 -0.017853962082608411 -0.0015899013959887911 0 -0.017840313281185172 -0.0015405653115105212 0 -0.017995843701056932 -0.0014394281201334106 0 -0.017853962082608411 -0.0015899013959887911 0 -0.017995843701056932 -0.0014394281201334106 0 -0.01802354525472397 -0.0014607190476719684 0 -0.018091114717240595 -0.0013772868761300111 0 -0.017840313281185172 -0.0015405653115105212 0 -0.017995843701056932 -0.0014394281201334106 0 -0.01802354525472397 -0.0014607190476719684 0 -0.017981449161599102 -0.0013062166340944577 0 -0.018091114717240595 -0.0013772868761300111 0 -0.018038642510583257 -0.0013285392061900827 0 -0.017995843701056932 -0.0014394281201334106 0 -0.018091114717240595 -0.0013772868761300111 0 -0.018038642510583257 -0.0013285392061900827 0 -0.017995843701056932 -0.0014394281201334106 0 -0.018038642510583257 -0.0013285392061900827 0 -0.018052629543740508 -0.001335191214314772 0 -0.017995843701056932 -0.0014394281201334106 0 -0.017986798021443647 -0.0014927920437717178 0 -0.018052629543740508 -0.001335191214314772 0 -0.018081214583660656 -0.0013320483552717549 0 -0.017622195704833938 -0.0013767734963211552 0 -0.017914742513818072 -0.0011692186230446793 0 -0.018052629543740508 -0.001335191214314772 0 -0.018120297553043594 -0.0012966921407281797 0 -0.01638307825852894 -0.00059331692572462508 0 -0.01659218596132506 -0.00072268975614957545 0 -0.016835012233924123 -0.0006715065469572398 0 -0.017986798021443647 -0.0014927920437717178 0 -0.018052629543740508 -0.001335191214314772 0 -0.018032319417192143 -0.0016860624469076538 0 -0.01638307825852894 -0.00059331692572462508 0 -0.01659218596132506 -0.00072268975614957545 0 -0.016448945863724491 -0.00079429419487419238 0 -0.01659218596132506 -0.00072268975614957545 0 -0.016448945863724491 -0.00079429419487419238 0 -0.016682199494309116 -0.00083939137908459194 0 -0.016448945863724491 -0.00079429419487419238 0 -0.016520297357884746 -0.00092483393859911771 0 -0.016682199494309116 -0.00083939137908459194 0 -0.016448945863724491 -0.00079429419487419238 0 -0.016520297357884746 -0.00092483393859911771 0 -0.01618129912382172 -0.00093169564513791809 0 -0.01638307825852894 -0.00059331692572462508 0 -0.016448945863724491 -0.00079429419487419238 0 -0.01618129912382172 -0.00093169564513791809 0 -0.016561408844848802 -0.0010307793388817305 0 -0.016520297357884746 -0.00092483393859911771 0 -0.01618129912382172 -0.00093169564513791809 0 -0.016561408844848802 -0.0010307793388817305 0 -0.01618129912382172 -0.00093169564513791809 0 -0.016642524873013306 -0.0012040145067993935 0 -0.016561408844848802 -0.0010307793388817305 0 -0.016520297357884746 -0.00092483393859911771 0 -0.016703899241004353 -0.00097909497255279547 0 -0.016520297357884746 -0.00092483393859911771 0 -0.016682199494309116 -0.00083939137908459194 0 -0.016703899241004353 -0.00097909497255279547 0 -0.01638307825852894 -0.00059331692572462508 0 -0.01618129912382172 -0.00093169564513791809 0 -0.015898421590661311 -0.0010601827067577201 0 -0.018092427995080929 -0.0017306603652843485 0 -0.017897143764926352 -0.0020682042343433912 0 -0.017779997202172271 -0.0019082786264097507 0 -0.017622195704833938 -0.0013767734963211552 0 -0.016848395962241313 -0.0015956186582192539 0 -0.017897143764926352 -0.0020682042343433912 0 -0.017779997202172271 -0.0019082786264097507 0 -0.017609892526373249 -0.0021474253635091704 0 -0.01618129912382172 -0.00093169564513791809 0 -0.015898421590661311 -0.0010601827067577201 0 -0.01604064593712521 -0.0012432635851453043 0 -0.017622195704833938 -0.0013767734963211552 0 -0.017887729009959805 -0.0018788187183340257 0 -0.018032319417192143 -0.0016860624469076538 0 -0.017769013938825625 -0.0017375237367262379 0 -0.017853962082608411 -0.0015899013959887911 0 -0.018032319417192143 -0.0016860624469076538 0 -0.017779997202172271 -0.0019082786264097507 0 -0.017769013938825625 -0.0017375237367262379 0 -0.017986798021443647 -0.0014927920437717178 0 -0.018032319417192143 -0.0016860624469076538 0 -0.017853962082608411 -0.0015899013959887911 0 -0.017769013938825625 -0.0017375237367262379 0 -0.017853962082608411 -0.0015899013959887911 0 -0.017617794008300259 -0.0016805565998822367 0 -0.017769013938825625 -0.0017375237367262379 0 -0.017617794008300259 -0.0016805565998822367 0 -0.017545591605860195 -0.0018499141148887706 0 -0.017617794008300259 -0.0016805565998822367 0 -0.017545591605860195 -0.0018499141148887706 0 -0.017431100510686005 -0.0018102021019062431 0 -0.017779997202172271 -0.0019082786264097507 0 -0.017769013938825625 -0.0017375237367262379 0 -0.017545591605860195 -0.0018499141148887706 0 -0.017402422408310775 -0.0016902886126210141 0 -0.01739356867234039 -0.001745575681984184 0 -0.017253160692284209 -0.0017737580584183978 0 -0.017523307261094169 -0.0016754927913483757 0 -0.017617794008300259 -0.0016805565998822367 0 -0.01739356867234039 -0.001745575681984184 0 -0.017617794008300259 -0.0016805565998822367 0 -0.01739356867234039 -0.001745575681984184 0 -0.017431100510686005 -0.0018102021019062431 0 -0.01739356867234039 -0.001745575681984184 0 -0.017431100510686005 -0.0018102021019062431 0 -0.017261456752534918 -0.001842429568552582 0 -0.01739356867234039 -0.001745575681984184 0 -0.017261456752534918 -0.001842429568552582 0 -0.017253160692284209 -0.0017737580584183978 0 -0.017431100510686005 -0.0018102021019062431 0 -0.017261456752534918 -0.001842429568552582 0 -0.0173037505540393 -0.0019709131799836642 0 -0.0173037505540393 -0.0019709131799836642 0 -0.017228171053597387 -0.0022119966248997998 0 -0.016898618206892459 -0.0021188563565939116 0 -0.017261456752534918 -0.001842429568552582 0 -0.0173037505540393 -0.0019709131799836642 0 -0.016898618206892459 -0.0021188563565939116 0 -0.017545591605860195 -0.0018499141148887706 0 -0.017431100510686005 -0.0018102021019062431 0 -0.0173037505540393 -0.0019709131799836642 0 -0.017545591605860195 -0.0018499141148887706 0 -0.0173037505540393 -0.0019709131799836642 0 -0.017430004566965619 -0.0020330989103983224 0 -0.0173037505540393 -0.0019709131799836642 0 -0.017430004566965619 -0.0020330989103983224 0 -0.017228171053597387 -0.0022119966248997998 0 -0.017779997202172271 -0.0019082786264097507 0 -0.017545591605860195 -0.0018499141148887706 0 -0.017430004566965619 -0.0020330989103983224 0 -0.017779997202172271 -0.0019082786264097507 0 -0.017430004566965619 -0.0020330989103983224 0 -0.017609892526373249 -0.0021474253635091704 0 -0.017430004566965619 -0.0020330989103983224 0 -0.017609892526373249 -0.0021474253635091704 0 -0.017228171053597387 -0.0022119966248997998 0 -0.017609892526373249 -0.0021474253635091704 0 -0.017657736591335311 -0.0024543930010338128 0 -0.017228171053597387 -0.0022119966248997998 0 -0.017228171053597387 -0.0022119966248997998 0 -0.016993514705897852 -0.0024112985594368533 0 -0.016898618206892459 -0.0021188563565939116 0 -0.017228171053597387 -0.0022119966248997998 0 -0.016993514705897852 -0.0024112985594368533 0 -0.01710352850440661 -0.0026337068665512587 0 -0.016993514705897852 -0.0024112985594368533 0 -0.016947132973265729 -0.0025867628078484022 0 -0.016723826416781194 -0.0024789005987968763 0 -0.018108307206274304 -0.002527843268844606 0 -0.014147140635018523 -0.0023397350091838012 0 -0.016993514705897852 -0.0024112985594368533 0 -0.016947132973265729 -0.0025867628078484022 0 -0.01710352850440661 -0.0026337068665512587 0 -0.016756524589869901 -0.0019144255478947679 0 -0.014147140635018523 -0.0023397350091838012 0 -0.017657736591335311 -0.0024543930010338128 0 -0.017228171053597387 -0.0022119966248997998 0 -0.017374809469650983 -0.0028662251633553635 0 -0.015474136322905171 -0.0015912579330262914 0 -0.01546507282614787 -0.0020011901958757452 0 -0.015111261199673156 -0.002090983565702783 0 -0.01546507282614787 -0.0020011901958757452 0 -0.015817601172081919 -0.0019983897044444652 0 -0.01558856778487698 -0.0021520373689510063 0 -0.01546507282614787 -0.0020011901958757452 0 -0.015720653972302663 -0.0017311040164534224 0 -0.015817601172081919 -0.0019983897044444652 0 -0.015474136322905171 -0.0015912579330262914 0 -0.01546507282614787 -0.0020011901958757452 0 -0.015720653972302663 -0.0017311040164534224 0 -0.015720653972302663 -0.0017311040164534224 0 -0.015972570681852066 -0.0016343977679439737 0 -0.015817601172081919 -0.0019983897044444652 0 -0.015972570681852066 -0.0016343977679439737 0 -0.015817601172081919 -0.0019983897044444652 0 -0.016199643135386983 -0.0016565941710465647 0 -0.016319639901724824 -0.0020842917114531926 0 -0.01512382710827636 -0.0010575350613873295 0 -0.015817601172081919 -0.0019983897044444652 0 -0.016199643135386983 -0.0016565941710465647 0 -0.016679964078509728 -0.0015110093615410627 0 -0.015817601172081919 -0.0019983897044444652 0 -0.015997878290599305 -0.0019643843795863081 0 -0.016147521377385933 -0.0017513419752780432 0 -0.013578533695657449 -0.00097432426380997695 0 -0.01512382710827636 -0.0010575350613873295 0 -0.015972570681852066 -0.0016343977679439737 0 -0.016186543279693696 -0.0015255735103874447 0 -0.016048794981680128 -0.001435878927087877 0 -0.01618129912382172 -0.00093169564513791809 0 -0.016338482957495234 -0.0013671680375307003 0 -0.016590297624600965 -0.001429326991862044 0 -0.01618129912382172 -0.00093169564513791809 0 -0.016642524873013306 -0.0012040145067993935 0 -0.016708053494185308 -0.0012871790866581102 0 -0.016354529995952698 -0.00097692301635500371 0 -0.016115231668370471 -0.0014450972721663103 0 -0.015972570681852066 -0.0016343977679439737 0 -0.016199643135386983 -0.0016565941710465647 0 -0.016186543279693696 -0.0015255735103874447 0 -0.016186543279693696 -0.0015255735103874447 0 -0.016366139810861224 -0.0015413102291902997 0 -0.016315527248953444 -0.0014786325881607433 0 -0.016199643135386983 -0.0016565941710465647 0 -0.016186543279693696 -0.0015255735103874447 0 -0.016366139810861224 -0.0015413102291902997 0 -0.016186543279693696 -0.0015255735103874447 0 -0.016315527248953444 -0.0014786325881607433 0 -0.016229119328669821 -0.0013609112586843628 0 -0.016315527248953444 -0.0014786325881607433 0 -0.016338482957495234 -0.0013671680375307003 0 -0.016229119328669821 -0.0013609112586843628 0 -0.016186543279693696 -0.0015255735103874447 0 -0.016229119328669821 -0.0013609112586843628 0 -0.016048794981680128 -0.001435878927087877 0 -0.016338482957495234 -0.0013671680375307003 0 -0.016679964078509728 -0.0015110093615410627 0 -0.016590297624600965 -0.001429326991862044 0 -0.016199643135386983 -0.0016565941710465647 0 -0.016366139810861224 -0.0015413102291902997 0 -0.016679964078509728 -0.0015110093615410627 0 -0.016366139810861224 -0.0015413102291902997 0 -0.016338482957495234 -0.0013671680375307003 0 -0.016679964078509728 -0.0015110093615410627 0 -0.016366139810861224 -0.0015413102291902997 0 -0.016315527248953444 -0.0014786325881607433 0 -0.016338482957495234 -0.0013671680375307003 0 -0.016561408844848802 -0.0010307793388817305 0 -0.016642524873013306 -0.0012040145067993935 0 -0.016714449457729031 -0.0011155726713483604 0 -0.01618129912382172 -0.00093169564513791809 0 -0.016229119328669821 -0.0013609112586843628 0 -0.01604064593712521 -0.0012432635851453043 0 -0.01618129912382172 -0.00093169564513791809 0 -0.016338482957495234 -0.0013671680375307003 0 -0.016229119328669821 -0.0013609112586843628 0 -0.016229119328669821 -0.0013609112586843628 0 -0.01604064593712521 -0.0012432635851453043 0 -0.016048794981680128 -0.001435878927087877 0 -0.015898421590661311 -0.0010601827067577201 0 -0.01604064593712521 -0.0012432635851453043 0 -0.015846072893965023 -0.001428797036361901 0 -0.016848395962241313 -0.0015956186582192539 0 -0.016756524589869901 -0.0019144255478947679 0 -0.017897143764926352 -0.0020682042343433912 0 -0.017609892526373249 -0.0021474253635091704 0 -0.017657736591335311 -0.0024543930010338128 0 -0.015898421590661311 -0.0010601827067577201 0 -0.015474136322905171 -0.0015912579330262914 0 -0.015846072893965023 -0.001428797036361901 0 -0.01604064593712521 -0.0012432635851453043 0 -0.016048794981680128 -0.001435878927087877 0 -0.015846072893965023 -0.001428797036361901 0 -0.015474136322905171 -0.0015912579330262914 0 -0.015720653972302663 -0.0017311040164534224 0 -0.015846072893965023 -0.001428797036361901 0 -0.015720653972302663 -0.0017311040164534224 0 -0.015972570681852066 -0.0016343977679439737 0 -0.015846072893965023 -0.001428797036361901 0 -0.015972570681852066 -0.0016343977679439737 0 -0.016048794981680128 -0.001435878927087877 0 -0.015846072893965023 -0.001428797036361901 0 -0.010279753620678234 -0.0053579745922696627 0 -0.0099350575941689091 -0.0056127216688110345 0 -0.010441204271681626 -0.0056144264585882226 0 0.0019350069077094631 -5.9204622503374834e-05 0 0.0017138347005569393 -9.1770024884970831e-05 0 0.0018702502627668358 -0.00017938125192572737 0 -0.0041780412180443182 -0.002599058694254564 0 -0.0032642726317397906 -0.0031590055694563335 0 0.0019350069077094631 -5.9204622503374834e-05 0 0.0016865822729561959 0.00014582929056134448 0 0.0017138347005569393 -9.1770024884970831e-05 0 -0.01027079182773348 -0.0058413131001660871 0 -0.0099350575941689091 -0.0056127216688110345 0 -0.010441204271681626 -0.0056144264585882226 0 -0.010080723282603074 -0.0025408208081888176 0 -0.0032642726317397906 -0.0031590055694563335 0 0.0013683896327543045 0.00032971444054417655 0 0.0016865822729561959 0.00014582929056134448 0 0.0014460079548119197 4.0506164236987103e-05 0 0.0016865822729561959 0.00014582929056134448 0 0.0017138347005569393 -9.1770024884970831e-05 0 0.0014460079548119197 4.0506164236987103e-05 0 0.0017138347005569393 -9.1770024884970831e-05 0 0.0014460079548119197 4.0506164236987103e-05 0 0.0015466664430281102 -0.00017354897249253343 0 0.0014460079548119197 4.0506164236987103e-05 0 0.0012302242987963115 -8.8720455624073237e-05 0 0.0015466664430281102 -0.00017354897249253343 0 -0.010080723282603074 -0.0025408208081888176 0 -0.011045543051226136 0.00012780954047774556 0 0.0013683896327543045 0.00032971444054417655 0 0.0014460079548119197 4.0506164236987103e-05 0 0.0011293827364340569 0.00016137025049561623 0 -0.016988546189280834 -0.0017200391859699691 0 -0.017207561336977584 -0.0018487672631869578 0 -0.017230758819815874 -0.0017603645992752231 0 -0.011045543051226136 0.00012780954047774556 0 -0.013747264998815723 -0.0016332569023753277 0 -0.01714023045284549 -0.001808483425959678 0 -0.017230758819815874 -0.0017603645992752231 0 -0.017253160692284209 -0.0017737580584183978 0 -0.017402422408310775 -0.0016902886126210141 0 -0.017230758819815874 -0.0017603645992752231 0 -0.017253160692284209 -0.0017737580584183978 0 -0.017261456752534918 -0.001842429568552582 0 -0.017253160692284209 -0.0017737580584183978 0 -0.01713320018659353 -0.0018195432258183558 0 -0.01714023045284549 -0.001808483425959678 0 -0.017253160692284209 -0.0017737580584183978 0 -0.01713320018659353 -0.0018195432258183558 0 -0.011045543051226136 0.00012780954047774556 0 -0.012309804338052191 -0.00058014983413259206 0 -0.017261456752534918 -0.001842429568552582 0 -0.01713320018659353 -0.0018195432258183558 0 -0.016898618206892459 -0.0021188563565939116 0 0.0014460079548119197 4.0506164236987103e-05 0 0.0011293827364340569 0.00016137025049561623 0 0.0012302242987963115 -8.8720455624073237e-05 0 -0.017099114963553968 -0.0017935439359631593 0 -0.01713320018659353 -0.0018195432258183558 0 -0.016898618206892459 -0.0021188563565939116 0 -0.011045543051226136 0.00012780954047774556 0 -0.0076640178345973725 -0.0013215021958549985 0 -0.016993514705897852 -0.0024112985594368533 0 -0.016898618206892459 -0.0021188563565939116 0 -0.016723826416781194 -0.0024789005987968763 0 0.0012302242987963115 -8.8720455624073237e-05 0 0.001303369777175158 -0.00030537909542864859 0 0.0015466664430281102 -0.00017354897249253343 0 -0.0076640178345973725 -0.0013215021958549985 0 -0.0080015878362344455 -0.0012526853938546363 0 0.001303369777175158 -0.00030537909542864859 0 0.0016220471772870392 -0.00041328926191310178 0 0.0012827770340456083 -0.00070136060909314901 0 -0.0080015878362344455 -0.0012526853938546363 0 -0.0025809912192440053 -0.0021665971879401133 0 -0.016947132973265729 -0.0025867628078484022 0 -0.016723826416781194 -0.0024789005987968763 0 -0.016701481634012381 -0.0026452671833015104 0 0.001303369777175158 -0.00030537909542864859 0 0.0016220471772870392 -0.00041328926191310178 0 0.0016577235179439506 -0.0003099448950139354 0 0.001303369777175158 -0.00030537909542864859 0 0.0016577235179439506 -0.0003099448950139354 0 0.0015466664430281102 -0.00017354897249253343 0 0.0016220471772870392 -0.00041328926191310178 0 0.0016577235179439506 -0.0003099448950139354 0 0.0018829578685411704 -0.00039595728657764346 0 0.0016220471772870392 -0.00041328926191310178 0 0.0018829578685411704 -0.00039595728657764346 0 0.00173787481331025 -0.00048113565232305874 0 0.0017138347005569393 -9.1770024884970831e-05 0 0.0015466664430281102 -0.00017354897249253343 0 0.00186400329372388 -0.00028781793726423768 0 0.0017138347005569393 -9.1770024884970831e-05 0 0.00186400329372388 -0.00028781793726423768 0 0.0018702502627668358 -0.00017938125192572737 0 0.0016577235179439506 -0.0003099448950139354 0 0.0015466664430281102 -0.00017354897249253343 0 0.00186400329372388 -0.00028781793726423768 0 0.0016577235179439506 -0.0003099448950139354 0 0.00186400329372388 -0.00028781793726423768 0 0.0018829578685411704 -0.00039595728657764346 0 0.00186400329372388 -0.00028781793726423768 0 0.0018829578685411704 -0.00039595728657764346 0 0.0020106348462925164 -0.00040741137895543235 0 0.0018829578685411704 -0.00039595728657764346 0 0.0020106348462925164 -0.00040741137895543235 0 0.0020715415474100774 -0.00045119363751886053 0 0.00186400329372388 -0.00028781793726423768 0 0.0020106348462925164 -0.00040741137895543235 0 0.0020071099084895579 -0.00036334371401523492 0 0.0020106348462925164 -0.00040741137895543235 0 0.0020071099084895579 -0.00036334371401523492 0 0.0020318556613804009 -0.00042309281948077709 0 0.0019350069077094631 -5.9204622503374834e-05 0 0.0018702502627668358 -0.00017938125192572737 0 0.0019698348395469144 -0.00025127340918472228 0 0.00186400329372388 -0.00028781793726423768 0 0.0020071099084895579 -0.00036334371401523492 0 0.0019698348395469144 -0.00025127340918472228 0 0.00186400329372388 -0.00028781793726423768 0 0.0018702502627668358 -0.00017938125192572737 0 0.0019698348395469144 -0.00025127340918472228 0 0.0032274602731236206 -0.0010806100106616008 0 0.0025242273430331071 -0.00085294682061471544 0 0.0036620023387332907 0.00010382183923351743 0 0.0025242273430331071 -0.00085294682061471544 0 0.0021706515418129691 -0.00046265982627292148 0 0.0036620023387332907 0.00010382183923351743 0 0.0021587255196509124 -0.00043739162607428679 0 0.0030047839459536171 -7.5107758321194898e-05 0 0.0020106348462925164 -0.00040741137895543235 0 0.0020715415474100774 -0.00045119363751886053 0 0.0020318556613804009 -0.00042309281948077709 0 0.0020715415474100774 -0.00045119363751886053 0 0.0021706515418129691 -0.00046265982627292148 0 0.0020318556613804009 -0.00042309281948077709 0 0.0020715415474100774 -0.00045119363751886053 0 0.0021706515418129691 -0.00046265982627292148 0 0.0020711023099086365 -0.00049731654404074662 0 0.0018829578685411704 -0.00039595728657764346 0 0.0020715415474100774 -0.00045119363751886053 0 0.0020711023099086365 -0.00049731654404074662 0 0.0018829578685411704 -0.00039595728657764346 0 0.0020711023099086365 -0.00049731654404074662 0 0.00173787481331025 -0.00048113565232305874 0 0.0025242273430331071 -0.00085294682061471544 0 0.0021706515418129691 -0.00046265982627292148 0 0.0020392282398628953 -0.00094163710320175427 0 0.0021706515418129691 -0.00046265982627292148 0 0.0020711023099086365 -0.00049731654404074662 0 0.0020392282398628953 -0.00094163710320175427 0 0.0020711023099086365 -0.00049731654404074662 0 0.0020392282398628953 -0.00094163710320175427 0 0.0025684369247540684 -0.00040130252310874439 0 0.002953397950305 -6.5161788633875524e-05 0 0.0027743144067795427 -0.00014537012918862188 0 0.0027433483691025914 -3.670499663584266e-05 0 0.0025612007558639877 -0.00055677667243590246 0 0.0025871530253301334 -0.00047172374378266297 0 0.002953397950305 -6.5161788633875524e-05 0 0.0027743144067795427 -0.00014537012918862188 0 0.0025684369247540684 -0.00040130252310874439 0 0.0027743144067795427 -0.00014537012918862188 0 0.0025684369247540684 -0.00040130252310874439 0 0.0031408015107455122 -0.00020636405932509329 0 0.0041299608665764133 -9.5717874938606e-05 0 -0.0025809912192440053 -0.0021665971879401133 0 0.0020711023099086365 -0.00049731654404074662 0 0.0025684369247540684 -0.00040130252310874439 0 0.0030713927327269816 -0.00049005720618977794 0 0.0020711023099086365 -0.00049731654404074662 0 0.00173787481331025 -0.00048113565232305874 0 0.0012827770340456083 -0.00070136060909314901 0 0.0016220471772870392 -0.00041328926191310178 0 0.00173787481331025 -0.00048113565232305874 0 0.0012827770340456083 -0.00070136060909314901 0 0.0025684369247540684 -0.00040130252310874439 0 0.0030713927327269816 -0.00049005720618977794 0 0.0031408015107455122 -0.00020636405932509329 0 -0.016723826416781194 -0.0024789005987968763 0 -0.016727340992612427 -0.00262989050757295 0 -0.016701481634012381 -0.0026452671833015104 0 -0.0025809912192440053 -0.0021665971879401133 0 -0.00035004986289419133 -0.00053514503898882649 0 0.003201488419233769 -0.00044470656667492113 0 0.0031408015107455122 -0.00020636405932509329 0 0.0038947318203380373 -5.2317075802248261e-05 0 0.0046097851503951823 -0.00045774802787248249 0 0.0056918214411942674 -0.00041408512790247926 0 0.0038947318203380373 -5.2317075802248261e-05 0 0.004258261404217977 -0.00027755476471360939 0 0.0039816604415655234 -0.00010702819007291354 0 0.0031408015107455122 -0.00020636405932509329 0 0.0027433483691025914 -3.670499663584266e-05 0 0.0038947318203380373 -5.2317075802248261e-05 0 0.0027743144067795427 -0.00014537012918862188 0 0.0031408015107455122 -0.00020636405932509329 0 0.0027433483691025914 -3.670499663584266e-05 0 0.0049793790150156154 -0.0011162634671499634 0 0.0059692586241645532 -0.0015428440820073517 0 0.0056918214411942674 -0.00041408512790247926 0 0.0046097851503951823 -0.00045774802787248249 0 0.0049793790150156154 -0.0011162634671499634 0 0.0056918214411942674 -0.00041408512790247926 0 0.0049793790150156154 -0.0011162634671499634 0 0.0059692586241645532 -0.0015428440820073517 0 0.005093341421397609 -0.0023476240806057902 0 0.0059692586241645532 -0.0015428440820073517 0 0.0064702018736707929 -0.0024236013236591187 0 0.005093341421397609 -0.0023476240806057902 0 0.0059692586241645532 -0.0015428440820073517 0 0.0073281226553583738 -0.0014286832605154424 0 0.0064702018736707929 -0.0024236013236591187 0 0.002953397950305 -6.5161788633875524e-05 0 0.0027433483691025914 -3.670499663584266e-05 0 0.0029634415889185756 -0.0006378543623630406 0 0.004258261404217977 -0.00027755476471360939 0 0.0052061052048668075 -0.0010468907683413723 0 0.0059692586241645532 -0.0015428440820073517 0 0.0056918214411942674 -0.00041408512790247926 0 0.0073281226553583738 -0.0014286832605154424 0 0.002953397950305 -6.5161788633875524e-05 0 0.0029634415889185756 -0.0006378543623630406 0 0.0037484962609922834 -0.00057499213010440053 0 0.0025612007558639877 -0.00055677667243590246 0 0.0033329243984163617 -0.001455529963030643 0 0.0025242273430331071 -0.00085294682061471544 0 0.0020392282398628953 -0.00094163710320175427 0 0.0027952400690799163 -0.0022645262463024006 0 0.0052061052048668075 -0.0010468907683413723 0 0.0061131270409957514 -0.0022511720801391371 0 0.0073281226553583738 -0.0014286832605154424 0 0.0076245605952012874 -0.0025417939443290521 0 0.0064702018736707929 -0.0024236013236591187 0 0.0073281226553583738 -0.0014286832605154424 0 0.0087215632084173874 -0.0025075019044070047 0 0.0076245605952012874 -0.0025417939443290521 0 0.0033329243984163617 -0.001455529963030643 0 0.0039289264625058211 -0.002555405638706802 0 0.0029634415889185756 -0.0006378543623630406 0 0.0037484962609922834 -0.00057499213010440053 0 0.0040327909773253236 -0.0017906257405619968 0 0.0027952400690799163 -0.0022645262463024006 0 0.0038542168134552738 -0.0024933749029934348 0 0.0037887750114428101 -0.0035109130047572307 0 0.0037484962609922834 -0.00057499213010440053 0 0.004771474916519235 -0.0016117534880565696 0 0.0040327909773253236 -0.0017906257405619968 0 0.0032274602731236206 -0.0010806100106616008 0 0.0027952400690799163 -0.0022645262463024006 0 0.0037769032768349641 -0.0017511759300040868 0 0.0032274602731236206 -0.0010806100106616008 0 0.0025242273430331071 -0.00085294682061471544 0 0.0027952400690799163 -0.0022645262463024006 0 0.0027952400690799163 -0.0022645262463024006 0 0.0037769032768349641 -0.0017511759300040868 0 0.0038542168134552738 -0.0024933749029934348 0 0.0026363457654789493 -0.00022842650608073653 0 0.003029634831200871 0.00064100615229130517 0 0.0039556770962489727 -0.00034652481971580464 0 -0.0035774849793391941 -0.00095129840294003382 0 0.002089621727031843 -0.00049841102563162089 0 0.0026363457654789493 -0.00022842650608073653 0 0.0022260929878736104 0.00046014547082194964 0 0.003029634831200871 0.00064100615229130517 0 0.0026363457654789493 -0.00022842650608073653 0 0.0019729694494907287 -0.00016069542545929245 0 0.0022260929878736104 0.00046014547082194964 0 -0.0094762055804047379 -0.00020047529414733527 0 -0.0080834415734783085 0.00049409294448955906 0 -0.011034042355447237 -0.00018778681409839374 0 -0.010881610167058551 -0.00034979445204753884 0 -0.011224151971179796 -0.00033939010500775446 0 -0.0056239042175392643 0.00039332702175170619 0 -0.005941160178134554 0.00024591423071963872 0 -0.0052742548933524033 0.00025821335662576844 0 -0.0010892708369325697 0.00051818189178639553 0 -0.0035774849793391941 -0.00095129840294003382 0 -0.013578533695657449 -0.00097432426380997695 0 -0.0094762055804047379 -0.00020047529414733527 0 -0.0035774849793391941 -0.00095129840294003382 0 -0.0094574406401709745 -0.0011901527158862096 0 -0.0056239042175392643 0.00039332702175170619 0 -0.005941160178134554 0.00024591423071963872 0 -0.0059975389225056476 0.00031402376337798504 0 -0.0062400923907785762 -0.0012128221511054846 0 -0.0066440220838170161 -0.00073607383656009307 0 -0.0092011487270136933 -0.0011979202045543341 0 -0.015829420060404973 -0.0022446494265575463 0 -0.01558856778487698 -0.0021520373689510063 0 -0.0153105545100371 -0.0023102739573660895 0 -0.0094762055804047379 -0.00020047529414733527 0 -0.0094574406401709745 -0.0011901527158862096 0 -0.015817601172081919 -0.0019983897044444652 0 -0.015997878290599305 -0.0019643843795863081 0 -0.015829420060404973 -0.0022446494265575463 0 -0.015817601172081919 -0.0019983897044444652 0 -0.015829420060404973 -0.0022446494265575463 0 -0.01558856778487698 -0.0021520373689510063 0 -0.0094762055804047379 -0.00020047529414733527 0 -0.0035774849793391941 -0.00095129840294003382 0 -0.01546507282614787 -0.0020011901958757452 0 -0.01558856778487698 -0.0021520373689510063 0 -0.015289769595522225 -0.0021595242306271796 0 -0.01558856778487698 -0.0021520373689510063 0 -0.015289769595522225 -0.0021595242306271796 0 -0.0153105545100371 -0.0023102739573660895 0 -0.01546507282614787 -0.0020011901958757452 0 -0.015289769595522225 -0.0021595242306271796 0 -0.015111261199673156 -0.002090983565702783 0 -0.014147140635018523 -0.0023397350091838012 0 -0.0071831864905601804 -0.00075483142455298811 0 -0.011106061175478988 -0.0020989838623934626 0 -0.010971323940675943 -0.0016489975398566383 0 -0.011308413868533493 -0.001759429948143845 0 -0.014147140635018523 -0.0023397350091838012 0 -0.011324070284976657 -0.001528430123958809 0 -0.015289769595522225 -0.0021595242306271796 0 -0.015157237880813943 -0.0023124397190916906 0 -0.0153105545100371 -0.0023102739573660895 0 -0.015289769595522225 -0.0021595242306271796 0 -0.015111261199673156 -0.002090983565702783 0 -0.015157237880813943 -0.0023124397190916906 0 -0.0071831864905601804 -0.00075483142455298811 0 -0.0094574406401709745 -0.0011901527158862096 0 -0.0071831864905601804 -0.00075483142455298811 0 -0.011324070284976657 -0.001528430123958809 0 -0.0071831864905601804 -0.00075483142455298811 0 -0.0073817492718567653 -0.0013702529157598514 0 -0.016727340992612427 -0.00262989050757295 0 -0.016701481634012381 -0.0026452671833015104 0 -0.016361124535023999 -0.0024928650032428681 0 -0.018489564158879375 -0.0029491369359138011 0 -0.011324070284976657 -0.001528430123958809 0 0.003201488419233769 -0.00044470656667492113 0 0.0041991804360419797 -0.00014335331526354913 0 0.0038947318203380373 -5.2317075802248261e-05 0 -0.0025809912192440053 -0.0021665971879401133 0 -0.0073817492718567653 -0.0013702529157598514 0 -0.016701481634012381 -0.0026452671833015104 0 -0.016331044524025874 -0.0025339725733950916 0 -0.016361124535023999 -0.0024928650032428681 0 -0.016701481634012381 -0.0026452671833015104 0 -0.017007134026252195 -0.0026416512476043611 0 -0.01705639409759287 -0.0027457174131690883 0 -0.016947132973265729 -0.0025867628078484022 0 -0.016701481634012381 -0.0026452671833015104 0 -0.017007134026252195 -0.0026416512476043611 0 -0.016947132973265729 -0.0025867628078484022 0 -0.01710352850440661 -0.0026337068665512587 0 -0.017007134026252195 -0.0026416512476043611 0 -0.01710352850440661 -0.0026337068665512587 0 -0.017007134026252195 -0.0026416512476043611 0 -0.01705639409759287 -0.0027457174131690883 0 0.0041991804360419797 -0.00014335331526354913 0 0.0040154557962428167 -2.872245234035483e-05 0 0.0038947318203380373 -5.2317075802248261e-05 0 0.003634960312004114 0.00015075513039868239 0 0.0038958268585146793 0.00013901042966271213 0 0.0040154557962428167 -2.872245234035483e-05 0 -0.0077775201577843581 -0.00032139606061033386 0 -0.0094690555121460587 -0.000881801121322352 0 -0.0098281379255116923 -0.00029979417308176391 0 -0.011324070284976657 -0.001528430123958809 0 -0.0073817492718567653 -0.0013702529157598514 0 -0.0073817492718567653 -0.0013702529157598514 0 -0.0038827761633154854 -0.0026965118119199392 0 0.003634960312004114 0.00015075513039868239 0 0.0040154557962428167 -2.872245234035483e-05 0 0.0038962735325607824 -0.00039927384247783273 0 0.0040154557962428167 -2.872245234035483e-05 0 0.0038947318203380373 -5.2317075802248261e-05 0 0.0041535521486284407 -0.00028480340177522922 0 0.0046097851503951823 -0.00045774802787248249 0 0.0038947318203380373 -5.2317075802248261e-05 0 0.0041535521486284407 -0.00028480340177522922 0 0.0040154557962428167 -2.872245234035483e-05 0 0.0041535521486284407 -0.00028480340177522922 0 0.0038962735325607824 -0.00039927384247783273 0 0.0041535521486284407 -0.00028480340177522922 0 0.0038962735325607824 -0.00039927384247783273 0 0.0043308794998313188 -0.00068442575910999579 0 0.0046097851503951823 -0.00045774802787248249 0 0.0041535521486284407 -0.00028480340177522922 0 0.0043308794998313188 -0.00068442575910999579 0 0.003634960312004114 0.00015075513039868239 0 0.0038962735325607824 -0.00039927384247783273 0 0.0034188541557952212 -0.00056383333575959289 0 -0.0071831864905601804 -0.00075483142455298811 0 0.002089621727031843 -0.00049841102563162089 0 -0.0032803609311959623 -0.0010072031563052399 0 -0.003731109988140544 -0.0010855911448858085 0 -0.0036651486672348659 -0.0005117176699796634 0 -0.0038666774824721219 -0.001083863439518568 0 -0.003731109988140544 -0.0010855911448858085 0 -0.0036651486672348659 -0.0005117176699796634 0 0.002089621727031843 -0.00049841102563162089 0 0.0046921818672835637 -0.0014451379587046191 0 0.0038962735325607824 -0.00039927384247783273 0 0.0034188541557952212 -0.00056383333575959289 0 0.00406576433041635 -0.0013416575450955551 0 0.0040333688614556957 -0.00032904161746673488 0 0.0049064579111604044 -0.0013567775723120068 0 0.0037266498043894728 -0.0015012507838649805 0 0.002089621727031843 -0.00049841102563162089 0 0.0039715054173040179 -0.0012169480240634652 0 0.0038962735325607824 -0.00039927384247783273 0 0.0043308794998313188 -0.00068442575910999579 0 0.00406576433041635 -0.0013416575450955551 0 0.0046097851503951823 -0.00045774802787248249 0 0.0049793790150156154 -0.0011162634671499634 0 0.0043308794998313188 -0.00068442575910999579 0 0.0049793790150156154 -0.0011162634671499634 0 0.0043308794998313188 -0.00068442575910999579 0 0.00406576433041635 -0.0013416575450955551 0 0.0049793790150156154 -0.0011162634671499634 0 0.00406576433041635 -0.0013416575450955551 0 0.005093341421397609 -0.0023476240806057902 0 0.0046921818672835637 -0.0014451379587046191 0 0.0053614526813936169 -0.002320371923349425 0 0.0049064579111604044 -0.0013567775723120068 0 0.0049536729667266945 -0.0022680536774139404 0 0.0056750973389153954 -0.0023721173437838655 0 0.0049064579111604044 -0.0013567775723120068 0 0.0049536729667266945 -0.0022680536774139404 0 0.0043974742380885352 -0.0019227030071906415 0 0.0049064579111604044 -0.0013567775723120068 0 0.0037266498043894728 -0.0015012507838649805 0 0.0043974742380885352 -0.0019227030071906415 0 0.0049536729667266945 -0.0022680536774139404 0 0.0043974742380885352 -0.0019227030071906415 0 0.0044285523566097188 -0.0023717406804366738 0 0.0043974742380885352 -0.0019227030071906415 0 0.0039374429520165032 -0.0021845769970599768 0 0.0044285523566097188 -0.0023717406804366738 0 0.0037266498043894728 -0.0015012507838649805 0 0.0043974742380885352 -0.0019227030071906415 0 0.0039374429520165032 -0.0021845769970599768 0 0.0037266498043894728 -0.0015012507838649805 0 0.0039374429520165032 -0.0021845769970599768 0 0.0032835395506709913 -0.0021241739471370914 0 0.0039374429520165032 -0.0021845769970599768 0 0.0032835395506709913 -0.0021241739471370914 0 0.0036940920609115002 -0.0025649182469247175 0 0.0032835395506709913 -0.0021241739471370914 0 0.003065978343034364 -0.0015426942893511351 0 0.0023456758720741462 -0.0023283332046255927 0 0.0037266498043894728 -0.0015012507838649805 0 0.0032835395506709913 -0.0021241739471370914 0 0.003065978343034364 -0.0015426942893511351 0 0.0026363457654789493 -0.00022842650608073653 0 0.0039556770962489727 -0.00034652481971580464 0 0.0031740922234100703 -0.00092107845313691144 0 0.0026363457654789493 -0.00022842650608073653 0 0.0031740922234100703 -0.00092107845313691144 0 0.0024918722508428014 -0.0012880196095204845 0 0.0039556770962489727 -0.00034652481971580464 0 0.0037266498043894728 -0.0015012507838649805 0 0.0031740922234100703 -0.00092107845313691144 0 0.0037266498043894728 -0.0015012507838649805 0 0.003065978343034364 -0.0015426942893511351 0 0.0031740922234100703 -0.00092107845313691144 0 0.003065978343034364 -0.0015426942893511351 0 0.0031740922234100703 -0.00092107845313691144 0 0.0024918722508428014 -0.0012880196095204845 0 0.0026470449862331549 -0.00020083496772081401 0 0.0023758681872473719 -0.0014753470730982691 0 0.0019729694494907287 -0.00016069542545929245 0 0.0024834129874510536 -0.0010016794237572321 0 0.0015083632897811225 -0.00068908622850460466 0 0.0026363457654789493 -0.00022842650608073653 0 0.0019729694494907287 -0.00016069542545929245 0 0.0024834129874510536 -0.0010016794237572321 0 0.0023758681872473719 -0.0014753470730982691 0 0.0065101141245692811 -0.00074689423031920686 0 0.003065978343034364 -0.0015426942893511351 0 0.0024918722508428014 -0.0012880196095204845 0 0.0023456758720741462 -0.0023283332046255927 0 0.0024834129874510536 -0.0010016794237572321 0 0.0019838878188995377 -0.001297987791906162 0 0.0023640018063307349 -0.001749089552034749 0 0.0042340969084981228 0.0003332242117313213 0 0.00024874662234008603 -0.00011617241840054357 0 -0.0011047605708782676 0.00093901209635496245 0 -0.00093982210490811202 0.00071457084909945382 0 -0.00098701495650590099 0.00054193424256349511 0 0.0019838878188995377 -0.001297987791906162 0 0.0015160798486513508 -0.0016198663274938809 0 0.0023640018063307349 -0.001749089552034749 0 0.0019838878188995377 -0.001297987791906162 0 0.0015160798486513508 -0.0016198663274938809 0 0.0015083632897811225 -0.00068908622850460466 0 0.0042340969084981228 0.0003332242117313213 0 0.0065101141245692811 -0.00074689423031920686 0 -0.0011047605708782676 0.00093901209635496245 0 -0.00050297773593573536 0.00091402473830202828 0 -0.00080785512522742469 0.00086142477995819673 0 0.006284177099703506 0.0020051026285853538 0 0.006338864189124928 0.0020123077423610759 0 0.0063169367696310425 0.0020261058380672044 0 0.0042340969084981228 0.0003332242117313213 0 0.0025563728186429541 0.001493097138456649 0 -0.00050297773593573536 0.00091402473830202828 0 -0.00080785512522742469 0.00086142477995819673 0 -0.00025111359644853164 0.00073319932334333022 0 -0.00071069952690724892 0.00083549896000195808 0 -0.00065982802747390889 0.00088415988376767604 0 -0.0011047605708782676 0.00093901209635496245 0 -0.00080785512522742469 0.00086142477995819673 0 -0.00093982210490811202 0.00071457084909945382 0 -0.00080785512522742469 0.00086142477995819673 0 -0.00093982210490811202 0.00071457084909945382 0 -0.00084064062116062253 0.00067970543513785344 0 -0.00080785512522742469 0.00086142477995819673 0 -0.00077116166128978316 0.00075300046128421458 0 -0.00084064062116062253 0.00067970543513785344 0 -0.00080785512522742469 0.00086142477995819673 0 -0.00077116166128978316 0.00075300046128421458 0 -0.00070648774282123844 0.00077724142456993598 0 -0.00077116166128978316 0.00075300046128421458 0 -0.00084064062116062253 0.00067970543513785344 0 -0.00072912798244979457 0.00068220996262634552 0 -0.00084064062116062253 0.00067970543513785344 0 -0.00079153115616841733 0.00051826690913332556 0 -0.00072912798244979457 0.00068220996262634552 0 -0.00084064062116062253 0.00067970543513785344 0 -0.00096164828102627675 0.00064491275036178929 0 -0.00079153115616841733 0.00051826690913332556 0 -0.00093982210490811202 0.00071457084909945382 0 -0.00084064062116062253 0.00067970543513785344 0 -0.00096164828102627675 0.00064491275036178929 0 -0.00093982210490811202 0.00071457084909945382 0 -0.00096164828102627675 0.00064491275036178929 0 -0.00098701495650590099 0.00054193424256349511 0 -0.0019418031843337871 0.00075047142785859833 0 -0.0010655791287250214 0.00058759104067544169 0 -0.0011906827792850772 0.0010476984620311929 0 -0.00096164828102627675 0.00064491275036178929 0 -0.00079153115616841733 0.00051826690913332556 0 -0.0010655791287250214 0.00058759104067544169 0 -0.00099150752006250216 0.00052449552443185291 0 -0.0012352209802839547 0.00062522273125168067 0 0.0024834129874510536 -0.0010016794237572321 0 0.0019838878188995377 -0.001297987791906162 0 0.0015083632897811225 -0.00068908622850460466 0 -0.00096164828102627675 0.00064491275036178929 0 -0.00098701495650590099 0.00054193424256349511 0 -0.0010655791287250214 0.00058759104067544169 0 -0.00098701495650590099 0.00054193424256349511 0 -0.0010655791287250214 0.00058759104067544169 0 -0.0011906827792850772 0.0010476984620311929 0 0.0019729694494907287 -0.00016069542545929245 0 0.0015083632897811225 -0.00068908622850460466 0 0.001488279089684833 0.00030700527456786552 0 0.0019729694494907287 -0.00016069542545929245 0 0.0022260929878736104 0.00046014547082194964 0 0.001488279089684833 0.00030700527456786552 0 0.00024874662234008603 -0.00011617241840054357 0 -0.0036203933357813762 0.00066092130263647705 0 -0.00098701495650590099 0.00054193424256349511 0 -0.00086007922755640159 0.0015203897670847052 0 -0.0011906827792850772 0.0010476984620311929 0 -0.0019418031843337871 0.00075047142785859833 0 -0.0011906827792850772 0.0010476984620311929 0 -0.0016496076060493311 0.0014615974250718313 0 -0.00086007922755640159 0.0015203897670847052 0 -0.0011906827792850772 0.0010476984620311929 0 -0.0016496076060493311 0.0014615974250718313 0 -0.0036203933357813762 0.00066092130263647705 0 -0.0050090259244973175 0.0011916572685479133 0 -0.009491560861673921 0.00074316318617050948 0 -0.0089784708043109829 0.00084582879075070761 0 -0.0093162544890376797 0.00044713902109366175 0 -0.0089784708043109829 0.00084582879075070761 0 -0.0090135778910336167 0.00031902351787793534 0 -0.0084565535618531217 0.00094260311748415215 0 -0.0089784708043109829 0.00084582879075070761 0 -0.0093162544890376797 0.00044713902109366175 0 -0.0090135778910336167 0.00031902351787793534 0 -0.0010892708369325697 0.00051818189178639553 0 -0.0036203933357813762 0.00066092130263647705 0 -0.0093162544890376797 0.00044713902109366175 0 -0.009585584087545446 0.00045279096159226231 0 -0.0096669306476017524 -0.00037896893643945851 0 -0.0056239042175392643 0.00039332702175170619 0 -0.005254053936241382 0.00046666699253033821 0 -0.0052742548933524033 0.00025821335662576844 0 -0.0036203933357813762 0.00066092130263647705 0 -0.0080834415734783085 0.00049409294448955906 0 -0.009491560861673921 0.00074316318617050948 0 -0.0093162544890376797 0.00044713902109366175 0 -0.0095125248566420417 0.00045673255808687826 0 -0.0091500900443142724 0.00048781241657085221 0 -0.0080834415734783085 0.00049409294448955906 0 -0.016239464948373059 0.0012945777155314688 0 -0.016055339588639545 0.0010752820429777107 0 -0.016339451944929594 0.0010357165761749553 0 -0.016239464948373059 0.0012945777155314688 0 -0.01595597632261507 0.00128666596833042 0 -0.016055339588639545 0.0010752820429777107 0 -0.01595597632261507 0.00128666596833042 0 -0.016055339588639545 0.0010752820429777107 0 -0.01585560784178432 0.0010620494006520936 0 -0.016055339588639545 0.0010752820429777107 0 -0.01585560784178432 0.0010620494006520936 0 -0.015939940276455726 0.00092464563047898953 0 -0.016055339588639545 0.0010752820429777107 0 -0.015939940276455726 0.00092464563047898953 0 -0.016058471135974636 0.00086078249999160491 0 -0.016055339588639545 0.0010752820429777107 0 -0.016218000242162654 0.00088098235139329347 0 -0.016058471135974636 0.00086078249999160491 0 -0.016055339588639545 0.0010752820429777107 0 -0.016339451944929594 0.0010357165761749553 0 -0.016218000242162654 0.00088098235139329347 0 -0.016339451944929594 0.0010357165761749553 0 -0.016594382079872037 0.00093201894513546203 0 -0.016524790017020483 0.0011783099934344482 0 -0.016339451944929594 0.0010357165761749553 0 -0.016594382079872037 0.00093201894513546203 0 -0.016413259825562528 0.00074904531558644982 0 -0.016973296822784693 0.0010036641869317982 0 -0.016524790017020483 0.0011783099934344482 0 -0.016510652133442175 0.0015259978350608164 0 -0.013499987076279857 0.00054067576950448532 0 -0.0091063341691906222 0.0009676614625736701 0 -0.016973296822784693 0.0010036641869317982 0 -0.016594382079872037 0.00093201894513546203 0 -0.016524790017020483 0.0011783099934344482 0 -0.016239464948373059 0.0012945777155314688 0 -0.016339451944929594 0.0010357165761749553 0 -0.016524790017020483 0.0011783099934344482 0 -0.016239464948373059 0.0012945777155314688 0 -0.016524790017020483 0.0011783099934344482 0 -0.016510652133442175 0.0015259978350608164 0 -0.0050090259244973175 0.0011916572685479133 0 -0.0091063341691906222 0.0009676614625736701 0 -0.0019418031843337871 0.00075047142785859833 0 -0.0016496076060493311 0.0014615974250718313 0 -0.002589671888821221 0.0013421586829001442 0 -0.00099150752006250216 0.00052449552443185291 0 -0.0040873073762856746 0.0017953105311986637 0 -0.0019418031843337871 0.00075047142785859833 0 -0.002589671888821221 0.0013421586829001442 0 -0.0028822072125170451 0.0010325000957807954 0 -0.0072587272219997914 0.0021942498029485619 0 -0.0075696549000394417 0.0018605693949731189 0 -0.008141376156804863 0.0020621118964139584 0 -0.0091063341691906222 0.0009676614625736701 0 -0.0040873073762856746 0.0017953105311986637 0 -0.0040873073762856746 0.0017953105311986637 0 -0.0097067862876292817 0.0027069847589443101 0 -0.0039901081339960599 0.0031416789418883769 0 -0.0037793619377743432 0.0030811135821538641 0 -0.0037273667522332654 0.0033289137147741619 0 -0.0091063341691906222 0.0009676614625736701 0 -0.0097067862876292817 0.0027069847589443101 0 -0.016239464948373059 0.0012945777155314688 0 -0.016510652133442175 0.0015259978350608164 0 -0.016146860638446309 0.00160512138462911 0 -0.01595597632261507 0.00128666596833042 0 -0.016146860638446309 0.00160512138462911 0 -0.015721030590468543 0.0014958889950137872 0 -0.016239464948373059 0.0012945777155314688 0 -0.01595597632261507 0.00128666596833042 0 -0.016146860638446309 0.00160512138462911 0 -0.0097067862876292817 0.0027069847589443101 0 -0.012975069955723785 0.0025422559369518241 0 -0.0037793619377743432 0.0030811135821538641 0 -0.0037273667522332654 0.0033289137147741619 0 -0.0034513801092741973 0.003338725970765016 0 -0.0035984842268557936 0.0034098343917024626 0 -0.0037273667522332654 0.0033289137147741619 0 -0.0034513801092741973 0.003338725970765016 0 -0.0035984842268557936 0.0034098343917024626 0 -0.0037273667522332654 0.0033289137147741619 0 -0.0037359759972779806 0.0033954314705974893 0 -0.0016228008817154758 0.0025530354284048346 0 -0.0013704258148363718 0.0021504747351718204 0 -0.0006275668091595771 0.00048248973139853707 0 -0.00059882109553611562 0.0005705786423924427 0 -0.000511468180698319 0.00060355414473151959 0 -0.0039901081339960599 0.0031416789418883769 0 -0.0037273667522332654 0.0033289137147741619 0 -0.0037412723701841502 0.0033979507841236881 0 -0.0040873073762856746 0.0017953105311986637 0 -0.0013704258148363718 0.0021504747351718204 0 -0.00059882109553611562 0.0005705786423924427 0 -0.000511468180698319 0.00060355414473151959 0 -0.0005865835280809235 0.00064732260572926187 0 -0.000511468180698319 0.00060355414473151959 0 -0.0005865835280809235 0.00064732260572926187 0 -0.00053367347817608469 0.00073361205156443926 0 -0.0005865835280809235 0.00064732260572926187 0 -0.00064349906963600482 0.00068925262680557728 0 -0.00053367347817608469 0.00073361205156443926 0 -0.0013704258148363718 0.0021504747351718204 0 0.0016538766043809007 0.0018326126968637977 0 -0.0035984842268557936 0.0034098343917024626 0 -0.0037359759972779806 0.0033954314705974893 0 -0.0035281385836209212 0.0035858178345223204 0 -0.0013704258148363718 0.0021504747351718204 0 0.0016605592940094325 0.0037605095801084062 0 0.00046526758869062284 0.0024715926362867675 0 0.0006878091930395525 0.0027095889773398303 0 0.0003991055058577993 0.0027844699661407069 0 -0.00079153115616841733 0.00051826690913332556 0 -0.00065763172413519754 0.00060585590012882627 0 -0.00072912798244979457 0.00068220996262634552 0 -0.00079153115616841733 0.00051826690913332556 0 -0.0006275668091595771 0.00048248973139853707 0 -0.00065763172413519754 0.00060585590012882627 0 -0.0006275668091595771 0.00048248973139853707 0 -0.00059882109553611562 0.0005705786423924427 0 -0.00065763172413519754 0.00060585590012882627 0 -0.00059882109553611562 0.0005705786423924427 0 -0.0005865835280809235 0.00064732260572926187 0 -0.00065763172413519754 0.00060585590012882627 0 -0.0005865835280809235 0.00064732260572926187 0 -0.00065763172413519754 0.00060585590012882627 0 -0.00064349906963600482 0.00068925262680557728 0 -0.00065763172413519754 0.00060585590012882627 0 -0.00064349906963600482 0.00068925262680557728 0 -0.00072912798244979457 0.00068220996262634552 0 -0.00050297773593573536 0.00091402473830202828 0 -0.00025111359644853164 0.00073319932334333022 0 0.00035763492284391897 0.00085298105969655645 0 0.006338864189124928 0.0020123077423610759 0 0.0063837376199736614 0.0020174438063878686 0 0.0063709415765582965 0.0020377737665293358 0 0.0025563728186429541 0.001493097138456649 0 0.0038492339775074024 0.002931072224162628 0 -0.00077116166128978316 0.00075300046128421458 0 -0.00072912798244979457 0.00068220996262634552 0 -0.00070648774282123844 0.00077724142456993598 0 -0.00064349906963600482 0.00068925262680557728 0 -0.00072912798244979457 0.00068220996262634552 0 -0.00070648774282123844 0.00077724142456993598 0 -0.00065982802747390889 0.00088415988376767604 0 0.0016538766043809007 0.0018326126968637977 0 -0.00025111359644853164 0.00073319932334333022 0 0.00042706640838025879 0.00058139656712918051 0 0.00035763492284391897 0.00085298105969655645 0 -0.00064349906963600482 0.00068925262680557728 0 -0.00070648774282123844 0.00077724142456993598 0 -0.00053367347817608469 0.00073361205156443926 0 0.0016605592940094325 0.0037605095801084062 0 0.0016538766043809007 0.0018326126968637977 0 0.0063477430498335543 0.0047359371363434564 0 0.0062958710705748964 0.0043412778797577165 0 0.0057844923999839952 0.004829058119467153 0 0.0060710774620616305 0.0051119624039302185 0 0.0063477430498335543 0.0047359371363434564 0 0.0057844923999839952 0.004829058119467153 0 0.0063477430498335543 0.0047359371363434564 0 0.0068574083876621591 0.0044458694805978097 0 0.0062958710705748964 0.0043412778797577165 0 0.0060710774620616305 0.0051119624039302185 0 0.0063477430498335543 0.0047359371363434564 0 0.0067592979867042522 0.0048909588694791457 0 0.0063477430498335543 0.0047359371363434564 0 0.0067592979867042522 0.0048909588694791457 0 0.0068574083876621591 0.0044458694805978097 0 0.0016538766043809007 0.0018326126968637977 0 0.0038492339775074024 0.002931072224162628 0 0.0068574083876621591 0.0044458694805978097 0 0.0062958710705748964 0.0043412778797577165 0 0.0066461028130627622 0.0038693000464895223 0 0.0062958710705748964 0.0043412778797577165 0 0.0062794327437198164 0.0039694374661786271 0 0.0066461028130627622 0.0038693000464895223 0 0.0062958710705748964 0.0043412778797577165 0 0.0057749014155252382 0.004209318591127123 0 0.0062794327437198164 0.0039694374661786271 0 0.0062958710705748964 0.0043412778797577165 0 0.0057749014155252382 0.004209318591127123 0 0.0057844923999839952 0.004829058119467153 0 0.0057749014155252382 0.004209318591127123 0 0.0057844923999839952 0.004829058119467153 0 0.0053745431614000702 0.0046185863064596719 0 0.0061210009656763372 0.0052060442699632271 0 0.0057844923999839952 0.004829058119467153 0 0.0049606547106805414 0.0049941076750922653 0 0.0016605592940094325 0.0037605095801084062 0 0.0043442729517805152 0.0054757651610905138 0 0.0057844923999839952 0.004829058119467153 0 0.0049606547106805414 0.0049941076750922653 0 0.0053745431614000702 0.0046185863064596719 0 0.0049606547106805414 0.0049941076750922653 0 0.0053745431614000702 0.0046185863064596719 0 0.0051706312386989332 0.0041963176672546471 0 0.0057749014155252382 0.004209318591127123 0 0.0051706312386989332 0.0041963176672546471 0 0.005408483099512992 0.0037602760926974971 0 0.0057749014155252382 0.004209318591127123 0 0.0053745431614000702 0.0046185863064596719 0 0.0051706312386989332 0.0041963176672546471 0 0.0049606547106805414 0.0049941076750922653 0 0.0038567572171503634 0.0041730940198176029 0 0.0046490936844402987 0.003986442460021479 0 0.0038567572171503634 0.0041730940198176029 0 0.0044789638467776505 0.0057171681859856504 0 0.0028161908251139608 0.0048841028404594733 0 0.0049606547106805414 0.0049941076750922653 0 0.0038567572171503634 0.0041730940198176029 0 0.0044789638467776505 0.0057171681859856504 0 0.0049606547106805414 0.0049941076750922653 0 0.0051706312386989332 0.0041963176672546471 0 0.0046490936844402987 0.003986442460021479 0 -0.0050515823120782658 0.0048801742616874696 0 -0.0051599507620699106 0.0036474853726493526 0 -0.0030941992161011168 0.0034460576507403359 0 -0.0027727161189672767 0.0033848234730533932 0 -0.003184360206599967 0.0032411359232724889 0 -0.0030941992161011168 0.0034460576507403359 0 -0.0033140994353602631 0.003401406331948536 0 -0.003184360206599967 0.0032411359232724889 0 0.0016605592940094325 0.0037605095801084062 0 0.0015557424299189031 0.0044858174442579781 0 0.0061210009656763372 0.0052060442699632271 0 0.0049606547106805414 0.0049941076750922653 0 0.0044789638467776505 0.0057171681859856504 0 -0.0035281385836209212 0.0035858178345223204 0 -0.0030941992161011168 0.0034460576507403359 0 -0.0033140994353602631 0.003401406331948536 0 -0.0033140994353602631 0.003401406331948536 0 -0.0034513801092741973 0.003338725970765016 0 -0.003184360206599967 0.0032411359232724889 0 -0.0035281385836209212 0.0035858178345223204 0 -0.0033140994353602631 0.003401406331948536 0 -0.0034513801092741973 0.003338725970765016 0 -0.0035984842268557936 0.0034098343917024626 0 -0.0035281385836209212 0.0035858178345223204 0 -0.0034513801092741973 0.003338725970765016 0 0.0015827707826095892 0.005141306787885715 0 0.0026167852526653933 0.0036568474874900938 0 0.00041708673294119634 0.0040824861300578835 0 0.0015827707826095892 0.005141306787885715 0 0.0028161908251139608 0.0048841028404594733 0 0.0026167852526653933 0.0036568474874900938 0 0.0038567572171503634 0.0041730940198176029 0 0.0028161908251139608 0.0048841028404594733 0 0.0026167852526653933 0.0036568474874900938 0 0.0015557424299189031 0.0044858174442579781 0 -0.0050515823120782658 0.0048801742616874696 0 0.0044789638467776505 0.0057171681859856504 0 0.0028161908251139608 0.0048841028404594733 0 0.0027397599696794553 0.0061942125220157945 0 -0.0050515823120782658 0.0048801742616874696 0 -0.0077504642053811811 0.0054420068583892946 0 -0.0050515823120782658 0.0048801742616874696 0 -0.0086895441510301472 0.0048387352623022748 0 -0.010382504825860775 0.0053532279439765552 0 -0.010137921241961717 0.0053019268372523458 0 -0.010082051153151311 0.0050340729253989976 0 -0.010327212477734776 0.00534984263016692 0 -0.010063882116545096 0.0053969655943645559 0 -0.010137921241961717 0.0053019268372523458 0 0.0015827707826095892 0.005141306787885715 0 0.0028161908251139608 0.0048841028404594733 0 0.0027397599696794553 0.0061942125220157945 0 -0.0044098415047153748 0.0055748860073177604 0 -0.0050515823120782658 0.0048801742616874696 0 -0.010063882116545096 0.0053969655943645559 0 -0.009563679321208253 0.0055011307772452498 0 -0.0099045333224450811 0.0052231387358948047 0 -0.0095269778560121629 0.0061648836484699378 0 -0.010387103063617153 0.005363267575556962 0 -0.010063882116545096 0.0053969655943645559 0 -0.010063882116545096 0.0053969655943645559 0 -0.010137921241961717 0.0053019268372523458 0 -0.0099045333224450811 0.0052231387358948047 0 -0.009563679321208253 0.0055011307772452498 0 -0.0096388535696639091 0.0050150862027675078 0 -0.0099045333224450811 0.0052231387358948047 0 -0.009563679321208253 0.0055011307772452498 0 -0.0096388535696639091 0.0050150862027675078 0 -0.0089299683121579678 0.0054752920194858891 0 -0.0095269778560121629 0.0061648836484699378 0 -0.009563679321208253 0.0055011307772452498 0 -0.0089299683121579678 0.0054752920194858891 0 -0.0095269778560121629 0.0061648836484699378 0 -0.010063882116545096 0.0053969655943645559 0 -0.009563679321208253 0.0055011307772452498 0 -0.0096388535696639091 0.0050150862027675078 0 -0.0098634253710806856 0.004433583063991651 0 -0.009130063782351705 0.0045681429784855711 0 -0.0096388535696639091 0.0050150862027675078 0 -0.010082051153151311 0.0050340729253989976 0 -0.0098634253710806856 0.004433583063991651 0 -0.0096388535696639091 0.0050150862027675078 0 -0.0099045333224450811 0.0052231387358948047 0 -0.010082051153151311 0.0050340729253989976 0 -0.010137921241961717 0.0053019268372523458 0 -0.0099045333224450811 0.0052231387358948047 0 -0.010082051153151311 0.0050340729253989976 0 -0.010082051153151311 0.0050340729253989976 0 -0.0098634253710806856 0.004433583063991651 0 -0.010294663927602808 0.0046011694408615699 0 -0.010382504825860775 0.0053532279439765552 0 -0.010294663927602808 0.0046011694408615699 0 -0.011530856706744363 0.0043017530214121283 0 -0.0050515823120782658 0.0048801742616874696 0 -0.011634113248970625 0.0032460339681070344 0 -0.010382504825860775 0.0053532279439765552 0 -0.010082051153151311 0.0050340729253989976 0 -0.010294663927602808 0.0046011694408615699 0 -0.010294663927602808 0.0046011694408615699 0 -0.010448847235158217 0.0039439877683792408 0 -0.011530856706744363 0.0043017530214121283 0 -0.01086228745251477 0.0040393296419054935 0 -0.011634113248970625 0.0032460339681070344 0 -0.0098634253710806856 0.004433583063991651 0 -0.009130063782351705 0.0045681429784855711 0 -0.009527732513138305 0.0034938898533837964 0 -0.0098634253710806856 0.004433583063991651 0 -0.010448847235158217 0.0039439877683792408 0 -0.009527732513138305 0.0034938898533837964 0 -0.01086228745251477 0.0040393296419054935 0 -0.00955594750542447 0.0034994892329973707 0 -0.0098634253710806856 0.004433583063991651 0 -0.010294663927602808 0.0046011694408615699 0 -0.010448847235158217 0.0039439877683792408 0 -0.010767633813423445 0.0035978582867115701 0 -0.0093977698668112723 0.0031518794470627039 0 -0.008416493936157534 0.0040348777817884613 0 -0.0037793619377743432 0.0030811135821538641 0 -0.0034513801092741973 0.003338725970765016 0 -0.003184360206599967 0.0032411359232724889 0 -0.0097067862876292817 0.0027069847589443101 0 -0.0051599507620699106 0.0036474853726493526 0 -0.012975069955723785 0.0025422559369518241 0 -0.011634113248970625 0.0032460339681070344 0 -0.0093977698668112723 0.0031518794470627039 0 -0.008416493936157534 0.0040348777817884613 0 -0.0080160339930312585 0.0026816134173349468 0 -0.0059440178523475747 0.0045211811303532542 0 -0.008416493936157534 0.0040348777817884613 0 -0.0080160339930312585 0.0026816134173349468 0 -0.011088499238546025 0.0039369583428485637 0 -0.012465678694480306 0.004358488037796723 0 -0.012282448896355174 0.0032715176701988598 0 -0.012465678694480306 0.004358488037796723 0 -0.013288830444615219 0.0036094660422868892 0 -0.012282448896355174 0.0032715176701988598 0 -0.015060247419093675 0.0019045579690991207 0 -0.01521288010238798 0.001337940675589252 0 -0.011634113248970625 0.0032460339681070344 0 -0.015060247419093675 0.0019045579690991207 0 -0.015176439865857396 0.0013577955547206546 0 -0.015651198535605065 0.00094473093965926984 0 -0.015667560744978819 0.0011590134621790023 0 -0.015721030590468543 0.0014958889950137872 0 -0.015176439865857396 0.0013577955547206546 0 -0.015667560744978819 0.0011590134621790023 0 -0.01595597632261507 0.00128666596833042 0 -0.015721030590468543 0.0014958889950137872 0 -0.015667560744978819 0.0011590134621790023 0 -0.01595597632261507 0.00128666596833042 0 -0.015667560744978819 0.0011590134621790023 0 -0.01585560784178432 0.0010620494006520936 0 -0.015690334531968036 0.00098093702070533423 0 -0.015667560744978819 0.0011590134621790023 0 -0.01585560784178432 0.0010620494006520936 0 -0.015690334531968036 0.00098093702070533423 0 -0.01585560784178432 0.0010620494006520936 0 -0.015813174550158574 0.00089949694434742855 0 -0.015060247419093675 0.0019045579690991207 0 -0.015450520253908907 0.0015026994396503178 0 -0.01585560784178432 0.0010620494006520936 0 -0.015813174550158574 0.00089949694434742855 0 -0.015939940276455726 0.00092464563047898953 0 -0.015060247419093675 0.0019045579690991207 0 -0.01444113120983866 0.0013937686791680253 0 -0.013288830444615219 0.0036094660422868892 0 -0.012282448896355174 0.0032715176701988598 0 -0.013173405297556602 0.0022156594297709957 0 -0.015813174550158574 0.00089949694434742855 0 -0.015974058085634516 0.00070028052235547144 0 -0.015787833502769279 0.00040520150531493714 0 -0.015723744630532051 0.00097383461045887662 0 -0.015813174550158574 0.00089949694434742855 0 -0.015787833502769279 0.00040520150531493714 0 -0.015813174550158574 0.00089949694434742855 0 -0.015939940276455726 0.00092464563047898953 0 -0.015974058085634516 0.00070028052235547144 0 -0.015974058085634516 0.00070028052235547144 0 -0.015787833502769279 0.00040520150531493714 0 -0.01612129978153309 0.00040913259799002597 0 -0.012282448896355174 0.0032715176701988598 0 -0.013173405297556602 0.0022156594297709957 0 -0.011552007377367788 0.0023508555451280571 0 -0.013173405297556602 0.0022156594297709957 0 -0.011552007377367788 0.0023508555451280571 0 -0.012137404911887521 0.0013617655648848284 0 -0.013173405297556602 0.0022156594297709957 0 -0.013017178106073956 0.0008727510986017696 0 -0.012137404911887521 0.0013617655648848284 0 -0.01444113120983866 0.0013937686791680253 0 -0.014477960387645478 0.0003463573715344473 0 -0.015787833502769279 0.00040520150531493714 0 -0.015840768185412427 -0.00016791635380661974 0 -0.016169982575152966 3.3801988488379302e-05 0 -0.015787833502769279 0.00040520150531493714 0 -0.016169982575152966 3.3801988488379302e-05 0 -0.01612129978153309 0.00040913259799002597 0 -0.011088499238546025 0.0039369583428485637 0 -0.01053049336057787 0.0028128943758434599 0 -0.009527732513138305 0.0034938898533837964 0 -0.01053049336057787 0.0028128943758434599 0 -0.0093765835195780429 0.0026673978125470641 0 -0.009527732513138305 0.0034938898533837964 0 -0.011088499238546025 0.0039369583428485637 0 -0.01053049336057787 0.0028128943758434599 0 -0.011552007377367788 0.0023508555451280571 0 -0.011088499238546025 0.0039369583428485637 0 -0.012282448896355174 0.0032715176701988598 0 -0.011552007377367788 0.0023508555451280571 0 -0.011552007377367788 0.0023508555451280571 0 -0.0110995229417964 0.0016337466391221855 0 -0.012137404911887521 0.0013617655648848284 0 -0.01053049336057787 0.0028128943758434599 0 -0.011552007377367788 0.0023508555451280571 0 -0.0110995229417964 0.0016337466391221855 0 -0.01053049336057787 0.0028128943758434599 0 -0.0110995229417964 0.0016337466391221855 0 -0.010097968348046259 0.0016771851360286394 0 -0.01053049336057787 0.0028128943758434599 0 -0.010097968348046259 0.0016771851360286394 0 -0.0093765835195780429 0.0026673978125470641 0 -0.010690562494226001 0.00085372054467354073 0 -0.010689461432883648 -6.2793971677550141e-05 0 -0.0097257614540808071 0.00078100095267566254 0 -0.010097968348046259 0.0016771851360286394 0 -0.010690562494226001 0.00085372054467354073 0 -0.0097257614540808071 0.00078100095267566254 0 -0.0110995229417964 0.0016337466391221855 0 -0.010097968348046259 0.0016771851360286394 0 -0.010690562494226001 0.00085372054467354073 0 -0.0110995229417964 0.0016337466391221855 0 -0.011525474383413935 0.00082603907201374955 0 -0.012137404911887521 0.0013617655648848284 0 -0.010690562494226001 0.00085372054467354073 0 -0.011525474383413935 0.00082603907201374955 0 -0.011124339522405189 0.00039414718847205087 0 -0.0110995229417964 0.0016337466391221855 0 -0.010690562494226001 0.00085372054467354073 0 -0.011525474383413935 0.00082603907201374955 0 -0.011525474383413935 0.00082603907201374955 0 -0.011589923931882226 0.00024276739603464395 0 -0.011124339522405189 0.00039414718847205087 0 -0.011525474383413935 0.00082603907201374955 0 -0.011589923931882226 0.00024276739603464395 0 -0.012382877687963128 0.00050591738990172889 0 -0.011589923931882226 0.00024276739603464395 0 -0.01162509831813089 -0.00025952135943362346 0 -0.011988811658575068 -2.4609218879370667e-05 0 -0.011589923931882226 0.00024276739603464395 0 -0.01162509831813089 -0.00025952135943362346 0 -0.011268009826249313 -3.6313231041708303e-05 0 -0.011931454733930936 -0.00048333203867503914 0 -0.01162509831813089 -0.00025952135943362346 0 -0.011988811658575068 -2.4609218879370667e-05 0 -0.011323041474628075 -0.00047082987365520913 0 -0.011268009826249313 -3.6313231041708303e-05 0 -0.010689461432883648 -6.2793971677550141e-05 0 -0.011323041474628075 -0.00047082987365520913 0 -0.01162509831813089 -0.00025952135943362346 0 -0.011268009826249313 -3.6313231041708303e-05 0 -0.011268009826249313 -3.6313231041708303e-05 0 -0.011124339522405189 0.00039414718847205087 0 -0.010689461432883648 -6.2793971677550141e-05 0 -0.011589923931882226 0.00024276739603464395 0 -0.011268009826249313 -3.6313231041708303e-05 0 -0.011124339522405189 0.00039414718847205087 0 -0.010690562494226001 0.00085372054467354073 0 -0.011124339522405189 0.00039414718847205087 0 -0.010689461432883648 -6.2793971677550141e-05 0 -0.011323041474628075 -0.00047082987365520913 0 -0.011029921245068405 -0.00065713440016761755 0 -0.010689461432883648 -6.2793971677550141e-05 0 -0.010689461432883648 -6.2793971677550141e-05 0 -0.010131292214452296 -0.00046166317862349942 0 -0.0099063123456032704 8.2839936334375307e-05 0 -0.010689461432883648 -6.2793971677550141e-05 0 -0.0097257614540808071 0.00078100095267566254 0 -0.0099063123456032704 8.2839936334375307e-05 0 -0.015840768185412427 -0.00016791635380661974 0 -0.016139343823204134 -0.00036530143281550479 0 -0.016169982575152966 3.3801988488379302e-05 0 -0.011525474383413935 0.00082603907201374955 0 -0.012137404911887521 0.0013617655648848284 0 -0.012382877687963128 0.00050591738990172889 0 -0.013017178106073956 0.0008727510986017696 0 -0.012137404911887521 0.0013617655648848284 0 -0.012382877687963128 0.00050591738990172889 0 -0.013017178106073956 0.0008727510986017696 0 -0.012382877687963128 0.00050591738990172889 0 -0.012693795125264078 -7.5274586566160021e-05 0 -0.012382877687963128 0.00050591738990172889 0 -0.012339230802034785 5.0608164732371929e-05 0 -0.012693795125264078 -7.5274586566160021e-05 0 -0.012382877687963128 0.00050591738990172889 0 -0.012339230802034785 5.0608164732371929e-05 0 -0.011988811658575068 -2.4609218879370667e-05 0 -0.011589923931882226 0.00024276739603464395 0 -0.012382877687963128 0.00050591738990172889 0 -0.011988811658575068 -2.4609218879370667e-05 0 -0.011931454733930936 -0.00048333203867503914 0 -0.011988811658575068 -2.4609218879370667e-05 0 -0.012259338826697254 -0.00027604143755881739 0 -0.012339230802034785 5.0608164732371929e-05 0 -0.011988811658575068 -2.4609218879370667e-05 0 -0.012259338826697254 -0.00027604143755881739 0 -0.012339230802034785 5.0608164732371929e-05 0 -0.012259338826697254 -0.00027604143755881739 0 -0.012693795125264078 -7.5274586566160021e-05 0 -0.012457515453511593 -0.00041981777083948053 0 -0.012259338826697254 -0.00027604143755881739 0 -0.012693795125264078 -7.5274586566160021e-05 0 -0.013508042888127686 -0.00059474827236296235 0 -0.013163537248578282 -0.00019244508302328548 0 -0.014477960387645478 0.0003463573715344473 0 -0.013508042888127686 -0.00059474827236296235 0 -0.015840768185412427 -0.00016791635380661974 0 -0.016139343823204134 -0.00036530143281550479 0 -0.015820118162683857 -0.00089241862558523245 0 -0.012457515453511593 -0.00041981777083948053 0 -0.012740488640013673 -0.00034019934275120444 0 -0.012693795125264078 -7.5274586566160021e-05 0 -0.013017178106073956 0.0008727510986017696 0 -0.01281220937347604 -0.00038495906608623814 0 -0.012693795125264078 -7.5274586566160021e-05 0 -0.016139343823204134 -0.00036530143281550479 0 -0.015820118162683857 -0.00089241862558523245 0 -0.016378591770495499 -0.00067660168150585846 0 -0.01641313732259353 -0.00066708007616110337 0 -0.016806307568881903 -0.00046730150058711906 0 -0.016378591770495499 -0.00067660168150585846 0 -0.016750587760920553 -0.00065343035321828013 0 -0.017166768225666131 -0.00057797707212977245 0 -0.016990532647499685 -0.00088577148233938332 0 -0.016750587760920553 -0.00065343035321828013 0 -0.017103585248633209 -0.00071138877974831266 0 -0.016378591770495499 -0.00067660168150585846 0 -0.016365123936497843 -0.0002509374089348111 0 -0.016605278685499346 -0.00024095759716523756 0 -0.016035920235579874 -0.0014054534296773624 0 -0.016378591770495499 -0.00067660168150585846 0 -0.016750587760920553 -0.00065343035321828013 0 -0.016139343823204134 -0.00036530143281550479 0 -0.016378591770495499 -0.00067660168150585846 0 -0.016365123936497843 -0.0002509374089348111 0 -0.016139343823204134 -0.00036530143281550479 0 -0.016365123936497843 -0.0002509374089348111 0 -0.016169982575152966 3.3801988488379302e-05 0 -0.016365123936497843 -0.0002509374089348111 0 -0.016469220631893107 -3.4326740776935205e-05 0 -0.016605278685499346 -0.00024095759716523756 0 -0.016365123936497843 -0.0002509374089348111 0 -0.016469220631893107 -3.4326740776935205e-05 0 -0.016169982575152966 3.3801988488379302e-05 0 -0.017166768225666131 -0.00057797707212977245 0 -0.017156316328867296 -0.00071543222966182927 0 -0.017139097088673512 -0.00092355384913339546 0 -0.016605278685499346 -0.00024095759716523756 0 -0.016967356121445218 4.7245704397282743e-05 0 -0.016671204662869539 8.7725782377748312e-05 0 -0.016806307568881903 -0.00046730150058711906 0 -0.017230219174978158 -0.00035918531795638554 0 -0.016469220631893107 -3.4326740776935205e-05 0 -0.016605278685499346 -0.00024095759716523756 0 -0.016671204662869539 8.7725782377748312e-05 0 -0.017166768225666131 -0.00057797707212977245 0 -0.017103585248633209 -0.00071138877974831266 0 -0.017156316328867296 -0.00071543222966182927 0 -0.017103585248633209 -0.00071138877974831266 0 -0.017178898388547865 -0.00073500278088764665 0 -0.017156316328867296 -0.00071543222966182927 0 -0.016750587760920553 -0.00065343035321828013 0 -0.017166768225666131 -0.00057797707212977245 0 -0.017103585248633209 -0.00071138877974831266 0 -0.017050129890215999 -0.00059035678701262423 0 -0.017178898388547865 -0.00073500278088764665 0 -0.017093010856526258 -0.00069919668374145703 0 -0.017093010856526258 -0.00069919668374145703 0 -0.017156316328867296 -0.00071543222966182927 0 -0.017027168318452458 -0.00076967131628159009 0 -0.017178898388547865 -0.00073500278088764665 0 -0.017093010856526258 -0.00069919668374145703 0 -0.017156316328867296 -0.00071543222966182927 0 -0.017050129890215999 -0.00059035678701262423 0 -0.01638307825852894 -0.00059331692572462508 0 -0.016835012233924123 -0.0006715065469572398 0 -0.017376696628652894 -0.00084691197281427065 0 -0.017622195704833938 -0.0013767734963211552 0 -0.017050129890215999 -0.00059035678701262423 0 -0.017093010856526258 -0.00069919668374145703 0 -0.016835012233924123 -0.0006715065469572398 0 -0.017093010856526258 -0.00069919668374145703 0 -0.016835012233924123 -0.0006715065469572398 0 -0.017027168318452458 -0.00076967131628159009 0 -0.01659218596132506 -0.00072268975614957545 0 -0.016835012233924123 -0.0006715065469572398 0 -0.016682199494309116 -0.00083939137908459194 0 -0.016835012233924123 -0.0006715065469572398 0 -0.016682199494309116 -0.00083939137908459194 0 -0.016890487283346026 -0.000881798958578994 0 -0.016890487283346026 -0.000881798958578994 0 -0.017027168318452458 -0.00076967131628159009 0 -0.017040543009857568 -0.00086415162635462134 0 -0.016835012233924123 -0.0006715065469572398 0 -0.016890487283346026 -0.000881798958578994 0 -0.017027168318452458 -0.00076967131628159009 0 -0.016890487283346026 -0.000881798958578994 0 -0.016829434197074646 -0.0010182947504799487 0 -0.016950405359362541 -0.0010307737837217342 0 -0.016890487283346026 -0.000881798958578994 0 -0.017040543009857568 -0.00086415162635462134 0 -0.016950405359362541 -0.0010307737837217342 0 -0.016682199494309116 -0.00083939137908459194 0 -0.016890487283346026 -0.000881798958578994 0 -0.016703899241004353 -0.00097909497255279547 0 -0.016890487283346026 -0.000881798958578994 0 -0.016829434197074646 -0.0010182947504799487 0 -0.016703899241004353 -0.00097909497255279547 0 -0.016829434197074646 -0.0010182947504799487 0 -0.016703899241004353 -0.00097909497255279547 0 -0.016714449457729031 -0.0011155726713483604 0 -0.016561408844848802 -0.0010307793388817305 0 -0.016703899241004353 -0.00097909497255279547 0 -0.016714449457729031 -0.0011155726713483604 0 -0.017156316328867296 -0.00071543222966182927 0 -0.017027168318452458 -0.00076967131628159009 0 -0.017040543009857568 -0.00086415162635462134 0 -0.017040543009857568 -0.00086415162635462134 0 -0.017139097088673512 -0.00092355384913339546 0 -0.016950405359362541 -0.0010307737837217342 0 -0.017156316328867296 -0.00071543222966182927 0 -0.017040543009857568 -0.00086415162635462134 0 -0.017139097088673512 -0.00092355384913339546 0 -0.017230219174978158 -0.00035918531795638554 0 -0.015928544531876272 -0.00045922352794448276 0 -0.016967356121445218 4.7245704397282743e-05 0 -0.016834774907598118 0.00020589156671314937 0 -0.017036965692204486 0.00040643307440568668 0 -0.016967356121445218 4.7245704397282743e-05 0 -0.017036965692204486 0.00040643307440568668 0 -0.017379502935925415 0.00032387675375047156 0 -0.016834774907598118 0.00020589156671314937 0 -0.017036965692204486 0.00040643307440568668 0 -0.016712377637974927 0.00037439246751597323 0 -0.017139097088673512 -0.00092355384913339546 0 -0.016950405359362541 -0.0010307737837217342 0 -0.016854947880240962 -0.0012125873268227665 0 -0.01670576963822229 -0.0012196940410962064 0 -0.016714449457729031 -0.0011155726713483604 0 -0.016754815736102185 -0.0011988636948098163 0 -0.016642524873013306 -0.0012040145067993935 0 -0.01670576963822229 -0.0012196940410962064 0 -0.016714449457729031 -0.0011155726713483604 0 -0.016642524873013306 -0.0012040145067993935 0 -0.01670576963822229 -0.0012196940410962064 0 -0.016708053494185308 -0.0012871790866581102 0 -0.01670576963822229 -0.0012196940410962064 0 -0.016754815736102185 -0.0011988636948098163 0 -0.016747041613876291 -0.001255887211184427 0 -0.016829434197074646 -0.0010182947504799487 0 -0.016714449457729031 -0.0011155726713483604 0 -0.016828604108695688 -0.0011371985643798604 0 -0.016714449457729031 -0.0011155726713483604 0 -0.016828604108695688 -0.0011371985643798604 0 -0.016754815736102185 -0.0011988636948098163 0 -0.016167364803921717 -0.00097701605900195917 0 -0.016042077839820749 -0.00078550550507230108 0 -0.016828604108695688 -0.0011371985643798604 0 -0.016789163870147568 -0.0012316264693408717 0 -0.01683777167810924 -0.0012530793158408949 0 -0.016828604108695688 -0.0011371985643798604 0 -0.016754815736102185 -0.0011988636948098163 0 -0.016789163870147568 -0.0012316264693408717 0 -0.016754815736102185 -0.0011988636948098163 0 -0.016789163870147568 -0.0012316264693408717 0 -0.016747041613876291 -0.001255887211184427 0 -0.016950405359362541 -0.0010307737837217342 0 -0.016850429273236316 -0.0011757459351246003 0 -0.016854947880240962 -0.0012125873268227665 0 -0.016615009869254408 -0.0008260454405002273 0 -0.016042077839820749 -0.00078550550507230108 0 -0.016828604108695688 -0.0011371985643798604 0 -0.016950405359362541 -0.0010307737837217342 0 -0.016835904507459129 -0.0012381410349197714 0 -0.016829434197074646 -0.0010182947504799487 0 -0.016828604108695688 -0.0011371985643798604 0 -0.016950405359362541 -0.0010307737837217342 0 -0.017036965692204486 0.00040643307440568668 0 -0.017379502935925415 0.00032387675375047156 0 -0.017370099537748998 0.00052974872898235107 0 -0.015928544531876272 -0.00045922352794448276 0 -0.013192871993515844 -0.00018070917886787595 0 -0.014499667071518139 -0.0010395049905842599 0 -0.014817560362142247 -0.00083926713301152127 0 -0.014452730920854275 -0.00027317687792892268 0 -0.016789163870147568 -0.0012316264693408717 0 -0.01683777167810924 -0.0012530793158408949 0 -0.016744782398179371 -0.0013084428201761891 0 -0.016042077839820749 -0.00078550550507230108 0 -0.01512382710827636 -0.0010575350613873295 0 -0.015917384394847321 -0.00045652036790445422 0 -0.015929684528660518 -0.0007079407141531342 0 -0.015446480517688932 -0.0010098891361389295 0 -0.01683777167810924 -0.0012530793158408949 0 -0.01675762154695238 -0.0013409883881088085 0 -0.016744782398179371 -0.0013084428201761891 0 -0.016042077839820749 -0.00078550550507230108 0 -0.015928544531876272 -0.00045922352794448276 0 -0.016789163870147568 -0.0012316264693408717 0 -0.016744782398179371 -0.0013084428201761891 0 -0.016747041613876291 -0.001255887211184427 0 -0.015928544531876272 -0.00045922352794448276 0 -0.01512382710827636 -0.0010575350613873295 0 -0.01512382710827636 -0.0010575350613873295 0 -0.013192871993515844 -0.00018070917886787595 0 -0.01675762154695238 -0.0013409883881088085 0 -0.016744782398179371 -0.0013084428201761891 0 -0.016708053494185308 -0.0012871790866581102 0 -0.01512382710827636 -0.0010575350613873295 0 -0.016115231668370471 -0.0014450972721663103 0 -0.01670576963822229 -0.0012196940410962064 0 -0.016747041613876291 -0.001255887211184427 0 -0.016708053494185308 -0.0012871790866581102 0 -0.016744782398179371 -0.0013084428201761891 0 -0.016747041613876291 -0.001255887211184427 0 -0.016708053494185308 -0.0012871790866581102 0 -0.011034042355447237 -0.00018778681409839374 0 -0.011203893391641774 -1.8273575760355919e-05 0 -0.011240669401979557 -9.0123324657158204e-05 0 -0.011034042355447237 -0.00018778681409839374 0 -0.011224151971179796 -0.00033939010500775446 0 -0.011240669401979557 -9.0123324657158204e-05 0 -0.0080834415734783085 0.00049409294448955906 0 -0.013192871993515844 -0.00018070917886787595 0 -0.013499987076279857 0.00054067576950448532 0 -0.013192871993515844 -0.00018070917886787595 0 -0.016973296822784693 0.0010036641869317982 0 -0.017036965692204486 0.00040643307440568668 0 -0.016739481623474817 0.00065090552828936919 0 -0.0093162544890376797 0.00044713902109366175 0 -0.0090135778910336167 0.00031902351787793534 0 -0.0096669306476017524 -0.00037896893643945851 0 -0.016973296822784693 0.0010036641869317982 0 -0.017036965692204486 0.00040643307440568668 0 -0.017370099537748998 0.00052974872898235107 0 -0.017036965692204486 0.00040643307440568668 0 -0.016739481623474817 0.00065090552828936919 0 -0.016712377637974927 0.00037439246751597323 0 -0.016973296822784693 0.0010036641869317982 0 -0.016594382079872037 0.00093201894513546203 0 -0.016739481623474817 0.00065090552828936919 0 -0.016739481623474817 0.00065090552828936919 0 -0.016500551488106967 0.00049590044730200378 0 -0.016712377637974927 0.00037439246751597323 0 -0.016739481623474817 0.00065090552828936919 0 -0.016500551488106967 0.00049590044730200378 0 -0.016413259825562528 0.00074904531558644982 0 -0.016594382079872037 0.00093201894513546203 0 -0.016739481623474817 0.00065090552828936919 0 -0.016413259825562528 0.00074904531558644982 0 -0.016413259825562528 0.00074904531558644982 0 -0.016218000242162654 0.00088098235139329347 0 -0.016161638297178097 0.00070534467150575541 0 -0.016339451944929594 0.0010357165761749553 0 -0.016413259825562528 0.00074904531558644982 0 -0.016218000242162654 0.00088098235139329347 0 -0.015939940276455726 0.00092464563047898953 0 -0.015974058085634516 0.00070028052235547144 0 -0.016058471135974636 0.00086078249999160491 0 -0.016218000242162654 0.00088098235139329347 0 -0.016058471135974636 0.00086078249999160491 0 -0.016161638297178097 0.00070534467150575541 0 -0.015974058085634516 0.00070028052235547144 0 -0.016058471135974636 0.00086078249999160491 0 -0.016161638297178097 0.00070534467150575541 0 -0.016161638297178097 0.00070534467150575541 0 -0.016305939903390874 0.00052025956217444135 0 -0.01612129978153309 0.00040913259799002597 0 -0.015974058085634516 0.00070028052235547144 0 -0.016161638297178097 0.00070534467150575541 0 -0.01612129978153309 0.00040913259799002597 0 -0.016413259825562528 0.00074904531558644982 0 -0.016161638297178097 0.00070534467150575541 0 -0.016305939903390874 0.00052025956217444135 0 -0.016500551488106967 0.00049590044730200378 0 -0.016413259825562528 0.00074904531558644982 0 -0.016305939903390874 0.00052025956217444135 0 -0.016305939903390874 0.00052025956217444135 0 -0.01642124453490865 0.00026421585790012387 0 -0.01612129978153309 0.00040913259799002597 0 -0.016500551488106967 0.00049590044730200378 0 -0.016305939903390874 0.00052025956217444135 0 -0.01642124453490865 0.00026421585790012387 0 -0.016169982575152966 3.3801988488379302e-05 0 -0.01642124453490865 0.00026421585790012387 0 -0.01612129978153309 0.00040913259799002597 0 -0.016469220631893107 -3.4326740776935205e-05 0 -0.016169982575152966 3.3801988488379302e-05 0 -0.01642124453490865 0.00026421585790012387 0 -0.01642124453490865 0.00026421585790012387 0 -0.016671204662869539 8.7725782377748312e-05 0 -0.016712377637974927 0.00037439246751597323 0 -0.016469220631893107 -3.4326740776935205e-05 0 -0.01642124453490865 0.00026421585790012387 0 -0.016671204662869539 8.7725782377748312e-05 0 -0.016834774907598118 0.00020589156671314937 0 -0.016671204662869539 8.7725782377748312e-05 0 -0.016712377637974927 0.00037439246751597323 0 -0.016967356121445218 4.7245704397282743e-05 0 -0.016834774907598118 0.00020589156671314937 0 -0.016671204662869539 8.7725782377748312e-05 0 -0.016500551488106967 0.00049590044730200378 0 -0.01642124453490865 0.00026421585790012387 0 -0.016712377637974927 0.00037439246751597323 0 0.0065134917600043508 -0.00012396305340568254 0 0.0068123294958601609 -0.00011459717348088658 0 0.0045183125824201165 -0.00042354937062910413 0 0.0065134917600043508 -0.00012396305340568254 0 0.0083693089404256599 6.0881722359092735e-07 0 0.006358478617368428 -1.5939895351200598e-07 0 0.0065134917600043508 -0.00012396305340568254 0 0.0083693089404256599 6.0881722359092735e-07 0 0.0082196376408978297 -0.00017563831611797903 0 0.0065134917600043508 -0.00012396305340568254 0 0.0068123294958601609 -0.00011459717348088658 0 0.0082196376408978297 -0.00017563831611797903 0 0.0047225986333149558 -0.0021691752977727719 0 0.0034574221581313083 -0.0020755230597842593 0 0.0045183125824201165 -0.00042354937062910413 0 0.0034574221581313083 -0.0020755230597842593 0 0.0045183125824201165 -0.00042354937062910413 0 0.0027078954833479755 -0.00076238179743701531 0 0.0053608653093992886 -0.0012739978104644499 0 0.0047590710824985229 -0.00023967148035554915 0 0.0045183125824201165 -0.00042354937062910413 0 0.0036819762456964237 0.00016012540405603969 0 0.0048072638829555793 7.704688425105742e-05 0 0.0045183125824201165 -0.00042354937062910413 0 0.0036819762456964237 0.00016012540405603969 0 0.0027078954833479755 -0.00076238179743701531 0 0.002612063304481777 0.00020079320281937273 0 0.0036819762456964237 0.00016012540405603969 0 0.0027078954833479755 -0.00076238179743701531 0 0.002612063304481777 0.00020079320281937273 0 0.0036819762456964237 0.00016012540405603969 0 0.0027895108024923831 0.00044266272826764744 0 0.0036819762456964237 0.00016012540405603969 0 0.0048072638829555793 7.704688425105742e-05 0 0.0032989968977269685 0.00032214221598141605 0 0.0048072638829555793 7.704688425105742e-05 0 0.004348676804325091 4.8829997048268315e-07 0 0.0032989968977269685 0.00032214221598141605 0 0.0065134917600043508 -0.00012396305340568254 0 0.0045183125824201165 -0.00042354937062910413 0 0.0048072638829555793 7.704688425105742e-05 0 0.0065134917600043508 -0.00012396305340568254 0 0.0048072638829555793 7.704688425105742e-05 0 0.006358478617368428 -1.5939895351200598e-07 0 0.0048072638829555793 7.704688425105742e-05 0 0.006358478617368428 -1.5939895351200598e-07 0 0.004348676804325091 4.8829997048268315e-07 0 0.004348676804325091 4.8829997048268315e-07 0 0.0032989968977269685 0.00032214221598141605 0 0.0025109070727241138 0.0002648831764953274 0 0.0025109070727241138 0.0002648831764953274 0 0.0016962119288443792 0.00033740174703822574 0 0.0022876720646033224 0.00043737377223569815 0 0.0032989968977269685 0.00032214221598141605 0 0.0025109070727241138 0.0002648831764953274 0 0.0022876720646033224 0.00043737377223569815 0 0.004348676804325091 4.8829997048268315e-07 0 0.0025109070727241138 0.0002648831764953274 0 0.0023384612084163372 4.4120845633844083e-07 0 0.0023384612084163372 4.4120845633844083e-07 0 0.0011134600924106964 0.00020263926611117455 0 0.00032839954223820502 3.5384805300758861e-07 0 0.0025109070727241138 0.0002648831764953274 0 0.0023384612084163372 4.4120845633844083e-07 0 0.0011134600924106964 0.00020263926611117455 0 0.0016962119288443792 0.00033740174703822574 0 0.0011134600924106964 0.00020263926611117455 0 0.0010723686185009126 0.00028797133911445259 0 0.0025109070727241138 0.0002648831764953274 0 0.0016962119288443792 0.00033740174703822574 0 0.0011134600924106964 0.00020263926611117455 0 0.0011134600924106964 0.00020263926611117455 0 0.00043742964773234739 0.00024022396299360437 0 0.0010723686185009126 0.00028797133911445259 0 -0.00023999602240508329 0.00015431143750442984 0 0.0011134600924106964 0.00020263926611117455 0 0.00043742964773234739 0.00024022396299360437 0 -0.00023999602240508329 0.00015431143750442984 0 0.0011134600924106964 0.00020263926611117455 0 0.00032839954223820502 3.5384805300758861e-07 0 0.0019844615922294572 0.0024100360734197017 0 0.0018584310545322555 0.0020607681001758283 0 0.0020964225280303986 0.0016654813264577685 0 0.0019720686464466341 0.0017619329891975933 0 0.0022048508064913827 0.0011085645663310611 0 0.0020904459691710475 0.00081732500787098645 0 0.0019742198906013337 0.0020918250384236079 0 0.0021054834369631176 0.0012564465233326834 0 0.00099573519955318299 0.0011055657352519669 0 0.0017004824916354595 0.00078398275076594726 0 0.0018584310545322555 0.0020607681001758283 0 0.0020964225280303986 0.0016654813264577685 0 0.0018345580858627629 0.0018173143062878052 0 0.0019844615922294572 0.0024100360734197017 0 0.0017518266009412544 0.0022967516494790531 0 0.0018584310545322555 0.0020607681001758283 0 -2.9405999854688363e-05 0.00024182699406737965 0 0.0011741275248538631 0.00028720304148300663 0 0.00050709320222736074 0.00025705781989480194 0 0.00043742964773234739 0.00024022396299360437 0 0.00050709320222736074 0.00025705781989480194 0 0.0010723686185009126 0.00028797133911445259 0 0.0011741275248538631 0.00028720304148300663 0 0.00050709320222736074 0.00025705781989480194 0 0.0010723686185009126 0.00028797133911445259 0 0.0011741275248538631 0.00028720304148300663 0 0.0010723686185009126 0.00028797133911445259 0 0.0016749731694415087 0.00038022360389867755 0 0.0016962119288443792 0.00033740174703822574 0 0.0010723686185009126 0.00028797133911445259 0 0.0016749731694415087 0.00038022360389867755 0 0.0016962119288443792 0.00033740174703822574 0 0.0016749731694415087 0.00038022360389867755 0 0.0022876720646033224 0.00043737377223569815 0 0.0017004824916354595 0.00078398275076594726 0 0.0021537654367262244 0.00058831127830806962 0 0.0011741275248538631 0.00028720304148300663 0 0.0016749731694415087 0.00038022360389867755 0 0.0022859295986639113 0.00053092654731084208 0 0.0022048508064913827 0.0011085645663310611 0 0.0020904459691710475 0.00081732500787098645 0 0.0022859295986639113 0.00053092654731084208 0 0.0020964225280303986 0.0016654813264577685 0 0.0018962763860944426 0.0015800107543586445 0 0.0018345580858627629 0.0018173143062878052 0 0.0020964225280303986 0.0016654813264577685 0 0.0019350120257260791 0.0013121180090813831 0 0.0018962763860944426 0.0015800107543586445 0 0.0022859295986639113 0.00053092654731084208 0 0.0024520773701682931 0.00046990523603980495 0 0.0027895108024923831 0.00044266272826764744 0 0.0020904459691710475 0.00081732500787098645 0 0.0022859295986639113 0.00053092654731084208 0 0.0024520773701682931 0.00046990523603980495 0 0.0020964225280303986 0.0016654813264577685 0 0.002242687376292362 0.00090777683913270744 0 0.0019350120257260791 0.0013121180090813831 0 0.0021054834369631176 0.0012564465233326834 0 0.0023523258309623611 0.00068114342589440573 0 0.0022859295986639113 0.00053092654731084208 0 0.0022876720646033224 0.00043737377223569815 0 0.0027895108024923831 0.00044266272826764744 0 0.0016749731694415087 0.00038022360389867755 0 0.0022859295986639113 0.00053092654731084208 0 0.0022876720646033224 0.00043737377223569815 0 0.0036819762456964237 0.00016012540405603969 0 0.0032989968977269685 0.00032214221598141605 0 0.0027895108024923831 0.00044266272826764744 0 0.0032989968977269685 0.00032214221598141605 0 0.0022876720646033224 0.00043737377223569815 0 0.0027895108024923831 0.00044266272826764744 0 0.002612063304481777 0.00020079320281937273 0 0.0024520773701682931 0.00046990523603980495 0 0.0027895108024923831 0.00044266272826764744 0 0.0025487949354095632 0.00021918499602633854 0 0.0023523258309623611 0.00068114342589440573 0 0.002612063304481777 0.00020079320281937273 0 0.002242687376292362 0.00090777683913270744 0 0.0017485014395248976 0.00091975181622534264 0 0.002612063304481777 0.00020079320281937273 0 0.0015003656849445375 0.00051451573555551776 0 0.0017485014395248976 0.00091975181622534264 0 0.0015003656849445375 0.00051451573555551776 0 0.00099876017847822288 0.0010170854623915231 0 0.0017485014395248976 0.00091975181622534264 0 0.0015003656849445375 0.00051451573555551776 0 0.00099876017847822288 0.0010170854623915231 0 0.00071777189610006261 0.00039333205356359093 0 0.00099876017847822288 0.0010170854623915231 0 0.0017485014395248976 0.00091975181622534264 0 0.0014223385331806008 0.0013851195245164591 0 0.002242687376292362 0.00090777683913270744 0 0.0017485014395248976 0.00091975181622534264 0 0.0019350120257260791 0.0013121180090813831 0 0.0017485014395248976 0.00091975181622534264 0 0.0019350120257260791 0.0013121180090813831 0 0.0014223385331806008 0.0013851195245164591 0 0.0019350120257260791 0.0013121180090813831 0 0.0018962763860944426 0.0015800107543586445 0 0.0016510394362639245 0.0017209280999614291 0 0.0018962763860944426 0.0015800107543586445 0 0.0016510394362639245 0.0017209280999614291 0 0.0018345580858627629 0.0018173143062878052 0 0.0016510394362639245 0.0017209280999614291 0 0.0014223385331806008 0.0013851195245164591 0 0.0011994063566732657 0.0017965964174036027 0 0.0019350120257260791 0.0013121180090813831 0 0.0016510394362639245 0.0017209280999614291 0 0.0014223385331806008 0.0013851195245164591 0 0.00099876017847822288 0.0010170854623915231 0 0.0014223385331806008 0.0013851195245164591 0 0.00071259964096307348 0.0016548476586446413 0 0.0014223385331806008 0.0013851195245164591 0 0.0011994063566732657 0.0017965964174036027 0 0.00071259964096307348 0.0016548476586446413 0 0.0011994063566732657 0.0017965964174036027 0 0.00088580118714042715 0.0020916974476873317 0 0.0012935724834994846 0.0021166287428036278 0 0.0011994063566732657 0.0017965964174036027 0 0.00088580118714042715 0.0020916974476873317 0 0.00071259964096307348 0.0016548476586446413 0 0.0010311737216100667 0.0023094262887063313 0 0.00088580118714042715 0.0020916974476873317 0 0.0012935724834994846 0.0021166287428036278 0 0.0015555784016901741 0.0023793785207714209 0 0.0012935724834994846 0.0021166287428036278 0 0.0016646841783223283 0.0020685432395290584 0 0.0017518266009412544 0.0022967516494790531 0 0.0018584310545322555 0.0020607681001758283 0 0.0016646841783223283 0.0020685432395290584 0 0.0015555784016901741 0.0023793785207714209 0 0.0017518266009412544 0.0022967516494790531 0 0.0016646841783223283 0.0020685432395290584 0 0.0018584310545322555 0.0020607681001758283 0 0.0018345580858627629 0.0018173143062878052 0 0.0016646841783223283 0.0020685432395290584 0 0.0016510394362639245 0.0017209280999614291 0 0.0018345580858627629 0.0018173143062878052 0 0.0016646841783223283 0.0020685432395290584 0 0.0016510394362639245 0.0017209280999614291 0 0.0012935724834994846 0.0021166287428036278 0 0.0016646841783223283 0.0020685432395290584 0 0.0016510394362639245 0.0017209280999614291 0 0.0011994063566732657 0.0017965964174036027 0 0.0012935724834994846 0.0021166287428036278 0 -0.00038704161708271844 0.0014853351228041355 0 -0.00086157301982433241 0.0012787660740767109 0 -0.0010420251707713313 0.0017164467905949009 0 -0.00096565911480260916 0.0020413283820438044 0 -0.00038704161708271844 0.0014853351228041355 0 -0.0010420251707713313 0.0017164467905949009 0 4.3482064883444993e-05 0.001901729747959869 0 0.00036412093427163326 0.0022199901535517432 0 0.00071259964096307348 0.0016548476586446413 0 0.00088580118714042715 0.0020916974476873317 0 0.00036412093427163326 0.0022199901535517432 0 0.00071259964096307348 0.0016548476586446413 0 -0.00012414072339133047 0.0026382196184003472 0 4.3482064883444993e-05 0.001901729747959869 0 0.00036412093427163326 0.0022199901535517432 0 0.00073173619544057993 0.0024745656061105313 0 0.00088580118714042715 0.0020916974476873317 0 0.00036412093427163326 0.0022199901535517432 0 4.3482064883444993e-05 0.001901729747959869 0 0.00071259964096307348 0.0016548476586446413 0 0.00016955674930387569 0.00089720111261700451 0 -0.00038704161708271844 0.0014853351228041355 0 -0.00045925044772779838 0.0011308301384267028 0 -0.00086157301982433241 0.0012787660740767109 0 -0.0001641335467564246 0.0016784561279504138 0 0.00012813362543021565 0.00090619471243047923 0 -0.00038704161708271844 0.0014853351228041355 0 -0.00045925044772779838 0.0011308301384267028 0 0.00016955674930387569 0.00089720111261700451 0 0.00016955674930387569 0.00089720111261700451 0 -9.2434704201552217e-05 0.00024261521671772109 0 -0.00078298299428537083 0.00080879918796111967 0 -0.00045925044772779838 0.0011308301384267028 0 0.00016955674930387569 0.00089720111261700451 0 -0.00078298299428537083 0.00080879918796111967 0 0.00099876017847822288 0.0010170854623915231 0 0.00071259964096307348 0.0016548476586446413 0 0.00016955674930387569 0.00089720111261700451 0 0.00099876017847822288 0.0010170854623915231 0 0.00016955674930387569 0.00089720111261700451 0 0.00071777189610006261 0.00039333205356359093 0 0.00016955674930387569 0.00089720111261700451 0 0.00071777189610006261 0.00039333205356359093 0 -9.2434704201552217e-05 0.00024261521671772109 0 0.0006462465127000164 -0.00020414565506882981 0 0.0011825974841191671 -0.00088256201357780656 0 0.0013953186219806742 -0.00067557830890869401 0 0.0012748946285849796 -0.0011803569318004897 0 0.0017959244767973052 -0.001341757154015491 0 0.0012748946285849796 -0.0011803569318004897 0 0.0017959244767973052 -0.001341757154015491 0 0.0010740612054894177 -0.0016940135560756821 0 0.0011825974841191671 -0.00088256201357780656 0 0.0017173187138411143 -0.0016156432138079351 0 0.00058397065224806313 -0.0004340202917749824 0 0.001553427366072858 -0.00018849169576632766 0 0.0012580166857774312 -0.0012420720816704745 0 0.00071777189610006261 0.00039333205356359093 0 0.00058397065224806313 -0.0004340202917749824 0 0.001553427366072858 -0.00018849169576632766 0 0.00071777189610006261 0.00039333205356359093 0 -9.2434704201552217e-05 0.00024261521671772109 0 0.00058397065224806313 -0.0004340202917749824 0 0.0015003656849445375 0.00051451573555551776 0 0.00071777189610006261 0.00039333205356359093 0 0.001553427366072858 -0.00018849169576632766 0 0.002612063304481777 0.00020079320281937273 0 0.0015003656849445375 0.00051451573555551776 0 0.001553427366072858 -0.00018849169576632766 0 0.002612063304481777 0.00020079320281937273 0 0.001553427366072858 -0.00018849169576632766 0 0.0027078954833479755 -0.00076238179743701531 0 0.001553427366072858 -0.00018849169576632766 0 0.0012580166857774312 -0.0012420720816704745 0 0.0027078954833479755 -0.00076238179743701531 0 0.0012580166857774312 -0.0012420720816704745 0 0.0027078954833479755 -0.00076238179743701531 0 0.0020425892897207119 -0.002277245232462752 0 0.0034574221581313083 -0.0020755230597842593 0 0.0027078954833479755 -0.00076238179743701531 0 0.0020425892897207119 -0.002277245232462752 0 0.0021868286808530103 -0.0019988283394600371 0 0.0020119566234292835 -0.0025478574052281624 0 0.0025632530702049219 -0.0026517808391116893 0 0.0017173187138411143 -0.0016156432138079351 0 0.0023101454724003467 -0.0024643325922954419 0 0.0021868286808530103 -0.0019988283394600371 0 0.0020119566234292835 -0.0025478574052281624 0 0.0015840093298929614 -0.0020866456407890176 0 0.0015840093298929614 -0.0020866456407890176 0 0.0010253991934226923 -0.0024187793908661917 0 0.0015420271236685642 -0.0028140933512922147 0 0.0020119566234292835 -0.0025478574052281624 0 0.0015840093298929614 -0.0020866456407890176 0 0.0015420271236685642 -0.0028140933512922147 0 0.0017959244767973052 -0.001341757154015491 0 0.0015840093298929614 -0.0020866456407890176 0 0.0010740612054894177 -0.0016940135560756821 0 0.0017959244767973052 -0.001341757154015491 0 0.0021868286808530103 -0.0019988283394600371 0 0.0015840093298929614 -0.0020866456407890176 0 0.00040964901471868259 -0.0021259685664468029 0 0.00030966038872491609 -0.001400907071168454 0 0.0010740612054894177 -0.0016940135560756821 0 0.00036191517164267282 -0.0022958417596538306 0 0.00050566848838671651 -0.0017565106810363872 0 0.0015840093298929614 -0.0020866456407890176 0 0.0010253991934226923 -0.0024187793908661917 0 0.0010740612054894177 -0.0016940135560756821 0 0.00040964901471868259 -0.0021259685664468029 0 0.0010253991934226923 -0.0024187793908661917 0 0.0010740612054894177 -0.0016940135560756821 0 0.00040964901471868259 -0.0021259685664468029 0 0.0010253991934226923 -0.0024187793908661917 0 0.00051132269103767764 -0.0028335946915885291 0 0.00036191517164267282 -0.0022958417596538306 0 0.00049356543832632376 -0.0029359439880768082 0 0.00035745741945305122 -0.0024993705763471171 0 -8.7952993971137264e-05 -0.0028477073669142708 0 8.5692611475225681e-07 -0.0023304700979769858 0 0.00035745741945305122 -0.0024993705763471171 0 -8.7952993971137264e-05 -0.0028477073669142708 0 0.00046323470102833443 -0.003009397117871692 0 -8.7952993971137264e-05 -0.0028477073669142708 0 8.5692611475225681e-07 -0.0023304700979769858 0 -0.00041583669039019287 -0.002386783345507992 0 8.5692611475225681e-07 -0.0023304700979769858 0 -0.00011608184189383205 -0.0019312712484091121 0 -0.00041583669039019287 -0.002386783345507992 0 0.00035745741945305122 -0.0024993705763471171 0 8.5692611475225681e-07 -0.0023304700979769858 0 0.00026364970053395579 -0.0019884241116323058 0 8.5692611475225681e-07 -0.0023304700979769858 0 -0.00011608184189383205 -0.0019312712484091121 0 0.00026364970053395579 -0.0019884241116323058 0 -0.0082114852828457773 -0.0018865055860726523 0 -0.010213760579679201 -0.0014428056963081703 0 -0.00939477584504444 -0.0034427055952639292 0 -0.0043682047459497964 -0.0019697452600353537 0 -0.0048808810929558922 -0.002894647196303668 0 -0.0082114852828457773 -0.0018865055860726523 0 -0.0086239860958579346 -0.00073869333904360765 0 -0.010213760579679201 -0.0014428056963081703 0 -0.0082114852828457773 -0.0018865055860726523 0 -0.0086239860958579346 -0.00073869333904360765 0 -0.0070359493262330741 -0.00029247992059654496 0 -0.00011608184189383205 -0.0019312712484091121 0 0.00026364970053395579 -0.0019884241116323058 0 0.00017752395287152156 -0.0014685841956676706 0 0.00050566848838671651 -0.0017565106810363872 0 -0.0020273360470584724 -0.00089578236645657789 0 -0.0043682047459497964 -0.0019697452600353537 0 -0.0020273360470584724 -0.00089578236645657789 0 0.00030966038872491609 -0.001400907071168454 0 0.00080685187805652466 -0.00097722720944041987 0 0.00021128826017853612 -0.00066173471194503296 0 0.00030966038872491609 -0.001400907071168454 0 0.0010740612054894177 -0.0016940135560756821 0 0.00080685187805652466 -0.00097722720944041987 0 0.0012748946285849796 -0.0011803569318004897 0 0.0010740612054894177 -0.0016940135560756821 0 0.00080685187805652466 -0.00097722720944041987 0 0.0013953186219806742 -0.00067557830890869401 0 0.0012748946285849796 -0.0011803569318004897 0 0.00080685187805652466 -0.00097722720944041987 0 0.0013953186219806742 -0.00067557830890869401 0 0.00080685187805652466 -0.00097722720944041987 0 0.00092776459990344092 -0.00049785091210544986 0 0.0013953186219806742 -0.00067557830890869401 0 0.00092776459990344092 -0.00049785091210544986 0 0.00098317498058516587 -1.5941402915283396e-06 0 0.0006462465127000164 -0.00020414565506882981 0 5.2421809436685151e-05 0.00038849713737678661 0 0.00080685187805652466 -0.00097722720944041987 0 0.00092776459990344092 -0.00049785091210544986 0 0.00061287813623977919 -0.00054703952884873827 0 0.00092776459990344092 -0.00049785091210544986 0 0.00061287813623977919 -0.00054703952884873827 0 0.00080701732374204873 -0.0002319603830149343 0 -0.0016067618819832303 -0.00015701392370494178 0 -0.0021808340921122241 0.00017610540360960466 0 -0.0020836369631898979 -0.00082700711685847108 0 0.00080685187805652466 -0.00097722720944041987 0 0.00061287813623977919 -0.00054703952884873827 0 0.00021128826017853612 -0.00066173471194503296 0 0.00061287813623977919 -0.00054703952884873827 0 0.00051726094118724605 -0.00021197507995440279 0 0.00080701732374204873 -0.0002319603830149343 0 -0.00047325583551309253 -8.9592259296074458e-05 0 -0.0020273360470584724 -0.00089578236645657789 0 0.00061287813623977919 -0.00054703952884873827 0 0.00051726094118724605 -0.00021197507995440279 0 0.00021128826017853612 -0.00066173471194503296 0 -0.0016067618819832303 -0.00015701392370494178 0 -0.0016150931342307623 0.00036786470573778898 0 -0.0021808340921122241 0.00017610540360960466 0 0.00051726094118724605 -0.00021197507995440279 0 0.00080701732374204873 -0.0002319603830149343 0 0.00083088230072744416 0.00024431554656810506 0 -0.00047325583551309253 -8.9592259296074458e-05 0 -0.0003459149160453089 0.00059551443241161108 0 -0.0016067618819832303 -0.00015701392370494178 0 -0.0016150931342307623 0.00036786470573778898 0 -0.0011107614644835005 0.00051783971013835922 0 -0.0016150931342307623 0.00036786470573778898 0 -0.0019378069069366829 0.00068566232935055006 0 -0.0021808340921122241 0.00017610540360960466 0 0.00092776459990344092 -0.00049785091210544986 0 0.00080701732374204873 -0.0002319603830149343 0 0.00098317498058516587 -1.5941402915283396e-06 0 0.00080701732374204873 -0.0002319603830149343 0 0.00098317498058516587 -1.5941402915283396e-06 0 0.00083088230072744416 0.00024431554656810506 0 5.2421809436685151e-05 0.00038849713737678661 0 -0.0003459149160453089 0.00059551443241161108 0 -0.00045925044772779838 0.0011308301384267028 0 -0.00078298299428537083 0.00080879918796111967 0 -0.00086157301982433241 0.0012787660740767109 0 -0.00078298299428537083 0.00080879918796111967 0 -0.00086157301982433241 0.0012787660740767109 0 -0.0010190489541534739 0.00095951721295618807 0 -0.00086157301982433241 0.0012787660740767109 0 -0.0010190489541534739 0.00095951721295618807 0 -0.0015022191532120747 0.001185619475094297 0 -0.0003459149160453089 0.00059551443241161108 0 -0.001487231797522493 0.0013189101342001622 0 -0.0016150931342307623 0.00036786470573778898 0 -0.0019378069069366829 0.00068566232935055006 0 -0.0015022191532120747 0.001185619475094297 0 -0.0016150931342307623 0.00036786470573778898 0 -0.0011107614644835005 0.00051783971013835922 0 -0.0015022191532120747 0.001185619475094297 0 -0.0019631793117847324 0.0010117795449570489 0 -0.0015022191532120747 0.001185619475094297 0 -0.0018746505347667466 0.0012345622816176233 0 -0.0019378069069366829 0.00068566232935055006 0 -0.0019631793117847324 0.0010117795449570489 0 -0.0015022191532120747 0.001185619475094297 0 -0.0019631793117847324 0.0010117795449570489 0 -0.0018746505347667466 0.0012345622816176233 0 -0.0021400706133551874 0.0011686493389090871 0 -0.0015022191532120747 0.001185619475094297 0 -0.0017969534232698968 0.0015240185683070466 0 -0.0012933022855207191 0.0014909448285316614 0 -0.0018746505347667466 0.0012345622816176233 0 -0.0017969534232698968 0.0015240185683070466 0 -0.0020528291264528533 0.0013431534128032761 0 -0.0015022191532120747 0.001185619475094297 0 -0.0018746505347667466 0.0012345622816176233 0 -0.0017969534232698968 0.0015240185683070466 0 -0.0017969534232698968 0.0015240185683070466 0 -0.0021876386517063612 0.001511943909805034 0 -0.0020528291264528533 0.0013431534128032761 0 -0.0017341807244821111 0.0019709698145077021 0 -0.0017969534232698968 0.0015240185683070466 0 -0.0014459666916706469 0.0017504359007390108 0 -0.0017969534232698968 0.0015240185683070466 0 -0.0014459666916706469 0.0017504359007390108 0 -0.0012933022855207191 0.0014909448285316614 0 -0.00086157301982433241 0.0012787660740767109 0 -0.0010420251707713313 0.0017164467905949009 0 -0.0012933022855207191 0.0014909448285316614 0 -0.0014459666916706469 0.0017504359007390108 0 -0.0010420251707713313 0.0017164467905949009 0 -0.0012933022855207191 0.0014909448285316614 0 -0.00086157301982433241 0.0012787660740767109 0 -0.0015022191532120747 0.001185619475094297 0 -0.0012933022855207191 0.0014909448285316614 0 -0.008752855884263902 0.0013053910403547254 0 -0.0066323721172093222 -1.0065050550845088e-05 0 -0.0089697713581419307 -1.5644030021400928e-05 0 -0.0060076891952111963 0.00039563530447492263 0 -0.0051445164002410591 0.0010643628565397219 0 -0.008752855884263902 0.0013053910403547254 0 -0.0089697713581419307 -1.5644030021400928e-05 0 -0.010024441878824317 0.0010085269473479415 0 -0.0060076891952111963 0.00039563530447492263 0 -0.0019504328451884637 0.0016209014756717625 0 -0.0030575207155250522 0.0016489310318086848 0 -0.0033954529506095028 0.0012379387097279212 0 -0.0026071813885832889 0.0015298137175764877 0 -0.0031930433121605409 0.0013946318438362723 0 -0.0026071813885832889 0.0015298137175764877 0 -0.0023918191879098529 0.00096890799060818725 0 -0.0026071813885832889 0.0015298137175764877 0 -0.0021876386517063612 0.001511943909805034 0 -0.0023152982135745278 0.0012989766560829942 0 -0.0022042265671119677 0.001787813158727588 0 -0.0026071813885832889 0.0015298137175764877 0 -0.0021876386517063612 0.001511943909805034 0 -0.0022042265671119677 0.001787813158727588 0 -0.0017969534232698968 0.0015240185683070466 0 -0.0021876386517063612 0.001511943909805034 0 -0.0023152982135745278 0.0012989766560829942 0 -0.0023075733355240754 0.0010133215136758254 0 -0.0023918191879098529 0.00096890799060818725 0 -0.0021876386517063612 0.001511943909805034 0 -0.0020528291264528533 0.0013431534128032761 0 -0.0023152982135745278 0.0012989766560829942 0 -0.0023152982135745278 0.0012989766560829942 0 -0.0021400706133551874 0.0011686493389090871 0 -0.0022402859859141427 0.0011163535805834132 0 -0.0035641309161997189 0.0011989741626919521 0 -0.0043601345512056001 0.0016352913228075937 0 -0.0018746505347667466 0.0012345622816176233 0 -0.0020528291264528533 0.0013431534128032761 0 -0.0021400706133551874 0.0011686493389090871 0 -0.0020528291264528533 0.0013431534128032761 0 -0.0023152982135745278 0.0012989766560829942 0 -0.0021400706133551874 0.0011686493389090871 0 -0.0026071813885832889 0.0015298137175764877 0 -0.0023152982135745278 0.0012989766560829942 0 -0.0023918191879098529 0.00096890799060818725 0 -0.0051445164002410591 0.0010643628565397219 0 -0.0087442236294375149 0.00054932513829702089 0 -0.0043601345512056001 0.0016352913228075937 0 -0.004891210537750058 0.00093072741162313738 0 -0.0073398824607113083 0.00294967682224533 0 -0.0074950615714111943 0.0028685198690793722 0 -0.0071956055109038642 0.0013302980552150367 0 -0.0074950615714111943 0.0028685198690793722 0 -0.0078122893775741447 0.002095291364631437 0 -0.0087364148719366944 0.0022245179164550014 0 -0.0019378069069366829 0.00068566232935055006 0 -0.0022641044076564397 0.0011249747567448963 0 -0.0021808340921122241 0.00017610540360960466 0 -0.0074950615714111943 0.0028685198690793722 0 -0.0078122893775741447 0.002095291364631437 0 -0.0071956055109038642 0.0013302980552150367 0 -0.0019378069069366829 0.00068566232935055006 0 -0.0019631793117847324 0.0010117795449570489 0 -0.0022641044076564397 0.0011249747567448963 0 -0.0019631793117847324 0.0010117795449570489 0 -0.0021400706133551874 0.0011686493389090871 0 -0.0022641044076564397 0.0011249747567448963 0 -0.0037763219033133486 0.0017770945714735919 0 -0.0043601345512056001 0.0016352913228075937 0 -0.0043601345512056001 0.0016352913228075937 0 -0.0051445164002410591 0.0010643628565397219 0 -0.0078122893775741447 0.002095291364631437 0 -0.0087364148719366944 0.0022245179164550014 0 -0.0082549676397402402 0.0014375132199634677 0 -0.0066323721172093222 -1.0065050550845088e-05 0 -0.0089697713581419307 -1.5644030021400928e-05 0 -0.0084150376170050792 -0.00096183310509085403 0 -0.0089697713581419307 -1.5644030021400928e-05 0 -0.0084150376170050792 -0.00096183310509085403 0 -0.01017877383065003 -0.001894053055979827 0 -0.0087364148719366944 0.0022245179164550014 0 -0.0091100710945524535 0.0011352886504574957 0 -0.0099765984891327427 0.0015747456942446414 0 -0.0087364148719366944 0.0022245179164550014 0 -0.0082549676397402402 0.0014375132199634677 0 -0.0091100710945524535 0.0011352886504574957 0 -0.0082549676397402402 0.0014375132199634677 0 -0.0091100710945524535 0.0011352886504574957 0 -0.0084245271467390092 0.00040447877727559848 0 -0.0082549676397402402 0.0014375132199634677 0 -0.0071956055109038642 0.0013302980552150367 0 -0.0084245271467390092 0.00040447877727559848 0 -0.0078122893775741447 0.002095291364631437 0 -0.0082549676397402402 0.0014375132199634677 0 -0.0071956055109038642 0.0013302980552150367 0 -0.004891210537750058 0.00093072741162313738 0 -0.0020273360470584724 -0.00089578236645657789 0 -0.0071956055109038642 0.0013302980552150367 0 -0.0070359493262330741 -0.00029247992059654496 0 -0.0084245271467390092 0.00040447877727559848 0 -0.0086239860958579346 -0.00073869333904360765 0 -0.0070359493262330741 -0.00029247992059654496 0 -0.0084245271467390092 0.00040447877727559848 0 -0.0084245271467390092 0.00040447877727559848 0 -0.0095854833779617163 -0.00028891766686853064 0 -0.0093574212079682133 0.00046203200409881859 0 -0.0091100710945524535 0.0011352886504574957 0 -0.0084245271467390092 0.00040447877727559848 0 -0.0093574212079682133 0.00046203200409881859 0 -0.0086239860958579346 -0.00073869333904360765 0 -0.0084245271467390092 0.00040447877727559848 0 -0.0095854833779617163 -0.00028891766686853064 0 -0.0095854833779617163 -0.00028891766686853064 0 -0.010546437459176572 3.2657665021938968e-05 0 -0.0093574212079682133 0.00046203200409881859 0 -0.010546437459176572 3.2657665021938968e-05 0 -0.0093574212079682133 0.00046203200409881859 0 -0.01001474133620011 0.00095450043217064145 0 -0.010546437459176572 3.2657665021938968e-05 0 -0.011538608382326366 -0.00048253265134548691 0 -0.011565857756074485 0.00074671267435491746 0 -0.010546437459176572 3.2657665021938968e-05 0 -0.011565857756074485 0.00074671267435491746 0 -0.01001474133620011 0.00095450043217064145 0 -0.014203012871985207 -0.0004525934790939043 0 -0.013796622280810451 -0.00020787016047437543 0 -0.014120526409045887 -8.5449340013662843e-05 0 -0.0130658811196444 0.00014373627941292991 0 -0.010750208809730903 0.00018504977402874825 0 -0.014203012871985207 -0.0004525934790939043 0 -0.014120526409045887 -8.5449340013662843e-05 0 -0.014386449310061673 -0.00012578637715591565 0 -0.011565857756074485 0.00074671267435491746 0 -0.01001474133620011 0.00095450043217064145 0 -0.00998359921674488 0.0015768564814600938 0 -0.0087442236294375149 0.00054932513829702089 0 -0.010750208809730903 0.00018504977402874825 0 -0.0091100710945524535 0.0011352886504574957 0 -0.01001474133620011 0.00095450043217064145 0 -0.0099765984891327427 0.0015747456942446414 0 -0.0091100710945524535 0.0011352886504574957 0 -0.0093574212079682133 0.00046203200409881859 0 -0.01001474133620011 0.00095450043217064145 0 -0.010379880771725702 0.0011377544166493007 0 -0.010750208809730903 0.00018504977402874825 0 -0.010750208809730903 0.00018504977402874825 0 -0.014709725912699425 -0.0012197883717094769 0 -0.0089697713581419307 -1.5644030021400928e-05 0 -0.01017877383065003 -0.001894053055979827 0 -0.010024441878824317 0.0010085269473479415 0 -0.013796622280810451 -0.00020787016047437543 0 -0.013990639361746483 6.2644192251807171e-05 0 -0.013799297831560395 0.0003140335585042026 0 -0.014120526409045887 -8.5449340013662843e-05 0 -0.014251975504346481 0.00023356183435186879 0 -0.014386449310061673 -0.00012578637715591565 0 -0.013796622280810451 -0.00020787016047437543 0 -0.014120526409045887 -8.5449340013662843e-05 0 -0.013990639361746483 6.2644192251807171e-05 0 -0.014120526409045887 -8.5449340013662843e-05 0 -0.013990639361746483 6.2644192251807171e-05 0 -0.014251975504346481 0.00023356183435186879 0 -0.013990639361746483 6.2644192251807171e-05 0 -0.014251975504346481 0.00023356183435186879 0 -0.013799297831560395 0.0003140335585042026 0 -0.023077918307967734 -0.0033903421898077608 0 -0.023000910028010926 -0.0035224732523229728 0 -0.022846215946586351 -0.0034133571198075169 0 -0.019315206826160256 -0.0017578250096157411 0 -0.014709725912699425 -0.0012197883717094769 0 -0.023000910028010926 -0.0035224732523229728 0 -0.022846215946586351 -0.0034133571198075169 0 -0.022611751687883 -0.0035134156815455598 0 -0.02260834283049443 -0.0033602226157590106 0 -0.022846215946586351 -0.0034133571198075169 0 -0.022611751687883 -0.0035134156815455598 0 -0.012364867531625282 0.0010892677164374769 0 -0.0093308577738717459 -0.00081212584043561804 0 -0.012507430546665345 -0.0015417566947360758 0 -0.013583697985517503 -0.00093335756685009724 0 -0.014709725912699425 -0.0012197883717094769 0 -0.013583697985517503 -0.00093335756685009724 0 -0.0060076891952111963 0.00039563530447492263 0 -0.0060076891952111963 0.00039563530447492263 0 -0.014709725912699425 -0.0012197883717094769 0 -0.023206626279891469 -0.0033783147292178904 0 -0.02314890675415824 -0.0034204113611295568 0 -0.023210012026618602 -0.0033365968981175485 0 -0.023154350565324604 -0.0032556678518524352 0 -0.023206626279891469 -0.0033783147292178904 0 -0.023210012026618602 -0.0033365968981175485 0 -0.023154350565324604 -0.0032556678518524352 0 -0.023177465009392436 -0.0033978277763189726 0 -0.023206626279891469 -0.0033783147292178904 0 -0.0232246597665462 -0.0034874205782150537 0 -0.023177465009392436 -0.0033978277763189726 0 -0.023206626279891469 -0.0033783147292178904 0 -0.0232246597665462 -0.0034874205782150537 0 -0.023206626279891469 -0.0033783147292178904 0 -0.023180486915755635 -0.0034229363559686986 0 -0.023206626279891469 -0.0033783147292178904 0 -0.023180486915755635 -0.0034229363559686986 0 -0.02314890675415824 -0.0034204113611295568 0 -0.023000910028010926 -0.0035224732523229728 0 -0.02314890675415824 -0.0034204113611295568 0 -0.023210012026618602 -0.0033365968981175485 0 -0.023077918307967734 -0.0033903421898077608 0 -0.023180486915755635 -0.0034229363559686986 0 -0.02314890675415824 -0.0034204113611295568 0 -0.023077918307967734 -0.0033903421898077608 0 -0.023000910028010926 -0.0035224732523229728 0 -0.02314890675415824 -0.0034204113611295568 0 -0.019315206826160256 -0.0017578250096157411 0 -0.01887447378892948 -0.001566239529737646 0 -0.014251975504346481 0.00023356183435186879 0 -0.014585610072971119 1.0138914593562558e-05 0 -0.014726022191467538 0.00018831524789390399 0 -0.014251975504346481 0.00023356183435186879 0 -0.014585610072971119 1.0138914593562558e-05 0 -0.014386449310061673 -0.00012578637715591565 0 -0.023041646500617158 -0.0029504251657923265 0 -0.023154350565324604 -0.0032556678518524352 0 -0.023210012026618602 -0.0033365968981175485 0 -0.014585610072971119 1.0138914593562558e-05 0 -0.014872267534659332 2.368380787489526e-05 0 -0.014735872451061465 -0.00030864462753191517 0 -0.014585610072971119 1.0138914593562558e-05 0 -0.014726022191467538 0.00018831524789390399 0 -0.014872267534659332 2.368380787489526e-05 0 -0.018929375497189857 -0.0011428538712478468 0 -0.01887447378892948 -0.001566239529737646 0 -0.015374473152350984 0.00010341893390341768 0 -0.014726022191467538 0.00018831524789390399 0 -0.014872267534659332 2.368380787489526e-05 0 -0.015078299142144881 -5.3370220747045249e-05 0 -0.014872267534659332 2.368380787489526e-05 0 -0.014735872451061465 -0.00030864462753191517 0 -0.01511168589119922 -0.0003084626431320485 0 -0.015078299142144881 -5.3370220747045249e-05 0 -0.014735872451061465 -0.00030864462753191517 0 -0.014585610072971119 1.0138914593562558e-05 0 -0.014735872451061465 -0.00030864462753191517 0 -0.014386449310061673 -0.00012578637715591565 0 -0.014203012871985207 -0.0004525934790939043 0 -0.014735872451061465 -0.00030864462753191517 0 -0.014386449310061673 -0.00012578637715591565 0 -0.014203012871985207 -0.0004525934790939043 0 -0.014735872451061465 -0.00030864462753191517 0 -0.014625599650456218 -0.00075189149462997974 0 -0.011538608382326366 -0.00048253265134548691 0 -0.011565857756074485 0.00074671267435491746 0 -0.013166161237098762 -9.6914264611447622e-05 0 -0.0130658811196444 0.00014373627941292991 0 -0.013877054007460424 -0.00044030331473323613 0 -0.015095736586711535 -0.00071504695348830827 0 -0.014910940421871152 -0.0011309805545490124 0 -0.014625599650456218 -0.00075189149462997974 0 -0.015095736586711535 -0.00071504695348830827 0 -0.014735872451061465 -0.00030864462753191517 0 -0.014625599650456218 -0.00075189149462997974 0 -0.013166161237098762 -9.6914264611447622e-05 0 -0.01366846132599016 -0.0015361365008475952 0 -0.01223147854635066 -0.0016356218530579551 0 -0.014867242328679751 -0.0010679404534274257 0 -0.013877054007460424 -0.00044030331473323613 0 -0.014910940421871152 -0.0011309805545490124 0 -0.013166161237098762 -9.6914264611447622e-05 0 -0.01366846132599016 -0.0015361365008475952 0 -0.01366846132599016 -0.0015361365008475952 0 -0.013457884646553989 -0.0028027121760015442 0 -0.01223147854635066 -0.0016356218530579551 0 -0.015006438569727784 -0.0024112627699310538 0 -0.01366846132599016 -0.0015361365008475952 0 -0.013457884646553989 -0.0028027121760015442 0 -0.013457884646553989 -0.0028027121760015442 0 -0.01223147854635066 -0.0016356218530579551 0 -0.011528132924236616 -0.002878930465641139 0 -0.011538608382326366 -0.00048253265134548691 0 -0.013166161237098762 -9.6914264611447622e-05 0 -0.01223147854635066 -0.0016356218530579551 0 -0.011538608382326366 -0.00048253265134548691 0 -0.01223147854635066 -0.0016356218530579551 0 -0.010213760579679201 -0.0014428056963081703 0 -0.010546437459176572 3.2657665021938968e-05 0 -0.011538608382326366 -0.00048253265134548691 0 -0.010213760579679201 -0.0014428056963081703 0 -0.0095854833779617163 -0.00028891766686853064 0 -0.010546437459176572 3.2657665021938968e-05 0 -0.010213760579679201 -0.0014428056963081703 0 -0.0086239860958579346 -0.00073869333904360765 0 -0.0095854833779617163 -0.00028891766686853064 0 -0.010213760579679201 -0.0014428056963081703 0 -0.010213760579679201 -0.0014428056963081703 0 -0.011528132924236616 -0.002878930465641139 0 -0.00939477584504444 -0.0034427055952639292 0 -0.01223147854635066 -0.0016356218530579551 0 -0.010213760579679201 -0.0014428056963081703 0 -0.011528132924236616 -0.002878930465641139 0 -0.011528132924236616 -0.002878930465641139 0 -0.00939477584504444 -0.0034427055952639292 0 -0.011048517877055341 -0.0040288903042826167 0 -8.7952993971137264e-05 -0.0028477073669142708 0 -0.00041583669039019287 -0.002386783345507992 0 -0.00072714375983728053 -0.0028489111636342346 0 -0.00939477584504444 -0.0034427055952639292 0 -0.010616234060291978 -0.0049056306152121792 0 -0.011048517877055341 -0.0040288903042826167 0 -0.0048808810929558922 -0.002894647196303668 0 -0.0056167754286815842 -0.0038340478454871063 0 -0.010616234060291978 -0.0049056306152121792 0 -0.011048517877055341 -0.0040288903042826167 0 -0.011180535283922169 -0.0048183862343859074 0 -0.011048517877055341 -0.0040288903042826167 0 -0.011180535283922169 -0.0048183862343859074 0 -0.011861597474264214 -0.0046870444617952622 0 -0.015016106583081683 -0.0039217029366285915 0 -0.01317531151952538 -0.0049052809336147061 0 -0.012780056939215441 -0.0038310585737042851 0 -0.015016106583081683 -0.0039217029366285915 0 -0.013457884646553989 -0.0028027121760015442 0 -0.012780056939215441 -0.0038310585737042851 0 -0.011048517877055341 -0.0040288903042826167 0 -0.011861597474264214 -0.0046870444617952622 0 -0.012780056939215441 -0.0038310585737042851 0 -0.011861597474264214 -0.0046870444617952622 0 -0.01317531151952538 -0.0049052809336147061 0 -0.012780056939215441 -0.0038310585737042851 0 -0.013457884646553989 -0.0028027121760015442 0 -0.011528132924236616 -0.002878930465641139 0 -0.012780056939215441 -0.0038310585737042851 0 -0.011528132924236616 -0.002878930465641139 0 -0.011048517877055341 -0.0040288903042826167 0 -0.012780056939215441 -0.0038310585737042851 0 -0.0064145161584041295 -0.0045771167288179808 0 -0.0041754460450761982 -0.0041453763433742579 0 -0.010811614301275259 -0.0054144543446153432 0 -0.011245552065989982 -0.0056321912011177986 0 -0.010780578210161772 -0.0048878741343241858 0 -0.010811614301275259 -0.0054144543446153432 0 -0.010938672407473043 -0.0055941061733243832 0 -0.011245552065989982 -0.0056321912011177986 0 -0.0041780412180443182 -0.002599058694254564 0 -0.0056457492708914944 -0.0035254846595566525 0 -0.010811614301275259 -0.0054144543446153432 0 -0.010441204271681626 -0.0056144264585882226 0 -0.010675047650669478 -0.0049906283098204163 0 -0.010279753620678234 -0.0053579745922696627 0 -0.010441204271681626 -0.0056144264585882226 0 -0.010509632626907128 -0.0050923283977988704 0 -0.01170380314943428 -0.0058749326688986607 0 -0.0056457492708914944 -0.0035254846595566525 0 -0.010811614301275259 -0.0054144543446153432 0 -0.010711853287282117 -0.0056337059113671676 0 -0.010441204271681626 -0.0056144264585882226 0 -0.01027079182773348 -0.0058413131001660871 0 -0.010653233619059278 -0.0059386194477559382 0 -0.010441204271681626 -0.0056144264585882226 0 -0.010653233619059278 -0.0059386194477559382 0 -0.010711853287282117 -0.0056337059113671676 0 -0.010938672407473043 -0.0055941061733243832 0 -0.010653233619059278 -0.0059386194477559382 0 -0.010711853287282117 -0.0056337059113671676 0 -0.010441204271681626 -0.0056144264585882226 0 -0.010653233619059278 -0.0059386194477559382 0 -0.010938672407473043 -0.0055941061733243832 0 -0.011175142591762829 -0.0054624910503550195 0 -0.011861597474264214 -0.0046870444617952622 0 -0.01317531151952538 -0.0049052809336147061 0 -0.011175142591762829 -0.0054624910503550195 0 -0.011476019710728364 -0.0056536045116502929 0 -0.011433041122908721 -0.0053794180617516441 0 -0.010811614301275259 -0.0054144543446153432 0 -0.010711853287282117 -0.0056337059113671676 0 -0.010938672407473043 -0.0055941061733243832 0 -0.010938672407473043 -0.0055941061733243832 0 -0.011175142591762829 -0.0054624910503550195 0 -0.011245552065989982 -0.0056321912011177986 0 -0.0056167754286815842 -0.0038340478454871063 0 -0.0064145161584041295 -0.0045771167288179808 0 -0.011180535283922169 -0.0048183862343859074 0 -0.011861597474264214 -0.0046870444617952622 0 -0.011175142591762829 -0.0054624910503550195 0 -0.00072714375983728053 -0.0028489111636342346 0 -0.00060734733135404397 -0.0032969654063724958 0 -0.001037138317596013 -0.0033095664578137811 0 -0.010616234060291978 -0.0049056306152121792 0 -0.011175142591762829 -0.0054624910503550195 0 -0.011245552065989982 -0.0056321912011177986 0 -0.010616234060291978 -0.0049056306152121792 0 -0.011180535283922169 -0.0048183862343859074 0 -0.011175142591762829 -0.0054624910503550195 0 -8.7952993971137264e-05 -0.0028477073669142708 0 -0.00072714375983728053 -0.0028489111636342346 0 -0.00060734733135404397 -0.0032969654063724958 0 -0.00060734733135404397 -0.0032969654063724958 0 -0.00055699164368833707 -0.0037050407787564176 0 -0.00017317093282012572 -0.0033445042457038222 0 -0.00060734733135404397 -0.0032969654063724958 0 -0.00096879270742216328 -0.0036755496762133832 0 -0.00055699164368833707 -0.0037050407787564176 0 -0.00060734733135404397 -0.0032969654063724958 0 -0.001037138317596013 -0.0033095664578137811 0 -0.00096879270742216328 -0.0036755496762133832 0 -0.00096879270742216328 -0.0036755496762133832 0 -0.00055699164368833707 -0.0037050407787564176 0 -0.00093609739942518346 -0.0040354445872918228 0 -0.00055699164368833707 -0.0037050407787564176 0 -0.00047269208357141957 -0.0042206712187219178 0 -3.7175122089804801e-05 -0.0037093214152271663 0 -0.00055699164368833707 -0.0037050407787564176 0 -0.00047269208357141957 -0.0042206712187219178 0 -0.00093609739942518346 -0.0040354445872918228 0 -0.00047269208357141957 -0.0042206712187219178 0 -0.00093609739942518346 -0.0040354445872918228 0 -0.0010866870828972078 -0.0043080846911309287 0 -0.0018495910559126832 -0.0024784123400175655 0 0.0030613988946364312 -0.00092101431941587683 0 -0.00093609739942518346 -0.0040354445872918228 0 -0.0013485678912294795 -0.0037821973538718461 0 -0.0010866870828972078 -0.0043080846911309287 0 0.0020440799687677772 -0.00034959022891609489 0 0.0020454324461187086 -0.00035967464351623134 0 0.0020964101682082697 -0.00040652371285114454 0 -0.00020494097654202828 -0.0042782403281031844 0 -0.0041754460450761982 -0.0041453763433742579 0 -0.00093609739942518346 -0.0040354445872918228 0 -0.0013485678912294795 -0.0037821973538718461 0 -0.0013131504007068417 -0.003728874082455268 0 -0.00096879270742216328 -0.0036755496762133832 0 -0.00093609739942518346 -0.0040354445872918228 0 -0.0013552859713713006 -0.0037656674974728211 0 -0.001037138317596013 -0.0033095664578137811 0 -0.00096879270742216328 -0.0036755496762133832 0 -0.0013552859713713006 -0.0037656674974728211 0 -0.010811614301275259 -0.0054144543446153432 0 -0.010780578210161772 -0.0048878741343241858 0 -0.010675047650669478 -0.0049906283098204163 0 -0.0034935735513920356 -0.0045329647148410548 0 -0.0030131843178405845 -0.0038487709400574629 0 -0.0041906649697854154 -0.0029255228017525214 0 -0.0018495910559126832 -0.0024784123400175655 0 -0.0041754460450761982 -0.0041453763433742579 0 -0.0041754460450761982 -0.0041453763433742579 0 -0.0056457492708914944 -0.0035254846595566525 0 0.0019350069077094631 -5.9204622503374834e-05 0 0.0019698348395469144 -0.00025127340918472228 0 0.0020727064348768378 -0.00023366388059334775 0 0.0020911400321498128 -0.00028615441141180789 0 0.0020727064348768378 -0.00023366388059334775 0 0.0020329736312491823 -0.00030194125499678455 0 0.0020911400321498128 -0.00028615441141180789 0 0.0020329736312491823 -0.00030194125499678455 0 0.0020454324461187086 -0.00035967464351623134 0 -0.0018495910559126832 -0.0024784123400175655 0 -0.0056457492708914944 -0.0035254846595566525 0 0.0020071099084895579 -0.00036334371401523492 0 0.0019698348395469144 -0.00025127340918472228 0 0.0020329736312491823 -0.00030194125499678455 0 0.0019698348395469144 -0.00025127340918472228 0 0.0020727064348768378 -0.00023366388059334775 0 0.0020329736312491823 -0.00030194125499678455 0 0.0020071099084895579 -0.00036334371401523492 0 0.0020454324461187086 -0.00035967464351623134 0 0.0020318556613804009 -0.00042309281948077709 0 0.0020071099084895579 -0.00036334371401523492 0 0.0020329736312491823 -0.00030194125499678455 0 0.0020454324461187086 -0.00035967464351623134 0 -0.0018495910559126832 -0.0024784123400175655 0 0.0019317365988640153 0.00052915358560051608 0 0.0020454324461187086 -0.00035967464351623134 0 0.0020318556613804009 -0.00042309281948077709 0 0.0020964101682082697 -0.00040652371285114454 0 0.0036620023387332907 0.00010382183923351743 0 0.0052428295206967011 0.00045615114530274549 0 0.0043984763835847587 -0.00093429898771882553 0 0.0030047839459536171 -7.5107758321194898e-05 0 0.0030613988946364312 -0.00092101431941587683 0 0.0052428295206967011 0.00045615114530274549 0 0.0043984763835847587 -0.00093429898771882553 0 0.006075108089015264 -0.0013304662497085375 0 0.0032274602731236206 -0.0010806100106616008 0 0.0036620023387332907 0.00010382183923351743 0 0.0043984763835847587 -0.00093429898771882553 0 0.0032274602731236206 -0.0010806100106616008 0 0.0043984763835847587 -0.00093429898771882553 0 0.0037769032768349641 -0.0017511759300040868 0 0.0043984763835847587 -0.00093429898771882553 0 0.0037769032768349641 -0.0017511759300040868 0 0.0046331114319411075 -0.0019745025469403515 0 0.0037769032768349641 -0.0017511759300040868 0 0.0046331114319411075 -0.0019745025469403515 0 0.0038542168134552738 -0.0024933749029934348 0 0.0043984763835847587 -0.00093429898771882553 0 0.0046331114319411075 -0.0019745025469403515 0 0.006075108089015264 -0.0013304662497085375 0 0.0046331114319411075 -0.0019745025469403515 0 0.0055581556406600237 -0.0026220196377467887 0 0.006075108089015264 -0.0013304662497085375 0 0.0046331114319411075 -0.0019745025469403515 0 0.0045860370892347431 -0.0028075191945087763 0 0.0055581556406600237 -0.0026220196377467887 0 0.0045860370892347431 -0.0028075191945087763 0 0.0055581556406600237 -0.0026220196377467887 0 0.0050822959697230949 -0.0034570188836615117 0 0.0045860370892347431 -0.0028075191945087763 0 0.0038542168134552738 -0.0024933749029934348 0 0.0037887750114428101 -0.0035109130047572307 0 0.0045860370892347431 -0.0028075191945087763 0 0.0037887750114428101 -0.0035109130047572307 0 0.0050822959697230949 -0.0034570188836615117 0 0.0046331114319411075 -0.0019745025469403515 0 0.0045860370892347431 -0.0028075191945087763 0 0.0038542168134552738 -0.0024933749029934348 0 0.0098206373743508976 -0.002035801584217593 0 0.0098590403063214243 -0.0032354512283285105 0 0.0066396095942470763 -0.0023145072491226912 0 0.007834154501936209 -0.0025602597928169094 0 0.0063412748306469324 -0.0036001493683312188 0 0.0055581556406600237 -0.0026220196377467887 0 0.0066396095942470763 -0.0023145072491226912 0 0.0063412748306469324 -0.0036001493683312188 0 0.0055581556406600237 -0.0026220196377467887 0 0.0063412748306469324 -0.0036001493683312188 0 0.0050822959697230949 -0.0034570188836615117 0 0.0055581556406600237 -0.0026220196377467887 0 0.0066396095942470763 -0.0023145072491226912 0 0.006075108089015264 -0.0013304662497085375 0 0.0066396095942470763 -0.0023145072491226912 0 0.0073641504494056063 -0.0015000356430678082 0 0.007834154501936209 -0.0025602597928169094 0 0.0066396095942470763 -0.0023145072491226912 0 0.0073641504494056063 -0.0015000356430678082 0 0.006075108089015264 -0.0013304662497085375 0 0.0073017287968546755 -0.0014013121457346048 0 0.0098206373743508976 -0.002035801584217593 0 0.0073924920134677994 -0.0014339189662851241 0 0.0069429704015170519 -0.00053807576068838528 0 0.0077370979144759751 -0.00078032512470985497 0 0.0073641504494056063 -0.0015000356430678082 0 0.0069429704015170519 -0.00053807576068838528 0 0.006075108089015264 -0.0013304662497085375 0 0.0073017287968546755 -0.0014013121457346048 0 0.0070082042544398863 -0.00065008130455399427 0 0.0054762374058126284 9.943454100820942e-05 0 0.0069429704015170519 -0.00053807576068838528 0 0.006075108089015264 -0.0013304662497085375 0 0.0030613988946364312 -0.00092101431941587683 0 0.0066328933667352281 -0.00091782607100530109 0 0.0031108690312416647 -0.0021175854118084866 0 0.0030613988946364312 -0.00092101431941587683 0 0.0071323095937153771 0.00036733256618442015 0 0.0054762374058126284 9.943454100820942e-05 0 0.0069429704015170519 -0.00053807576068838528 0 0.0071323095937153771 0.00036733256618442015 0 0.0069429704015170519 -0.00053807576068838528 0 0.0077856911651688942 -0.0001927757648972205 0 0.0069429704015170519 -0.00053807576068838528 0 0.0077856911651688942 -0.0001927757648972205 0 0.0077370979144759751 -0.00078032512470985497 0 0.008414543045879911 -0.0004643269370072579 0 0.0077856911651688942 -0.0001927757648972205 0 0.0087110650684240985 0.00040475640398486264 0 0.0071323095937153771 0.00036733256618442015 0 0.0077856911651688942 -0.0001927757648972205 0 0.0087110650684240985 0.00040475640398486264 0 0.008414543045879911 -0.0004643269370072579 0 0.0077856911651688942 -0.0001927757648972205 0 0.0077370979144759751 -0.00078032512470985497 0 0.008414543045879911 -0.0004643269370072579 0 0.0093122644041755236 -0.00027598868223584715 0 0.0087110650684240985 0.00040475640398486264 0 0.0089154624940560329 -0.00087606739894540309 0 0.0087251890674990389 -0.0016573282642432126 0 0.0096795649899132259 -0.00083531829412762713 0 0.008414543045879911 -0.0004643269370072579 0 0.0089154624940560329 -0.00087606739894540309 0 0.0081121047417895536 -0.0012609559362105655 0 0.008414543045879911 -0.0004643269370072579 0 0.0089154624940560329 -0.00087606739894540309 0 0.0093122644041755236 -0.00027598868223584715 0 0.0089154624940560329 -0.00087606739894540309 0 0.0081121047417895536 -0.0012609559362105655 0 0.0087251890674990389 -0.0016573282642432126 0 0.008414543045879911 -0.0004643269370072579 0 0.0077370979144759751 -0.00078032512470985497 0 0.0081121047417895536 -0.0012609559362105655 0 0.0073924920134677994 -0.0014339189662851241 0 0.0077370979144759751 -0.00078032512470985497 0 0.0081121047417895536 -0.0012609559362105655 0 0.0081121047417895536 -0.0012609559362105655 0 0.0087251890674990389 -0.0016573282642432126 0 0.0077781159593414686 -0.0023221336612087758 0 0.0073924920134677994 -0.0014339189662851241 0 0.0081121047417895536 -0.0012609559362105655 0 0.0077781159593414686 -0.0023221336612087758 0 0.0092508164870928489 -0.0012401054011087959 0 0.0098206373743508976 -0.002035801584217593 0 0.010057198301834951 -0.0008430911147702555 0 0.010034422184555157 -0.00087783330854614714 0 0.0099813986047939743 -0.0008840271496073775 0 0.0092508164870928489 -0.0012401054011087959 0 0.0097230678693627347 -0.00087275382582903101 0 0.010057198301834951 -0.0008430911147702555 0 0.010045033499666732 -0.00081599464475668175 0 0.0096795649899132259 -0.00083531829412762713 0 0.010057198301834951 -0.0008430911147702555 0 0.010051510537835763 -0.00084059324843557565 0 0.010045033499666732 -0.00081599464475668175 0 0.010051510537835763 -0.00084059324843557565 0 0.010045033499666732 -0.00081599464475668175 0 0.01011666052989405 -0.00086904453911372038 0 0.010057198301834951 -0.0008430911147702555 0 0.010051510537835763 -0.00084059324843557565 0 0.010034422184555157 -0.00087783330854614714 0 0.01011666052989405 -0.00086904453911372038 0 0.010257430593795537 -0.0010302960270524393 0 0.010225568413184893 -0.0010793340628841854 0 0.0091761425008116248 -0.00088068884186248318 0 0.012916401110603399 -0.0017755580915105086 0 0.01011666052989405 -0.00086904453911372038 0 0.010175441559841949 -0.001091616974021489 0 0.010225568413184893 -0.0010793340628841854 0 0.010034422184555157 -0.00087783330854614714 0 0.01011666052989405 -0.00086904453911372038 0 0.010009458358384507 -0.00095901152639835021 0 0.010051510537835763 -0.00084059324843557565 0 0.010034422184555157 -0.00087783330854614714 0 0.01011666052989405 -0.00086904453911372038 0 0.010034422184555157 -0.00087783330854614714 0 0.0099813986047939743 -0.0008840271496073775 0 0.010009458358384507 -0.00095901152639835021 0 0.0098206373743508976 -0.002035801584217593 0 0.012916401110603399 -0.0017755580915105086 0 0.010574583203268905 -0.00090621210492988487 0 0.010392034731247749 -0.0010289581148234114 0 0.010637113441531565 -0.00112830555754413 0 0.010060503664414246 -0.0008269624299681082 0 0.01023088560045176 -0.0008962451476286781 0 0.01011666052989405 -0.00086904453911372038 0 0.010574583203268905 -0.00090621210492988487 0 0.010392034731247749 -0.0010289581148234114 0 0.010045033499666732 -0.00081599464475668175 0 0.01011666052989405 -0.00086904453911372038 0 0.010574583203268905 -0.00090621210492988487 0 0.01011666052989405 -0.00086904453911372038 0 0.010392034731247749 -0.0010289581148234114 0 0.010257430593795537 -0.0010302960270524393 0 0.010045033499666732 -0.00081599464475668175 0 0.0098438036642541863 -0.00084023153719496981 0 0.0096795649899132259 -0.00083531829412762713 0 0.010045033499666732 -0.00081599464475668175 0 0.0098823843083629716 -0.00088626771410936435 0 0.0098438036642541863 -0.00084023153719496981 0 0.0098823843083629716 -0.00088626771410936435 0 0.0098438036642541863 -0.00084023153719496981 0 0.0099498594476182031 -0.00070103371123623971 0 0.0098823843083629716 -0.00088626771410936435 0 0.0099498594476182031 -0.00070103371123623971 0 0.010149954880036335 -0.00075377087669559976 0 0.0099498594476182031 -0.00070103371123623971 0 0.0098946785496841078 -0.0003819555753474985 0 0.010212073370509231 -0.00049826792274609919 0 0.0098438036642541863 -0.00084023153719496981 0 0.0099498594476182031 -0.00070103371123623971 0 0.0096795649899132259 -0.00083531829412762713 0 0.0099498594476182031 -0.00070103371123623971 0 0.0096795649899132259 -0.00083531829412762713 0 0.0098946785496841078 -0.0003819555753474985 0 0.0096795649899132259 -0.00083531829412762713 0 0.0093122644041755236 -0.00027598868223584715 0 0.0098946785496841078 -0.0003819555753474985 0 0.0089154624940560329 -0.00087606739894540309 0 0.0096795649899132259 -0.00083531829412762713 0 0.0093122644041755236 -0.00027598868223584715 0 0.0093122644041755236 -0.00027598868223584715 0 0.0098946785496841078 -0.0003819555753474985 0 0.0097310593475282911 0.00023681178838665549 0 0.0098946785496841078 -0.0003819555753474985 0 0.0097310593475282911 0.00023681178838665549 0 0.010159895905804775 -0.00016687065891762739 0 0.00092771495519601923 -0.0040455514574172348 0 0.0012797458778262066 -0.0034297601082166136 0 0.00060713474398399079 -0.0035279184191945564 0 0.00092771495519601923 -0.0040455514574172348 0 0.00019013131189721396 -0.0041339434132508747 0 0.00060713474398399079 -0.0035279184191945564 0 0.0053034207558500411 -0.0019063500637031782 0 0.0044852763183330846 -0.0018423205846782448 0 0.0093122644041755236 -0.00027598868223584715 0 0.0097310593475282911 0.00023681178838665549 0 0.0087110650684240985 0.00040475640398486264 0 -0.00047269208357141957 -0.0042206712187219178 0 0.00019013131189721396 -0.0041339434132508747 0 -3.7175122089804801e-05 -0.0037093214152271663 0 0.0031108690312416647 -0.0021175854118084866 0 0.0044852763183330846 -0.0018423205846782448 0 -0.00055699164368833707 -0.0037050407787564176 0 -3.7175122089804801e-05 -0.0037093214152271663 0 -0.00017317093282012572 -0.0033445042457038222 0 0.00019013131189721396 -0.0041339434132508747 0 -3.7175122089804801e-05 -0.0037093214152271663 0 0.00060713474398399079 -0.0035279184191945564 0 -3.7175122089804801e-05 -0.0037093214152271663 0 0.00021535122767673347 -0.0032921221904992234 0 0.00060713474398399079 -0.0035279184191945564 0 -3.7175122089804801e-05 -0.0037093214152271663 0 0.00021535122767673347 -0.0032921221904992234 0 -0.00017317093282012572 -0.0033445042457038222 0 -8.7952993971137264e-05 -0.0028477073669142708 0 -0.00060734733135404397 -0.0032969654063724958 0 -0.00017317093282012572 -0.0033445042457038222 0 -8.7952993971137264e-05 -0.0028477073669142708 0 0.00021535122767673347 -0.0032921221904992234 0 -0.00017317093282012572 -0.0033445042457038222 0 -8.7952993971137264e-05 -0.0028477073669142708 0 0.00021535122767673347 -0.0032921221904992234 0 0.00046323470102833443 -0.003009397117871692 0 0.0010253991934226923 -0.0024187793908661917 0 0.00051132269103767764 -0.0028335946915885291 0 0.0010388709178497384 -0.0029559904221446317 0 0.0010253991934226923 -0.0024187793908661917 0 0.0010388709178497384 -0.0029559904221446317 0 0.0015420271236685642 -0.0028140933512922147 0 0.0010388709178497384 -0.0029559904221446317 0 0.0012797458778262066 -0.0034297601082166136 0 0.00060713474398399079 -0.0035279184191945564 0 0.00021535122767673347 -0.0032921221904992234 0 0.00046323470102833443 -0.003009397117871692 0 0.00060713474398399079 -0.0035279184191945564 0 0.00051132269103767764 -0.0028335946915885291 0 0.0010388709178497384 -0.0029559904221446317 0 0.00060713474398399079 -0.0035279184191945564 0 0.00049356543832632376 -0.0029359439880768082 0 0.00059002186629251465 -0.0034905418637222723 0 0.0012797458778262066 -0.0034297601082166136 0 0.0021018612807674792 -0.0032184141389563314 0 0.0017466794354369169 -0.003922326341285305 0 0.0012797458778262066 -0.0034297601082166136 0 0.0021018612807674792 -0.0032184141389563314 0 0.0015420271236685642 -0.0028140933512922147 0 0.0010388709178497384 -0.0029559904221446317 0 0.0012797458778262066 -0.0034297601082166136 0 0.0015420271236685642 -0.0028140933512922147 0 0.0020119566234292835 -0.0025478574052281624 0 0.0021018612807674792 -0.0032184141389563314 0 0.0015420271236685642 -0.0028140933512922147 0 0.0020119566234292835 -0.0025478574052281624 0 0.0021018612807674792 -0.0032184141389563314 0 0.0025632530702049219 -0.0026517808391116893 0 0.0021018612807674792 -0.0032184141389563314 0 0.0025632530702049219 -0.0026517808391116893 0 0.002924189099354586 -0.0032977060823925321 0 0.0023101454724003467 -0.0024643325922954419 0 0.00286661111823865 -0.0032423518498564713 0 0.0034574221581313083 -0.0020755230597842593 0 0.0020425892897207119 -0.002277245232462752 0 0.002924189099354586 -0.0032977060823925321 0 0.0021018612807674792 -0.0032184141389563314 0 0.002924189099354586 -0.0032977060823925321 0 0.0025269088332776023 -0.0038168325262353444 0 0.010603501681022197 6.0859237233283874e-05 0 0.010850297304898617 -0.0001082444013453591 0 0.010843706517048055 1.654049871161204e-05 0 0.002924189099354586 -0.0032977060823925321 0 0.0025269088332776023 -0.0038168325262353444 0 0.0035585543943978297 -0.0038038368498250126 0 0.0065969512869171942 -0.0018737080622367539 0 0.0070826051700739077 -0.0019410094183168619 0 0.010603501681022197 6.0859237233283874e-05 0 0.010690250804778065 -0.00014512696391724052 0 0.010850297304898617 -0.0001082444013453591 0 0.010690250804778065 -0.00014512696391724052 0 0.010830679591854622 -0.00028266593233066035 0 0.010850297304898617 -0.0001082444013453591 0 0.010603501681022197 6.0859237233283874e-05 0 0.010690250804778065 -0.00014512696391724052 0 0.010485029815863899 -0.00022422895837844603 0 0.010603501681022197 6.0859237233283874e-05 0 0.010242356696146055 0.0001015086146481364 0 0.010485029815863899 -0.00022422895837844603 0 0.010242356696146055 0.0001015086146481364 0 0.010159895905804775 -0.00016687065891762739 0 0.010485029815863899 -0.00022422895837844603 0 0.0065969512869171942 -0.0018737080622367539 0 0.005982778222796109 -0.0019085177047264775 0 0.0021018612807674792 -0.0032184141389563314 0 0.0025269088332776023 -0.0038168325262353444 0 0.0017466794354369169 -0.003922326341285305 0 0.00092771495519601923 -0.0040455514574172348 0 0.0012797458778262066 -0.0034297601082166136 0 0.0017466794354369169 -0.003922326341285305 0 0.0053034207558500411 -0.0019063500637031782 0 0.005982778222796109 -0.0019085177047264775 0 0.0097310593475282911 0.00023681178838665549 0 0.010242356696146055 0.0001015086146481364 0 0.010159895905804775 -0.00016687065891762739 0 0.0098946785496841078 -0.0003819555753474985 0 0.010159895905804775 -0.00016687065891762739 0 0.010212073370509231 -0.00049826792274609919 0 0.010159895905804775 -0.00016687065891762739 0 0.010485029815863899 -0.00022422895837844603 0 0.010212073370509231 -0.00049826792274609919 0 0.010485029815863899 -0.00022422895837844603 0 0.010212073370509231 -0.00049826792274609919 0 0.010504898785026515 -0.00063351114119913812 0 0.0099498594476182031 -0.00070103371123623971 0 0.010212073370509231 -0.00049826792274609919 0 0.010149954880036335 -0.00075377087669559976 0 0.010149954880036335 -0.00075377087669559976 0 0.010504898785026515 -0.00063351114119913812 0 0.010307592630630732 -0.00098112608671499383 0 0.010212073370509231 -0.00049826792274609919 0 0.010149954880036335 -0.00075377087669559976 0 0.010504898785026515 -0.00063351114119913812 0 0.010504898785026515 -0.00063351114119913812 0 0.010307592630630732 -0.00098112608671499383 0 0.010820956933642803 -0.00098888868770399731 0 0.010537823401566594 -0.0009835001315914387 0 0.010800408260526626 -0.0009983860990650103 0 0.010574583203268905 -0.00090621210492988487 0 0.010767779353405451 -0.001006349849258427 0 0.010637113441531565 -0.00112830555754413 0 0.0098823843083629716 -0.00088626771410936435 0 0.010149954880036335 -0.00075377087669559976 0 0.010307592630630732 -0.00098112608671499383 0 0.01023088560045176 -0.0008962451476286781 0 0.010537823401566594 -0.0009835001315914387 0 0.010820956933642803 -0.00098888868770399731 0 0.010854795141539428 -0.00062424019499684037 0 0.011198720587523003 -0.00094413032757476132 0 0.010504898785026515 -0.00063351114119913812 0 0.010820956933642803 -0.00098888868770399731 0 0.010854795141539428 -0.00062424019499684037 0 0.010854795141539428 -0.00062424019499684037 0 0.010693144031285321 -0.0004154580507342747 0 0.010830679591854622 -0.00028266593233066035 0 0.010854795141539428 -0.00062424019499684037 0 0.010830679591854622 -0.00028266593233066035 0 0.010998387694302872 -0.00052906608560550469 0 0.010504898785026515 -0.00063351114119913812 0 0.010854795141539428 -0.00062424019499684037 0 0.010693144031285321 -0.0004154580507342747 0 0.010485029815863899 -0.00022422895837844603 0 0.010504898785026515 -0.00063351114119913812 0 0.010693144031285321 -0.0004154580507342747 0 0.010690250804778065 -0.00014512696391724052 0 0.010485029815863899 -0.00022422895837844603 0 0.010693144031285321 -0.0004154580507342747 0 0.010690250804778065 -0.00014512696391724052 0 0.010693144031285321 -0.0004154580507342747 0 0.010830679591854622 -0.00028266593233066035 0 0.010830679591854622 -0.00028266593233066035 0 0.010961115999683474 -0.00024802854461596996 0 0.010958127034024585 -0.00036157601620041591 0 0.010830679591854622 -0.00028266593233066035 0 0.010961115999683474 -0.00024802854461596996 0 0.010850297304898617 -0.0001082444013453591 0 0.011010389900098894 -0.00021008292211039498 0 0.010990026802916272 -0.00012514459587362951 0 0.010956524232506268 -0.00014385633862556055 0 0.010961115999683474 -0.00024802854461596996 0 0.011010389900098894 -0.00021008292211039498 0 0.010956524232506268 -0.00014385633862556055 0 0.010961115999683474 -0.00024802854461596996 0 0.011029726426180015 -0.000280346599112169 0 0.01105250655744157 -0.00039809385716859188 0 0.010961115999683474 -0.00024802854461596996 0 0.011010389900098894 -0.00021008292211039498 0 0.011029726426180015 -0.000280346599112169 0 0.011010389900098894 -0.00021008292211039498 0 0.011029726426180015 -0.000280346599112169 0 0.011092129661887724 -0.00026720074196866163 0 0.01105250655744157 -0.00039809385716859188 0 0.010998387694302872 -0.00052906608560550469 0 0.011139723394472438 -0.0006026537783042407 0 0.011370739764706006 -0.0004576698181081387 0 0.011552988537651496 -4.8689345876991423e-05 0 0.01105250655744157 -0.00039809385716859188 0 0.011139723394472438 -0.0006026537783042407 0 0.011092129661887724 -0.00026720074196866163 0 0.011029726426180015 -0.000280346599112169 0 0.01105250655744157 -0.00039809385716859188 0 0.011092129661887724 -0.00026720074196866163 0 0.010830679591854622 -0.00028266593233066035 0 0.010958127034024585 -0.00036157601620041591 0 0.010998387694302872 -0.00052906608560550469 0 0.010961115999683474 -0.00024802854461596996 0 0.01105250655744157 -0.00039809385716859188 0 0.010958127034024585 -0.00036157601620041591 0 0.01105250655744157 -0.00039809385716859188 0 0.010958127034024585 -0.00036157601620041591 0 0.010998387694302872 -0.00052906608560550469 0 0.010854795141539428 -0.00062424019499684037 0 0.010998387694302872 -0.00052906608560550469 0 0.011198720587523003 -0.00094413032757476132 0 0.010998387694302872 -0.00052906608560550469 0 0.011139723394472438 -0.0006026537783042407 0 0.011198720587523003 -0.00094413032757476132 0 0.01160749477784242 -0.00028061357852169862 0 0.011883271988546685 -0.00095703299400042236 0 0.011198720587523003 -0.00094413032757476132 0 0.01160749477784242 -0.00028061357852169862 0 0.012023885688799019 -0.0003435075876339659 0 0.011883271988546685 -0.00095703299400042236 0 0.011370739764706006 -0.0004576698181081387 0 0.011191754247096021 -0.00092412608394303757 0 0.01620535671029873 0.00019353459739208348 0 0.015644728723950462 6.7628249402874471e-08 0 0.017609255564291285 1.2297183169987884e-06 0 0.014202485781563965 -2.5130212870928883e-05 0 0.01426796783941117 -0.00041006282080052959 0 0.01620535671029873 0.00019353459739208348 0 0.017192569428418139 3.8141312227646792e-05 0 0.017609255564291285 1.2297183169987884e-06 0 0.01160749477784242 -0.00028061357852169862 0 0.012023885688799019 -0.0003435075876339659 0 0.012083344129386664 0.00011619305146408843 0 0.01620535671029873 0.00019353459739208348 0 0.015644728723950462 6.7628249402874471e-08 0 0.015119272393484286 7.073651142181681e-05 0 0.015644728723950462 6.7628249402874471e-08 0 0.015119272393484286 7.073651142181681e-05 0 0.013680759047094187 1.252789365919863e-07 0 0.015119272393484286 7.073651142181681e-05 0 0.015056855153604148 -1.0202554427089691e-05 0 0.014400436905498958 -1.4663700767365697e-05 0 0.01620535671029873 0.00019353459739208348 0 0.015119272393484286 7.073651142181681e-05 0 0.015056855153604148 -1.0202554427089691e-05 0 0.012023885688799019 -0.0003435075876339659 0 0.012151234164123975 0.00021878785912329582 0 0.012083344129386664 0.00011619305146408843 0 0.014202485781563965 -2.5130212870928883e-05 0 0.013185940706655533 0.00019168502393527177 0 0.01160749477784242 -0.00028061357852169862 0 0.012083344129386664 0.00011619305146408843 0 0.012035925368370261 0.00023441577882979327 0 0.013185940706655533 0.00019168502393527177 0 0.012809681268311468 -2.9757255064189723e-05 0 0.012073758585959075 0.00020036543184336652 0 0.012083344129386664 0.00011619305146408843 0 0.012035925368370261 0.00023441577882979327 0 0.012035925368370261 0.00023441577882979327 0 0.012081668669989162 0.00015273059966800339 0 0.012112432390970221 4.9715090270749142e-05 0 0.011010389900098894 -0.00021008292211039498 0 0.011092129661887724 -0.00026720074196866163 0 0.010990026802916272 -0.00012514459587362951 0 0.013185940706655533 0.00019168502393527177 0 0.01300651725799074 0.00013765315053646573 0 0.011552988537651496 -4.8689345876991423e-05 0 0.011482594245527337 5.1811982417349873e-05 0 0.012073758585959075 0.00020036543184336652 0 0.012035925368370261 0.00023441577882979327 0 0.012081668669989162 0.00015273059966800339 0 0.011092129661887724 -0.00026720074196866163 0 0.010935055156241066 -2.7870719578396691e-05 0 0.010990026802916272 -0.00012514459587362951 0 0.015119272393484286 7.073651142181681e-05 0 0.013680759047094187 1.252789365919863e-07 0 0.014400436905498958 -1.4663700767365697e-05 0 0.015056855153604148 -1.0202554427089691e-05 0 0.014400436905498958 -1.4663700767365697e-05 0 0.013900264977424521 -0.00013632883344399393 0 0.013680759047094187 1.252789365919863e-07 0 0.014400436905498958 -1.4663700767365697e-05 0 0.013900264977424521 -0.00013632883344399393 0 0.012081668669989162 0.00015273059966800339 0 0.012112432390970221 4.9715090270749142e-05 0 0.011712579570533541 -2.9081412964064653e-07 0 0.01300651725799074 0.00013765315053646573 0 0.011716453665571069 1.0637914498733495e-07 0 0.013680759047094187 1.252789365919863e-07 0 0.013900264977424521 -0.00013632883344399393 0 0.011717132591444255 -7.4727128801216557e-07 0 0.010935055156241066 -2.7870719578396691e-05 0 0.010779202536808264 -2.1303383614372289e-05 0 0.010655608623435895 -4.7008731163147443e-07 0 0.012112432390970221 4.9715090270749142e-05 0 0.011712579570533541 -2.9081412964064653e-07 0 0.010661886359957651 2.9781193834428849e-07 0 0.011482594245527337 5.1811982417349873e-05 0 0.010659076134336469 1.1439551971205203e-07 0 0.010849874854555575 0.00023514609416999137 0 0.0084794820339324731 -0.0014882195032107572 0 0.010935055156241066 -2.7870719578396691e-05 0 0.010779202536808264 -2.1303383614372289e-05 0 0.01093096164819417 -2.3691412503944615e-05 0 0.01093096164819417 -2.3691412503944615e-05 0 0.010922210115158499 -3.0360903154460972e-05 0 0.010930991723587658 -2.2301369009121208e-05 0 0.010779202536808264 -2.1303383614372289e-05 0 0.01093096164819417 -2.3691412503944615e-05 0 0.010977298694681665 -0.00014691933315588728 0 0.010956684525254121 -6.5328030156512509e-05 0 0.010990026802916272 -0.00012514459587362951 0 0.010934174784619324 -6.2353737317767893e-05 0 0.01093096164819417 -2.3691412503944615e-05 0 0.010956684525254121 -6.5328030156512509e-05 0 0.010934174784619324 -6.2353737317767893e-05 0 0.010935055156241066 -2.7870719578396691e-05 0 0.01093096164819417 -2.3691412503944615e-05 0 0.010956684525254121 -6.5328030156512509e-05 0 0.010935055156241066 -2.7870719578396691e-05 0 0.010956684525254121 -6.5328030156512509e-05 0 0.010990026802916272 -0.00012514459587362951 0 0.010990026802916272 -0.00012514459587362951 0 0.010956524232506268 -0.00014385633862556055 0 0.010934174784619324 -6.2353737317767893e-05 0 0.010956524232506268 -0.00014385633862556055 0 0.010934174784619324 -6.2353737317767893e-05 0 0.010850297304898617 -0.0001082444013453591 0 0.010961115999683474 -0.00024802854461596996 0 0.010956524232506268 -0.00014385633862556055 0 0.010850297304898617 -0.0001082444013453591 0 0.010934174784619324 -6.2353737317767893e-05 0 0.010850297304898617 -0.0001082444013453591 0 0.010843706517048055 1.654049871161204e-05 0 0.01093096164819417 -2.3691412503944615e-05 0 0.010934174784619324 -6.2353737317767893e-05 0 0.010922210115158499 -3.0360903154460972e-05 0 0.010934174784619324 -6.2353737317767893e-05 0 0.010843706517048055 1.654049871161204e-05 0 0.010922210115158499 -3.0360903154460972e-05 0 0.010843706517048055 1.654049871161204e-05 0 0.010922210115158499 -3.0360903154460972e-05 0 0.010930991723587658 -2.2301369009121208e-05 0 0.0035585543943978297 -0.0038038368498250126 0 0.0040643123694478304 -0.0030352684429134223 0 0.0049835331610256529 -0.0036017320823673168 0 0.0070826051700739077 -0.0019410094183168619 0 0.0084794820339324731 -0.0014882195032107572 0 0.002924189099354586 -0.0032977060823925321 0 0.0035585543943978297 -0.0038038368498250126 0 0.0040643123694478304 -0.0030352684429134223 0 0.0034574221581313083 -0.0020755230597842593 0 0.002924189099354586 -0.0032977060823925321 0 0.0040643123694478304 -0.0030352684429134223 0 0.0047225986333149558 -0.0021691752977727719 0 0.0040643123694478304 -0.0030352684429134223 0 0.0049835331610256529 -0.0036017320823673168 0 0.0047225986333149558 -0.0021691752977727719 0 0.0034574221581313083 -0.0020755230597842593 0 0.0040643123694478304 -0.0030352684429134223 0 0.0053608653093992886 -0.0012739978104644499 0 0.0084794820339324731 -0.0014882195032107572 0 0.0068123294958601609 -0.00011459717348088658 0 0.0082196376408978297 -0.00017563831611797903 0 0.0076671060718917815 -0.0012389730865111771 0 0.0083693089404256599 6.0881722359092735e-07 0 0.0082196376408978297 -0.00017563831611797903 0 0.010375967735040853 -3.1680736197701045e-06 0 0.010381015885990713 3.2404633275496431e-07 0 0.0084794820339324731 -0.0014882195032107572 0 0.010779202536808264 -2.1303383614372289e-05 0 0.010383149286533383 2.9643485348735887e-07 0 0.010977298694681665 -0.00014691933315588728 0 0.0082196376408978297 -0.00017563831611797903 0 0.010375967735040853 -3.1680736197701045e-06 0 0.0076671060718917815 -0.0012389730865111771 0 0.010779202536808264 -2.1303383614372289e-05 0 0.010383149286533383 2.9643485348735887e-07 0 0.010655608623435895 -4.7008731163147443e-07 0 0.026237914122384024 2.9491184565378618e-05 0 0.025394227455021789 3.7190195652716299e-05 0 0.026038848589016353 -0.00070204072794319229 0 0.025394227455021789 3.7190195652716299e-05 0 0.025828921096016481 1.0059868724575456e-06 0 0.023889789623887839 -2.1049393323753744e-06 0 0.026237914122384024 2.9491184565378618e-05 0 0.025394227455021789 3.7190195652716299e-05 0 0.025828921096016481 1.0059868724575456e-06 0 0.026237914122384024 2.9491184565378618e-05 0 0.025828921096016481 1.0059868724575456e-06 0 0.02672319231853134 0.00023625376702967151 0 0.026237914122384024 2.9491184565378618e-05 0 0.026760456181978202 -6.3252413830031071e-05 0 0.02672319231853134 0.00023625376702967151 0 0.026771438651315406 -0.00011510312566388877 0 0.027063702578626933 -0.00033516685049238249 0 0.026760456181978202 -6.3252413830031071e-05 0 0.027485947931815354 -0.00044471221674049973 0 0.027187213568331585 7.5154443620672212e-05 0 0.026760456181978202 -6.3252413830031071e-05 0 0.02652858193062501 -0.000309457570685563 0 0.026644465706302325 -0.00036069667869761458 0 0.026237914122384024 2.9491184565378618e-05 0 0.02652858193062501 -0.000309457570685563 0 0.026038848589016353 -0.00070204072794319229 0 0.026237914122384024 2.9491184565378618e-05 0 0.026760456181978202 -6.3252413830031071e-05 0 0.02652858193062501 -0.000309457570685563 0 0.02652858193062501 -0.000309457570685563 0 0.026548205239604286 -0.00053038196950462135 0 0.026038848589016353 -0.00070204072794319229 0 0.024395935042810516 -8.7187712214011146e-05 0 0.024076075724999185 -0.00025423659315464841 0 0.026548205239604286 -0.00053038196950462135 0 0.026634846040250688 -0.00038987063420664565 0 0.026644465706302325 -0.00036069667869761458 0 0.02652858193062501 -0.000309457570685563 0 0.026548205239604286 -0.00053038196950462135 0 0.026644465706302325 -0.00036069667869761458 0 0.024395935042810516 -8.7187712214011146e-05 0 0.024897572232601018 2.1607577909542336e-05 0 0.022217714074489921 0.00039046186046294253 0 0.022457937455982787 0.0001430256733495192 0 0.02316207817990338 0.00044597769138015616 0 0.022217714074489921 0.00039046186046294253 0 0.022457937455982787 0.0001430256733495192 0 0.022009055694577919 0.00018708873532782475 0 0.022217714074489921 0.00039046186046294253 0 0.022009055694577919 0.00018708873532782475 0 0.022117294823010246 7.4988456481500583e-05 0 0.022009055694577919 0.00018708873532782475 0 0.022117294823010246 7.4988456481500583e-05 0 0.021708141314537934 0.00017066784816578619 0 0.022117294823010246 7.4988456481500583e-05 0 0.023882679820685499 -1.296883360102632e-06 0 0.022449202383012436 8.4441215591508703e-07 0 0.024076075724999185 -0.00025423659315464841 0 0.023886001501601792 -1.1215527560994964e-07 0 0.025394227455021789 3.7190195652716299e-05 0 0.026038848589016353 -0.00070204072794319229 0 0.023889789623887839 -2.1049393323753744e-06 0 0.022117294823010246 7.4988456481500583e-05 0 0.022449202383012436 8.4441215591508703e-07 0 0.021708141314537934 0.00017066784816578619 0 0.021010559994798967 5.4904774071147169e-07 0 0.021708141314537934 0.00017066784816578619 0 0.021068271602660636 7.5979967995914847e-07 0 0.022449202383012436 8.4441215591508703e-07 0 0.021010559994798967 5.4904774071147169e-07 0 0.021708141314537934 0.00017066784816578619 0 0.022009055694577919 0.00018708873532782475 0 0.021708141314537934 0.00017066784816578619 0 0.021926238029981268 -9.0464491188812029e-05 0 0.021708141314537934 0.00017066784816578619 0 0.021653658944370005 -0.0001275249588099238 0 0.021068271602660636 7.5979967995914847e-07 0 0.021708141314537934 0.00017066784816578619 0 0.021653658944370005 -0.0001275249588099238 0 0.021926238029981268 -9.0464491188812029e-05 0 0.021653658944370005 -0.0001275249588099238 0 0.021377661228178902 -0.0002959671857442756 0 0.021068271602660636 7.5979967995914847e-07 0 0.021377661228178902 -0.0002959671857442756 0 0.021068271602660636 7.5979967995914847e-07 0 0.021178343900770363 -0.00057403143697532042 0 0.021377661228178902 -0.0002959671857442756 0 0.021178343900770363 -0.00057403143697532042 0 0.021341317550780638 -0.000498724976894807 0 0.021377661228178902 -0.0002959671857442756 0 0.02159535902939641 -0.00032399755447502126 0 0.021341317550780638 -0.000498724976894807 0 0.02159535902939641 -0.00032399755447502126 0 0.021341317550780638 -0.000498724976894807 0 0.021816837675640605 -0.00040463850657970497 0 0.021653658944370005 -0.0001275249588099238 0 0.02159535902939641 -0.00032399755447502126 0 0.021816837675640605 -0.00040463850657970497 0 0.021984702363553623 -0.00050652399307025183 0 0.01947325224820411 -0.0010104615350343398 0 0.021653658944370005 -0.0001275249588099238 0 0.021377661228178902 -0.0002959671857442756 0 0.02159535902939641 -0.00032399755447502126 0 0.021010559994798967 5.4904774071147169e-07 0 0.021068271602660636 7.5979967995914847e-07 0 0.019575695250280876 -1.5804061544813695e-06 0 0.021068271602660636 7.5979967995914847e-07 0 0.019575695250280876 -1.5804061544813695e-06 0 0.021178343900770363 -0.00057403143697532042 0 0.019569523830698085 -2.1263559153883417e-06 0 0.018133247614680898 -0.00018345032643451512 0 0.017609255564291285 1.2297183169987884e-06 0 0.019572951866583164 -2.2057676141346252e-07 0 0.020107675612878757 -0.0003414040247480941 0 0.018133247614680898 -0.00018345032643451512 0 0.017192569428418139 3.8141312227646792e-05 0 0.01758168461791132 -0.00027048195535102831 0 0.021178343900770363 -0.00057403143697532042 0 0.021341317550780638 -0.000498724976894807 0 0.021786917265415585 -0.00058701625933804734 0 0.01426796783941117 -0.00041006282080052959 0 0.016902305722564574 -0.0010882636758423878 0 0.020107675612878757 -0.0003414040247480941 0 0.016902305722564574 -0.0010882636758423878 0 0.021341317550780638 -0.000498724976894807 0 0.021786917265415585 -0.00058701625933804734 0 0.021804548478551903 -0.00046700518093949444 0 0.018133247614680898 -0.00018345032643451512 0 0.017192569428418139 3.8141312227646792e-05 0 0.017609255564291285 1.2297183169987884e-06 0 0.011198720587523003 -0.00094413032757476132 0 0.011511837945399103 -0.0011821589012072334 0 0.011185630126089556 -0.0013752029506773843 0 0.011883271988546685 -0.00095703299400042236 0 0.011198720587523003 -0.00094413032757476132 0 0.011511837945399103 -0.0011821589012072334 0 0.016300141490209346 -0.001678032516609231 0 0.018998386421689495 -0.0017395924183003853 0 0.016359212368634472 -0.0013385471336425485 0 0.016902305722564574 -0.0010882636758423878 0 0.014466538652989839 -0.0016147200416924406 0 0.011511837945399103 -0.0011821589012072334 0 0.011763341900705352 -0.0014766962335727332 0 0.011185630126089556 -0.0013752029506773843 0 0.011883271988546685 -0.00095703299400042236 0 0.011511837945399103 -0.0011821589012072334 0 0.011763341900705352 -0.0014766962335727332 0 0.016902305722564574 -0.0010882636758423878 0 0.01947325224820411 -0.0010104615350343398 0 0.018998386421689495 -0.0017395924183003853 0 0.016359212368634472 -0.0013385471336425485 0 0.019324962975876332 -0.001067503431548633 0 0.022297882990289536 -0.00052892491609365282 0 0.02172281301887494 -0.00089893605609126653 0 0.022853387521817155 -0.00091484201687446864 0 0.01947325224820411 -0.0010104615350343398 0 0.020999670469510595 -0.0010128802400637795 0 0.022297882990289536 -0.00052892491609365282 0 0.022680343633329672 -0.0004394223256869284 0 0.022853387521817155 -0.00091484201687446864 0 0.021653658944370005 -0.0001275249588099238 0 0.021816837675640605 -0.00040463850657970497 0 0.021926238029981268 -9.0464491188812029e-05 0 0.01947325224820411 -0.0010104615350343398 0 0.022091554323323031 9.7644930856068932e-05 0 0.022297882990289536 -0.00052892491609365282 0 0.02172281301887494 -0.00089893605609126653 0 0.021926238029981268 -9.0464491188812029e-05 0 0.022457937455982787 0.0001430256733495192 0 0.022009055694577919 0.00018708873532782475 0 0.022321664116798267 -0.00015566872478526674 0 0.022297882990289536 -0.00052892491609365282 0 0.021926238029981268 -9.0464491188812029e-05 0 0.022321664116798267 -0.00015566872478526674 0 0.022009055694577919 0.00018708873532782475 0 0.021926238029981268 -9.0464491188812029e-05 0 0.022321664116798267 -0.00015566872478526674 0 0.022680343633329672 -0.0004394223256869284 0 0.022321664116798267 -0.00015566872478526674 0 0.022833278107947351 -0.00014413999009281107 0 0.022297882990289536 -0.00052892491609365282 0 0.022680343633329672 -0.0004394223256869284 0 0.022321664116798267 -0.00015566872478526674 0 0.022457937455982787 0.0001430256733495192 0 0.022321664116798267 -0.00015566872478526674 0 0.022833278107947351 -0.00014413999009281107 0 0.022457937455982787 0.0001430256733495192 0 0.022833278107947351 -0.00014413999009281107 0 0.02316207817990338 0.00044597769138015616 0 0.023418495200745265 -0.00014611965479113538 0 0.022833278107947351 -0.00014413999009281107 0 0.02316207817990338 0.00044597769138015616 0 0.023418495200745265 -0.00014611965479113538 0 0.023718461047832186 -0.00046959733356359497 0 0.023135684329025161 -0.000465342723399955 0 0.023418495200745265 -0.00014611965479113538 0 0.022833278107947351 -0.00014413999009281107 0 0.023135684329025161 -0.000465342723399955 0 0.022680343633329672 -0.0004394223256869284 0 0.022833278107947351 -0.00014413999009281107 0 0.023135684329025161 -0.000465342723399955 0 0.023418495200745265 -0.00014611965479113538 0 0.024335258497902707 0.00022450620433476826 0 0.02316207817990338 0.00044597769138015616 0 0.023418495200745265 -0.00014611965479113538 0 0.023718461047832186 -0.00046959733356359497 0 0.024335258497902707 0.00022450620433476826 0 0.023718461047832186 -0.00046959733356359497 0 0.024402459849308774 -0.00040043576526598387 0 0.024335258497902707 0.00022450620433476826 0 0.023465137932594346 -0.00089623975661227019 0 0.020999670469510595 -0.0010128802400637795 0 0.023718461047832186 -0.00046959733356359497 0 0.024257558460704143 -0.00097217260153867097 0 0.022853387521817155 -0.00091484201687446864 0 0.022592488036081111 -0.00082459994016809385 0 0.019324962975876332 -0.001067503431548633 0 0.021963444019483122 -0.0018451801745411169 0 0.023718461047832186 -0.00046959733356359497 0 0.024257558460704143 -0.00097217260153867097 0 0.024402459849308774 -0.00040043576526598387 0 0.023718461047832186 -0.00046959733356359497 0 0.023135684329025161 -0.000465342723399955 0 0.022853387521817155 -0.00091484201687446864 0 0.022680343633329672 -0.0004394223256869284 0 0.023135684329025161 -0.000465342723399955 0 0.022853387521817155 -0.00091484201687446864 0 0.010820956933642803 -0.00098888868770399731 0 0.011185630126089556 -0.0013752029506773843 0 0.010900193949081314 -0.0012861404953859023 0 0.014466538652989839 -0.0016147200416924406 0 0.016558596101187279 -0.0015585684670637739 0 0.018998386421689495 -0.0017395924183003853 0 0.019324962975876332 -0.001067503431548633 0 0.021963444019483122 -0.0018451801745411169 0 0.010820956933642803 -0.00098888868770399731 0 0.010900193949081314 -0.0012861404953859023 0 0.010796996602111003 -0.0011319815112930233 0 0.010820956933642803 -0.00098888868770399731 0 0.011198720587523003 -0.00094413032757476132 0 0.011185630126089556 -0.0013752029506773843 0 0.010767779353405451 -0.001006349849258427 0 0.010796996602111003 -0.0011319815112930233 0 0.010637113441531565 -0.00112830555754413 0 0.010767779353405451 -0.001006349849258427 0 0.010820956933642803 -0.00098888868770399731 0 0.010796996602111003 -0.0011319815112930233 0 0.016558596101187279 -0.0015585684670637739 0 0.017860654282006505 -0.0015519487077318055 0 0.010900193949081314 -0.0012861404953859023 0 0.010796996602111003 -0.0011319815112930233 0 0.010764328502704517 -0.0012554168278067137 0 0.022592488036081111 -0.00082459994016809385 0 0.021963444019483122 -0.0018451801745411169 0 0.024855087113180907 -0.0018548935249999734 0 0.010796996602111003 -0.0011319815112930233 0 0.010764328502704517 -0.0012554168278067137 0 0.010637113441531565 -0.00112830555754413 0 0.024855087113180907 -0.0018548935249999734 0 0.025620055371182622 -0.00082894056193418561 0 0.026237676797535955 -0.0010452974316455547 0 0.022592488036081111 -0.00082459994016809385 0 0.024855087113180907 -0.0018548935249999734 0 0.025620055371182622 -0.00082894056193418561 0 0.025620055371182622 -0.00082894056193418561 0 0.024990142715694719 -0.00061835503585402809 0 0.025677785479305305 -0.00020899780398086085 0 0.024257558460704143 -0.00097217260153867097 0 0.025620055371182622 -0.00082894056193418561 0 0.024990142715694719 -0.00061835503585402809 0 0.023465137932594346 -0.00089623975661227019 0 0.025494959021749447 -0.00082275076144922238 0 0.024257558460704143 -0.00097217260153867097 0 0.024990142715694719 -0.00061835503585402809 0 0.024402459849308774 -0.00040043576526598387 0 0.025373962244443726 -6.8850313622814303e-06 0 0.02568094140622067 -0.00017695291523664967 0 0.024402459849308774 -0.00040043576526598387 0 0.024335258497902707 0.00022450620433476826 0 0.025677785479305305 -0.00020899780398086085 0 0.024990142715694719 -0.00061835503585402809 0 0.024402459849308774 -0.00040043576526598387 0 0.025677785479305305 -0.00020899780398086085 0 0.0264172169196852 -0.00017960395928857915 0 0.025677785479305305 -0.00020899780398086085 0 0.025748473880936294 -0.0001889636775717882 0 0.026453296114899872 -0.00065004234904046828 0 0.026453556732739886 -0.00056823783463965912 0 0.027097276773565708 -0.0011550905196824027 0 0.027161415462166601 -0.00070980876050240717 0 0.026490822328121218 -0.00056183224873965275 0 0.027161415462166601 -0.00070980876050240717 0 0.026490822328121218 -0.00056183224873965275 0 0.027008321519593169 -0.00017643209200089894 0 0.0264172169196852 -0.00017960395928857915 0 0.025748473880936294 -0.0001889636775717882 0 0.026490822328121218 -0.00056183224873965275 0 0.0264172169196852 -0.00017960395928857915 0 0.026490822328121218 -0.00056183224873965275 0 0.026572434431043405 -0.00041653723849374518 0 0.025373962244443726 -6.8850313622814303e-06 0 0.024897572232601018 2.1607577909542336e-05 0 0.0264172169196852 -0.00017960395928857915 0 0.026634846040250688 -0.00038987063420664565 0 0.026572434431043405 -0.00041653723849374518 0 0.026634846040250688 -0.00038987063420664565 0 0.026644465706302325 -0.00036069667869761458 0 0.026572434431043405 -0.00041653723849374518 0 0.026490822328121218 -0.00056183224873965275 0 0.026572434431043405 -0.00041653723849374518 0 0.026572205555344623 -0.00038194231511346925 0 0.026644465706302325 -0.00036069667869761458 0 0.026572434431043405 -0.00041653723849374518 0 0.026572205555344623 -0.00038194231511346925 0 0.026572205555344623 -0.00038194231511346925 0 0.026645252433147693 -0.0002732471079302573 0 0.026583827943651453 -0.00026232139222053403 0 0.026644465706302325 -0.00036069667869761458 0 0.026572205555344623 -0.00038194231511346925 0 0.026645252433147693 -0.0002732471079302573 0 0.026760456181978202 -6.3252413830031071e-05 0 0.026644465706302325 -0.00036069667869761458 0 0.026645252433147693 -0.0002732471079302573 0 0.027485947931815354 -0.00044471221674049973 0 0.028202008937746246 -0.0006657033443370282 0 0.027859464179520003 -0.00014189393691004307 0 0.027063702578626933 -0.00033516685049238249 0 0.027408759165098617 -0.00045719187933696546 0 0.028202008937746246 -0.0006657033443370282 0 0.028438975336742753 -0.00028590539089749383 0 0.028964968783086156 -0.00081200249528535378 0 0.028202008937746246 -0.0006657033443370282 0 0.028438975336742753 -0.00028590539089749383 0 0.027859464179520003 -0.00014189393691004307 0 0.028964968783086156 -0.00081200249528535378 0 0.02929118384333158 -0.00040301876594646673 0 0.028888020848054426 -0.00020056565345381606 0 0.028438975336742753 -0.00028590539089749383 0 0.028964968783086156 -0.00081200249528535378 0 0.028888020848054426 -0.00020056565345381606 0 0.027408759165098617 -0.00045719187933696546 0 0.027996726165499551 -0.00048931627262017389 0 0.026490822328121218 -0.00056183224873965275 0 0.026583827943651453 -0.00026232139222053403 0 0.027008321519593169 -0.00017643209200089894 0 0.026490822328121218 -0.00056183224873965275 0 0.026572205555344623 -0.00038194231511346925 0 0.026583827943651453 -0.00026232139222053403 0 0.029728924348499511 -0.00066630644256882748 0 0.02969571109373503 -0.00084487884834352908 0 0.029488384734132587 -0.000643472074982473 0 0.029728924348499511 -0.00066630644256882748 0 0.02969571109373503 -0.00084487884834352908 0 0.029927170807456327 -0.00065609323174984138 0 0.029728924348499511 -0.00066630644256882748 0 0.029704639530777618 -0.00049123174966903048 0 0.029927170807456327 -0.00065609323174984138 0 0.028964968783086156 -0.00081200249528535378 0 0.02969571109373503 -0.00084487884834352908 0 0.029488384734132587 -0.000643472074982473 0 0.027008321519593169 -0.00017643209200089894 0 0.028046011193654505 -0.0002171926859256941 0 0.027804361422581868 -0.0006385467308908057 0 0.027996726165499551 -0.00048931627262017389 0 0.028886338458036651 -0.00055673589936067972 0 0.029488384734132587 -0.000643472074982473 0 0.02929118384333158 -0.00040301876594646673 0 0.029704639530777618 -0.00049123174966903048 0 0.028964968783086156 -0.00081200249528535378 0 0.029488384734132587 -0.000643472074982473 0 0.02929118384333158 -0.00040301876594646673 0 0.02929118384333158 -0.00040301876594646673 0 0.029222236236422418 -4.648077091751717e-05 0 0.028888020848054426 -0.00020056565345381606 0 0.02929118384333158 -0.00040301876594646673 0 0.029704639530777618 -0.00049123174966903048 0 0.02951439669128457 -0.0001234915034525164 0 0.029704639530777618 -0.00049123174966903048 0 0.029836668791369873 -0.00022464005967066963 0 0.02951439669128457 -0.0001234915034525164 0 0.029728924348499511 -0.00066630644256882748 0 0.029488384734132587 -0.000643472074982473 0 0.029704639530777618 -0.00049123174966903048 0 0.029704639530777618 -0.00049123174966903048 0 0.030121348525206124 -0.00038016683842421149 0 0.029927170807456327 -0.00065609323174984138 0 0.029704639530777618 -0.00049123174966903048 0 0.029836668791369873 -0.00022464005967066963 0 0.030121348525206124 -0.00038016683842421149 0 0.030121348525206124 -0.00038016683842421149 0 0.030429128481621378 -0.00049157291651521096 0 0.029927170807456327 -0.00065609323174984138 0 0.030121348525206124 -0.00038016683842421149 0 0.030429128481621378 -0.00049157291651521096 0 0.030508957194872295 -0.00017621600797075506 0 0.030906462057481664 -0.00023081616934569194 0 0.030429128481621378 -0.00049157291651521096 0 0.030965156596104139 -0.00045118533345690748 0 0.030906462057481664 -0.00023081616934569194 0 0.030429128481621378 -0.00049157291651521096 0 0.030508957194872295 -0.00017621600797075506 0 0.030429128481621378 -0.00049157291651521096 0 0.030021982670720971 -0.00083390933382808364 0 0.030943994658118909 -0.0010676288221370355 0 0.030429128481621378 -0.00049157291651521096 0 0.029927170807456327 -0.00065609323174984138 0 0.030021982670720971 -0.00083390933382808364 0 0.028886338458036651 -0.00055673589936067972 0 0.029931997303289881 -0.00080172700115761406 0 0.02969571109373503 -0.00084487884834352908 0 0.029927170807456327 -0.00065609323174984138 0 0.030021982670720971 -0.00083390933382808364 0 0.02964800363826486 -0.0015819700598987145 0 0.028697069294919358 -0.0020951464552428131 0 0.028908410121872858 -0.000992287440227745 0 0.028046011193654505 -0.0002171926859256941 0 0.030021982670720971 -0.00083390933382808364 0 0.028908410121872858 -0.000992287440227745 0 0.030021982670720971 -0.00083390933382808364 0 0.02964800363826486 -0.0015819700598987145 0 0.028908410121872858 -0.000992287440227745 0 0.030021982670720971 -0.00083390933382808364 0 0.02964800363826486 -0.0015819700598987145 0 0.030943994658118909 -0.0010676288221370355 0 0.030148554912478802 -0.002081398136969712 0 0.02964800363826486 -0.0015819700598987145 0 0.030943994658118909 -0.0010676288221370355 0 0.029559151637569069 -0.0022942166119238861 0 0.030084753584703635 -0.0014484359367020209 0 0.028955552625424402 -0.0025581111853225443 0 0.029112458773774844 -0.0027627761538036263 0 0.029233821135356584 -0.0024915402444788642 0 0.030148554912478802 -0.002081398136969712 0 0.02964800363826486 -0.0015819700598987145 0 0.029328626796501955 -0.0023456614185167774 0 0.02964800363826486 -0.0015819700598987145 0 0.029328626796501955 -0.0023456614185167774 0 0.028697069294919358 -0.0020951464552428131 0 0.027602992023863314 -0.0010943028647035296 0 0.027425592067624755 -0.0011521434584485194 0 0.027478257547084002 -0.0012105006745494334 0 0.027602992023863314 -0.0010943028647035296 0 0.027456116459225608 -0.00096766819421621362 0 0.027425592067624755 -0.0011521434584485194 0 0.028697069294919358 -0.0020951464552428131 0 0.027804361422581868 -0.0006385467308908057 0 0.028908410121872858 -0.000992287440227745 0 0.027602992023863314 -0.0010943028647035296 0 0.027804361422581868 -0.0006385467308908057 0 0.027456116459225608 -0.00096766819421621362 0 0.028018119458898944 -0.0014208693462671154 0 0.02784441630406562 -0.0007327327044238394 0 0.028046011193654505 -0.0002171926859256941 0 0.027804361422581868 -0.0006385467308908057 0 0.028908410121872858 -0.000992287440227745 0 0.027161415462166601 -0.00070980876050240717 0 0.027804361422581868 -0.0006385467308908057 0 0.027456116459225608 -0.00096766819421621362 0 0.027161415462166601 -0.00070980876050240717 0 0.027008321519593169 -0.00017643209200089894 0 0.027804361422581868 -0.0006385467308908057 0 0.027097276773565708 -0.0011550905196824027 0 0.027456116459225608 -0.00096766819421621362 0 0.027425592067624755 -0.0011521434584485194 0 0.027097276773565708 -0.0011550905196824027 0 0.027161415462166601 -0.00070980876050240717 0 0.027456116459225608 -0.00096766819421621362 0 0.025620055371182622 -0.00082894056193418561 0 0.025677785479305305 -0.00020899780398086085 0 0.026367830468061716 -0.00043524622718621339 0 0.026453296114899872 -0.00065004234904046828 0 0.026872982294139237 -0.00090857920555255411 0 0.025677785479305305 -0.00020899780398086085 0 0.025748473880936294 -0.0001889636775717882 0 0.026367830468061716 -0.00043524622718621339 0 0.027097276773565708 -0.0011550905196824027 0 0.027425592067624755 -0.0011521434584485194 0 0.027395295488429641 -0.0012934390512209226 0 0.027602992023863314 -0.0010943028647035296 0 0.027478257547084002 -0.0012105006745494334 0 0.027481293598691784 -0.0012549217319271849 0 0.028018119458898944 -0.0014208693462671154 0 0.029101568474228092 -0.0025153651030109677 0 0.027395295488429641 -0.0012934390512209226 0 0.027478257547084002 -0.0012105006745494334 0 0.027481293598691784 -0.0012549217319271849 0 0.027425592067624755 -0.0011521434584485194 0 0.027395295488429641 -0.0012934390512209226 0 0.027478257547084002 -0.0012105006745494334 0 0.026872982294139237 -0.00090857920555255411 0 0.027313764295392649 -0.0014458493938139083 0 0.026367830468061716 -0.00043524622718621339 0 0.026237676797535955 -0.0010452974316455547 0 0.02732017890709617 -0.0014967586132386326 0 0.027395295488429641 -0.0012934390512209226 0 0.02732017890709617 -0.0014967586132386326 0 0.027481293598691784 -0.0012549217319271849 0 0.025620055371182622 -0.00082894056193418561 0 0.026367830468061716 -0.00043524622718621339 0 0.026237676797535955 -0.0010452974316455547 0 0.024855087113180907 -0.0018548935249999734 0 0.026237676797535955 -0.0010452974316455547 0 0.026658605523700672 -0.0016257505747898251 0 0.017860654282006505 -0.0015519487077318055 0 0.01811528030786096 -0.0014426070532825973 0 0.010764328502704517 -0.0012554168278067137 0 0.010538023855225193 -0.001291335635618373 0 0.010637113441531565 -0.00112830555754413 0 0.026237676797535955 -0.0010452974316455547 0 0.026658605523700672 -0.0016257505747898251 0 0.02732017890709617 -0.0014967586132386326 0 0.026658605523700672 -0.0016257505747898251 0 0.02732017890709617 -0.0014967586132386326 0 0.027764671013415048 -0.0015914245372380246 0 0.010538023855225193 -0.001291335635618373 0 0.010340161273795971 -0.001134249312791316 0 0.010293896297739254 -0.0012746668139642678 0 0.01811528030786096 -0.0014426070532825973 0 0.021142365974956723 -0.0015815029339039987 0 0.010538023855225193 -0.001291335635618373 0 0.010476153261751121 -0.0011454810672544894 0 0.010340161273795971 -0.001134249312791316 0 0.010392034731247749 -0.0010289581148234114 0 0.010257430593795537 -0.0010302960270524393 0 0.010340161273795971 -0.001134249312791316 0 0.010392034731247749 -0.0010289581148234114 0 0.010476153261751121 -0.0011454810672544894 0 0.010340161273795971 -0.001134249312791316 0 0.010392034731247749 -0.0010289581148234114 0 0.010476153261751121 -0.0011454810672544894 0 0.010637113441531565 -0.00112830555754413 0 0.010538023855225193 -0.001291335635618373 0 0.010476153261751121 -0.0011454810672544894 0 0.010637113441531565 -0.00112830555754413 0 0.012998011060311669 -0.0025453218224038301 0 0.012987852636909004 -0.0024798308092329859 0 0.013073770376165054 -0.0024368385982456095 0 0.019129804628469183 -0.0028579287274289873 0 0.019598056553349653 -0.0018609723229806498 0 0.019787351289873818 -0.002373465422316241 0 0.012916401110603399 -0.0017755580915105086 0 0.021142365974956723 -0.0015815029339039987 0 0.012916401110603399 -0.0017755580915105086 0 0.016268422394070729 -0.0025324487123651344 0 0.010175441559841949 -0.001091616974021489 0 0.010225568413184893 -0.0010793340628841854 0 0.010293896297739254 -0.0012746668139642678 0 0.010340161273795971 -0.001134249312791316 0 0.010225568413184893 -0.0010793340628841854 0 0.010293896297739254 -0.0012746668139642678 0 0.010257430593795537 -0.0010302960270524393 0 0.010340161273795971 -0.001134249312791316 0 0.010225568413184893 -0.0010793340628841854 0 0.019129804628469183 -0.0028579287274289873 0 0.018768123878870124 -0.0018426669999958322 0 0.019598056553349653 -0.0018609723229806498 0 0.029040013719628846 -0.0028533531863222166 0 0.029070016117904308 -0.0028672660937704895 0 0.029101315913726656 -0.0028919819588658154 0 0.021142365974956723 -0.0015815029339039987 0 0.025561648280996205 -0.0024209983124901828 0 0.02912139551774471 -0.0028656304545809775 0 0.029070016117904308 -0.0028672660937704895 0 0.029101315913726656 -0.0028919819588658154 0 0.02912139551774471 -0.0028656304545809775 0 0.029070016117904308 -0.0028672660937704895 0 0.029086430368523403 -0.0028585535471590739 0 0.029070016117904308 -0.0028672660937704895 0 0.029075597129078468 -0.002863721280349171 0 0.02906699837375018 -0.0028799891513608808 0 0.029070016117904308 -0.0028672660937704895 0 0.029086430368523403 -0.0028585535471590739 0 0.029075597129078468 -0.002863721280349171 0 0.029086430368523403 -0.0028585535471590739 0 0.029075597129078468 -0.002863721280349171 0 0.029086945381224673 -0.0028435023174552734 0 0.029075597129078468 -0.002863721280349171 0 0.029086945381224673 -0.0028435023174552734 0 0.029068532932780711 -0.0028138430820324545 0 0.029086430368523403 -0.0028585535471590739 0 0.029086945381224673 -0.0028435023174552734 0 0.029123907160595656 -0.0028402778228178624 0 0.02912139551774471 -0.0028656304545809775 0 0.029086430368523403 -0.0028585535471590739 0 0.029123907160595656 -0.0028402778228178624 0 0.021142365974956723 -0.0015815029339039987 0 0.029101568474228092 -0.0025153651030109677 0 0.02732017890709617 -0.0014967586132386326 0 0.027764671013415048 -0.0015914245372380246 0 0.027481293598691784 -0.0012549217319271849 0 0.029040013719628846 -0.0028533531863222166 0 0.02906699837375018 -0.0028799891513608808 0 0.029080654760213015 -0.0029267152473598872 0 0.029040013719628846 -0.0028533531863222166 0 0.029070016117904308 -0.0028672660937704895 0 0.02906699837375018 -0.0028799891513608808 0 0.02906699837375018 -0.0028799891513608808 0 0.029090877976461593 -0.0028922778569909131 0 0.029080654760213015 -0.0029267152473598872 0 0.029075597129078468 -0.002863721280349171 0 0.029085570084670678 -0.0028689087031389332 0 0.029068532932780711 -0.0028138430820324545 0 0.029075597129078468 -0.002863721280349171 0 0.02906699837375018 -0.0028799891513608808 0 0.029085570084670678 -0.0028689087031389332 0 0.029090877976461593 -0.0028922778569909131 0 0.029085570084670678 -0.0028689087031389332 0 0.029137064728384284 -0.0028804403432798674 0 0.02906699837375018 -0.0028799891513608808 0 0.029090877976461593 -0.0028922778569909131 0 0.029085570084670678 -0.0028689087031389332 0 0.029559151637569069 -0.0022942166119238861 0 0.029181830626683468 -0.002818742045520955 0 0.029328626796501955 -0.0023456614185167774 0 0.028697069294919358 -0.0020951464552428131 0 0.029080654760213015 -0.0029267152473598872 0 0.030148554912478802 -0.002081398136969712 0 0.029328626796501955 -0.0023456614185167774 0 0.029137064728384284 -0.0028804403432798674 0 0.028955552625424402 -0.0025581111853225443 0 0.029137064728384284 -0.0028804403432798674 0 0.029068532932780711 -0.0028138430820324545 0 0.029328626796501955 -0.0023456614185167774 0 0.029080654760213015 -0.0029267152473598872 0 0.029137064728384284 -0.0028804403432798674 0 0.029090877976461593 -0.0028922778569909131 0 0.029080654760213015 -0.0029267152473598872 0 0.029137064728384284 -0.0028804403432798674 0 0.029085570084670678 -0.0028689087031389332 0 0.029137064728384284 -0.0028804403432798674 0 0.029068532932780711 -0.0028138430820324545 0 0.028955552625424402 -0.0025581111853225443 0 0.029068532932780711 -0.0028138430820324545 0 0.029112458773774844 -0.0027627761538036263 0 0.029086945381224673 -0.0028435023174552734 0 0.029123907160595656 -0.0028402778228178624 0 0.029112458773774844 -0.0027627761538036263 0 0.029123907160595656 -0.0028402778228178624 0 0.029112458773774844 -0.0027627761538036263 0 0.029198494930683331 -0.0028142311588277005 0 0.029086945381224673 -0.0028435023174552734 0 0.029068532932780711 -0.0028138430820324545 0 0.029112458773774844 -0.0027627761538036263 0 0.029112458773774844 -0.0027627761538036263 0 0.029258225342776965 -0.0027221791918700809 0 0.029233821135356584 -0.0024915402444788642 0 0.029258225342776965 -0.0027221791918700809 0 0.029381327594465757 -0.0027735494652677997 0 0.02941185479034579 -0.002566155802020964 0 0.029381327594465757 -0.0027735494652677997 0 0.029279125500876118 -0.0028019456891970177 0 0.029295436816936218 -0.0028140154815143436 0 0.029258225342776965 -0.0027221791918700809 0 0.029381327594465757 -0.0027735494652677997 0 0.029279125500876118 -0.0028019456891970177 0 0.029279125500876118 -0.0028019456891970177 0 0.029295436816936218 -0.0028140154815143436 0 0.029230652037624594 -0.0028393945414033894 0 0.029279125500876118 -0.0028019456891970177 0 0.029198494930683331 -0.0028142311588277005 0 0.029230652037624594 -0.0028393945414033894 0 0.029112458773774844 -0.0027627761538036263 0 0.029258225342776965 -0.0027221791918700809 0 0.029198494930683331 -0.0028142311588277005 0 0.029258225342776965 -0.0027221791918700809 0 0.029279125500876118 -0.0028019456891970177 0 0.029198494930683331 -0.0028142311588277005 0 0.029783347548055984 -0.0028239764016280357 0 0.030137663601633773 -0.0030590385692394603 0 0.030051726614513486 -0.0026080479063940714 0 0.029783347548055984 -0.0028239764016280357 0 0.030051726614513486 -0.0026080479063940714 0 0.029674075548661926 -0.0025441840560452705 0 0.029381327594465757 -0.0027735494652677997 0 0.029783347548055984 -0.0028239764016280357 0 0.029674075548661926 -0.0025441840560452705 0 0.029381327594465757 -0.0027735494652677997 0 0.029783347548055984 -0.0028239764016280357 0 0.029684532317519125 -0.0031572895621296685 0 0.029381327594465757 -0.0027735494652677997 0 0.029295436816936218 -0.0028140154815143436 0 0.029178936248700431 -0.0028711134147008186 0 0.029114777923682836 -0.0029201702436640639 0 0.028944937532082791 -0.0038907013339254644 0 0.029295436816936218 -0.0028140154815143436 0 0.02921972010955854 -0.0028454269847452461 0 0.029230652037624594 -0.0028393945414033894 0 0.028902153463792345 -0.0033276434705874118 0 0.028944937532082791 -0.0038907013339254644 0 0.029783347548055984 -0.0028239764016280357 0 0.029684532317519125 -0.0031572895621296685 0 0.030137663601633773 -0.0030590385692394603 0 0.029684532317519125 -0.0031572895621296685 0 0.03011071979493609 -0.0035815494920791386 0 0.030137663601633773 -0.0030590385692394603 0 0.027045387958148606 -0.0053317141433211184 0 0.023883079025483384 -0.0025318866547675719 0 0.024393158883659536 -0.0021317854090994741 0 0.02921972010955854 -0.0028454269847452461 0 0.029183371452141987 -0.0028561398691736573 0 0.029137905699607627 -0.0028612516746019021 0 0.028944937532082791 -0.0038907013339254644 0 0.022811105721771158 -0.0034046816948660966 0 0.028944937532082791 -0.0038907013339254644 0 0.022304169375835327 -0.0036776628491481987 0 0.02921972010955854 -0.0028454269847452461 0 0.029183371452141987 -0.0028561398691736573 0 0.029230652037624594 -0.0028393945414033894 0 0.029183371452141987 -0.0028561398691736573 0 0.029160735954807181 -0.0028654913552419365 0 0.029143949724448129 -0.0028744358165138009 0 0.029183371452141987 -0.0028561398691736573 0 0.029143949724448129 -0.0028744358165138009 0 0.029137905699607627 -0.0028612516746019021 0 0.029198494930683331 -0.0028142311588277005 0 0.02916575763487865 -0.0028475475614346351 0 0.029230652037624594 -0.0028393945414033894 0 0.02912139551774471 -0.0028656304545809775 0 0.029123907160595656 -0.0028402778228178624 0 0.02916575763487865 -0.0028475475614346351 0 0.029123907160595656 -0.0028402778228178624 0 0.029198494930683331 -0.0028142311588277005 0 0.02916575763487865 -0.0028475475614346351 0 0.029183371452141987 -0.0028561398691736573 0 0.029230652037624594 -0.0028393945414033894 0 0.029160735954807181 -0.0028654913552419365 0 0.02916575763487865 -0.0028475475614346351 0 0.029230652037624594 -0.0028393945414033894 0 0.029160735954807181 -0.0028654913552419365 0 0.02912139551774471 -0.0028656304545809775 0 0.02916575763487865 -0.0028475475614346351 0 0.029160735954807181 -0.0028654913552419365 0 0.02912139551774471 -0.0028656304545809775 0 0.029160735954807181 -0.0028654913552419365 0 0.029101315913726656 -0.0028919819588658154 0 0.025561648280996205 -0.0024209983124901828 0 0.02084244478956581 -0.0022819879176527351 0 0.019598056553349653 -0.0018609723229806498 0 0.020440249570444997 -0.0018746783540109018 0 0.019787351289873818 -0.002373465422316241 0 0.029160735954807181 -0.0028654913552419365 0 0.029101315913726656 -0.0028919819588658154 0 0.029143949724448129 -0.0028744358165138009 0 0.02084244478956581 -0.0022819879176527351 0 0.016268422394070729 -0.0025324487123651344 0 0.013146742305171896 -0.0024132321837576358 0 0.01311594716590294 -0.0024755730119017045 0 0.013160448598440608 -0.002420911971171385 0 0.02084244478956581 -0.0022819879176527351 0 0.013234772319227137 -0.0025049060198051721 0 0.021227494394611079 -0.0021750110799407603 0 0.016862122560748937 -0.0020746937685070161 0 0.01861858777447881 -0.0042197849139134517 0 0.02084244478956581 -0.0022819879176527351 0 0.022811105721771158 -0.0034046816948660966 0 0.012998011060311669 -0.0025453218224038301 0 0.01311594716590294 -0.0024755730119017045 0 0.013073770376165054 -0.0024368385982456095 0 0.013146742305171896 -0.0024132321837576358 0 0.01311594716590294 -0.0024755730119017045 0 0.013073770376165054 -0.0024368385982456095 0 0.0094277896333843127 -0.0024488684479244678 0 0.0061131270409957514 -0.0022511720801391371 0 0.0037887750114428101 -0.0035109130047572307 0 0.0050822959697230949 -0.0034570188836615117 0 0.0047905907158758802 -0.0046685114393506992 0 0.004771474916519235 -0.0016117534880565696 0 0.0056230521194213642 -0.003226254709214968 0 0.0040327909773253236 -0.0017906257405619968 0 0.0039289264625058211 -0.002555405638706802 0 0.0085737308124092058 -0.0025981841146756205 0 0.0063412748306469324 -0.0036001493683312188 0 0.0050822959697230949 -0.0034570188836615117 0 0.0047905907158758802 -0.0046685114393506992 0 0.0098590403063214243 -0.0032354512283285105 0 0.0085737308124092058 -0.0025981841146756205 0 0.01311594716590294 -0.0024755730119017045 0 0.013157528193542855 -0.0024309702747542551 0 0.013160448598440608 -0.002420911971171385 0 0.0085737308124092058 -0.0025981841146756205 0 0.013234772319227137 -0.0025049060198051721 0 0.0085737308124092058 -0.0025981841146756205 0 0.0094277896333843127 -0.0024488684479244678 0 0.010170322424453695 -0.0018680345447917677 0 0.010617621617485772 -0.0024127297974722811 0 0.0097418110892525129 -0.0023916658792018466 0 0.013234772319227137 -0.0025049060198051721 0 0.022811105721771158 -0.0034046816948660966 0 0.0094277896333843127 -0.0024488684479244678 0 0.022304169375835327 -0.0036776628491481987 0 0.015713192727084602 -0.00057813283800420452 0 0.012406813312984807 -0.00051113025867700922 0 0.018628946979132224 -0.0060807391683459387 0 0.013234772319227137 -0.0025049060198051721 0 0.0094277896333843127 -0.0024488684479244678 0 0.0096935161347026944 -0.0035751230131793577 0 0.0093100868077037758 -0.0035858625623536484 0 0.0086720454567483386 -0.0044238760090176271 0 0.004771474916519235 -0.0016117534880565696 0 0.0058858767495765857 -0.0029060536893133573 0 0.0056230521194213642 -0.003226254709214968 0 0.011040295474714766 -0.0026291513242680188 0 0.011330356577093671 -0.0026329765182921331 0 0.010917126725337893 -0.0037630181225871881 0 0.0099431282710453813 -0.00359824380121922 0 0.008875448924010548 -0.0032145516326984032 0 0.0087215632084173874 -0.0025075019044070047 0 0.0099518892967778022 -0.002899202412093529 0 0.0094695292517419389 -0.0032298901292498431 0 0.0097893725845568241 -0.0035955415569675279 0 0.0099431282710453813 -0.00359824380121922 0 0.008875448924010548 -0.0032145516326984032 0 0.0097893725845568241 -0.0035955415569675279 0 0.0093100868077037758 -0.0035858625623536484 0 0.008875448924010548 -0.0032145516326984032 0 0.0099518892967778022 -0.002899202412093529 0 0.0094277896333843127 -0.0024488684479244678 0 0.011040295474714766 -0.0026291513242680188 0 0.010917126725337893 -0.0037630181225871881 0 0.0086720454567483386 -0.0044238760090176271 0 0.010917126725337893 -0.0037630181225871881 0 0.010866835252141866 -0.0052215313090898255 0 0.0086720454567483386 -0.0044238760090176271 0 0.0099518892967778022 -0.002899202412093529 0 0.00888142373022624 -0.0043855846545448303 0 0.03011071979493609 -0.0035815494920791386 0 0.030137663601633773 -0.0030590385692394603 0 0.030770466203688281 -0.0030741457752330365 0 0.022304169375835327 -0.0036776628491481987 0 0.020773379638612647 -0.0041022910486839381 0 0.010917126725337893 -0.0037630181225871881 0 0.012773308172205771 -0.0038943883089960275 0 0.010866835252141866 -0.0052215313090898255 0 0.011330356577093671 -0.0026329765182921331 0 0.010917126725337893 -0.0037630181225871881 0 0.012773308172205771 -0.0038943883089960275 0 0.015713192727084602 -0.00057813283800420452 0 0.018628946979132224 -0.0060807391683459387 0 0.019598600380262756 -0.0053199730032899668 0 0.022304169375835327 -0.0036776628491481987 0 0.022811105721771158 -0.0034046816948660966 0 0.030137663601633773 -0.0030590385692394603 0 0.030433671754336981 -0.002738217612146052 0 0.030770466203688281 -0.0030741457752330365 0 0.030137663601633773 -0.0030590385692394603 0 0.030433671754336981 -0.002738217612146052 0 0.030051726614513486 -0.0026080479063940714 0 0.030770466203688281 -0.0030741457752330365 0 0.030783494163960878 -0.0025070706829416994 0 0.031387646220803735 -0.0025274806224879964 0 0.020773379638612647 -0.0041022910486839381 0 0.020002633267404001 -0.0049155519791232519 0 0.030433671754336981 -0.002738217612146052 0 0.030770466203688281 -0.0030741457752330365 0 0.030783494163960878 -0.0025070706829416994 0 0.030783494163960878 -0.0025070706829416994 0 0.031064361636537058 -0.0021090346498003963 0 0.031387646220803735 -0.0025274806224879964 0 0.030783494163960878 -0.0025070706829416994 0 0.031064361636537058 -0.0021090346498003963 0 0.030707260509952136 -0.0021150329721875529 0 0.031064361636537058 -0.0021090346498003963 0 0.031158931043640141 -0.0017728714866989076 0 0.031381890082958754 -0.0019828075042587082 0 0.031064361636537058 -0.0021090346498003963 0 0.031158931043640141 -0.0017728714866989076 0 0.030916763727650152 -0.0017947502226358086 0 0.031064361636537058 -0.0021090346498003963 0 0.030916763727650152 -0.0017947502226358086 0 0.030707260509952136 -0.0021150329721875529 0 0.030916763727650152 -0.0017947502226358086 0 0.030872105375516434 -0.0015240938771832132 0 0.030574155091825934 -0.0017298768204993163 0 0.030916763727650152 -0.0017947502226358086 0 0.030872105375516434 -0.0015240938771832132 0 0.031067452809874625 -0.0015574061584637724 0 0.031158931043640141 -0.0017728714866989076 0 0.031067452809874625 -0.0015574061584637724 0 0.031339809120056676 -0.0014246465313367681 0 0.031158931043640141 -0.0017728714866989076 0 0.030916763727650152 -0.0017947502226358086 0 0.031067452809874625 -0.0015574061584637724 0 0.030574155091825934 -0.0017298768204993163 0 0.030200112010881595 -0.0015127670062422289 0 0.030727023047893105 -0.0012875672173817262 0 0.030574155091825934 -0.0017298768204993163 0 0.03010300753268378 -0.0019293614772054374 0 0.030200112010881595 -0.0015127670062422289 0 0.030872105375516434 -0.0015240938771832132 0 0.030574155091825934 -0.0017298768204993163 0 0.030727023047893105 -0.0012875672173817262 0 0.030574155091825934 -0.0017298768204993163 0 0.030380382018889662 -0.0020714587590190373 0 0.030707260509952136 -0.0021150329721875529 0 0.030916763727650152 -0.0017947502226358086 0 0.030574155091825934 -0.0017298768204993163 0 0.030707260509952136 -0.0021150329721875529 0 0.030574155091825934 -0.0017298768204993163 0 0.030380382018889662 -0.0020714587590190373 0 0.03010300753268378 -0.0019293614772054374 0 0.030380382018889662 -0.0020714587590190373 0 0.029997619039472984 -0.0022706274141130953 0 0.03010300753268378 -0.0019293614772054374 0 0.030380382018889662 -0.0020714587590190373 0 0.030232604518501485 -0.0023239664047131109 0 0.030421001477153934 -0.0024424347801639728 0 0.030380382018889662 -0.0020714587590190373 0 0.030232604518501485 -0.0023239664047131109 0 0.029997619039472984 -0.0022706274141130953 0 0.030380382018889662 -0.0020714587590190373 0 0.030707260509952136 -0.0021150329721875529 0 0.030421001477153934 -0.0024424347801639728 0 0.030433671754336981 -0.002738217612146052 0 0.030783494163960878 -0.0025070706829416994 0 0.030421001477153934 -0.0024424347801639728 0 0.030783494163960878 -0.0025070706829416994 0 0.030707260509952136 -0.0021150329721875529 0 0.030421001477153934 -0.0024424347801639728 0 0.030433671754336981 -0.002738217612146052 0 0.030421001477153934 -0.0024424347801639728 0 0.030051726614513486 -0.0026080479063940714 0 0.030232604518501485 -0.0023239664047131109 0 0.030421001477153934 -0.0024424347801639728 0 0.030051726614513486 -0.0026080479063940714 0 0.030232604518501485 -0.0023239664047131109 0 0.030051726614513486 -0.0026080479063940714 0 0.029997619039472984 -0.0022706274141130953 0 0.030051726614513486 -0.0026080479063940714 0 0.029674075548661926 -0.0025441840560452705 0 0.029997619039472984 -0.0022706274141130953 0 0.029674075548661926 -0.0025441840560452705 0 0.029582724209684757 -0.0022479514007429794 0 0.02941185479034579 -0.002566155802020964 0 0.029674075548661926 -0.0025441840560452705 0 0.029582724209684757 -0.0022479514007429794 0 0.029997619039472984 -0.0022706274141130953 0 0.029582724209684757 -0.0022479514007429794 0 0.029997619039472984 -0.0022706274141130953 0 0.03010300753268378 -0.0019293614772054374 0 0.029582724209684757 -0.0022479514007429794 0 0.029233821135356584 -0.0024915402444788642 0 0.029219676148825577 -0.0018276825911816329 0 0.028955552625424402 -0.0025581111853225443 0 0.029233821135356584 -0.0024915402444788642 0 0.029219676148825577 -0.0018276825911816329 0 0.029582724209684757 -0.0022479514007429794 0 0.029233821135356584 -0.0024915402444788642 0 0.02941185479034579 -0.002566155802020964 0 0.029258225342776965 -0.0027221791918700809 0 0.029233821135356584 -0.0024915402444788642 0 0.02941185479034579 -0.002566155802020964 0 0.029381327594465757 -0.0027735494652677997 0 0.029674075548661926 -0.0025441840560452705 0 0.02941185479034579 -0.002566155802020964 0 0.029582724209684757 -0.0022479514007429794 0 0.029219676148825577 -0.0018276825911816329 0 0.029783884752558946 -0.0017133880947691703 0 0.029582724209684757 -0.0022479514007429794 0 0.03010300753268378 -0.0019293614772054374 0 0.029783884752558946 -0.0017133880947691703 0 0.03010300753268378 -0.0019293614772054374 0 0.029783884752558946 -0.0017133880947691703 0 0.030200112010881595 -0.0015127670062422289 0 0.030200112010881595 -0.0015127670062422289 0 0.029819797513798464 -0.00095093402130788228 0 0.030386260055964776 -0.0010746933228984899 0 0.029783884752558946 -0.0017133880947691703 0 0.030200112010881595 -0.0015127670062422289 0 0.029819797513798464 -0.00095093402130788228 0 0.029219676148825577 -0.0018276825911816329 0 0.029783884752558946 -0.0017133880947691703 0 0.029819797513798464 -0.00095093402130788228 0 0.029819797513798464 -0.00095093402130788228 0 0.030664148311578168 -0.00064617857298480128 0 0.030386260055964776 -0.0010746933228984899 0 0.030429128481621378 -0.00049157291651521096 0 0.030943994658118909 -0.0010676288221370355 0 0.030965156596104139 -0.00045118533345690748 0 0.030084753584703635 -0.0014484359367020209 0 0.030543152811768653 -0.00070339448557814939 0 0.030943994658118909 -0.0010676288221370355 0 0.031280488572154097 -0.00042205868752262109 0 0.030965156596104139 -0.00045118533345690748 0 0.030906462057481664 -0.00023081616934569194 0 0.030965156596104139 -0.00045118533345690748 0 0.031235287540684175 -0.00018872700738560889 0 0.031280488572154097 -0.00042205868752262109 0 0.030965156596104139 -0.00045118533345690748 0 0.031235287540684175 -0.00018872700738560889 0 0.031280488572154097 -0.00042205868752262109 0 0.031235287540684175 -0.00018872700738560889 0 0.030955722167714424 -0.00010459369987785202 0 0.030543152811768653 -0.00070339448557814939 0 0.030904904632132763 -0.00018201137367006602 0 0.030664148311578168 -0.00064617857298480128 0 0.030892531190929929 -0.000343147680518123 0 0.030955722167714424 -0.00010459369987785202 0 0.029819797513798464 -0.00095093402130788228 0 0.030664148311578168 -0.00064617857298480128 0 0.030955722167714424 -0.00010459369987785202 0 0.030664148311578168 -0.00064617857298480128 0 0.030895093583872466 -0.00055871384958546975 0 0.030827118290969981 -0.00092281212627277388 0 0.030895093583872466 -0.00055871384958546975 0 0.030987482111872012 -0.00012993948007032326 0 0.031076237190345794 -0.0007640255535355672 0 0.030895093583872466 -0.00055871384958546975 0 0.031076237190345794 -0.0007640255535355672 0 0.030827118290969981 -0.00092281212627277388 0 0.030664148311578168 -0.00064617857298480128 0 0.030895093583872466 -0.00055871384958546975 0 0.030892531190929929 -0.000343147680518123 0 0.030895093583872466 -0.00055871384958546975 0 0.030892531190929929 -0.000343147680518123 0 0.030987482111872012 -0.00012993948007032326 0 0.030892531190929929 -0.000343147680518123 0 0.030987482111872012 -0.00012993948007032326 0 0.030955722167714424 -0.00010459369987785202 0 0.030987482111872012 -0.00012993948007032326 0 0.030766801123469502 5.1367138929583852e-05 0 0.030697854784091913 0.00025967633533686599 0 0.030911343433730566 -0.00020241919653320804 0 0.031201225737751206 -0.00023595262265331191 0 0.030987482111872012 -0.00012993948007032326 0 0.031076237190345794 -0.0007640255535355672 0 0.031367770238244101 -0.0011745226932505224 0 0.030987482111872012 -0.00012993948007032326 0 0.030813691191617924 -3.8679520483516624e-05 0 0.030872117296214554 -0.00011049893645876382 0 0.030987482111872012 -0.00012993948007032326 0 0.030813691191617924 -3.8679520483516624e-05 0 0.030766801123469502 5.1367138929583852e-05 0 0.030813691191617924 -3.8679520483516624e-05 0 0.030713972181943796 1.6202913543015043e-06 0 0.030734787988184797 -9.342528944981143e-05 0 0.030813691191617924 -3.8679520483516624e-05 0 0.030713972181943796 1.6202913543015043e-06 0 0.030766801123469502 5.1367138929583852e-05 0 0.030713972181943796 1.6202913543015043e-06 0 0.030766801123469502 5.1367138929583852e-05 0 0.030644280754411928 9.4828475572116864e-05 0 0.031076237190345794 -0.0007640255535355672 0 0.031058593083140754 -0.001254815972491928 0 0.030827118290969981 -0.00092281212627277388 0 0.031076237190345794 -0.0007640255535355672 0 0.031058593083140754 -0.001254815972491928 0 0.031367770238244101 -0.0011745226932505224 0 0.031067452809874625 -0.0015574061584637724 0 0.031058593083140754 -0.001254815972491928 0 0.031339809120056676 -0.0014246465313367681 0 0.031058593083140754 -0.001254815972491928 0 0.031367770238244101 -0.0011745226932505224 0 0.031339809120056676 -0.0014246465313367681 0 0.030872105375516434 -0.0015240938771832132 0 0.031058593083140754 -0.001254815972491928 0 0.030727023047893105 -0.0012875672173817262 0 0.030872105375516434 -0.0015240938771832132 0 0.031067452809874625 -0.0015574061584637724 0 0.031058593083140754 -0.001254815972491928 0 0.031058593083140754 -0.001254815972491928 0 0.030727023047893105 -0.0012875672173817262 0 0.030827118290969981 -0.00092281212627277388 0 0.030200112010881595 -0.0015127670062422289 0 0.030727023047893105 -0.0012875672173817262 0 0.030386260055964776 -0.0010746933228984899 0 0.030664148311578168 -0.00064617857298480128 0 0.030386260055964776 -0.0010746933228984899 0 0.030827118290969981 -0.00092281212627277388 0 0.030727023047893105 -0.0012875672173817262 0 0.030386260055964776 -0.0010746933228984899 0 0.030827118290969981 -0.00092281212627277388 0 0.030882598345809906 -0.00029053036891281138 0 0.031043420730751382 -0.00015591253586439238 0 0.031115851694615865 -0.00040228291217616323 0 0.031043420730751382 -0.00015591253586439238 0 0.031246742863867916 -0.00013230663807249301 0 0.031115851694615865 -0.00040228291217616323 0 0.030882598345809906 -0.00029053036891281138 0 0.030767995061287277 -0.00048767241230728985 0 0.030723833841964008 -0.0002832593352272237 0 0.030882598345809906 -0.00029053036891281138 0 0.031115851694615865 -0.00040228291217616323 0 0.030767995061287277 -0.00048767241230728985 0 0.030882598345809906 -0.00029053036891281138 0 0.030817148027694356 -0.00017102267974540295 0 0.030723833841964008 -0.0002832593352272237 0 0.030882598345809906 -0.00029053036891281138 0 0.030947677150389701 -0.00013555996764793454 0 0.030817148027694356 -0.00017102267974540295 0 0.030817148027694356 -0.00017102267974540295 0 0.030723833841964008 -0.0002832593352272237 0 0.030690546133165419 -0.00018375542316883194 0 0.030817148027694356 -0.00017102267974540295 0 0.030734787988184797 -9.342528944981143e-05 0 0.030690546133165419 -0.00018375542316883194 0 0.030817148027694356 -0.00017102267974540295 0 0.030734787988184797 -9.342528944981143e-05 0 0.030872117296214554 -0.00011049893645876382 0 0.030813691191617924 -3.8679520483516624e-05 0 0.030734787988184797 -9.342528944981143e-05 0 0.030872117296214554 -0.00011049893645876382 0 0.030987482111872012 -0.00012993948007032326 0 0.030947677150389701 -0.00013555996764793454 0 0.030872117296214554 -0.00011049893645876382 0 0.030947677150389701 -0.00013555996764793454 0 0.030817148027694356 -0.00017102267974540295 0 0.030872117296214554 -0.00011049893645876382 0 0.030987482111872012 -0.00012993948007032326 0 0.030947677150389701 -0.00013555996764793454 0 0.031008792078210067 -0.00011279679257713742 0 0.030987482111872012 -0.00012993948007032326 0 0.031008792078210067 -0.00011279679257713742 0 0.030955722167714424 -0.00010459369987785202 0 0.030947677150389701 -0.00013555996764793454 0 0.031008792078210067 -0.00011279679257713742 0 0.031043420730751382 -0.00015591253586439238 0 0.030882598345809906 -0.00029053036891281138 0 0.030947677150389701 -0.00013555996764793454 0 0.031043420730751382 -0.00015591253586439238 0 0.031043420730751382 -0.00015591253586439238 0 0.031127433515555893 -0.00011544494818433292 0 0.031246742863867916 -0.00013230663807249301 0 0.031008792078210067 -0.00011279679257713742 0 0.031043420730751382 -0.00015591253586439238 0 0.031127433515555893 -0.00011544494818433292 0 0.031008792078210067 -0.00011279679257713742 0 0.031127433515555893 -0.00011544494818433292 0 0.030955722167714424 -0.00010459369987785202 0 0.031127433515555893 -0.00011544494818433292 0 0.030955722167714424 -0.00010459369987785202 0 0.031172487229969244 -0.00012234319654926963 0 0.031235287540684175 -0.00018872700738560889 0 0.030955722167714424 -0.00010459369987785202 0 0.031172487229969244 -0.00012234319654926963 0 0.031235287540684175 -0.00018872700738560889 0 0.031172487229969244 -0.00012234319654926963 0 0.03133003503416254 -5.6244822084719077e-05 0 0.031235287540684175 -0.00018872700738560889 0 0.03133003503416254 -5.6244822084719077e-05 0 0.031262232227807829 -4.8748187762568692e-05 0 0.031127433515555893 -0.00011544494818433292 0 0.031172487229969244 -0.00012234319654926963 0 0.03133003503416254 -5.6244822084719077e-05 0 0.031127433515555893 -0.00011544494818433292 0 0.03133003503416254 -5.6244822084719077e-05 0 0.031246742863867916 -0.00013230663807249301 0 0.030906462057481664 -0.00023081616934569194 0 0.031235287540684175 -0.00018872700738560889 0 0.031262232227807829 -4.8748187762568692e-05 0 0.03133003503416254 -5.6244822084719077e-05 0 0.031262232227807829 -4.8748187762568692e-05 0 0.031449968500291893 2.8931813910037903e-05 0 0.031262232227807829 -4.8748187762568692e-05 0 0.031635948125853706 0.000189345494160198 0 0.030837329902845229 0.00010628130004373809 0 0.031449968500291893 2.8931813910037903e-05 0 0.031635948125853706 0.000189345494160198 0 0.031516101565334881 -3.2083502574827313e-05 0 0.031262232227807829 -4.8748187762568692e-05 0 0.031449968500291893 2.8931813910037903e-05 0 0.031635948125853706 0.000189345494160198 0 0.031635948125853706 0.000189345494160198 0 0.031516101565334881 -3.2083502574827313e-05 0 0.03192853115855257 -0.00017313345406334095 0 0.031246742863867916 -0.00013230663807249301 0 0.031516101565334881 -3.2083502574827313e-05 0 0.031115851694615865 -0.00040228291217616323 0 0.03133003503416254 -5.6244822084719077e-05 0 0.031246742863867916 -0.00013230663807249301 0 0.031516101565334881 -3.2083502574827313e-05 0 0.03133003503416254 -5.6244822084719077e-05 0 0.031449968500291893 2.8931813910037903e-05 0 0.031516101565334881 -3.2083502574827313e-05 0 0.03192853115855257 -0.00017313345406334095 0 0.032426141383447855 -7.0326317917509312e-05 0 0.032578725731757678 -6.4114474461365327e-05 0 0.03192853115855257 -0.00017313345406334095 0 0.032578725731757678 -6.4114474461365327e-05 0 0.032759119200049959 -0.00032536339443677508 0 0.03191833856848255 -0.00021677839941987829 0 0.031936807226696257 -0.00034099771822453047 0 0.031516101565334881 -3.2083502574827313e-05 0 0.03192853115855257 -0.00017313345406334095 0 0.031115851694615865 -0.00040228291217616323 0 0.032229324277233649 -0.00011008254289752181 0 0.03192853115855257 -0.00017313345406334095 0 0.032210090849155562 -7.6704216767172859e-06 0 0.032229324277233649 -0.00011008254289752181 0 0.03192853115855257 -0.00017313345406334095 0 0.032426141383447855 -7.0326317917509312e-05 0 0.031635948125853706 0.000189345494160198 0 0.03192853115855257 -0.00017313345406334095 0 0.032210090849155562 -7.6704216767172859e-06 0 0.032426141383447855 -7.0326317917509312e-05 0 0.032654978875315967 -5.5659846202545416e-05 0 0.032416837140198315 -0.00013448172180517649 0 0.032229324277233649 -0.00011008254289752181 0 0.032426141383447855 -7.0326317917509312e-05 0 0.032416837140198315 -0.00013448172180517649 0 0.032426141383447855 -7.0326317917509312e-05 0 0.032578725731757678 -6.4114474461365327e-05 0 0.032856044111815204 4.6469626716260673e-05 0 0.032578725731757678 -6.4114474461365327e-05 0 0.032853645446857212 -2.0111148646011899e-05 0 0.032759119200049959 -0.00032536339443677508 0 0.032578725731757678 -6.4114474461365327e-05 0 0.032853645446857212 -2.0111148646011899e-05 0 0.032856044111815204 4.6469626716260673e-05 0 0.032853645446857212 -2.0111148646011899e-05 0 0.032759119200049959 -0.00032536339443677508 0 0.032971799260331155 -0.0001271127557679219 0 0.033022778058530759 -0.00027570838785783368 0 0.032971799260331155 -0.0001271127557679219 0 0.033121403116939084 -0.00012325008103124344 0 0.031936807226696257 -0.00034099771822453047 0 0.031848821696799721 -0.00038893710369142703 0 0.032759119200049959 -0.00032536339443677508 0 0.033022778058530759 -0.00027570838785783368 0 0.032971799260331155 -0.0001271127557679219 0 0.032853645446857212 -2.0111148646011899e-05 0 0.032971799260331155 -0.0001271127557679219 0 0.032995105256868523 3.5292186737338212e-05 0 0.032971799260331155 -0.0001271127557679219 0 0.032995105256868523 3.5292186737338212e-05 0 0.033121403116939084 -0.00012325008103124344 0 0.032853645446857212 -2.0111148646011899e-05 0 0.032995105256868523 3.5292186737338212e-05 0 0.032914364933460741 0.00011602293248554543 0 0.03494812783733673 1.0780460130319939e-05 0 0.034946388152382601 -6.2871852185789177e-07 0 0.034941846619146795 -1.0121787964532731e-06 0 0.033894214719310423 -0.00010800507831021017 0 0.034132447259493895 7.8923858158711088e-05 0 0.034132447259493895 7.8923858158711088e-05 0 0.032550296057100143 -6.4030931873203774e-05 0 0.033122583073020719 0.00015236736540633731 0 0.033060217089343778 0.00015008467435668847 0 0.032856044111815204 4.6469626716260673e-05 0 0.032853645446857212 -2.0111148646011899e-05 0 0.032914364933460741 0.00011602293248554543 0 0.032856044111815204 4.6469626716260673e-05 0 0.033122583073020719 0.00015236736540633731 0 0.03315074603145382 0.00025219847565601639 0 0.033060217089343778 0.00015008467435668847 0 0.034132447259493895 7.8923858158711088e-05 0 0.034792838798541496 -0.0001905660275209028 0 0.034978609788764214 7.6643882068246878e-06 0 0.034984528573459732 5.3719025422057946e-06 0 0.034990565149886438 4.6612659650719316e-06 0 0.034132447259493895 7.8923858158711088e-05 0 0.034069402527984141 0.00011868880891070475 0 0.03498454265993272 2.2947572890965008e-06 0 0.034984528573459732 5.3719025422057946e-06 0 0.034995162222029141 1.994988550425588e-06 0 0.034946388152382601 -6.2871852185789177e-07 0 0.034941846619146795 -1.0121787964532731e-06 0 0.034941440101416678 -8.3011174162686031e-06 0 0.034132447259493895 7.8923858158711088e-05 0 0.035095047001745039 3.8103388414130582e-05 0 0.034994644023846493 2.4897343449710959e-06 0 0.034997651902279742 1.4595730106055509e-06 0 0.034995162222029141 1.994988550425588e-06 0 0.034984528573459732 5.3719025422057946e-06 0 0.034990414714227841 3.5826719993628306e-06 0 0.034995162222029141 1.994988550425588e-06 0 0.034994644023846493 2.4897343449710959e-06 0 0.034990414714227841 3.5826719993628306e-06 0 0.034995162222029141 1.994988550425588e-06 0 0.034994644023846493 2.4897343449710959e-06 0 0.034990414714227841 3.5826719993628306e-06 0 0.034995054647170634 2.1093529244758165e-06 0 0.034984528573459732 5.3719025422057946e-06 0 0.034990414714227841 3.5826719993628306e-06 0 0.034990565149886438 4.6612659650719316e-06 0 0.034990414714227841 3.5826719993628306e-06 0 0.034995054647170634 2.1093529244758165e-06 0 0.034990565149886438 4.6612659650719316e-06 0 0.034994644023846493 2.4897343449710959e-06 0 0.034995054647170634 2.1093529244758165e-06 0 0.034999992287214038 2.3512786374549012e-09 0 0.034995054647170634 2.1093529244758165e-06 0 0.034999992287214038 2.3512786374549012e-09 0 0.034999991371041428 1.3391014330828699e-09 0 0.034994644023846493 2.4897343449710959e-06 0 0.034999992287214038 2.3512786374549012e-09 0 0.034997651902279742 1.4595730106055509e-06 0 0.034998035088657002 -7.9517399821362048e-07 0 0.033750564286444504 3.3579813768087031e-06 0 0.034658994165645447 9.1611467013609778e-05 0 0.03500000019676125 8.9075828182491204e-10 0 0.034999991371041428 1.3391014330828699e-09 0 0.034996589132328747 2.4109107558046015e-06 0 0.034999638466462132 4.671278574834728e-08 0 0.034373605417233735 6.4417899652143788e-05 0 0.034995054647170634 2.1093529244758165e-06 0 0.034999991371041428 1.3391014330828699e-09 0 0.034996589132328747 2.4109107558046015e-06 0 0.034373605417233735 6.4417899652143788e-05 0 0.034069402527984141 0.00011868880891070475 0 0.034995054647170634 2.1093529244758165e-06 0 0.034996589132328747 2.4109107558046015e-06 0 0.034990565149886438 4.6612659650719316e-06 0 0.033750564286444504 3.3579813768087031e-06 0 0.03315074603145382 0.00025219847565601639 0 0.033493234848662373 0.00031031023880996101 0 0.033493234848662373 0.00031031023880996101 0 0.034692819864044565 0.00050273620567506242 0 0.034658994165645447 9.1611467013609778e-05 0 0.033750564286444504 3.3579813768087031e-06 0 0.033493234848662373 0.00031031023880996101 0 0.034658994165645447 9.1611467013609778e-05 0 0.033060217089343778 0.00015008467435668847 0 0.032654978875315967 -5.5659846202545416e-05 0 0.032621069499120595 2.8954525075151948e-05 0 0.033493234848662373 0.00031031023880996101 0 0.033060217089343778 0.00015008467435668847 0 0.032621069499120595 2.8954525075151948e-05 0 0.033477933066567912 0.00027824967760575785 0 0.033645761460887477 0.0002380494366076479 0 0.03315074603145382 0.00025219847565601639 0 0.033493234848662373 0.00031031023880996101 0 0.033060217089343778 0.00015008467435668847 0 0.033060217089343778 0.00015008467435668847 0 0.032856044111815204 4.6469626716260673e-05 0 0.032654978875315967 -5.5659846202545416e-05 0 0.032426141383447855 -7.0326317917509312e-05 0 0.032856044111815204 4.6469626716260673e-05 0 0.032654978875315967 -5.5659846202545416e-05 0 0.032563621709152259 -0.0001355892634267776 0 0.032698005938995744 -0.00032476866184823146 0 0.032621069499120595 2.8954525075151948e-05 0 0.032654978875315967 -5.5659846202545416e-05 0 0.032563621709152259 -0.0001355892634267776 0 0.032621069499120595 2.8954525075151948e-05 0 0.032654978875315967 -5.5659846202545416e-05 0 0.032563621709152259 -0.0001355892634267776 0 0.032416837140198315 -0.00013448172180517649 0 0.032563621709152259 -0.0001355892634267776 0 0.032595954290490635 -0.00018151676169727695 0 0.032416837140198315 -0.00013448172180517649 0 0.032563621709152259 -0.0001355892634267776 0 0.032698005938995744 -0.00032476866184823146 0 0.032595954290490635 -0.00018151676169727695 0 0.032698005938995744 -0.00032476866184823146 0 0.032830749621438692 -0.00016840413974443481 0 0.032595954290490635 -0.00018151676169727695 0 0.034835922918905825 0.00033047795154001402 0 0.034902539414618405 0.00017661169362552574 0 0.034880677434740458 0.00026506459617244401 0 0.034885586655745565 0.00026642469236006503 0 0.034835922918905825 0.00033047795154001402 0 0.034692819864044565 0.00050273620567506242 0 0.034835922918905825 0.00033047795154001402 0 0.034692819864044565 0.00050273620567506242 0 0.034902539414618405 0.00017661169362552574 0 0.033804360750409393 -1.1998009206834669e-05 0 0.033645761460887477 0.0002380494366076479 0 0.034885586655745565 0.00026642469236006503 0 0.034835922918905825 0.00033047795154001402 0 0.034880677434740458 0.00026506459617244401 0 0.034692819864044565 0.00050273620567506242 0 0.034658994165645447 9.1611467013609778e-05 0 0.034902539414618405 0.00017661169362552574 0 0.034658994165645447 9.1611467013609778e-05 0 0.034902539414618405 0.00017661169362552574 0 0.035000324992323327 2.0215757327889506e-07 0 0.034998035088657002 -7.9517399821362048e-07 0 0.034658994165645447 9.1611467013609778e-05 0 0.035000324992323327 2.0215757327889506e-07 0 0.03499997007778307 4.6769876563738776e-08 0 0.034933515447292854 0.00011882644436890059 0 0.034999707527229799 4.3305465124632926e-08 0 0.034855886079826336 0.00010506946797301423 0 0.034924394080451213 7.8377405904637848e-05 0 0.034902539414618405 0.00017661169362552574 0 0.035000324992323327 2.0215757327889506e-07 0 0.035009383562541102 0.00011955270610680257 0 0.035000324992323327 2.0215757327889506e-07 0 0.0349999384456708 -2.6725731254198344e-08 0 0.035009383562541102 0.00011955270610680257 0 0.034902539414618405 0.00017661169362552574 0 0.035009383562541102 0.00011955270610680257 0 0.034880677434740458 0.00026506459617244401 0 0.034855886079826336 0.00010506946797301423 0 0.034862534236662503 0.00017201840249335434 0 0.034924394080451213 7.8377405904637848e-05 0 0.034862534236662503 0.00017201840249335434 0 0.034844466715669167 0.00013905413233440591 0 0.034924394080451213 7.8377405904637848e-05 0 0.034862534236662503 0.00017201840249335434 0 0.034841855352698549 0.00019999472476661602 0 0.034844466715669167 0.00013905413233440591 0 0.034855886079826336 0.00010506946797301423 0 0.034862534236662503 0.00017201840249335434 0 0.034880677434740458 0.00026506459617244401 0 0.034862534236662503 0.00017201840249335434 0 0.034880677434740458 0.00026506459617244401 0 0.034841855352698549 0.00019999472476661602 0 0.034933515447292854 0.00011882644436890059 0 0.034885976512115321 0.00024290776155459724 0 0.034885586655745565 0.00026642469236006503 0 0.034880677434740458 0.00026506459617244401 0 0.034841855352698549 0.00019999472476661602 0 0.032698005938995744 -0.00032476866184823146 0 0.033431907591264 -0.00035018355231634121 0 0.032830749621438692 -0.00016840413974443481 0 0.033804360750409393 -1.1998009206834669e-05 0 0.034141492302426461 -7.5239038737627827e-05 0 0.034885586655745565 0.00026642469236006503 0 0.034841855352698549 0.00019999472476661602 0 0.034818418224135339 0.00013843532855632552 0 0.034841855352698549 0.00019999472476661602 0 0.034741529650380472 0.00014185843848145817 0 0.034844466715669167 0.00013905413233440591 0 0.034841855352698549 0.00019999472476661602 0 0.034818418224135339 0.00013843532855632552 0 0.034741529650380472 0.00014185843848145817 0 0.034141492302426461 -7.5239038737627827e-05 0 0.034572628513513948 0.00012088293790424388 0 0.033431907591264 -0.00035018355231634121 0 0.033757441977417299 0.00019908274788439932 0 0.033058146956686997 0.00010174411999868127 0 0.033431907591264 -0.00035018355231634121 0 0.033757441977417299 0.00019908274788439932 0 0.034592747985560279 0.00012884861652439264 0 0.033757441977417299 0.00019908274788439932 0 0.03348814610591766 0.00057681219326188046 0 0.034313934879605379 0.0005242517924129651 0 0.033757441977417299 0.00019908274788439932 0 0.03348814610591766 0.00057681219326188046 0 0.033058146956686997 0.00010174411999868127 0 0.029462528226739951 0.00076733461839580738 0 0.028755557251620621 0.00050125963796253631 0 0.028947864505850275 0.00082743824467225316 0 0.031500398343829332 0.00066268941930558325 0 0.03161865304704331 0.00065049445910380288 0 0.03348814610591766 0.00057681219326188046 0 0.033058146956686997 0.00010174411999868127 0 0.032641563116212136 0.00041614264446180498 0 0.033431907591264 -0.00035018355231634121 0 0.033058146956686997 0.00010174411999868127 0 0.032830749621438692 -0.00016840413974443481 0 0.033058146956686997 0.00010174411999868127 0 0.032830749621438692 -0.00016840413974443481 0 0.032594616917491596 -4.3762109751035685e-05 0 0.032830749621438692 -0.00016840413974443481 0 0.032595954290490635 -0.00018151676169727695 0 0.032594616917491596 -4.3762109751035685e-05 0 0.032229324277233649 -0.00011008254289752181 0 0.032416837140198315 -0.00013448172180517649 0 0.032210090849155562 -7.6704216767172859e-06 0 0.032594616917491596 -4.3762109751035685e-05 0 0.032416837140198315 -0.00013448172180517649 0 0.032210090849155562 -7.6704216767172859e-06 0 0.032595954290490635 -0.00018151676169727695 0 0.032594616917491596 -4.3762109751035685e-05 0 0.032416837140198315 -0.00013448172180517649 0 0.032594616917491596 -4.3762109751035685e-05 0 0.032210090849155562 -7.6704216767172859e-06 0 0.032641563116212136 0.00041614264446180498 0 0.033058146956686997 0.00010174411999868127 0 0.032594616917491596 -4.3762109751035685e-05 0 0.032641563116212136 0.00041614264446180498 0 0.030354918349759792 0.00065194921481718637 0 0.030837329902845229 0.00010628130004373809 0 0.029996392751313296 0.00010094787370558873 0 0.031635948125853706 0.000189345494160198 0 0.032210090849155562 -7.6704216767172859e-06 0 0.032641563116212136 0.00041614264446180498 0 0.031635948125853706 0.000189345494160198 0 0.030354918349759792 0.00065194921481718637 0 0.030837329902845229 0.00010628130004373809 0 0.031639060524704422 0.00024552136673419039 0 0.03150798996670031 0.0005108442772801873 0 0.030906462057481664 -0.00023081616934569194 0 0.030837329902845229 0.00010628130004373809 0 0.030508957194872295 -0.00017621600797075506 0 0.030906462057481664 -0.00023081616934569194 0 0.031262232227807829 -4.8748187762568692e-05 0 0.030837329902845229 0.00010628130004373809 0 0.030121348525206124 -0.00038016683842421149 0 0.030508957194872295 -0.00017621600797075506 0 0.029996392751313296 0.00010094787370558873 0 0.030837329902845229 0.00010628130004373809 0 0.030508957194872295 -0.00017621600797075506 0 0.029996392751313296 0.00010094787370558873 0 0.029996392751313296 0.00010094787370558873 0 0.02951439669128457 -0.0001234915034525164 0 0.029423347294265635 0.00023246579808343924 0 0.029836668791369873 -0.00022464005967066963 0 0.030121348525206124 -0.00038016683842421149 0 0.029996392751313296 0.00010094787370558873 0 0.029836668791369873 -0.00022464005967066963 0 0.029996392751313296 0.00010094787370558873 0 0.02951439669128457 -0.0001234915034525164 0 0.02929118384333158 -0.00040301876594646673 0 0.02951439669128457 -0.0001234915034525164 0 0.029222236236422418 -4.648077091751717e-05 0 0.029222236236422418 -4.648077091751717e-05 0 0.029423347294265635 0.00023246579808343924 0 0.028992694860462322 0.00027201419157822366 0 0.02951439669128457 -0.0001234915034525164 0 0.029222236236422418 -4.648077091751717e-05 0 0.029423347294265635 0.00023246579808343924 0 0.029462528226739951 0.00076733461839580738 0 0.029423347294265635 0.00023246579808343924 0 0.028992694860462322 0.00027201419157822366 0 0.029462528226739951 0.00076733461839580738 0 0.028755557251620621 0.00050125963796253631 0 0.028992694860462322 0.00027201419157822366 0 0.031500398343829332 0.00066268941930558325 0 0.03150798996670031 0.0005108442772801873 0 0.029462528226739951 0.00076733461839580738 0 0.030354918349759792 0.00065194921481718637 0 0.029996392751313296 0.00010094787370558873 0 0.029462528226739951 0.00076733461839580738 0 0.029996392751313296 0.00010094787370558873 0 0.029423347294265635 0.00023246579808343924 0 0.028287167725835727 0.00050567006132288942 0 0.028755557251620621 0.00050125963796253631 0 0.028440862477893472 0.00012449178538834408 0 0.028287167725835727 0.00050567006132288942 0 0.028440862477893472 0.00012449178538834408 0 0.027995645523935461 0.00024058348470127672 0 0.028287167725835727 0.00050567006132288942 0 0.028755557251620621 0.00050125963796253631 0 0.028595333993649184 0.00085768518145838419 0 0.028755557251620621 0.00050125963796253631 0 0.028992694860462322 0.00027201419157822366 0 0.028440862477893472 0.00012449178538834408 0 0.029222236236422418 -4.648077091751717e-05 0 0.028992694860462322 0.00027201419157822366 0 0.028888020848054426 -0.00020056565345381606 0 0.028992694860462322 0.00027201419157822366 0 0.028888020848054426 -0.00020056565345381606 0 0.028440862477893472 0.00012449178538834408 0 0.028438975336742753 -0.00028590539089749383 0 0.028888020848054426 -0.00020056565345381606 0 0.028440862477893472 0.00012449178538834408 0 0.028438975336742753 -0.00028590539089749383 0 0.028440862477893472 0.00012449178538834408 0 0.027859464179520003 -0.00014189393691004307 0 0.028440862477893472 0.00012449178538834408 0 0.027859464179520003 -0.00014189393691004307 0 0.027995645523935461 0.00024058348470127672 0 0.027859464179520003 -0.00014189393691004307 0 0.027565647009050717 0.00021255025740550909 0 0.027995645523935461 0.00024058348470127672 0 0.027859464179520003 -0.00014189393691004307 0 0.027187213568331585 7.5154443620672212e-05 0 0.027565647009050717 0.00021255025740550909 0 0.027485947931815354 -0.00044471221674049973 0 0.027859464179520003 -0.00014189393691004307 0 0.027187213568331585 7.5154443620672212e-05 0 0.027187213568331585 7.5154443620672212e-05 0 0.027287502726779749 0.00039166654196191012 0 0.027565647009050717 0.00021255025740550909 0 0.027287502726779749 0.00039166654196191012 0 0.027565647009050717 0.00021255025740550909 0 0.027856748694049294 0.00049791047422638717 0 0.027565647009050717 0.00021255025740550909 0 0.027995645523935461 0.00024058348470127672 0 0.027856748694049294 0.00049791047422638717 0 0.028287167725835727 0.00050567006132288942 0 0.027995645523935461 0.00024058348470127672 0 0.027856748694049294 0.00049791047422638717 0 0.031215011662130036 0.00045602068194861126 0 0.031522961271635196 0.00055343792391808347 0 0.027856748694049294 0.00049791047422638717 0 0.02758508807467509 0.00073349377816454332 0 0.028241977690986009 0.00084764601422804558 0 0.034853276012826617 0.00019247842552786435 0 0.034816933595522848 0.00016777256395574986 0 0.034787182499912965 0.00026499517825186929 0 0.027287502726779749 0.00039166654196191012 0 0.02758508807467509 0.00073349377816454332 0 0.027139321512439148 0.00048762926351090136 0 0.031215011662130036 0.00045602068194861126 0 0.03111588948553998 0.00036311162641669732 0 0.027287502726779749 0.00039166654196191012 0 0.027856748694049294 0.00049791047422638717 0 0.02758508807467509 0.00073349377816454332 0 0.034853276012826617 0.00019247842552786435 0 0.034898648815743734 0.00012768098589966732 0 0.034886238464468707 0.00016617302436853454 0 0.034853276012826617 0.00019247842552786435 0 0.034862410497272268 0.00013096596757063562 0 0.034898648815743734 0.00012768098589966732 0 0.034816933595522848 0.00016777256395574986 0 0.034798620323849977 0.00013352692352688823 0 0.034862410497272268 0.00013096596757063562 0 0.034853276012826617 0.00019247842552786435 0 0.034816933595522848 0.00016777256395574986 0 0.034862410497272268 0.00013096596757063562 0 0.034816933595522848 0.00016777256395574986 0 0.034798620323849977 0.00013352692352688823 0 0.034729137697500648 0.00014878472851978541 0 0.034798620323849977 0.00013352692352688823 0 0.034729137697500648 0.00014878472851978541 0 0.034741529650380472 0.00014185843848145817 0 0.034816933595522848 0.00016777256395574986 0 0.034729137697500648 0.00014878472851978541 0 0.034787182499912965 0.00026499517825186929 0 0.034729137697500648 0.00014878472851978541 0 0.034787182499912965 0.00026499517825186929 0 0.034592747985560279 0.00012884861652439264 0 0.034787182499912965 0.00026499517825186929 0 0.034666412343323273 0.00031712088356747477 0 0.034592747985560279 0.00012884861652439264 0 0.028287167725835727 0.00050567006132288942 0 0.028241977690986009 0.00084764601422804558 0 0.028595333993649184 0.00085768518145838419 0 0.031522961271635196 0.00055343792391808347 0 0.031558027173695831 0.00060771081934275783 0 0.028287167725835727 0.00050567006132288942 0 0.027856748694049294 0.00049791047422638717 0 0.028241977690986009 0.00084764601422804558 0 0.033757441977417299 0.00019908274788439932 0 0.034313934879605379 0.0005242517924129651 0 0.034592747985560279 0.00012884861652439264 0 0.03161865304704331 0.00065049445910380288 0 0.031558027173695831 0.00060771081934275783 0 0.028755557251620621 0.00050125963796253631 0 0.028947864505850275 0.00082743824467225316 0 0.028595333993649184 0.00085768518145838419 0 0.034313934879605379 0.0005242517924129651 0 0.034666412343323273 0.00031712088356747477 0 0.034592747985560279 0.00012884861652439264 0 0.034729137697500648 0.00014878472851978541 0 0.034592747985560279 0.00012884861652439264 0 0.034741529650380472 0.00014185843848145817 0 0.034818418224135339 0.00013843532855632552 0 0.034592747985560279 0.00012884861652439264 0 0.034741529650380472 0.00014185843848145817 0 0.034741529650380472 0.00014185843848145817 0 0.03483650638665272 0.00011620567122378688 0 0.034844466715669167 0.00013905413233440591 0 0.034798620323849977 0.00013352692352688823 0 0.03483650638665272 0.00011620567122378688 0 0.034880167178932324 9.5701379874962104e-05 0 0.034798620323849977 0.00013352692352688823 0 0.034741529650380472 0.00014185843848145817 0 0.03483650638665272 0.00011620567122378688 0 0.03483650638665272 0.00011620567122378688 0 0.034844466715669167 0.00013905413233440591 0 0.034922809838916657 6.5782490881545564e-05 0 0.03483650638665272 0.00011620567122378688 0 0.034922809838916657 6.5782490881545564e-05 0 0.034880167178932324 9.5701379874962104e-05 0 0.034844466715669167 0.00013905413233440591 0 0.034924394080451213 7.8377405904637848e-05 0 0.034922809838916657 6.5782490881545564e-05 0 0.034924394080451213 7.8377405904637848e-05 0 0.034922809838916657 6.5782490881545564e-05 0 0.03499997029767906 4.2941158938494028e-08 0 0.034922809838916657 6.5782490881545564e-05 0 0.03499997029767906 4.2941158938494028e-08 0 0.034999939674885593 1.0704467430920772e-08 0 0.034999707527229799 4.3305465124632926e-08 0 0.034924394080451213 7.8377405904637848e-05 0 0.03499997029767906 4.2941158938494028e-08 0 0.034976219958324006 2.4670585940091683e-05 0 0.034999939674885593 1.0704467430920772e-08 0 0.034999955677263973 2.5755887564114784e-08 0 0.034976219958324006 2.4670585940091683e-05 0 0.034999939674885593 1.0704467430920772e-08 0 0.034939349841501884 5.5482253411346325e-05 0 0.034922809838916657 6.5782490881545564e-05 0 0.034999939674885593 1.0704467430920772e-08 0 0.034939349841501884 5.5482253411346325e-05 0 0.034976219958324006 2.4670585940091683e-05 0 0.034939349841501884 5.5482253411346325e-05 0 0.034942040966173232 7.2671485420558509e-05 0 0.034939349841501884 5.5482253411346325e-05 0 0.034907032671962684 9.3549988856350965e-05 0 0.034942040966173232 7.2671485420558509e-05 0 0.034922809838916657 6.5782490881545564e-05 0 0.034939349841501884 5.5482253411346325e-05 0 0.034880167178932324 9.5701379874962104e-05 0 0.034939349841501884 5.5482253411346325e-05 0 0.034907032671962684 9.3549988856350965e-05 0 0.034880167178932324 9.5701379874962104e-05 0 0.034907032671962684 9.3549988856350965e-05 0 0.034880167178932324 9.5701379874962104e-05 0 0.034862410497272268 0.00013096596757063562 0 0.034798620323849977 0.00013352692352688823 0 0.034880167178932324 9.5701379874962104e-05 0 0.034862410497272268 0.00013096596757063562 0 0.034907032671962684 9.3549988856350965e-05 0 0.034898648815743734 0.00012768098589966732 0 0.034942040966173232 7.2671485420558509e-05 0 0.034907032671962684 9.3549988856350965e-05 0 0.034862410497272268 0.00013096596757063562 0 0.034898648815743734 0.00012768098589966732 0 0.034898648815743734 0.00012768098589966732 0 0.03492695657694006 0.0001214642646308565 0 0.034942040966173232 7.2671485420558509e-05 0 0.03492695657694006 0.0001214642646308565 0 0.034963992983525045 7.1920813750877692e-05 0 0.034963236637819028 0.00010451864464318146 0 0.034963992983525045 7.1920813750877692e-05 0 0.03499575524135428 4.5176815888073969e-05 0 0.034963236637819028 0.00010451864464318146 0 0.03492695657694006 0.0001214642646308565 0 0.034963992983525045 7.1920813750877692e-05 0 0.034942040966173232 7.2671485420558509e-05 0 0.034963992983525045 7.1920813750877692e-05 0 0.034942040966173232 7.2671485420558509e-05 0 0.034980609286677705 3.2224395544461695e-05 0 0.034976219958324006 2.4670585940091683e-05 0 0.034942040966173232 7.2671485420558509e-05 0 0.034980609286677705 3.2224395544461695e-05 0 0.034963992983525045 7.1920813750877692e-05 0 0.034980609286677705 3.2224395544461695e-05 0 0.03499575524135428 4.5176815888073969e-05 0 0.034980609286677705 3.2224395544461695e-05 0 0.034999955677263973 2.5755887564114784e-08 0 0.035000038289881852 6.6064300599745908e-09 0 0.034976219958324006 2.4670585940091683e-05 0 0.034980609286677705 3.2224395544461695e-05 0 0.034999955677263973 2.5755887564114784e-08 0 0.034999410429402945 -2.1411336493674361e-07 0 0.03382841901251963 5.3402139352486691e-05 0 0.031951760882944678 1.1439954929657608e-06 0 0.034999410429402945 -2.1411336493674361e-07 0 0.034997651104269265 1.7864162072083694e-07 0 0.03382841901251963 5.3402139352486691e-05 0 0.034999660126775967 2.621553777343237e-07 0 0.034114017209829713 0.00018288340903363889 0 0.034997651104269265 1.7864162072083694e-07 0 0.033296531973056133 0.00012836217234944643 0 0.03382841901251963 5.3402139352486691e-05 0 0.034980609286677705 3.2224395544461695e-05 0 0.035000038289881852 6.6064300599745908e-09 0 0.03499575524135428 4.5176815888073969e-05 0 0.033296531973056133 0.00012836217234944643 0 0.03382841901251963 5.3402139352486691e-05 0 0.031951760882944678 1.1439954929657608e-06 0 0.031951760882944678 1.1439954929657608e-06 0 0.03136369093460991 6.698042177119822e-05 0 0.029719036141155352 -2.0308423746793567e-06 0 0.033296531973056133 0.00012836217234944643 0 0.031951760882944678 1.1439954929657608e-06 0 0.032167400550237181 0.00011344901024260886 0 0.034114017209829713 0.00018288340903363889 0 0.033944558143615911 0.00011343495250271803 0 0.031951760882944678 1.1439954929657608e-06 0 0.032167400550237181 0.00011344901024260886 0 0.03136369093460991 6.698042177119822e-05 0 0.02971607367478863 -3.071647274663315e-07 0 0.029538093445824407 -0.00038203224486791769 0 0.03136369093460991 6.698042177119822e-05 0 0.029719036141155352 -2.0308423746793567e-06 0 0.031404618404594298 -0.00053743020989236996 0 0.029712963143160485 -1.7083408772823976e-06 0 0.027556600339050399 0.00015570025335179626 0 0.02777286005307773 9.2863576236588511e-07 0 0.029712963143160485 -1.7083408772823976e-06 0 0.027556600339050399 0.00015570025335179626 0 0.028020021854081374 -0.00044615860751370177 0 0.027556600339050399 0.00015570025335179626 0 0.027487970526708164 -0.00010503943048503855 0 0.028020021854081374 -0.00044615860751370177 0 0.027487970526708164 -0.00010503943048503855 0 0.028020021854081374 -0.00044615860751370177 0 0.02707107787339625 -0.00040354867580812555 0 0.027556600339050399 0.00015570025335179626 0 0.027487970526708164 -0.00010503943048503855 0 0.027059822455347569 0.00015437262086842487 0 0.027487970526708164 -0.00010503943048503855 0 0.02707107787339625 -0.00040354867580812555 0 0.027059822455347569 0.00015437262086842487 0 0.033944558143615911 0.00011343495250271803 0 0.030570419795571315 -0.00031994596582789517 0 0.029538093445824407 -0.00038203224486791769 0 0.030570419795571315 -0.00031994596582789517 0 0.032167400550237181 0.00011344901024260886 0 0.031404618404594298 -0.00053743020989236996 0 0.031994226612545848 -0.00062334472660186132 0 0.032167400550237181 0.00011344901024260886 0 0.03136369093460991 6.698042177119822e-05 0 0.031404618404594298 -0.00053743020989236996 0 0.03492695657694006 0.0001214642646308565 0 0.034963236637819028 0.00010451864464318146 0 0.034913438585198658 0.00015421090809246554 0 0.03492695657694006 0.0001214642646308565 0 0.034886238464468707 0.00016617302436853454 0 0.034913438585198658 0.00015421090809246554 0 0.034898648815743734 0.00012768098589966732 0 0.03492695657694006 0.0001214642646308565 0 0.034886238464468707 0.00016617302436853454 0 0.027287502726779749 0.00039166654196191012 0 0.027139321512439148 0.00048762926351090136 0 0.027040843229843344 0.00031145449454053788 0 0.03111588948553998 0.00036311162641669732 0 0.030570419795571315 -0.00031994596582789517 0 0.027139321512439148 0.00048762926351090136 0 0.027057549205200093 0.00022527045272484447 0 0.027040843229843344 0.00031145449454053788 0 0.030570419795571315 -0.00031994596582789517 0 0.02846378573294011 0.00028813519892775466 0 0.027057549205200093 0.00022527045272484447 0 0.027040843229843344 0.00031145449454053788 0 0.027059822455347569 0.00015437262086842487 0 0.027040843229843344 0.00031145449454053788 0 0.026928110879202109 0.00027482182260469992 0 0.027019751377216412 0.00022178392670125303 0 0.027040843229843344 0.00031145449454053788 0 0.027059822455347569 0.00015437262086842487 0 0.026928110879202109 0.00027482182260469992 0 0.027287502726779749 0.00039166654196191012 0 0.027040843229843344 0.00031145449454053788 0 0.027019751377216412 0.00022178392670125303 0 0.027187213568331585 7.5154443620672212e-05 0 0.027287502726779749 0.00039166654196191012 0 0.027019751377216412 0.00022178392670125303 0 0.026760456181978202 -6.3252413830031071e-05 0 0.027187213568331585 7.5154443620672212e-05 0 0.027019751377216412 0.00022178392670125303 0 0.026760456181978202 -6.3252413830031071e-05 0 0.026928110879202109 0.00027482182260469992 0 0.027019751377216412 0.00022178392670125303 0 0.026760456181978202 -6.3252413830031071e-05 0 0.026928110879202109 0.00027482182260469992 0 0.02672319231853134 0.00023625376702967151 0 0.025828921096016481 1.0059868724575456e-06 0 0.02672319231853134 0.00023625376702967151 0 0.02777286005307773 9.2863576236588511e-07 0 0.027556600339050399 0.00015570025335179626 0 0.02672319231853134 0.00023625376702967151 0 0.02777286005307773 9.2863576236588511e-07 0 0.027556600339050399 0.00015570025335179626 0 0.026928110879202109 0.00027482182260469992 0 0.02672319231853134 0.00023625376702967151 0 0.027556600339050399 0.00015570025335179626 0 0.027059822455347569 0.00015437262086842487 0 0.026928110879202109 0.00027482182260469992 0 0.017205939649119185 0.0024796272939844582 0 0.017431681229543868 0.0032085686658416723 0 0.017957662451880352 0.0030384737797509659 0 0.017205939649119185 0.0024796272939844582 0 0.017957662451880352 0.0030384737797509659 0 0.017984899662624673 0.0022547288997128785 0 0.017205939649119185 0.0024796272939844582 0 0.016873414197358182 0.0032505344963560784 0 0.016085039776714511 0.0027004080661955647 0 0.016741197655015843 0.0031060587342837433 0 0.016033523542535413 0.0027044984129385077 0 0.017205939649119185 0.0024796272939844582 0 0.016873414197358182 0.0032505344963560784 0 0.017431681229543868 0.0032085686658416723 0 0.016873414197358182 0.0032505344963560784 0 0.017431681229543868 0.0032085686658416723 0 0.017590667837070948 0.0037269837645722607 0 0.016741197655015843 0.0031060587342837433 0 0.015493156531906862 0.0040264434765715489 0 0.017431681229543868 0.0032085686658416723 0 0.017957662451880352 0.0030384737797509659 0 0.017590667837070948 0.0037269837645722607 0 0.017957662451880352 0.0030384737797509659 0 0.01869808396232589 0.0028318894342352942 0 0.018212031232223414 0.0036690533266443776 0 0.017957662451880352 0.0030384737797509659 0 0.017590667837070948 0.0037269837645722607 0 0.018212031232223414 0.0036690533266443776 0 0.020972121718860606 0.0026922658965305994 0 0.019210749001140309 0.0025339863584583231 0 0.01869808396232589 0.0028318894342352942 0 0.018833619386347179 0.0038775509657153666 0 0.018212031232223414 0.0036690533266443776 0 0.017957662451880352 0.0030384737797509659 0 0.01869808396232589 0.0028318894342352942 0 0.017984899662624673 0.0022547288997128785 0 0.022671309260131955 0.002127833295126559 0 0.02269592378986093 0.0019413316242923974 0 0.022831511205277509 0.002000023193542188 0 0.01869808396232589 0.0028318894342352942 0 0.017984899662624673 0.0022547288997128785 0 0.018563864240087748 0.0017485198556366798 0 0.020972121718860606 0.0026922658965305994 0 0.020161913890936741 0.0015741562035509306 0 0.020161913890936741 0.0015741562035509306 0 0.023600101023418932 0.0020614216728012768 0 0.02269592378986093 0.0019413316242923974 0 0.0227932615560692 0.0018798562861989431 0 0.022734813046133118 0.0018028443474874115 0 0.017984899662624673 0.0022547288997128785 0 0.018563864240087748 0.0017485198556366798 0 0.017483783767670187 0.0011671616069116309 0 0.018563864240087748 0.0017485198556366798 0 0.017483783767670187 0.0011671616069116309 0 0.018430552305712555 0.0006574089280063295 0 0.017205939649119185 0.0024796272939844582 0 0.017483783767670187 0.0011671616069116309 0 0.016514778860951995 0.0016977361051675182 0 0.017205939649119185 0.0024796272939844582 0 0.017984899662624673 0.0022547288997128785 0 0.017483783767670187 0.0011671616069116309 0 0.017205939649119185 0.0024796272939844582 0 0.016514778860951995 0.0016977361051675182 0 0.016085039776714511 0.0027004080661955647 0 0.02225067859463498 0.0031184026228009295 0 0.021192790407385149 0.0036361735543903231 0 0.026075245087675811 0.0055382043789824848 0 0.025461777024887017 0.0050715676422012496 0 0.025014557760703375 0.0060093856911834602 0 0.026075245087675811 0.0055382043789824848 0 0.025461777024887017 0.0050715676422012496 0 0.02650249997578738 0.0042474817545584062 0 0.025461777024887017 0.0050715676422012496 0 0.025014557760703375 0.0060093856911834602 0 0.024729975661024708 0.0052188210235208157 0 0.016514778860951995 0.0016977361051675182 0 0.015702224343158478 0.0022699547152726001 0 0.016085039776714511 0.0027004080661955647 0 0.021192790407385149 0.0036361735543903231 0 0.021005587394008266 0.0040697512221372148 0 0.023964160382675573 0.0054511097383034028 0 0.023672309784515781 0.0051497342371420278 0 0.023694951335167278 0.0054326288948965008 0 0.023964160382675573 0.0054511097383034028 0 0.023694951335167278 0.0054326288948965008 0 0.023704663849334201 0.0056480558550769952 0 0.024104045506568243 0.0050277821687338357 0 0.023964160382675573 0.0054511097383034028 0 0.023672309784515781 0.0051497342371420278 0 0.024104045506568243 0.0050277821687338357 0 0.023964160382675573 0.0054511097383034028 0 0.024257408992446664 0.0054263727941565414 0 0.023964160382675573 0.0054511097383034028 0 0.024257408992446664 0.0054263727941565414 0 0.024103859041153607 0.0056959117190052066 0 0.024104045506568243 0.0050277821687338357 0 0.024257408992446664 0.0054263727941565414 0 0.024729975661024708 0.0052188210235208157 0 0.024257408992446664 0.0054263727941565414 0 0.024729975661024708 0.0052188210235208157 0 0.024406978721674431 0.0057247208443405861 0 0.025014557760703375 0.0060093856911834602 0 0.024729975661024708 0.0052188210235208157 0 0.024406978721674431 0.0057247208443405861 0 0.025014557760703375 0.0060093856911834602 0 0.024406978721674431 0.0057247208443405861 0 0.024300875561952505 0.0060797407073558208 0 0.024406978721674431 0.0057247208443405861 0 0.024158771758136986 0.005905232200310865 0 0.024300875561952505 0.0060797407073558208 0 0.024257408992446664 0.0054263727941565414 0 0.024406978721674431 0.0057247208443405861 0 0.024103859041153607 0.0056959117190052066 0 0.024406978721674431 0.0057247208443405861 0 0.024103859041153607 0.0056959117190052066 0 0.024158771758136986 0.005905232200310865 0 0.023964160382675573 0.0054511097383034028 0 0.024103859041153607 0.0056959117190052066 0 0.023901002771436922 0.0057316219630892647 0 0.024103859041153607 0.0056959117190052066 0 0.023952903172485489 0.0059187093014396253 0 0.023901002771436922 0.0057316219630892647 0 0.024103859041153607 0.0056959117190052066 0 0.024158771758136986 0.005905232200310865 0 0.023952903172485489 0.0059187093014396253 0 0.024158771758136986 0.005905232200310865 0 0.023952903172485489 0.0059187093014396253 0 0.024046632297137948 0.0061105329165087622 0 0.024158771758136986 0.005905232200310865 0 0.024046632297137948 0.0061105329165087622 0 0.024300875561952505 0.0060797407073558208 0 0.023952903172485489 0.0059187093014396253 0 0.02388388511248582 0.0060457693938685067 0 0.024046632297137948 0.0061105329165087622 0 0.023952903172485489 0.0059187093014396253 0 0.023731676542678447 0.0059280672535114848 0 0.023901002771436922 0.0057316219630892647 0 0.023952903172485489 0.0059187093014396253 0 0.023731676542678447 0.0059280672535114848 0 0.02388388511248582 0.0060457693938685067 0 0.023964160382675573 0.0054511097383034028 0 0.023901002771436922 0.0057316219630892647 0 0.023704663849334201 0.0056480558550769952 0 0.023731676542678447 0.0059280672535114848 0 0.023901002771436922 0.0057316219630892647 0 0.023704663849334201 0.0056480558550769952 0 0.023807488390242916 0.006224640714820341 0 0.024117289347243775 0.0063397770060927248 0 0.023361484112456005 0.0066667672488050405 0 0.023731676542678447 0.0059280672535114848 0 0.02388388511248582 0.0060457693938685067 0 0.023807488390242916 0.006224640714820341 0 0.02388388511248582 0.0060457693938685067 0 0.023807488390242916 0.006224640714820341 0 0.024046632297137948 0.0061105329165087622 0 0.023807488390242916 0.006224640714820341 0 0.024046632297137948 0.0061105329165087622 0 0.024117289347243775 0.0063397770060927248 0 0.024046632297137948 0.0061105329165087622 0 0.024117289347243775 0.0063397770060927248 0 0.024300875561952505 0.0060797407073558208 0 0.021005587394008266 0.0040697512221372148 0 0.016335091438663556 0.0039133321580778436 0 0.015702224343158478 0.0022699547152726001 0 0.015202851227297368 0.0026311595831000159 0 0.015633224900753476 0.0028350882101196759 0 0.025014557760703375 0.0060093856911834602 0 0.024117289347243775 0.0063397770060927248 0 0.024300875561952505 0.0060797407073558208 0 0.015324756688224177 0.0030285478032987699 0 0.015633224900753476 0.0028350882101196759 0 0.015602151198582987 0.0031376977687349633 0 0.015202851227297368 0.0026311595831000159 0 0.015324756688224177 0.0030285478032987699 0 0.015633224900753476 0.0028350882101196759 0 0.016335091438663556 0.0039133321580778436 0 0.011855708477539363 0.0036540111981389948 0 0.0090415107520152548 0.0049779653736803514 0 0.0088794027676858001 0.0046181267320708781 0 0.0091747475830719107 0.0046276511006763292 0 0.016335091438663556 0.0039133321580778436 0 0.016728878033162239 0.0057524011216489746 0 0.0090415107520152548 0.0049779653736803514 0 0.0091747475830719107 0.0046276511006763292 0 0.0094910346871139532 0.0047367745527643335 0 0.015702224343158478 0.0022699547152726001 0 0.016085039776714511 0.0027004080661955647 0 0.015633224900753476 0.0028350882101196759 0 0.015633224900753476 0.0028350882101196759 0 0.015914726996629394 0.0030488224082614343 0 0.015602151198582987 0.0031376977687349633 0 0.016085039776714511 0.0027004080661955647 0 0.015633224900753476 0.0028350882101196759 0 0.015914726996629394 0.0030488224082614343 0 0.016192636654925607 0.0029521123679413837 0 0.016085039776714511 0.0027004080661955647 0 0.015914726996629394 0.0030488224082614343 0 0.015914726996629394 0.0030488224082614343 0 0.015759353614806387 0.0033836648551059749 0 0.016100642632893951 0.0032453602421456665 0 0.015602151198582987 0.0031376977687349633 0 0.015759353614806387 0.0033836648551059749 0 0.015420254797766533 0.0033357069271908726 0 0.015914726996629394 0.0030488224082614343 0 0.015602151198582987 0.0031376977687349633 0 0.015759353614806387 0.0033836648551059749 0 0.015759353614806387 0.0033836648551059749 0 0.015420254797766533 0.0033357069271908726 0 0.015477231184193115 0.0036189713927261085 0 0.015759353614806387 0.0033836648551059749 0 0.016048842350699144 0.0034913310341345961 0 0.016100642632893951 0.0032453602421456665 0 0.0091747475830719107 0.0046276511006763292 0 0.0090670721940421979 0.0043278300624275618 0 0.0094068353579853554 0.0044493107277115028 0 0.0088794027676858001 0.0046181267320708781 0 0.0091747475830719107 0.0046276511006763292 0 0.0090670721940421979 0.0043278300624275618 0 0.0088794027676858001 0.0046181267320708781 0 0.0090670721940421979 0.0043278300624275618 0 0.0087096440168277899 0.0042259038275611113 0 0.011855708477539363 0.0036540111981389948 0 0.012147772882904145 0.0037789618402597524 0 0.015324756688224177 0.0030285478032987699 0 0.015602151198582987 0.0031376977687349633 0 0.015420254797766533 0.0033357069271908726 0 0.0087096440168277899 0.0042259038275611113 0 0.0086617622342781957 0.0038880681922287522 0 0.0085660926972168372 0.0038649837309209451 0 0.012147772882904145 0.0037789618402597524 0 0.010576852062223793 0.004203547207657009 0 0.0087096440168277899 0.0042259038275611113 0 0.0088886895934906542 0.0040534006404081844 0 0.0086617622342781957 0.0038880681922287522 0 0.0090670721940421979 0.0043278300624275618 0 0.0087096440168277899 0.0042259038275611113 0 0.0088886895934906542 0.0040534006404081844 0 0.0090670721940421979 0.0043278300624275618 0 0.0088886895934906542 0.0040534006404081844 0 0.0091066431373643918 0.004075642821593459 0 0.0091066431373643918 0.004075642821593459 0 0.009027029104462729 0.0038349290286354043 0 0.0093231109089559755 0.0039984899037996324 0 0.0088886895934906542 0.0040534006404081844 0 0.0091066431373643918 0.004075642821593459 0 0.009027029104462729 0.0038349290286354043 0 0.0090670721940421979 0.0043278300624275618 0 0.0091066431373643918 0.004075642821593459 0 0.0092777680356461688 0.0042207700371793989 0 0.0089699250532050828 0.003628231365187039 0 0.009027029104462729 0.0038349290286354043 0 0.0091446795699449759 0.0037451670643025695 0 0.009027029104462729 0.0038349290286354043 0 0.0088580161518111017 0.0038664056599481372 0 0.0088398225026280579 0.003685724329165817 0 0.0088886895934906542 0.0040534006404081844 0 0.009027029104462729 0.0038349290286354043 0 0.0088580161518111017 0.0038664056599481372 0 0.0089699250532050828 0.003628231365187039 0 0.009027029104462729 0.0038349290286354043 0 0.0088398225026280579 0.003685724329165817 0 0.0088398225026280579 0.003685724329165817 0 0.0086617622342781957 0.0038880681922287522 0 0.0086117927596804367 0.0036670275225875724 0 0.0088580161518111017 0.0038664056599481372 0 0.0088398225026280579 0.003685724329165817 0 0.0086617622342781957 0.0038880681922287522 0 0.0088886895934906542 0.0040534006404081844 0 0.0088580161518111017 0.0038664056599481372 0 0.0086617622342781957 0.0038880681922287522 0 0.0092412268278860496 0.0039251873936861671 0 0.010576852062223793 0.004203547207657009 0 0.0085050832501223743 0.0038813575829231965 0 0.0086117927596804367 0.0036670275225875724 0 0.0083041055710364672 0.0034810027141850232 0 0.0086617622342781957 0.0038880681922287522 0 0.0085050832501223743 0.0038813575829231965 0 0.0086117927596804367 0.0036670275225875724 0 0.0086117927596804367 0.0036670275225875724 0 0.0088567261999888541 0.0034011977472462687 0 0.0083041055710364672 0.0034810027141850232 0 0.0063431747947905633 0.0034449128947559005 0 0.0062110357984857577 0.0033884367402853594 0 0.0088398225026280579 0.003685724329165817 0 0.0086117927596804367 0.0036670275225875724 0 0.0088567261999888541 0.0034011977472462687 0 0.0063431747947905633 0.0034449128947559005 0 0.0018903634309664415 0.0041561447989471754 0 0.0088567261999888541 0.0034011977472462687 0 0.008995655359981999 0.0035486445912337951 0 0.0089225771863013451 0.0036415972142409781 0 0.0089699250532050828 0.003628231365187039 0 0.0088567261999888541 0.0034011977472462687 0 0.008995655359981999 0.0035486445912337951 0 0.0089699250532050828 0.003628231365187039 0 0.0088398225026280579 0.003685724329165817 0 0.0088567261999888541 0.0034011977472462687 0 0.0089699250532050828 0.003628231365187039 0 0.008995655359981999 0.0035486445912337951 0 0.0091446795699449759 0.0037451670643025695 0 0.015759353614806387 0.0033836648551059749 0 0.015852587532816789 0.0036795824469025105 0 0.016048842350699144 0.0034913310341345961 0 0.0084685485028217385 0.0040105754905460931 0 0.0075075983972623384 0.0037054743940050094 0 0.0078979012961774182 0.0033678405422709599 0 0.010576852062223793 0.004203547207657009 0 0.012118962875200005 0.0037985751614689352 0 0.015759353614806387 0.0033836648551059749 0 0.015477231184193115 0.0036189713927261085 0 0.015852587532816789 0.0036795824469025105 0 0.010576852062223793 0.004203547207657009 0 0.0084482060404101438 0.0032785274129510109 0 0.0038567572171503634 0.0041730940198176029 0 0.0026167852526653933 0.0036568474874900938 0 0.0048452102004693772 0.0033043478985869835 0 0.0084685485028217385 0.0040105754905460931 0 0.0078979012961774182 0.0033678405422709599 0 0.0083041055710364672 0.0034810027141850232 0 0.0088567261999888541 0.0034011977472462687 0 0.0078979012961774182 0.0033678405422709599 0 0.0083041055710364672 0.0034810027141850232 0 0.0038567572171503634 0.0041730940198176029 0 0.0048452102004693772 0.0033043478985869835 0 0.0046490936844402987 0.003986442460021479 0 0.0048452102004693772 0.0033043478985869835 0 0.0046490936844402987 0.003986442460021479 0 0.005408483099512992 0.0037602760926974971 0 0.0048452102004693772 0.0033043478985869835 0 0.006231790168612892 0.0036705024152980732 0 0.006905640743398128 0.0034255931395898321 0 0.0075075983972623384 0.0037054743940050094 0 0.0078979012961774182 0.0033678405422709599 0 0.006905640743398128 0.0034255931395898321 0 0.0062110357984857577 0.0033884367402853594 0 0.0069074817385014874 0.003389101455738609 0 0.0051706312386989332 0.0041963176672546471 0 0.0046490936844402987 0.003986442460021479 0 0.005408483099512992 0.0037602760926974971 0 0.0048452102004693772 0.0033043478985869835 0 0.005408483099512992 0.0037602760926974971 0 0.006231790168612892 0.0036705024152980732 0 0.0057749014155252382 0.004209318591127123 0 0.005408483099512992 0.0037602760926974971 0 0.0059729163125205745 0.0038751535680938819 0 0.005408483099512992 0.0037602760926974971 0 0.0059729163125205745 0.0038751535680938819 0 0.006231790168612892 0.0036705024152980732 0 0.0057749014155252382 0.004209318591127123 0 0.0059729163125205745 0.0038751535680938819 0 0.0062794327437198164 0.0039694374661786271 0 0.0038492339775074024 0.002931072224162628 0 0.010784256462720397 0.0026253059195741608 0 0.006231790168612892 0.0036705024152980732 0 0.0066461028130627622 0.0038693000464895223 0 0.0067169717160929605 0.0035876198831482939 0 0.0068574083876621591 0.0044458694805978097 0 0.0066461028130627622 0.0038693000464895223 0 0.0067006285109056643 0.0033563301702804623 0 0.0059729163125205745 0.0038751535680938819 0 0.0062794327437198164 0.0039694374661786271 0 0.006231790168612892 0.0036705024152980732 0 0.0062794327437198164 0.0039694374661786271 0 0.006231790168612892 0.0036705024152980732 0 0.0066461028130627622 0.0038693000464895223 0 0.0066461028130627622 0.0038693000464895223 0 0.0067169717160929605 0.0035876198831482939 0 0.0067006285109056643 0.0033563301702804623 0 0.0067169717160929605 0.0035876198831482939 0 0.006905640743398128 0.0034255931395898321 0 0.0067006285109056643 0.0033563301702804623 0 0.006231790168612892 0.0036705024152980732 0 0.0067169717160929605 0.0035876198831482939 0 0.006905640743398128 0.0034255931395898321 0 0.0063837376199736614 0.0020174438063878686 0 0.0063709415765582965 0.0020377737665293358 0 0.0064072122238376219 0.0020702503337266722 0 0.0063709415765582965 0.0020377737665293358 0 0.0064072122238376219 0.0020702503337266722 0 0.0063497148266680927 0.0020546000668399144 0 0.010784256462720397 0.0026253059195741608 0 0.0089959101251605687 0.0015882219635822957 0 0.013332634119819737 0.0016027059343935474 0 0.012623871042653971 0.0018140042731994586 0 0.012069563761258374 0.0012156054631077351 0 0.006338864189124928 0.0020123077423610759 0 0.0063709415765582965 0.0020377737665293358 0 0.0063497148266680927 0.0020546000668399144 0 0.012623871042653971 0.0018140042731994586 0 0.01297211318209281 0.0030296376841455752 0 0.011966831273257606 0.0026136654413530937 0 0.010784256462720397 0.0026253059195741608 0 0.014893773495738487 0.0031082598553100627 0 0.013332634119819737 0.0016027059343935474 0 0.012623871042653971 0.0018140042731994586 0 0.01297211318209281 0.0030296376841455752 0 0.012118962875200005 0.0037985751614689352 0 0.010784256462720397 0.0026253059195741608 0 0.015852587532816789 0.0036795824469025105 0 0.016177105619067784 0.0037408317325712719 0 0.016048842350699144 0.0034913310341345961 0 0.016177105619067784 0.0037408317325712719 0 0.016048842350699144 0.0034913310341345961 0 0.016295403153710628 0.0034456817250377906 0 0.0075075983972623384 0.0037054743940050094 0 0.006905640743398128 0.0034255931395898321 0 0.0067006285109056643 0.0033563301702804623 0 0.016048842350699144 0.0034913310341345961 0 0.016295403153710628 0.0034456817250377906 0 0.016100642632893951 0.0032453602421456665 0 0.014893773495738487 0.0031082598553100627 0 0.015493156531906862 0.0040264434765715489 0 0.016295403153710628 0.0034456817250377906 0 0.016394303440220095 0.0031478842714100417 0 0.016100642632893951 0.0032453602421456665 0 0.016192636654925607 0.0029521123679413837 0 0.015914726996629394 0.0030488224082614343 0 0.016100642632893951 0.0032453602421456665 0 0.016192636654925607 0.0029521123679413837 0 0.016394303440220095 0.0031478842714100417 0 0.016100642632893951 0.0032453602421456665 0 0.018833619386347179 0.0038775509657153666 0 0.018212031232223414 0.0036690533266443776 0 0.018409021469346143 0.0043013151056292987 0 0.019210749001140309 0.0025339863584583231 0 0.013979439517156784 0.0035218685502655541 0 0.015493156531906862 0.0040264434765715489 0 0.013979439517156784 0.0035218685502655541 0 0.017590667837070948 0.0037269837645722607 0 0.018212031232223414 0.0036690533266443776 0 0.018409021469346143 0.0043013151056292987 0 0.01297211318209281 0.0030296376841455752 0 0.011291982705245489 0.0033649942973409388 0 0.011966831273257606 0.0026136654413530937 0 0.01297211318209281 0.0030296376841455752 0 0.012687869603582405 0.0043555377434926741 0 0.011291982705245489 0.0033649942973409388 0 0.010586716007262293 0.004026091769919026 0 0.011613785166014719 0.0029217197876838176 0 0.010881838980994483 0.0026754261507457534 0 0.013979439517156784 0.0035218685502655541 0 0.011567168183013248 0.0030351850144663952 0 0.010586716007262293 0.004026091769919026 0 0.010197798638077637 0.0025885705188654572 0 0.0092149819632194926 0.0030501764293541164 0 0.015763489049113146 0.0027600151768757421 0 0.015722304875521356 0.0027878040370477803 0 0.015746679498866212 0.0028078025718401033 0 0.013979439517156784 0.0035218685502655541 0 0.01384502672613532 0.0025981521262838018 0 0.010197798638077637 0.0025885705188654572 0 0.0098875602151801897 0.0014817631392290834 0 0.0092149819632194926 0.0030501764293541164 0 0.010586716007262293 0.004026091769919026 0 0.010197798638077637 0.0025885705188654572 0 0.010881838980994483 0.0026754261507457534 0 0.010197798638077637 0.0025885705188654572 0 0.010649619989782923 0.0018697946986734348 0 0.010881838980994483 0.0026754261507457534 0 0.010197798638077637 0.0025885705188654572 0 0.010649619989782923 0.0018697946986734348 0 0.0098875602151801897 0.0014817631392290834 0 0.011613785166014719 0.0029217197876838176 0 0.010881838980994483 0.0026754261507457534 0 0.011361450125383449 0.0019711501992374005 0 0.010649619989782923 0.0018697946986734348 0 0.010881838980994483 0.0026754261507457534 0 0.011361450125383449 0.0019711501992374005 0 0.010649619989782923 0.0018697946986734348 0 0.011361450125383449 0.0019711501992374005 0 0.011034977118036644 0.0014059732117404147 0 0.012613559727883132 0.0018513683422321655 0 0.011567168183013248 0.0030351850144663952 0 0.012623871042653971 0.0018140042731994586 0 0.011613785166014719 0.0029217197876838176 0 0.011917162342912343 0.0019765425571020324 0 0.011613785166014719 0.0029217197876838176 0 0.011361450125383449 0.0019711501992374005 0 0.011917162342912343 0.0019765425571020324 0 0.011361450125383449 0.0019711501992374005 0 0.011917162342912343 0.0019765425571020324 0 0.012069563761258374 0.0012156054631077351 0 0.0089959101251605687 0.0015882219635822957 0 0.0087350940767701273 0.00089569462114392996 0 0.012069563761258374 0.0012156054631077351 0 0.011034977118036644 0.0014059732117404147 0 0.010534601907212006 0.00081534906956060103 0 0.0063497148266680927 0.0020546000668399144 0 0.0063169367696310425 0.0020261058380672044 0 0.0062936027669377361 0.0020331340620929799 0 0.012623871042653971 0.0018140042731994586 0 0.011917162342912343 0.0019765425571020324 0 0.012069563761258374 0.0012156054631077351 0 0.011361450125383449 0.0019711501992374005 0 0.012069563761258374 0.0012156054631077351 0 0.011034977118036644 0.0014059732117404147 0 0.006338864189124928 0.0020123077423610759 0 0.0063497148266680927 0.0020546000668399144 0 0.0063169367696310425 0.0020261058380672044 0 0.010366462418950031 0.0001315410184925949 0 0.0094651556303963161 0.00058423306943673357 0 0.0086919815158095059 0.00035478291508372249 0 0.010649619989782923 0.0018697946986734348 0 0.011034977118036644 0.0014059732117404147 0 0.010553900130638201 0.0011469425651736891 0 0.010649619989782923 0.0018697946986734348 0 0.0098875602151801897 0.0014817631392290834 0 0.010553900130638201 0.0011469425651736891 0 0.011034977118036644 0.0014059732117404147 0 0.010553900130638201 0.0011469425651736891 0 0.010534601907212006 0.00081534906956060103 0 0.0089468433688931048 0.00097304299863868338 0 0.0087350940767701273 0.00089569462114392996 0 0.0098875602151801897 0.0014817631392290834 0 0.010553900130638201 0.0011469425651736891 0 0.01053255753906787 0.00081982374257289316 0 0.006284177099703506 0.0020051026285853538 0 0.0063169367696310425 0.0020261058380672044 0 0.0062936027669377361 0.0020331340620929799 0 0.0042340969084981228 0.0003332242117313213 0 0.0087350940767701273 0.00089569462114392996 0 0.010366462418950031 0.0001315410184925949 0 0.010394032603613332 0.00080340725373379278 0 0.0094651556303963161 0.00058423306943673357 0 0.0098875602151801897 0.0014817631392290834 0 0.01053255753906787 0.00081982374257289316 0 0.0094651556303963161 0.00058423306943673357 0 0.0087350940767701273 0.00089569462114392996 0 0.0099322495767935701 0.00083389784669310213 0 0.0098875602151801897 0.0014817631392290834 0 0.0094651556303963161 0.00058423306943673357 0 0.0086919815158095059 0.00035478291508372249 0 0.0098875602151801897 0.0014817631392290834 0 0.0086919815158095059 0.00035478291508372249 0 0.0092149819632194926 0.0030501764293541164 0 0.011642092021251126 -0.00068502317660077349 0 0.011279477285737017 8.0568606582732548e-05 0 0.012257461702580526 0.0025195261966638178 0 0.011732135481584421 0.00071948973458821276 0 0.014985970056054256 0.0016820910458940964 0 0.011279477285737017 8.0568606582732548e-05 0 0.010894910819913553 0.0015446268052835819 0 0.012257461702580526 0.0025195261966638178 0 0.0065101141245692811 -0.00074689423031920686 0 0.01384502672613532 0.0025981521262838018 0 0.014985970056054256 0.0016820910458940964 0 0.01384502672613532 0.0025981521262838018 0 0.016954968818430127 0.0010716449611577993 0 0.017295309377203503 0.0013095480980742443 0 0.017366617309725937 0.00085725859116389167 0 0.0032835395506709913 -0.0021241739471370914 0 0.0023456758720741462 -0.0023283332046255927 0 0.0036943027771489524 -0.0025407483491908002 0 0.014985970056054256 0.0016820910458940964 0 0.010368923346161057 -0.0010494077006511745 0 0.0065101141245692811 -0.00074689423031920686 0 0.0067356411533848783 -0.0015586472558322033 0 0.011642092021251126 -0.00068502317660077349 0 0.011279477285737017 8.0568606582732548e-05 0 0.0091719314355713268 -0.00031813952998035197 0 0.010893199702028976 0.0015330814860104903 0 0.0091719314355713268 -0.00031813952998035197 0 0.0088226343484982175 5.3217556314658235e-05 0 0.011279477285737017 8.0568606582732548e-05 0 0.010893199702028976 0.0015330814860104903 0 0.0091719314355713268 -0.00031813952998035197 0 0.0041840022332320813 -0.0013458830779956568 0 0.0067356411533848783 -0.0015586472558322033 0 0.0046764916036347061 -0.0027052652759946383 0 0.0040837027504987558 -0.0027464311102084259 0 0.0049005142275546773 -0.0036676800400562404 0 0.0039374429520165032 -0.0021845769970599768 0 0.0036940920609115002 -0.0025649182469247175 0 0.0041032121727796814 -0.0026269377947458917 0 0.0039374429520165032 -0.0021845769970599768 0 0.0041032121727796814 -0.0026269377947458917 0 0.0044285523566097188 -0.0023717406804366738 0 0.0067356411533848783 -0.0015586472558322033 0 0.0062389999562590844 -0.0023418005672655707 0 0.0078893027396701003 -0.0018793227470484616 0 0.0084440427204926071 -0.0019624922820241516 0 0.0081598623799582267 -0.002165531302569774 0 0.0067356411533848783 -0.0015586472558322033 0 0.010368923346161057 -0.0010494077006511745 0 0.0062389999562590844 -0.0023418005672655707 0 0.010368923346161057 -0.0010494077006511745 0 0.0062389999562590844 -0.0023418005672655707 0 0.0044775830883396206 -0.002395562134704972 0 0.0042490599506896732 -0.0026284968074270433 0 0.0046764916036347061 -0.0027052652759946383 0 0.0040837027504987558 -0.0027464311102084259 0 0.0041032121727796814 -0.0026269377947458917 0 0.0044285523566097188 -0.0023717406804366738 0 0.0046764916036347061 -0.0027052652759946383 0 0.0046764916036347061 -0.0027052652759946383 0 0.0053818430141347896 -0.0030250946093028893 0 0.0049005142275546773 -0.0036676800400562404 0 0.0049536729667266945 -0.0022680536774139404 0 0.0053818430141347896 -0.0030250946093028893 0 0.0056750973389153954 -0.0023721173437838655 0 0.0049536729667266945 -0.0022680536774139404 0 0.0044285523566097188 -0.0023717406804366738 0 0.0046764916036347061 -0.0027052652759946383 0 0.0049536729667266945 -0.0022680536774139404 0 0.0046764916036347061 -0.0027052652759946383 0 0.0053818430141347896 -0.0030250946093028893 0 0.0053818430141347896 -0.0030250946093028893 0 0.0049005142275546773 -0.0036676800400562404 0 0.0057711727325847088 -0.0037873660299996216 0 0.010368923346161057 -0.0010494077006511745 0 0.011282695049918407 -0.0013105740329912375 0 0.017295309377203503 0.0013095480980742443 0 0.017663964264220001 0.00095891750130509682 0 0.017366617309725937 0.00085725859116389167 0 0.017663964264220001 0.00095891750130509682 0 0.017366617309725937 0.00085725859116389167 0 0.017714854156606077 0.00067778526068490864 0 0.017366617309725937 0.00085725859116389167 0 0.017714854156606077 0.00067778526068490864 0 0.017434966770172994 0.00042958066163924626 0 0.011282695049918407 -0.0013105740329912375 0 0.011940681908409649 -0.0020542757389984245 0 0.0049005142275546773 -0.0036676800400562404 0 0.0057711727325847088 -0.0037873660299996216 0 0.0057655803237424818 -0.0046775347006657005 0 0.017663964264220001 0.00095891750130509682 0 0.017714854156606077 0.00067778526068490864 0 0.017822478805980677 0.00066666892529315843 0 0.017714854156606077 0.00067778526068490864 0 0.018415359701768344 0.00040621789576252725 0 0.01783445558285297 0.00015943644715488625 0 0.017714854156606077 0.00067778526068490864 0 0.017822478805980677 0.00066666892529315843 0 0.017799607243825004 0.00054035439189414826 0 0.01774531557072058 0.00067490656520483386 0 0.01816651479919738 0.00042263361643546789 0 0.018415359701768344 0.00040621789576252725 0 0.018250358856494411 5.1166562744335307e-05 0 0.01783445558285297 0.00015943644715488625 0 0.017434966770172994 0.00042958066163924626 0 0.017254465341611281 3.4724780789767051e-05 0 0.01783445558285297 0.00015943644715488625 0 0.017714854156606077 0.00067778526068490864 0 0.017434966770172994 0.00042958066163924626 0 0.01783445558285297 0.00015943644715488625 0 0.019060999820143986 0.0016570216293376682 0 0.018639960362769058 0.00075570487335692199 0 0.019404389524839142 0.00067215638297472781 0 0.018407753823619009 0.0010848717662226527 0 0.017960709121313728 0.00028551680025322212 0 0.017434966770172994 0.00042958066163924626 0 0.017104684535191622 0.00062126689195056981 0 0.017254465341611281 3.4724780789767051e-05 0 0.018094469770402667 0.001312597111776797 0 0.018481052800636812 0.0017242289141220545 0 0.018639960362769058 0.00075570487335692199 0 0.018481052800636812 0.0017242289141220545 0 0.019060999820143986 0.0016570216293376682 0 0.018639960362769058 0.00075570487335692199 0 0.019210749001140309 0.0025339863584583231 0 0.020716667564068602 0.0014818287510655131 0 0.019210749001140309 0.0025339863584583231 0 0.01384502672613532 0.0025981521262838018 0 0.018736335530613431 0.0026108550950979725 0 0.018230699138664611 0.0022417371910968724 0 0.018481052800636812 0.0017242289141220545 0 0.018094469770402667 0.001312597111776797 0 0.018230699138664611 0.0022417371910968724 0 0.018481052800636812 0.0017242289141220545 0 0.018736335530613431 0.0026108550950979725 0 0.018481052800636812 0.0017242289141220545 0 0.019060999820143986 0.0016570216293376682 0 0.016954968818430127 0.0010716449611577993 0 0.017366617309725937 0.00085725859116389167 0 0.017104684535191622 0.00062126689195056981 0 0.014985970056054256 0.0016820910458940964 0 0.018407753823619009 0.0010848717662226527 0 0.017366617309725937 0.00085725859116389167 0 0.017434966770172994 0.00042958066163924626 0 0.017104684535191622 0.00062126689195056981 0 0.0093100868077037758 -0.0035858625623536484 0 0.0083096377722645231 -0.003610981475770656 0 0.0086720454567483386 -0.0044238760090176271 0 0.0093100868077037758 -0.0035858625623536484 0 0.0083096377722645231 -0.003610981475770656 0 0.008875448924010548 -0.0032145516326984032 0 0.0083096377722645231 -0.003610981475770656 0 0.008875448924010548 -0.0032145516326984032 0 0.0082098113637230144 -0.0029970583226951657 0 0.0087215632084173874 -0.0025075019044070047 0 0.0082098113637230144 -0.0029970583226951657 0 0.0076245605952012874 -0.0025417939443290521 0 0.008875448924010548 -0.0032145516326984032 0 0.0087215632084173874 -0.0025075019044070047 0 0.0082098113637230144 -0.0029970583226951657 0 0.0076245605952012874 -0.0025417939443290521 0 0.0073348648121664755 -0.0032440610463124911 0 0.0064702018736707929 -0.0024236013236591187 0 0.0082098113637230144 -0.0029970583226951657 0 0.0076245605952012874 -0.0025417939443290521 0 0.0073348648121664755 -0.0032440610463124911 0 0.0083096377722645231 -0.003610981475770656 0 0.0073348648121664755 -0.0032440610463124911 0 0.0070665549182555446 -0.0042773208580060094 0 0.0083096377722645231 -0.003610981475770656 0 0.0082098113637230144 -0.0029970583226951657 0 0.0073348648121664755 -0.0032440610463124911 0 0.0063396825864713638 -0.0032757895981312814 0 0.0057711727325847088 -0.0037873660299996216 0 0.0070665549182555446 -0.0042773208580060094 0 0.0073348648121664755 -0.0032440610463124911 0 0.0063396825864713638 -0.0032757895981312814 0 0.0070665549182555446 -0.0042773208580060094 0 0.0073348648121664755 -0.0032440610463124911 0 0.0063396825864713638 -0.0032757895981312814 0 0.0064702018736707929 -0.0024236013236591187 0 0.0062414448432117657 -0.0032124729729833077 0 0.0053614526813936169 -0.002320371923349425 0 0.0053818430141347896 -0.0030250946093028893 0 0.0063396825864713638 -0.0032757895981312814 0 0.0056750973389153954 -0.0023721173437838655 0 0.0063396825864713638 -0.0032757895981312814 0 0.0064702018736707929 -0.0024236013236591187 0 0.005093341421397609 -0.0023476240806057902 0 0.0053818430141347896 -0.0030250946093028893 0 0.0063396825864713638 -0.0032757895981312814 0 0.0057711727325847088 -0.0037873660299996216 0 0.0057711727325847088 -0.0037873660299996216 0 0.0057655803237424818 -0.0046775347006657005 0 0.0070665549182555446 -0.0042773208580060094 0 0.01816651479919738 0.00042263361643546789 0 0.018206191573889755 0.00037012990754897051 0 0.017822478805980677 0.00066666892529315843 0 0.017799607243825004 0.00054035439189414826 0 0.01795654982788766 0.00044543892425536835 0 0.017799607243825004 0.00054035439189414826 0 0.01795654982788766 0.00044543892425536835 0 0.017942656930094728 0.00032945390784740706 0 0.011940681908409649 -0.0020542757389984245 0 0.011397457091760491 -0.0027456857162532875 0 0.0067945530801951873 -0.005818532212088885 0 0.0070665549182555446 -0.0042773208580060094 0 0.0079645065662689168 -0.0054931222379190929 0 0.0057655803237424818 -0.0046775347006657005 0 0.0067945530801951873 -0.005818532212088885 0 0.0070665549182555446 -0.0042773208580060094 0 0.0070665549182555446 -0.0042773208580060094 0 0.0079645065662689168 -0.0054931222379190929 0 0.0086720454567483386 -0.0044238760090176271 0 0.0083096377722645231 -0.003610981475770656 0 0.0070665549182555446 -0.0042773208580060094 0 0.0086720454567483386 -0.0044238760090176271 0 0.0079645065662689168 -0.0054931222379190929 0 0.0086720454567483386 -0.0044238760090176271 0 0.0092359739281567821 -0.0062169720407911902 0 0.010866835252141866 -0.0052215313090898255 0 0.0086720454567483386 -0.0044238760090176271 0 0.0092359739281567821 -0.0062169720407911902 0 0.030291001777801512 0.00058194225939059408 0 0.030697854784091913 0.00025967633533686599 0 0.030418101545358758 0.00036195418629298603 0 0.029801181004974534 -0.0019657321357815023 0 0.03202713959283477 -0.0016493550291114072 0 0.031381890082958754 -0.0019828075042587082 0 0.031803462612544194 -0.0019471348168072534 0 0.031339809120056676 -0.0014246465313367681 0 0.029801181004974534 -0.0019657321357815023 0 0.031201225737751206 -0.00023595262265331191 0 0.031794744021972056 -0.0018529993273651425 0 0.031367770238244101 -0.0011745226932505224 0 0.031339809120056676 -0.0014246465313367681 0 0.031158931043640141 -0.0017728714866989076 0 0.031381890082958754 -0.0019828075042587082 0 0.031339809120056676 -0.0014246465313367681 0 0.031381890082958754 -0.0019828075042587082 0 0.031387646220803735 -0.0025274806224879964 0 0.031803462612544194 -0.0019471348168072534 0 0.031064361636537058 -0.0021090346498003963 0 0.031381890082958754 -0.0019828075042587082 0 0.031387646220803735 -0.0025274806224879964 0 0.0067945530801951873 -0.005818532212088885 0 0.0079645065662689168 -0.0054931222379190929 0 0.0079476682775086044 -0.0071044588489402455 0 0.031387646220803735 -0.0025274806224879964 0 0.031905687727175155 -0.0020338619395134428 0 0.031803462612544194 -0.0019471348168072534 0 0.0079645065662689168 -0.0054931222379190929 0 0.0092359739281567821 -0.0062169720407911902 0 0.0079476682775086044 -0.0071044588489402455 0 0.020002633267404001 -0.0049155519791232519 0 0.020647113334597615 -0.00083665156767924746 0 0.030199555395787069 0.00062466189968362739 0 0.030264880871850659 0.00042308740437344087 0 0.030133102972853563 0.00038688427722508766 0 0.030199555395787069 0.00062466189968362739 0 0.030291001777801512 0.00058194225939059408 0 0.030264880871850659 0.00042308740437344087 0 0.020647113334597615 -0.00083665156767924746 0 0.029801181004974534 -0.0019657321357815023 0 0.030291001777801512 0.00058194225939059408 0 0.030264880871850659 0.00042308740437344087 0 0.030418101545358758 0.00036195418629298603 0 0.019150976462783936 -0.00030828275860942788 0 0.018824188302543954 -0.00041413638951408381 0 0.018917911371270434 -0.00087762147147453637 0 0.030199555395787069 0.00062466189968362739 0 0.029872727972297595 0.00037114100125338316 0 0.030133102972853563 0.00038688427722508766 0 0.019632566227231706 -0.00033322560479860625 0 0.019150976462783936 -0.00030828275860942788 0 0.018917911371270434 -0.00087762147147453637 0 0.020647113334597615 -0.00083665156767924746 0 0.024787472254382895 -3.4403023021439981e-05 0 0.011397457091760491 -0.0027456857162532875 0 0.020647113334597615 -0.00083665156767924746 0 0.020647113334597615 -0.00083665156767924746 0 0.018206191573889755 0.00037012990754897051 0 0.01795654982788766 0.00044543892425536835 0 0.018306586009588524 7.1346707196887101e-05 0 0.017942656930094728 0.00032945390784740706 0 0.019632566227231706 -0.00033322560479860625 0 0.019049236463296232 5.5677491956242036e-05 0 0.019150976462783936 -0.00030828275860942788 0 0.019150976462783936 -0.00030828275860942788 0 0.018892711634323864 -0.00018088930636931069 0 0.018824188302543954 -0.00041413638951408381 0 0.019049236463296232 5.5677491956242036e-05 0 0.019150976462783936 -0.00030828275860942788 0 0.018892711634323864 -0.00018088930636931069 0 0.019049236463296232 5.5677491956242036e-05 0 0.018892711634323864 -0.00018088930636931069 0 0.01854493548296483 -5.2268002336033583e-05 0 0.018415359701768344 0.00040621789576252725 0 0.019049236463296232 5.5677491956242036e-05 0 0.01854493548296483 -5.2268002336033583e-05 0 0.018892711634323864 -0.00018088930636931069 0 0.01854493548296483 -5.2268002336033583e-05 0 0.018824188302543954 -0.00041413638951408381 0 0.01854493548296483 -5.2268002336033583e-05 0 0.018824188302543954 -0.00041413638951408381 0 0.018207440334914143 -0.00030348816256710239 0 0.018415359701768344 0.00040621789576252725 0 0.01854493548296483 -5.2268002336033583e-05 0 0.018250358856494411 5.1166562744335307e-05 0 0.018824188302543954 -0.00041413638951408381 0 0.018207440334914143 -0.00030348816256710239 0 0.018330471173784457 -0.00078971868123024151 0 0.018824188302543954 -0.00041413638951408381 0 0.018917911371270434 -0.00087762147147453637 0 0.018330471173784457 -0.00078971868123024151 0 0.024787472254382895 -3.4403023021439981e-05 0 0.026192673452460728 -0.00052574171357678916 0 0.029872727972297595 0.00037114100125338316 0 0.029867161933901799 9.6129390928331062e-05 0 0.029504681549361752 0.00010017450858155695 0 0.018917911371270434 -0.00087762147147453637 0 0.018330471173784457 -0.00078971868123024151 0 0.018248461957916857 -0.0014187873500580523 0 0.029867161933901799 9.6129390928331062e-05 0 0.029504681549361752 0.00010017450858155695 0 0.029774611687683458 -0.00014269619697886721 0 0.032789992451457597 0.0018924782900148118 0 0.033783345733163703 0.00091376081204445903 0 0.033697420167905411 0.0011589083839649455 0 0.026192673452460728 -0.00052574171357678916 0 0.032244763154858004 0.00035187522938626061 0 0.029867161933901799 9.6129390928331062e-05 0 0.029975757391338956 -6.0029393774860982e-05 0 0.029774611687683458 -0.00014269619697886721 0 0.029867161933901799 9.6129390928331062e-05 0 0.030078076981943778 3.361665298721884e-05 0 0.030111265334547235 0.00020308685833783169 0 0.029867161933901799 9.6129390928331062e-05 0 0.029975757391338956 -6.0029393774860982e-05 0 0.030078076981943778 3.361665298721884e-05 0 0.029975757391338956 -6.0029393774860982e-05 0 0.030078076981943778 3.361665298721884e-05 0 0.030170103545875036 -0.00011434817035273829 0 0.030078076981943778 3.361665298721884e-05 0 0.030309105339625299 3.2555561665339261e-05 0 0.030170103545875036 -0.00011434817035273829 0 0.030078076981943778 3.361665298721884e-05 0 0.030111265334547235 0.00020308685833783169 0 0.030309105339625299 3.2555561665339261e-05 0 0.029872727972297595 0.00037114100125338316 0 0.030111265334547235 0.00020308685833783169 0 0.030133102972853563 0.00038688427722508766 0 0.029872727972297595 0.00037114100125338316 0 0.029867161933901799 9.6129390928331062e-05 0 0.030111265334547235 0.00020308685833783169 0 0.030264880871850659 0.00042308740437344087 0 0.030133102972853563 0.00038688427722508766 0 0.030225757304061306 0.00029803505544228291 0 0.030111265334547235 0.00020308685833783169 0 0.030133102972853563 0.00038688427722508766 0 0.030225757304061306 0.00029803505544228291 0 0.030264880871850659 0.00042308740437344087 0 0.030225757304061306 0.00029803505544228291 0 0.030349891833961529 0.00029059859834684336 0 0.030264880871850659 0.00042308740437344087 0 0.030349891833961529 0.00029059859834684336 0 0.030418101545358758 0.00036195418629298603 0 0.030349891833961529 0.00029059859834684336 0 0.030490542110065827 0.00025460745527377691 0 0.030418101545358758 0.00036195418629298603 0 0.030349891833961529 0.00029059859834684336 0 0.030421526592528895 0.00016917110435170452 0 0.030281620741269073 0.00019774074682154234 0 0.030349891833961529 0.00029059859834684336 0 0.030421526592528895 0.00016917110435170452 0 0.030490542110065827 0.00025460745527377691 0 0.030111265334547235 0.00020308685833783169 0 0.030225757304061306 0.00029803505544228291 0 0.030281620741269073 0.00019774074682154234 0 0.030225757304061306 0.00029803505544228291 0 0.030349891833961529 0.00029059859834684336 0 0.030281620741269073 0.00019774074682154234 0 0.030111265334547235 0.00020308685833783169 0 0.030281620741269073 0.00019774074682154234 0 0.030309105339625299 3.2555561665339261e-05 0 0.030309105339625299 3.2555561665339261e-05 0 0.030327231574006405 -0.00014707326946889602 0 0.030170103545875036 -0.00011434817035273829 0 0.030309105339625299 3.2555561665339261e-05 0 0.030518950075042173 4.7853545949890653e-05 0 0.030463397943231975 -7.3030715702910223e-05 0 0.030309105339625299 3.2555561665339261e-05 0 0.030463397943231975 -7.3030715702910223e-05 0 0.030327231574006405 -0.00014707326946889602 0 0.030421526592528895 0.00016917110435170452 0 0.030281620741269073 0.00019774074682154234 0 0.030309105339625299 3.2555561665339261e-05 0 0.030421526592528895 0.00016917110435170452 0 0.030309105339625299 3.2555561665339261e-05 0 0.030518950075042173 4.7853545949890653e-05 0 0.030421526592528895 0.00016917110435170452 0 0.030518950075042173 4.7853545949890653e-05 0 0.030552263810485859 0.00016279432324208451 0 0.030518950075042173 4.7853545949890653e-05 0 0.030644280754411928 9.4828475572116864e-05 0 0.030552263810485859 0.00016279432324208451 0 0.030518950075042173 4.7853545949890653e-05 0 0.030559819218754305 -6.5314537048420077e-05 0 0.030463397943231975 -7.3030715702910223e-05 0 0.030518950075042173 4.7853545949890653e-05 0 0.030559819218754305 -6.5314537048420077e-05 0 0.030629352648739349 -2.3948146302581105e-05 0 0.030713972181943796 1.6202913543015043e-06 0 0.030629352648739349 -2.3948146302581105e-05 0 0.030644280754411928 9.4828475572116864e-05 0 0.030713972181943796 1.6202913543015043e-06 0 0.030734787988184797 -9.342528944981143e-05 0 0.030629352648739349 -2.3948146302581105e-05 0 0.030766801123469502 5.1367138929583852e-05 0 0.030644280754411928 9.4828475572116864e-05 0 0.030697854784091913 0.00025967633533686599 0 0.030518950075042173 4.7853545949890653e-05 0 0.030629352648739349 -2.3948146302581105e-05 0 0.030644280754411928 9.4828475572116864e-05 0 0.030644280754411928 9.4828475572116864e-05 0 0.030697854784091913 0.00025967633533686599 0 0.030552263810485859 0.00016279432324208451 0 0.030697854784091913 0.00025967633533686599 0 0.030552263810485859 0.00016279432324208451 0 0.030490542110065827 0.00025460745527377691 0 0.030421526592528895 0.00016917110435170452 0 0.030552263810485859 0.00016279432324208451 0 0.030490542110065827 0.00025460745527377691 0 0.030697854784091913 0.00025967633533686599 0 0.030490542110065827 0.00025460745527377691 0 0.030418101545358758 0.00036195418629298603 0 0.027361999910377327 0.0013862296112028725 0 0.027416724336008561 0.0013540353804275087 0 0.027384358009119768 0.0013420123687732548 0 0.027361999910377327 0.0013862296112028725 0 0.02740683487704727 0.0013634173857093386 0 0.027416724336008561 0.0013540353804275087 0 0.017960709121313728 0.00028551680025322212 0 0.022176469007023098 0.0004152810128510061 0 0.022912237655609811 0.0012789388519388902 0 0.025427502960775585 0.0018963853413901458 0 0.019216810781391317 0.00018821044444312541 0 0.01931972370168358 0.00042474872533820949 0 0.019753061743422257 -0.00033670256921217737 0 0.022912237655609811 0.0012789388519388902 0 0.022176469007023098 0.0004152810128510061 0 0.022671309260131955 0.002127833295126559 0 0.022790061703353626 0.0021302656248369501 0 0.022831511205277509 0.002000023193542188 0 0.022889165708158785 0.0021446105010838753 0 0.022790061703353626 0.0021302656248369501 0 0.022831511205277509 0.002000023193542188 0 0.022671309260131955 0.002127833295126559 0 0.022657188943792532 0.0023590323511794007 0 0.02278341673158122 0.0022492986691495806 0 0.022889165708158785 0.0021446105010838753 0 0.022790061703353626 0.0021302656248369501 0 0.02278341673158122 0.0022492986691495806 0 0.022671309260131955 0.002127833295126559 0 0.022790061703353626 0.0021302656248369501 0 0.02278341673158122 0.0022492986691495806 0 0.018639960362769058 0.00075570487335692199 0 0.019404389524839142 0.00067215638297472781 0 0.01931972370168358 0.00042474872533820949 0 0.019404389524839142 0.00067215638297472781 0 0.01931972370168358 0.00042474872533820949 0 0.019753061743422257 -0.00033670256921217737 0 0.01921034628380773 0.00018526075923994289 0 0.018639960362769058 0.00075570487335692199 0 0.01931972370168358 0.00042474872533820949 0 0.022912237655609811 0.0012789388519388902 0 0.020716667564068602 0.0014818287510655131 0 0.022912237655609811 0.0012789388519388902 0 0.021378519765186302 3.4403365534735051e-05 0 0.017254465341611281 3.4724780789767051e-05 0 0.017738266076080911 -0.00028612624006000301 0 0.01783445558285297 0.00015943644715488625 0 0.018250358856494411 5.1166562744335307e-05 0 0.01783445558285297 0.00015943644715488625 0 0.018207440334914143 -0.00030348816256710239 0 0.017738266076080911 -0.00028612624006000301 0 0.01783445558285297 0.00015943644715488625 0 0.018207440334914143 -0.00030348816256710239 0 0.01854493548296483 -5.2268002336033583e-05 0 0.018250358856494411 5.1166562744335307e-05 0 0.018207440334914143 -0.00030348816256710239 0 0.017738266076080911 -0.00028612624006000301 0 0.018207440334914143 -0.00030348816256710239 0 0.017925132658364294 -0.00063914938794321975 0 0.018207440334914143 -0.00030348816256710239 0 0.017925132658364294 -0.00063914938794321975 0 0.018330471173784457 -0.00078971868123024151 0 0.017254465341611281 3.4724780789767051e-05 0 0.017738266076080911 -0.00028612624006000301 0 0.017489803623391947 -0.00069943685828530242 0 0.017738266076080911 -0.00028612624006000301 0 0.017925132658364294 -0.00063914938794321975 0 0.017489803623391947 -0.00069943685828530242 0 0.017925132658364294 -0.00063914938794321975 0 0.017489803623391947 -0.00069943685828530242 0 0.017864050742699106 -0.0010659540492388613 0 0.024048543454604807 0.0021245562060284752 0 0.024440310422628925 0.00079847447751283025 0 0.025382642595649419 0.00074957418707025504 0 0.02740683487704727 0.0013634173857093386 0 0.027416724336008561 0.0013540353804275087 0 0.027413448088724968 0.0013503183023756183 0 0.022176469007023098 0.0004152810128510061 0 0.026603103716936215 0.0014837465971118391 0 0.027133033900534301 0.0012102601131012427 0 0.026603103716936215 0.0014837465971118391 0 0.022176469007023098 0.0004152810128510061 0 0.021386691214978982 0.00030768768655376014 0 0.024440310422628925 0.00079847447751283025 0 0.025382642595649419 0.00074957418707025504 0 0.026321353702008849 -0.00095803882779178112 0 0.026603103716936215 0.0014837465971118391 0 0.0301755970255418 0.00093624468636946292 0 0.027416724336008561 0.0013540353804275087 0 0.02745013329320781 0.0013414867267810648 0 0.027435029103544496 0.001321947878728664 0 0.018330471173784457 -0.00078971868123024151 0 0.017864050742699106 -0.0010659540492388613 0 0.018248461957916857 -0.0014187873500580523 0 0.017925132658364294 -0.00063914938794321975 0 0.018330471173784457 -0.00078971868123024151 0 0.017864050742699106 -0.0010659540492388613 0 0.021386691214978982 0.00030768768655376014 0 0.026192673452460728 -0.00052574171357678916 0 0.0301755970255418 0.00093624468636946292 0 0.03472950201221927 0.00063303672924663098 0 0.032789992451457597 0.0018924782900148118 0 0.032608811723411478 0.0017523623621274499 0 0.033783345733163703 0.00091376081204445903 0 0.025382642595649419 0.00074957418707025504 0 0.026723826034738368 -0.00064089672315728586 0 0.026321353702008849 -0.00095803882779178112 0 0.026192673452460728 -0.00052574171357678916 0 0.0301755970255418 0.00093624468636946292 0 0.0301755970255418 0.00093624468636946292 0 0.031079832732369816 0.0010009994434439381 0 0.034055392543264625 0.0011067160853061621 0 0.033709666996499153 0.00087508632117492364 0 0.034013203496914377 0.00074234246218028396 0 0.034055392543264625 0.0011067160853061621 0 0.034366525630670969 0.00059491755020307173 0 0.034013203496914377 0.00074234246218028396 0 0.028617422388197852 0.0020583927998808404 0 0.02980728785562593 0.00094901643186141936 0 0.029107213608016186 0.00039793752639751223 0 0.02745013329320781 0.0013414867267810648 0 0.027500206521221374 0.0012871408451407469 0 0.027435029103544496 0.001321947878728664 0 0.026603103716936215 0.0014837465971118391 0 0.031079832732369816 0.0010009994434439381 0 0.027500206521221374 0.0012871408451407469 0 0.027433113350626558 0.0012896100156985057 0 0.027435029103544496 0.001321947878728664 0 0.027433113350626558 0.0012896100156985057 0 0.027435029103544496 0.001321947878728664 0 0.027384358009119768 0.0013420123687732548 0 0.027416724336008561 0.0013540353804275087 0 0.027435029103544496 0.001321947878728664 0 0.027384358009119768 0.0013420123687732548 0 0.02269592378986093 0.0019413316242923974 0 0.022831511205277509 0.002000023193542188 0 0.0227932615560692 0.0018798562861989431 0 0.025427502960775585 0.0018963853413901458 0 0.024729851613917157 0.0014629572937057214 0 0.027433113350626558 0.0012896100156985057 0 0.027384358009119768 0.0013420123687732548 0 0.027400659097039402 0.001288291122011527 0 0.027400659097039402 0.001288291122011527 0 0.027434280951722591 0.0012597653282424748 0 0.027415331073046948 0.0012440717222785298 0 0.027433113350626558 0.0012896100156985057 0 0.027400659097039402 0.001288291122011527 0 0.027434280951722591 0.0012597653282424748 0 0.027434280951722591 0.0012597653282424748 0 0.027456701433305503 0.0012266431485182482 0 0.027415331073046948 0.0012440717222785298 0 0.027434280951722591 0.0012597653282424748 0 0.027456701433305503 0.0012266431485182482 0 0.027466807451407022 0.0012561860633840422 0 0.032164174202509527 -1.5735395663161625e-05 0 0.029751732232130682 0.0007254724185505588 0 0.032113600450599973 -0.00023411986638352257 0 0.0328690484232722 0.00035826164100595488 0 0.033116937344349465 -0.00079716323312220517 0 0.027500206521221374 0.0012871408451407469 0 0.027433113350626558 0.0012896100156985057 0 0.027466807451407022 0.0012561860633840422 0 0.027433113350626558 0.0012896100156985057 0 0.027434280951722591 0.0012597653282424748 0 0.027466807451407022 0.0012561860633840422 0 0.031079832732369816 0.0010009994434439381 0 0.029751732232130682 0.0007254724185505588 0 0.033631292873813452 0.0009597469568548828 0 0.0328690484232722 0.00035826164100595488 0 0.033835600086531227 0.00030452849076572627 0 0.031079832732369816 0.0010009994434439381 0 0.033749648035170873 0.00010981917436605157 0 0.034055392543264625 0.0011067160853061621 0 0.034366525630670969 0.00059491755020307173 0 0.034658580968575249 0.00052310947894951688 0 0.034366525630670969 0.00059491755020307173 0 0.034013203496914377 0.00074234246218028396 0 0.033835600086531227 0.00030452849076572627 0 0.033709666996499153 0.00087508632117492364 0 0.034013203496914377 0.00074234246218028396 0 0.033835600086531227 0.00030452849076572627 0 0.033835600086531227 0.00030452849076572627 0 0.034231500533070891 -0.00036956573312102735 0 0.033585737511852461 -0.00026646975833314284 0 0.034390449965814779 0.00058937589117308297 0 0.034356631019994997 -0.00011974536317502 0 0.034366525630670969 0.00059491755020307173 0 0.033835600086531227 0.00030452849076572627 0 0.034231500533070891 -0.00036956573312102735 0 0.034366525630670969 0.00059491755020307173 0 0.03452693983493732 0.00023735602839169669 0 0.034635326300408505 0.00031391549481145928 0 0.0328690484232722 0.00035826164100595488 0 0.033585737511852461 -0.00026646975833314284 0 0.033116937344349465 -0.00079716323312220517 0 0.0328690484232722 0.00035826164100595488 0 0.033835600086531227 0.00030452849076572627 0 0.033585737511852461 -0.00026646975833314284 0 0.033585737511852461 -0.00026646975833314284 0 0.033786130588750359 -0.00072781958121360827 0 0.033116937344349465 -0.00079716323312220517 0 0.034492652952438675 -0.00032723972161811932 0 0.034298028345614961 -0.00042302475832980892 0 0.033786130588750359 -0.00072781958121360827 0 0.034099952949110258 -0.0013398599937774623 0 0.033116937344349465 -0.00079716323312220517 0 0.034356631019994997 -0.00011974536317502 0 0.034492652952438675 -0.00032723972161811932 0 0.034231500533070891 -0.00036956573312102735 0 0.033786130588750359 -0.00072781958121360827 0 0.034099952949110258 -0.0013398599937774623 0 0.03452693983493732 0.00023735602839169669 0 0.034615501228907906 2.2383562531966299e-05 0 0.034701122307628431 8.2639615340257934e-05 0 0.034231500533070891 -0.00036956573312102735 0 0.033585737511852461 -0.00026646975833314284 0 0.033786130588750359 -0.00072781958121360827 0 0.034852093382200501 -6.3918230237209459e-05 0 0.034786130713004369 -1.7310644157163833e-05 0 0.034885400465529869 -4.403725472386568e-06 0 0.034994932883989395 7.8094773765589648e-05 0 0.034951622957821206 6.5866929044075363e-05 0 0.034980994672751488 3.7644153638332654e-05 0 0.034492652952438675 -0.00032723972161811932 0 0.034931713067003115 8.3484615209110477e-05 0 0.034615501228907906 2.2383562531966299e-05 0 0.034701122307628431 8.2639615340257934e-05 0 0.034786130713004369 -1.7310644157163833e-05 0 0.034492652952438675 -0.00032723972161811932 0 0.034730858816810692 -0.00010969234673812692 0 0.034994932883989395 7.8094773765589648e-05 0 0.034951622957821206 6.5866929044075363e-05 0 0.034940855649713894 0.00013754404231744368 0 0.034951622957821206 6.5866929044075363e-05 0 0.034885543767772531 8.3171859316250556e-05 0 0.034940855649713894 0.00013754404231744368 0 0.034951622957821206 6.5866929044075363e-05 0 0.034885543767772531 8.3171859316250556e-05 0 0.034931368564564635 3.0412353784961033e-05 0 0.034885543767772531 8.3171859316250556e-05 0 0.034851981590561638 0.00015677299517073167 0 0.034791272909259319 0.00011763186424713088 0 0.034885543767772531 8.3171859316250556e-05 0 0.034817694498584316 3.7635562689307313e-05 0 0.034791272909259319 0.00011763186424713088 0 0.034835563614789157 0.00023097030803472847 0 0.034851981590561638 0.00015677299517073167 0 0.034940855649713894 0.00013754404231744368 0 0.034835563614789157 0.00023097030803472847 0 0.034851981590561638 0.00015677299517073167 0 0.034772186372203008 0.00020820093491103451 0 0.032164174202509527 -1.5735395663161625e-05 0 0.034751821751375901 0.000374533981872771 0 0.034885543767772531 8.3171859316250556e-05 0 0.034851981590561638 0.00015677299517073167 0 0.034940855649713894 0.00013754404231744368 0 0.032164174202509527 -1.5735395663161625e-05 0 0.034298028345614961 -0.00042302475832980892 0 0.030767995061287277 -0.00048767241230728985 0 0.030723833841964008 -0.0002832593352272237 0 0.030615177163148873 -0.0003506637204073975 0 0.030767995061287277 -0.00048767241230728985 0 0.030516340312414746 -0.00042316976327913612 0 0.030615177163148873 -0.0003506637204073975 0 0.030615177163148873 -0.0003506637204073975 0 0.030590284880717158 -0.00024494969394762717 0 0.030474517757322628 -0.00031573797680351407 0 0.030516340312414746 -0.00042316976327913612 0 0.030615177163148873 -0.0003506637204073975 0 0.030474517757322628 -0.00031573797680351407 0 0.030723833841964008 -0.0002832593352272237 0 0.030615177163148873 -0.0003506637204073975 0 0.030590284880717158 -0.00024494969394762717 0 0.030690546133165419 -0.00018375542316883194 0 0.030594880702212255 -0.0001368756596220723 0 0.030590284880717158 -0.00024494969394762717 0 0.030723833841964008 -0.0002832593352272237 0 0.030690546133165419 -0.00018375542316883194 0 0.030590284880717158 -0.00024494969394762717 0 0.030734787988184797 -9.342528944981143e-05 0 0.030629352648739349 -2.3948146302581105e-05 0 0.030594880702212255 -0.0001368756596220723 0 0.030559819218754305 -6.5314537048420077e-05 0 0.030629352648739349 -2.3948146302581105e-05 0 0.030594880702212255 -0.0001368756596220723 0 0.030734787988184797 -9.342528944981143e-05 0 0.030690546133165419 -0.00018375542316883194 0 0.030594880702212255 -0.0001368756596220723 0 0.030594880702212255 -0.0001368756596220723 0 0.030461591537493546 -0.00019667076742088419 0 0.030463397943231975 -7.3030715702910223e-05 0 0.030559819218754305 -6.5314537048420077e-05 0 0.030594880702212255 -0.0001368756596220723 0 0.030463397943231975 -7.3030715702910223e-05 0 0.030590284880717158 -0.00024494969394762717 0 0.030461591537493546 -0.00019667076742088419 0 0.030474517757322628 -0.00031573797680351407 0 0.030594880702212255 -0.0001368756596220723 0 0.030590284880717158 -0.00024494969394762717 0 0.030461591537493546 -0.00019667076742088419 0 0.030461591537493546 -0.00019667076742088419 0 0.030327231574006405 -0.00014707326946889602 0 0.030345122615835263 -0.00028031274775162766 0 0.030461591537493546 -0.00019667076742088419 0 0.030345122615835263 -0.00028031274775162766 0 0.030474517757322628 -0.00031573797680351407 0 0.030461591537493546 -0.00019667076742088419 0 0.030463397943231975 -7.3030715702910223e-05 0 0.030327231574006405 -0.00014707326946889602 0 0.030327231574006405 -0.00014707326946889602 0 0.030228928884093613 -0.00022902233026872324 0 0.030170103545875036 -0.00011434817035273829 0 0.030327231574006405 -0.00014707326946889602 0 0.030345122615835263 -0.00028031274775162766 0 0.030228928884093613 -0.00022902233026872324 0 0.030345122615835263 -0.00028031274775162766 0 0.030228928884093613 -0.00022902233026872324 0 0.030240141438338024 -0.00036153917058920153 0 0.030345122615835263 -0.00028031274775162766 0 0.030394742119888934 -0.00038259056620519648 0 0.030240141438338024 -0.00036153917058920153 0 0.030516340312414746 -0.00042316976327913612 0 0.030394742119888934 -0.00038259056620519648 0 0.030474517757322628 -0.00031573797680351407 0 0.030345122615835263 -0.00028031274775162766 0 0.030394742119888934 -0.00038259056620519648 0 0.030474517757322628 -0.00031573797680351407 0 0.030516340312414746 -0.00042316976327913612 0 0.030394742119888934 -0.00038259056620519648 0 0.03040953628938823 -0.00052746513411385757 0 0.030280312491108043 -0.00036188478679602946 0 0.032000524187980488 -0.00033485800540708737 0 0.034766564612814292 0.00031832004429196379 0 0.034968413239155123 0.00011789949632243736 0 0.035125457453892721 0.00010163601173269244 0 0.030405299832443344 -0.00054309224252873528 0 0.030587452220824898 -0.00093990298897787502 0 0.030759761952455247 -0.00094416974852317228 0 0.030394742119888934 -0.00038259056620519648 0 0.030240141438338024 -0.00036153917058920153 0 0.03040953628938823 -0.00052746513411385757 0 0.034766564612814292 0.00031832004429196379 0 0.034482059471767121 0.00058233008620721177 0 0.033783345733163703 0.00091376081204445903 0 0.034766564612814292 0.00031832004429196379 0 0.034725812698004323 0.00029254532531028897 0 0.034658580968575249 0.00052310947894951688 0 0.034539447530909963 0.00042401890394518261 0 0.03472950201221927 0.00063303672924663098 0 0.032200333758380717 8.5228058403324851e-05 0 0.033312186143672137 -7.2387138318878212e-05 0 0.034766564612814292 0.00031832004429196379 0 0.034725812698004323 0.00029254532531028897 0 0.034814967464000049 0.00019653080464913339 0 0.030109054344124583 -0.00047334508953820618 0 0.030405299832443344 -0.00054309224252873528 0 0.030587452220824898 -0.00093990298897787502 0 0.034766564612814292 0.00031832004429196379 0 0.034482059471767121 0.00058233008620721177 0 0.035125457453892721 0.00010163601173269244 0 0.034766564612814292 0.00031832004429196379 0 0.034814967464000049 0.00019653080464913339 0 0.034968413239155123 0.00011789949632243736 0 0.030109054344124583 -0.00047334508953820618 0 0.030405299832443344 -0.00054309224252873528 0 0.030063822024880955 -0.00022467066644394262 0 0.030280312491108043 -0.00036188478679602946 0 0.030128011767718392 -0.00026844612424702948 0 0.030228928884093613 -0.00022902233026872324 0 0.030240141438338024 -0.00036153917058920153 0 0.030063822024880955 -0.00022467066644394262 0 0.030228928884093613 -0.00022902233026872324 0 0.030170103545875036 -0.00011434817035273829 0 0.030063822024880955 -0.00022467066644394262 0 0.029975757391338956 -6.0029393774860982e-05 0 0.030170103545875036 -0.00011434817035273829 0 0.030063822024880955 -0.00022467066644394262 0 0.030109054344124583 -0.00047334508953820618 0 0.030063822024880955 -0.00022467066644394262 0 0.029774611687683458 -0.00014269619697886721 0 0.034366525630670969 0.00059491755020307173 0 0.034658580968575249 0.00052310947894951688 0 0.034635326300408505 0.00031391549481145928 0 0.034482059471767121 0.00058233008620721177 0 0.033783345733163703 0.00091376081204445903 0 0.033697420167905411 0.0011589083839649455 0 0.032200333758380717 8.5228058403324851e-05 0 0.032244763154858004 0.00035187522938626061 0 0.029975757391338956 -6.0029393774860982e-05 0 0.030063822024880955 -0.00022467066644394262 0 0.029774611687683458 -0.00014269619697886721 0 0.034725812698004323 0.00029254532531028897 0 0.034658580968575249 0.00052310947894951688 0 0.034635326300408505 0.00031391549481145928 0 0.034725812698004323 0.00029254532531028897 0 0.034635326300408505 0.00031391549481145928 0 0.034728319557428368 0.00019972636614397577 0 0.034635326300408505 0.00031391549481145928 0 0.034673419027170936 0.0001848170993373884 0 0.034728319557428368 0.00019972636614397577 0 0.03452693983493732 0.00023735602839169669 0 0.034635326300408505 0.00031391549481145928 0 0.034673419027170936 0.0001848170993373884 0 0.03452693983493732 0.00023735602839169669 0 0.034673419027170936 0.0001848170993373884 0 0.034701122307628431 8.2639615340257934e-05 0 0.034673419027170936 0.0001848170993373884 0 0.034728319557428368 0.00019972636614397577 0 0.034761400626394205 0.00011293340677775148 0 0.034673419027170936 0.0001848170993373884 0 0.034761400626394205 0.00011293340677775148 0 0.034701122307628431 8.2639615340257934e-05 0 0.034701122307628431 8.2639615340257934e-05 0 0.034786130713004369 -1.7310644157163833e-05 0 0.03482727735621708 1.9805722989153186e-05 0 0.034786130713004369 -1.7310644157163833e-05 0 0.03482727735621708 1.9805722989153186e-05 0 0.034865109736019195 -9.3954106601755484e-06 0 0.034761400626394205 0.00011293340677775148 0 0.034701122307628431 8.2639615340257934e-05 0 0.03482727735621708 1.9805722989153186e-05 0 0.03482727735621708 1.9805722989153186e-05 0 0.03485338841550744 6.5296428224472083e-05 0 0.034883901668141155 1.2341908049309687e-05 0 0.034761400626394205 0.00011293340677775148 0 0.03482727735621708 1.9805722989153186e-05 0 0.03485338841550744 6.5296428224472083e-05 0 0.03482727735621708 1.9805722989153186e-05 0 0.034883901668141155 1.2341908049309687e-05 0 0.034865109736019195 -9.3954106601755484e-06 0 0.03485338841550744 6.5296428224472083e-05 0 0.034883901668141155 1.2341908049309687e-05 0 0.034916014104163555 5.4509662313857366e-05 0 0.03485338841550744 6.5296428224472083e-05 0 0.034800871349669228 0.00015181007630759446 0 0.034894971419496254 0.00010827192945384349 0 0.03485338841550744 6.5296428224472083e-05 0 0.034894971419496254 0.00010827192945384349 0 0.034916014104163555 5.4509662313857366e-05 0 0.034761400626394205 0.00011293340677775148 0 0.03485338841550744 6.5296428224472083e-05 0 0.034800871349669228 0.00015181007630759446 0 0.034725812698004323 0.00029254532531028897 0 0.034800871349669228 0.00015181007630759446 0 0.034814967464000049 0.00019653080464913339 0 0.034728319557428368 0.00019972636614397577 0 0.034761400626394205 0.00011293340677775148 0 0.034800871349669228 0.00015181007630759446 0 0.034725812698004323 0.00029254532531028897 0 0.034728319557428368 0.00019972636614397577 0 0.034800871349669228 0.00015181007630759446 0 0.034814967464000049 0.00019653080464913339 0 0.034894971419496254 0.00010827192945384349 0 0.034968413239155123 0.00011789949632243736 0 0.034800871349669228 0.00015181007630759446 0 0.034814967464000049 0.00019653080464913339 0 0.034894971419496254 0.00010827192945384349 0 0.033312186143672137 -7.2387138318878212e-05 0 0.034408230794301178 -0.00010440765480650679 0 0.033226693404246409 0.00016745409784820839 0 0.033327138434825279 0.00016436074820947463 0 0.033538148074887968 -0.0001467056034055325 0 0.034954812990117906 0.00012354881120135868 0 0.034916014104163555 5.4509662313857366e-05 0 0.034948359487304299 4.4859942334844134e-05 0 0.034894971419496254 0.00010827192945384349 0 0.034954812990117906 0.00012354881120135868 0 0.034916014104163555 5.4509662313857366e-05 0 0.033859221889102765 -6.8313171246471262e-05 0 0.033312186143672137 -7.2387138318878212e-05 0 0.034894971419496254 0.00010827192945384349 0 0.034968413239155123 0.00011789949632243736 0 0.034954812990117906 0.00012354881120135868 0 0.033312186143672137 -7.2387138318878212e-05 0 0.032000524187980488 -0.00033485800540708737 0 0.034916014104163555 5.4509662313857366e-05 0 0.034948359487304299 4.4859942334844134e-05 0 0.034933222445160644 1.0393726904685247e-05 0 0.034883901668141155 1.2341908049309687e-05 0 0.034916014104163555 5.4509662313857366e-05 0 0.034933222445160644 1.0393726904685247e-05 0 0.033838327067018281 -0.00043005276517078898 0 0.033586960315580519 -0.00014770571539284084 0 0.033538148074887968 -0.0001467056034055325 0 0.03494812783733673 1.0780460130319939e-05 0 0.034948359487304299 4.4859942334844134e-05 0 0.034933222445160644 1.0393726904685247e-05 0 0.033894214719310423 -0.00010800507831021017 0 0.034408230794301178 -0.00010440765480650679 0 0.033894214719310423 -0.00010800507831021017 0 0.033428077205973156 -0.0001601938752268043 0 0.033022778058530759 -0.00027570838785783368 0 0.033220870619800814 -0.00027187472160110392 0 0.033121403116939084 -0.00012325008103124344 0 0.031848821696799721 -0.00038893710369142703 0 0.032000524187980488 -0.00033485800540708737 0 0.033327138434825279 0.00016436074820947463 0 0.033586960315580519 -0.00014770571539284084 0 0.033538148074887968 -0.0001467056034055325 0 0.032000524187980488 -0.00033485800540708737 0 0.033428077205973156 -0.0001601938752268043 0 0.030767995061287277 -0.00048767241230728985 0 0.030516340312414746 -0.00042316976327913612 0 0.03040953628938823 -0.00052746513411385757 0 0.034941846619146795 -1.0121787964532731e-06 0 0.034932278671093941 -6.1683791626285905e-06 0 0.034941440101416678 -8.3011174162686031e-06 0 0.034941846619146795 -1.0121787964532731e-06 0 0.034933222445160644 1.0393726904685247e-05 0 0.034932278671093941 -6.1683791626285905e-06 0 0.03494812783733673 1.0780460130319939e-05 0 0.034941846619146795 -1.0121787964532731e-06 0 0.034933222445160644 1.0393726904685247e-05 0 0.034933222445160644 1.0393726904685247e-05 0 0.034932278671093941 -6.1683791626285905e-06 0 0.03490999381874562 -8.4814860903611716e-06 0 0.034883901668141155 1.2341908049309687e-05 0 0.034933222445160644 1.0393726904685247e-05 0 0.03490999381874562 -8.4814860903611716e-06 0 0.034932278671093941 -6.1683791626285905e-06 0 0.03490999381874562 -8.4814860903611716e-06 0 0.034937316688641903 -1.1276684354590212e-05 0 0.034932278671093941 -6.1683791626285905e-06 0 0.034937316688641903 -1.1276684354590212e-05 0 0.034941440101416678 -8.3011174162686031e-06 0 0.034917298805088315 -8.5361080373484945e-06 0 0.03490999381874562 -8.4814860903611716e-06 0 0.034937316688641903 -1.1276684354590212e-05 0 0.034883901668141155 1.2341908049309687e-05 0 0.03490999381874562 -8.4814860903611716e-06 0 0.034865109736019195 -9.3954106601755484e-06 0 0.034917298805088315 -8.5361080373484945e-06 0 0.03490999381874562 -8.4814860903611716e-06 0 0.034865109736019195 -9.3954106601755484e-06 0 0.034786130713004369 -1.7310644157163833e-05 0 0.034865109736019195 -9.3954106601755484e-06 0 0.034878744021637972 -4.6205164238762776e-06 0 0.034917298805088315 -8.5361080373484945e-06 0 0.034865109736019195 -9.3954106601755484e-06 0 0.034878744021637972 -4.6205164238762776e-06 0 0.034917298805088315 -8.5361080373484945e-06 0 0.034954370341932051 3.1248340533694194e-07 0 0.034927033733351896 2.842439635981784e-06 0 0.034917298805088315 -8.5361080373484945e-06 0 0.034878744021637972 -4.6205164238762776e-06 0 0.034927033733351896 2.842439635981784e-06 0 0.034917298805088315 -8.5361080373484945e-06 0 0.034954370341932051 3.1248340533694194e-07 0 0.034963662715335492 -4.3792773565657953e-06 0 0.034954370341932051 3.1248340533694194e-07 0 0.034999978569602061 2.0702006893596383e-09 0 0.034963662715335492 -4.3792773565657953e-06 0 0.034999978569602061 2.0702006893596383e-09 0 0.034999861042915269 9.9179765013964453e-09 0 0.034963662715335492 -4.3792773565657953e-06 0 0.034999861042915269 9.9179765013964453e-09 0 0.034963662715335492 -4.3792773565657953e-06 0 0.034943795651311962 -6.1267671605472288e-06 0 0.034917298805088315 -8.5361080373484945e-06 0 0.034963662715335492 -4.3792773565657953e-06 0 0.034937316688641903 -1.1276684354590212e-05 0 0.034963662715335492 -4.3792773565657953e-06 0 0.034937316688641903 -1.1276684354590212e-05 0 0.034943795651311962 -6.1267671605472288e-06 0 0.035000000069151008 -7.0101838946760111e-10 0 0.034999222001323882 5.8452254170141157e-07 0 0.03499999745901481 1.6905624268516646e-09 0 0.035000011354892099 1.7399529193385353e-08 0 0.034950558385822984 -1.6817126639715619e-05 0 0.034999992287214038 2.3512786374549012e-09 0 0.03499999745901481 1.6905624268516646e-09 0 0.034997651902279742 1.4595730106055509e-06 0 0.034999222001323882 5.8452254170141157e-07 0 0.03499999745901481 1.6905624268516646e-09 0 0.034997651902279742 1.4595730106055509e-06 0 0.034937316688641903 -1.1276684354590212e-05 0 0.034943795651311962 -6.1267671605472288e-06 0 0.034941440101416678 -8.3011174162686031e-06 0 0.034999222001323882 5.8452254170141157e-07 0 0.034997651902279742 1.4595730106055509e-06 0 0.034995162222029141 1.994988550425588e-06 0 0.034950558385822984 -1.6817126639715619e-05 0 0.035095047001745039 3.8103388414130582e-05 0 0.03493990818747407 9.6560996290659991e-06 0 0.034931368564564635 3.0412353784961033e-05 0 0.034957419208429985 9.6358726573766279e-06 0 0.03493990818747407 9.6560996290659991e-06 0 0.03489200833990274 2.183200642558445e-05 0 0.034927098316622537 1.3356248464671129e-05 0 0.03493990818747407 9.6560996290659991e-06 0 0.03489200833990274 2.183200642558445e-05 0 0.034931368564564635 3.0412353784961033e-05 0 0.034885543767772531 8.3171859316250556e-05 0 0.03489200833990274 2.183200642558445e-05 0 0.034931368564564635 3.0412353784961033e-05 0 0.034885543767772531 8.3171859316250556e-05 0 0.03489200833990274 2.183200642558445e-05 0 0.034817694498584316 3.7635562689307313e-05 0 0.034951622957821206 6.5866929044075363e-05 0 0.034931368564564635 3.0412353784961033e-05 0 0.034955155274467693 2.4063184537287787e-05 0 0.034951622957821206 6.5866929044075363e-05 0 0.034955155274467693 2.4063184537287787e-05 0 0.034980994672751488 3.7644153638332654e-05 0 0.034955155274467693 2.4063184537287787e-05 0 0.034980994672751488 3.7644153638332654e-05 0 0.034947278802917835 6.4587043437251227e-06 0 0.034786130713004369 -1.7310644157163833e-05 0 0.034878744021637972 -4.6205164238762776e-06 0 0.034885400465529869 -4.403725472386568e-06 0 0.034931713067003115 8.3484615209110477e-05 0 0.034939568328667424 -2.4559544726498656e-06 0 0.034878744021637972 -4.6205164238762776e-06 0 0.034885400465529869 -4.403725472386568e-06 0 0.034947278802917835 6.4587043437251227e-06 0 0.034947278802917835 6.4587043437251227e-06 0 0.034927033733351896 2.842439635981784e-06 0 0.034968125353623834 5.6867531872459996e-06 0 0.034878744021637972 -4.6205164238762776e-06 0 0.034947278802917835 6.4587043437251227e-06 0 0.034927033733351896 2.842439635981784e-06 0 0.034955155274467693 2.4063184537287787e-05 0 0.034947278802917835 6.4587043437251227e-06 0 0.034957419208429985 9.6358726573766279e-06 0 0.034947278802917835 6.4587043437251227e-06 0 0.034957419208429985 9.6358726573766279e-06 0 0.034968125353623834 5.6867531872459996e-06 0 0.034931368564564635 3.0412353784961033e-05 0 0.034955155274467693 2.4063184537287787e-05 0 0.034957419208429985 9.6358726573766279e-06 0 0.034957419208429985 9.6358726573766279e-06 0 0.034968125353623834 5.6867531872459996e-06 0 0.034973461811114735 3.1857274925817334e-06 0 0.034954370341932051 3.1248340533694194e-07 0 0.034927033733351896 2.842439635981784e-06 0 0.034968125353623834 5.6867531872459996e-06 0 0.034954370341932051 3.1248340533694194e-07 0 0.034999978569602061 2.0702006893596383e-09 0 0.034968125353623834 5.6867531872459996e-06 0 0.034999978569602061 2.0702006893596383e-09 0 0.034968125353623834 5.6867531872459996e-06 0 0.03499996106075072 4.1806477426578842e-09 0 0.034968125353623834 5.6867531872459996e-06 0 0.03499996106075072 4.1806477426578842e-09 0 0.034973461811114735 3.1857274925817334e-06 0 0.03499996106075072 4.1806477426578842e-09 0 0.034973461811114735 3.1857274925817334e-06 0 0.034999960710434999 -1.7570448497766113e-09 0 0.03493990818747407 9.6560996290659991e-06 0 0.034957419208429985 9.6358726573766279e-06 0 0.034973461811114735 3.1857274925817334e-06 0 0.03493990818747407 9.6560996290659991e-06 0 0.034973461811114735 3.1857274925817334e-06 0 0.034966120116721879 4.575557759718558e-06 0 0.03493990818747407 9.6560996290659991e-06 0 0.034966120116721879 4.575557759718558e-06 0 0.034927098316622537 1.3356248464671129e-05 0 0.034973461811114735 3.1857274925817334e-06 0 0.034966120116721879 4.575557759718558e-06 0 0.034999960710434999 -1.7570448497766113e-09 0 0.034966120116721879 4.575557759718558e-06 0 0.034999960710434999 -1.7570448497766113e-09 0 0.034999947674289246 5.8174835037978223e-09 0 0.034966120116721879 4.575557759718558e-06 0 0.034999947674289246 5.8174835037978223e-09 0 0.034962971283647441 9.065917201407527e-06 0 0.034962971283647441 9.065917201407527e-06 0 0.034999957558290128 7.1377615377936159e-09 0 0.034947096893371027 1.6799563917034626e-05 0 0.034999947674289246 5.8174835037978223e-09 0 0.034962971283647441 9.065917201407527e-06 0 0.034999957558290128 7.1377615377936159e-09 0 0.034962971283647441 9.065917201407527e-06 0 0.034947096893371027 1.6799563917034626e-05 0 0.034927098316622537 1.3356248464671129e-05 0 0.034966120116721879 4.575557759718558e-06 0 0.034962971283647441 9.065917201407527e-06 0 0.034927098316622537 1.3356248464671129e-05 0 0.034632799294915202 7.8417662942157785e-05 0 0.035345587147878985 -0.00010399106527991105 0 0.034957319867742753 -7.7136278660566216e-07 0 0.03499996758938019 -9.0879395814083914e-08 0 0.034999900326381221 4.9507218127187818e-08 0 0.034957319867742753 -7.7136278660566216e-07 0 0.035011214682066492 -1.4308226147290394e-06 0 0.034999900326381221 4.9507218127187818e-08 0 0.034957319867742753 -7.7136278660566216e-07 0 0.034725340348562062 0.00023239948369923189 0 0.03425742619191241 6.7865945005681551e-05 0 0.034957319867742753 -7.7136278660566216e-07 0 0.034937779096200564 0.0001829195873309376 0 0.034725340348562062 0.00023239948369923189 0 0.03499996758938019 -9.0879395814083914e-08 0 0.035101655180874346 0.00036964231820969541 0 0.034937779096200564 0.0001829195873309376 0 0.034999955253834605 8.3453112272908006e-09 0 0.035101049244371588 0.00021337879556659745 0 0.034957319867742753 -7.7136278660566216e-07 0 0.03499996758938019 -9.0879395814083914e-08 0 0.034937779096200564 0.0001829195873309376 0 0.035101655180874346 0.00036964231820969541 0 0.034937779096200564 0.0001829195873309376 0 0.034810070971446908 0.00042306272781231875 0 0.034937779096200564 0.0001829195873309376 0 0.034810070971446908 0.00042306272781231875 0 0.034725340348562062 0.00023239948369923189 0 0.034810070971446908 0.00042306272781231875 0 0.034725340348562062 0.00023239948369923189 0 0.034507943224767954 0.00044520384523252132 0 0.0306617098606294 0.0014003845426527159 0 0.032322573337293298 0.0010032830080624771 0 0.034810070971446908 0.00042306272781231875 0 0.03463941515390756 0.00072070433208760098 0 0.035021836751011316 0.00089940255636335501 0 0.034810070971446908 0.00042306272781231875 0 0.03463941515390756 0.00072070433208760098 0 0.034507943224767954 0.00044520384523252132 0 0.035101655180874346 0.00036964231820969541 0 0.034810070971446908 0.00042306272781231875 0 0.034998824529646477 0.00070596593078746947 0 0.035549227568934944 0.00060044953551016548 0 0.032322573337293298 0.0010032830080624771 0 0.035101655180874346 0.00036964231820969541 0 0.034998824529646477 0.00070596593078746947 0 0.035141596098593915 0.00076958559617726742 0 0.027406101217564122 0.0022280073684569465 0 0.027414066338123388 0.0027168469442851446 0 0.027024006464386852 0.0025560913409028965 0 0.032322573337293298 0.0010032830080624771 0 0.034439116293432138 0.00035666382089511584 0 0.02697907162196185 0.0020692589387005991 0 0.027406101217564122 0.0022280073684569465 0 0.027024006464386852 0.0025560913409028965 0 0.02697907162196185 0.0020692589387005991 0 0.027024006464386852 0.0025560913409028965 0 0.026704533522021266 0.0023019009146921857 0 0.03489200833990274 2.183200642558445e-05 0 0.034927098316622537 1.3356248464671129e-05 0 0.03489031871041031 2.3372876006695967e-05 0 0.034947096893371027 1.6799563917034626e-05 0 0.034927098316622537 1.3356248464671129e-05 0 0.03489031871041031 2.3372876006695967e-05 0 0.034947096893371027 1.6799563917034626e-05 0 0.034901084292599242 1.7657734798273077e-05 0 0.03489031871041031 2.3372876006695967e-05 0 0.035101049244371588 0.00021337879556659745 0 0.034439116293432138 0.00035666382089511584 0 0.032684377985269582 0.00099207799847370048 0 0.032606386001887526 0.00095626460414596282 0 0.032578294105686023 0.00082730978860348723 0 0.032322573337293298 0.0010032830080624771 0 0.031801003687386767 0.0010117768982474593 0 0.034439116293432138 0.00035666382089511584 0 0.034887069294464168 -1.4310094936060179e-06 0 0.03489200833990274 2.183200642558445e-05 0 0.03489031871041031 2.3372876006695967e-05 0 0.034817694498584316 3.7635562689307313e-05 0 0.034901084292599242 1.7657734798273077e-05 0 0.03489031871041031 2.3372876006695967e-05 0 0.034817694498584316 3.7635562689307313e-05 0 0.034817694498584316 3.7635562689307313e-05 0 0.034690890816304505 9.3379889191224071e-05 0 0.034791272909259319 0.00011763186424713088 0 0.034690890816304505 9.3379889191224071e-05 0 0.034791272909259319 0.00011763186424713088 0 0.034585277514562286 0.00014079209492391231 0 0.034851981590561638 0.00015677299517073167 0 0.034791272909259319 0.00011763186424713088 0 0.034772186372203008 0.00020820093491103451 0 0.034477478568349589 0.00013642518133278147 0 0.03427220780267929 0.00015131495910433932 0 0.034585277514562286 0.00014079209492391231 0 0.034751821751375901 0.000374533981872771 0 0.034471368672711812 8.3516131230142141e-05 0 0.034791272909259319 0.00011763186424713088 0 0.034772186372203008 0.00020820093491103451 0 0.034585277514562286 0.00014079209492391231 0 0.034136187762092519 4.2144114212218081e-05 0 0.034114862743424401 4.5100381566547528e-05 0 0.034205748036914979 1.866634455221253e-05 0 0.034312777179129131 0.00020549970036283345 0 0.034219126197791126 1.6864298690010838e-05 0 0.034477478568349589 0.00013642518133278147 0 0.03427220780267929 0.00015131495910433932 0 0.034205748036914979 1.866634455221253e-05 0 0.029999923351835357 0.0020179712650335723 0 0.0281856669877633 0.0032702342577034848 0 0.027882381078611854 0.0030518335422287349 0 0.02753252086866121 0.0035503449596094193 0 0.027978457532563387 0.0036931249444214008 0 0.028080583290338357 0.0022208614606246966 0 0.028413007030024445 0.0028072319769292735 0 0.028246013684556863 0.0021252395233343686 0 0.031113470825587214 0.0012874996286714642 0 0.029999923351835357 0.0020179712650335723 0 0.034114862743424401 4.5100381566547528e-05 0 0.034031380038907114 5.9577207708806659e-05 0 0.03405349777399605 5.7377909482126725e-05 0 0.034477478568349589 0.00013642518133278147 0 0.034585277514562286 0.00014079209492391231 0 0.034644567246226408 0.00013346868234865149 0 0.034136187762092519 4.2144114212218081e-05 0 0.034114862743424401 4.5100381566547528e-05 0 0.03405349777399605 5.7377909482126725e-05 0 0.034312777179129131 0.00020549970036283345 0 0.031801003687386767 0.0010117768982474593 0 0.027882381078611854 0.0030518335422287349 0 0.027476961438415489 0.0031778786869288149 0 0.02753252086866121 0.0035503449596094193 0 0.027684575779606087 0.0029421005371262957 0 0.027882381078611854 0.0030518335422287349 0 0.027476961438415489 0.0031778786869288149 0 0.034579639416353426 -4.2605048113629755e-05 0 0.034817694498584316 3.7635562689307313e-05 0 0.034690890816304505 9.3379889191224071e-05 0 0.027684575779606087 0.0029421005371262957 0 0.027841145651078023 0.002856217440347952 0 0.027414066338123388 0.0027168469442851446 0 0.034579639416353426 -4.2605048113629755e-05 0 0.034690890816304505 9.3379889191224071e-05 0 0.034644567246226408 0.00013346868234865149 0 0.034439116293432138 0.00035666382089511584 0 0.031801003687386767 0.0010117768982474593 0 0.027684575779606087 0.0029421005371262957 0 0.027819016920274525 0.0029230066692859978 0 0.027882381078611854 0.0030518335422287349 0 0.027819016920274525 0.0029230066692859978 0 0.027841145651078023 0.002856217440347952 0 0.027895256598487145 0.0030471800845269285 0 0.029687626134208746 0.0021218990839835575 0 0.029999923351835357 0.0020179712650335723 0 0.027684575779606087 0.0029421005371262957 0 0.027819016920274525 0.0029230066692859978 0 0.027841145651078023 0.002856217440347952 0 0.034690890816304505 9.3379889191224071e-05 0 0.034585277514562286 0.00014079209492391231 0 0.034644567246226408 0.00013346868234865149 0 0.031801003687386767 0.0010117768982474593 0 0.029999923351835357 0.0020179712650335723 0 0.027414066338123388 0.0027168469442851446 0 0.027024006464386852 0.0025560913409028965 0 0.026826994482790884 0.0030249686763981457 0 0.027414066338123388 0.0027168469442851446 0 0.026826994482790884 0.0030249686763981457 0 0.027088897373061641 0.0033680788234137361 0 0.027406101217564122 0.0022280073684569465 0 0.027841145651078023 0.002856217440347952 0 0.027414066338123388 0.0027168469442851446 0 0.027684575779606087 0.0029421005371262957 0 0.027414066338123388 0.0027168469442851446 0 0.027476961438415489 0.0031778786869288149 0 0.027024006464386852 0.0025560913409028965 0 0.026826994482790884 0.0030249686763981457 0 0.026030013505588992 0.0028522843398027867 0 0.026991001995776791 0.0025710783674486606 0 0.026316286247366708 0.0028046864922342501 0 0.026826994482790884 0.0030249686763981457 0 0.026427656161578213 0.0033839909628442418 0 0.026030013505588992 0.0028522843398027867 0 0.026826994482790884 0.0030249686763981457 0 0.026427656161578213 0.0033839909628442418 0 0.027088897373061641 0.0033680788234137361 0 0.027414066338123388 0.0027168469442851446 0 0.027476961438415489 0.0031778786869288149 0 0.027088897373061641 0.0033680788234137361 0 0.027476961438415489 0.0031778786869288149 0 0.027088897373061641 0.0033680788234137361 0 0.02753252086866121 0.0035503449596094193 0 0.027088897373061641 0.0033680788234137361 0 0.027300840777388851 0.0040697323166523575 0 0.02650249997578738 0.0042474817545584062 0 0.027088897373061641 0.0033680788234137361 0 0.02753252086866121 0.0035503449596094193 0 0.027300840777388851 0.0040697323166523575 0 0.026427656161578213 0.0033839909628442418 0 0.027088897373061641 0.0033680788234137361 0 0.02650249997578738 0.0042474817545584062 0 0.026427656161578213 0.0033839909628442418 0 0.02650249997578738 0.0042474817545584062 0 0.026129255289614694 0.0038940791699188042 0 0.027154480048765108 0.0049251403074801565 0 0.026075245087675811 0.0055382043789824848 0 0.02650249997578738 0.0042474817545584062 0 0.027154480048765108 0.0049251403074801565 0 0.027300840777388851 0.0040697323166523575 0 0.02650249997578738 0.0042474817545584062 0 0.027154480048765108 0.0049251403074801565 0 0.027300840777388851 0.0040697323166523575 0 0.028076677078311702 0.0043559214148124383 0 0.02225067859463498 0.0031184026228009295 0 0.023600101023418932 0.0020614216728012768 0 0.024729851613917157 0.0014629572937057214 0 0.028088133161642895 0.001158145719707853 0 0.0227932615560692 0.0018798562861989431 0 0.022734813046133118 0.0018028443474874115 0 0.022785133763092658 0.0017807050862518351 0 0.023600101023418932 0.0020614216728012768 0 0.028088133161642895 0.001158145719707853 0 0.028086722639475075 0.0014280939901663958 0 0.027758517158237517 0.0016195381417614505 0 0.028246013684556863 0.0021252395233343686 0 0.034076159402063148 2.8343178484640322e-05 0 0.034208768661535195 -1.9034048266421833e-06 0 0.034205748036914979 1.866634455221253e-05 0 0.032164174202509527 -1.5735395663161625e-05 0 0.028088133161642895 0.001158145719707853 0 0.034076159402063148 2.8343178484640322e-05 0 0.03427220780267929 0.00015131495910433932 0 0.034205748036914979 1.866634455221253e-05 0 0.028080583290338357 0.0022208614606246966 0 0.027758517158237517 0.0016195381417614505 0 0.028246013684556863 0.0021252395233343686 0 0.034136187762092519 4.2144114212218081e-05 0 0.034208768661535195 -1.9034048266421833e-06 0 0.034205748036914979 1.866634455221253e-05 0 0.031113470825587214 0.0012874996286714642 0 0.028088133161642895 0.001158145719707853 0 0.02753252086866121 0.0035503449596094193 0 0.027300840777388851 0.0040697323166523575 0 0.027978457532563387 0.0036931249444214008 0 0.023600101023418932 0.0020614216728012768 0 0.0281856669877633 0.0032702342577034848 0 0.027300840777388851 0.0040697323166523575 0 0.028076677078311702 0.0043559214148124383 0 0.027978457532563387 0.0036931249444214008 0 0.025246450606538563 0.0037759026322537275 0 0.024632351355440792 0.0037304600604680838 0 0.024884187644116203 0.0042575834907544229 0 0.025230667020203157 0.0038555898633094556 0 0.024120392346526132 0.004569719472186577 0 0.024632351355440792 0.0037304600604680838 0 0.024884187644116203 0.0042575834907544229 0 0.024047679674875994 0.0042794955845568451 0 0.025744246454569134 0.0040181024494547468 0 0.025209413477312929 0.0040773666466394683 0 0.024994288356602373 0.0047659741024728489 0 0.024104045506568243 0.0050277821687338357 0 0.024395604797712911 0.0044741266028093087 0 0.023607401256870574 0.0046061022904990362 0 0.02458446132648226 0.0043534872969689499 0 0.024120392346526132 0.004569719472186577 0 0.024104045506568243 0.0050277821687338357 0 0.023607401256870574 0.0046061022904990362 0 0.023672309784515781 0.0051497342371420278 0 0.024104045506568243 0.0050277821687338357 0 0.024729975661024708 0.0052188210235208157 0 0.024395604797712911 0.0044741266028093087 0 0.024729975661024708 0.0052188210235208157 0 0.024395604797712911 0.0044741266028093087 0 0.025337777947469445 0.004328519720731892 0 0.025461777024887017 0.0050715676422012496 0 0.024729975661024708 0.0052188210235208157 0 0.025337777947469445 0.004328519720731892 0 0.02458446132648226 0.0043534872969689499 0 0.025569760777835227 0.00428923043696977 0 0.026435258090914696 0.0042508686969127112 0 0.025569760777835227 0.00428923043696977 0 0.025461777024887017 0.0050715676422012496 0 0.02650249997578738 0.0042474817545584062 0 0.025337777947469445 0.004328519720731892 0 0.025732065090582627 0.0042396329094267094 0 0.026129255289614694 0.0038940791699188042 0 0.025772975378147007 0.0034756555170931303 0 0.02650249997578738 0.0042474817545584062 0 0.025732065090582627 0.0042396329094267094 0 0.026129255289614694 0.0038940791699188042 0 0.025246450606538563 0.0037759026322537275 0 0.024884187644116203 0.0042575834907544229 0 0.025732065090582627 0.0042396329094267094 0 0.025246450606538563 0.0037759026322537275 0 0.025732065090582627 0.0042396329094267094 0 0.025772975378147007 0.0034756555170931303 0 0.025772975378147007 0.0034756555170931303 0 0.026030013505588992 0.0028522843398027867 0 0.02521499770819988 0.0031726565991030348 0 0.025246450606538563 0.0037759026322537275 0 0.025772975378147007 0.0034756555170931303 0 0.02521499770819988 0.0031726565991030348 0 0.026045431274417573 0.0031557592822176383 0 0.025940006393046576 0.0032473130235215432 0 0.026427656161578213 0.0033839909628442418 0 0.026129255289614694 0.0038940791699188042 0 0.025772975378147007 0.0034756555170931303 0 0.026427656161578213 0.0033839909628442418 0 0.025772975378147007 0.0034756555170931303 0 0.026030013505588992 0.0028522843398027867 0 0.027024006464386852 0.0025560913409028965 0 0.026686203052232044 0.0027481526094031666 0 0.026704533522021266 0.0023019009146921857 0 0.026686203052232044 0.0027481526094031666 0 0.026240627885864145 0.0030039671916662772 0 0.026284702342792034 0.0027429013230197276 0 0.026686203052232044 0.0027481526094031666 0 0.026284702342792034 0.0027429013230197276 0 0.026366808941801777 0.0024587781709511577 0 0.026686203052232044 0.0027481526094031666 0 0.026240627885864145 0.0030039671916662772 0 0.026178986716533976 0.003086284658678226 0 0.026316286247366708 0.0028046864922342501 0 0.025940006393046576 0.0032473130235215432 0 0.026240627885864145 0.0030039671916662772 0 0.026284702342792034 0.0027429013230197276 0 0.026167229978834916 0.0028931677997847366 0 0.026284702342792034 0.0027429013230197276 0 0.026069400710874751 0.0025906396654603835 0 0.026366808941801777 0.0024587781709511577 0 0.026284702342792034 0.0027429013230197276 0 0.026069400710874751 0.0025906396654603835 0 0.026077919368135839 0.0027677604867884071 0 0.026069400710874751 0.0025906396654603835 0 0.025953137339320344 0.002676905112864494 0 0.025882211043548705 0.002542425324642114 0 0.026069400710874751 0.0025906396654603835 0 0.026077919368135839 0.0027677604867884071 0 0.025953137339320344 0.002676905112864494 0 0.026077919368135839 0.0027677604867884071 0 0.025953137339320344 0.002676905112864494 0 0.025921833658824084 0.0027827069087092335 0 0.026077919368135839 0.0027677604867884071 0 0.025921833658824084 0.0027827069087092335 0 0.025976603447269216 0.0028801836439759755 0 0.026284702342792034 0.0027429013230197276 0 0.026077919368135839 0.0027677604867884071 0 0.026167229978834916 0.0028931677997847366 0 0.025805623740568086 0.0026995963160455242 0 0.025706153447634807 0.0025670026004929489 0 0.025882211043548705 0.002542425324642114 0 0.025805623740568086 0.0026995963160455242 0 0.025953137339320344 0.002676905112864494 0 0.025882211043548705 0.002542425324642114 0 0.025805623740568086 0.0026995963160455242 0 0.025921833658824084 0.0027827069087092335 0 0.02580868482737526 0.002856862595282241 0 0.025805623740568086 0.0026995963160455242 0 0.025953137339320344 0.002676905112864494 0 0.025921833658824084 0.0027827069087092335 0 0.025805623740568086 0.0026995963160455242 0 0.02580868482737526 0.002856862595282241 0 0.025612392119663822 0.0027652606982240921 0 0.02580868482737526 0.002856862595282241 0 0.025886545766058991 0.0029812685015139589 0 0.025668299134663817 0.0029940593678654242 0 0.025921833658824084 0.0027827069087092335 0 0.02580868482737526 0.002856862595282241 0 0.025976603447269216 0.0028801836439759755 0 0.02580868482737526 0.002856862595282241 0 0.025886545766058991 0.0029812685015139589 0 0.025976603447269216 0.0028801836439759755 0 0.025886545766058991 0.0029812685015139589 0 0.025948708002723819 0.0031329812680126281 0 0.025723925431383209 0.003170691180941728 0 0.025886545766058991 0.0029812685015139589 0 0.025723925431383209 0.003170691180941728 0 0.025668299134663817 0.0029940593678654242 0 0.026077919368135839 0.0027677604867884071 0 0.026167229978834916 0.0028931677997847366 0 0.026063322419149704 0.0029467261786651901 0 0.025886545766058991 0.0029812685015139589 0 0.025976603447269216 0.0028801836439759755 0 0.026063322419149704 0.0029467261786651901 0 0.026077919368135839 0.0027677604867884071 0 0.025976603447269216 0.0028801836439759755 0 0.026063322419149704 0.0029467261786651901 0 0.025886545766058991 0.0029812685015139589 0 0.026063322419149704 0.0029467261786651901 0 0.025948708002723819 0.0031329812680126281 0 0.026063322419149704 0.0029467261786651901 0 0.026086637507419269 0.0030499814268541729 0 0.025948708002723819 0.0031329812680126281 0 0.026240627885864145 0.0030039671916662772 0 0.026167229978834916 0.0028931677997847366 0 0.026156259396534501 0.0030021916586507598 0 0.026086637507419269 0.0030499814268541729 0 0.026156259396534501 0.0030021916586507598 0 0.026177815712994507 0.0031219857071776934 0 0.026167229978834916 0.0028931677997847366 0 0.026063322419149704 0.0029467261786651901 0 0.026156259396534501 0.0030021916586507598 0 0.026063322419149704 0.0029467261786651901 0 0.026086637507419269 0.0030499814268541729 0 0.026156259396534501 0.0030021916586507598 0 0.026240627885864145 0.0030039671916662772 0 0.026156259396534501 0.0030021916586507598 0 0.026177815712994507 0.0031219857071776934 0 0.025246450606538563 0.0037759026322537275 0 0.024632351355440792 0.0037304600604680838 0 0.02521499770819988 0.0031726565991030348 0 0.025744246454569134 0.0040181024494547468 0 0.02643997595584871 0.0033507608488171576 0 0.025574628002201897 0.0036643690037220836 0 0.026177815712994507 0.0031219857071776934 0 0.025948708002723819 0.0031329812680126281 0 0.02550879003524258 0.0035412924508413965 0 0.025940006393046576 0.0032473130235215432 0 0.025584005272186978 0.0035918219884623894 0 0.025230667020203157 0.0038555898633094556 0 0.025940006393046576 0.0032473130235215432 0 0.026086637507419269 0.0030499814268541729 0 0.026177815712994507 0.0031219857071776934 0 0.025948708002723819 0.0031329812680126281 0 0.025948708002723819 0.0031329812680126281 0 0.025723925431383209 0.003170691180941728 0 0.02550879003524258 0.0035412924508413965 0 0.025744246454569134 0.0040181024494547468 0 0.025209413477312929 0.0040773666466394683 0 0.025574628002201897 0.0036643690037220836 0 0.025723925431383209 0.003170691180941728 0 0.02550879003524258 0.0035412924508413965 0 0.025505214543378233 0.0032073047477315739 0 0.02550879003524258 0.0035412924508413965 0 0.025505214543378233 0.0032073047477315739 0 0.025079324896102109 0.0033044822619761665 0 0.025505214543378233 0.0032073047477315739 0 0.025414932963134327 0.0029667019597686387 0 0.025079324896102109 0.0033044822619761665 0 0.025414932963134327 0.0029667019597686387 0 0.025079324896102109 0.0033044822619761665 0 0.025107117436916244 0.0027778939778853504 0 0.025723925431383209 0.003170691180941728 0 0.025505214543378233 0.0032073047477315739 0 0.025668299134663817 0.0029940593678654242 0 0.025505214543378233 0.0032073047477315739 0 0.025414932963134327 0.0029667019597686387 0 0.025668299134663817 0.0029940593678654242 0 0.025414932963134327 0.0029667019597686387 0 0.025668299134663817 0.0029940593678654242 0 0.025612392119663822 0.0027652606982240921 0 0.02580868482737526 0.002856862595282241 0 0.025668299134663817 0.0029940593678654242 0 0.025612392119663822 0.0027652606982240921 0 0.025414932963134327 0.0029667019597686387 0 0.025612392119663822 0.0027652606982240921 0 0.025374433820495725 0.0026747120785148783 0 0.025612392119663822 0.0027652606982240921 0 0.025374433820495725 0.0026747120785148783 0 0.025546133125147426 0.0025731972043222763 0 0.025612392119663822 0.0027652606982240921 0 0.025546133125147426 0.0025731972043222763 0 0.025706153447634807 0.0025670026004929489 0 0.025805623740568086 0.0026995963160455242 0 0.025612392119663822 0.0027652606982240921 0 0.025706153447634807 0.0025670026004929489 0 0.025414932963134327 0.0029667019597686387 0 0.025374433820495725 0.0026747120785148783 0 0.025107117436916244 0.0027778939778853504 0 0.025374433820495725 0.0026747120785148783 0 0.02522783975399355 0.0024983972959448887 0 0.025107117436916244 0.0027778939778853504 0 0.025374433820495725 0.0026747120785148783 0 0.025430734613085256 0.0024309903258175718 0 0.025546133125147426 0.0025731972043222763 0 0.025374433820495725 0.0026747120785148783 0 0.02522783975399355 0.0024983972959448887 0 0.025430734613085256 0.0024309903258175718 0 0.02522783975399355 0.0024983972959448887 0 0.025430734613085256 0.0024309903258175718 0 0.025313283570526531 0.0022527727710479643 0 0.025313283570526531 0.0022527727710479643 0 0.025256880982906002 0.0019804162741673733 0 0.025546915776860066 0.0019681581673551898 0 0.025430734613085256 0.0024309903258175718 0 0.025313283570526531 0.0022527727710479643 0 0.025578329158381274 0.0022507245371503962 0 0.025313283570526531 0.0022527727710479643 0 0.025578329158381274 0.0022507245371503962 0 0.025546915776860066 0.0019681581673551898 0 0.025578329158381274 0.0022507245371503962 0 0.025802711180602626 0.002136691983201525 0 0.025546915776860066 0.0019681581673551898 0 0.025578329158381274 0.0022507245371503962 0 0.025791472773189404 0.0023727690793568525 0 0.025802711180602626 0.002136691983201525 0 0.025578329158381274 0.0022507245371503962 0 0.02560354577945995 0.0024385901538810364 0 0.025791472773189404 0.0023727690793568525 0 0.025430734613085256 0.0024309903258175718 0 0.025578329158381274 0.0022507245371503962 0 0.02560354577945995 0.0024385901538810364 0 0.025430734613085256 0.0024309903258175718 0 0.02560354577945995 0.0024385901538810364 0 0.025546133125147426 0.0025731972043222763 0 0.02560354577945995 0.0024385901538810364 0 0.025546133125147426 0.0025731972043222763 0 0.025706153447634807 0.0025670026004929489 0 0.02560354577945995 0.0024385901538810364 0 0.025706153447634807 0.0025670026004929489 0 0.025791472773189404 0.0023727690793568525 0 0.025706153447634807 0.0025670026004929489 0 0.025882211043548705 0.002542425324642114 0 0.025791472773189404 0.0023727690793568525 0 0.025882211043548705 0.002542425324642114 0 0.025791472773189404 0.0023727690793568525 0 0.026024474730341807 0.0023473336399186021 0 0.026069400710874751 0.0025906396654603835 0 0.026024474730341807 0.0023473336399186021 0 0.026366808941801777 0.0024587781709511577 0 0.026069400710874751 0.0025906396654603835 0 0.025882211043548705 0.002542425324642114 0 0.026024474730341807 0.0023473336399186021 0 0.026024474730341807 0.0023473336399186021 0 0.026054956883925201 0.0020247290235074428 0 0.026230723380452264 0.0022149837092636719 0 0.026024474730341807 0.0023473336399186021 0 0.025802711180602626 0.002136691983201525 0 0.026054956883925201 0.0020247290235074428 0 0.025791472773189404 0.0023727690793568525 0 0.026024474730341807 0.0023473336399186021 0 0.025802711180602626 0.002136691983201525 0 0.025804238212825945 0.0018972662679597892 0 0.026054956883925201 0.0020247290235074428 0 0.02600253309002333 0.0017535175377864742 0 0.025802711180602626 0.002136691983201525 0 0.025804238212825945 0.0018972662679597892 0 0.026054956883925201 0.0020247290235074428 0 0.026054956883925201 0.0020247290235074428 0 0.02600253309002333 0.0017535175377864742 0 0.026263138007200194 0.0018869403016639422 0 0.02600253309002333 0.0017535175377864742 0 0.026263138007200194 0.0018869403016639422 0 0.026095286117333149 0.0014581875236814213 0 0.025804238212825945 0.0018972662679597892 0 0.02600253309002333 0.0017535175377864742 0 0.025640053565963231 0.0015794918109953867 0 0.026954807177994002 0.0010059337090419257 0 0.024926550237413848 0.0012924164483076532 0 0.025241780668804829 0.0016109354196194704 0 0.025804238212825945 0.0018972662679597892 0 0.025616986731556692 0.0017834237005104959 0 0.025640053565963231 0.0015794918109953867 0 0.025616986731556692 0.0017834237005104959 0 0.025436570749456374 0.0017660718338327946 0 0.025640053565963231 0.0015794918109953867 0 0.025758643465642453 0.0015202886218745944 0 0.025548628163037945 0.0015270248667576933 0 0.025436570749456374 0.0017660718338327946 0 0.025247083566000597 0.0017938345858344656 0 0.025241780668804829 0.0016109354196194704 0 0.025436570749456374 0.0017660718338327946 0 0.025640053565963231 0.0015794918109953867 0 0.025241780668804829 0.0016109354196194704 0 0.025436570749456374 0.0017660718338327946 0 0.025256880982906002 0.0019804162741673733 0 0.025546915776860066 0.0019681581673551898 0 0.025436570749456374 0.0017660718338327946 0 0.025256880982906002 0.0019804162741673733 0 0.025247083566000597 0.0017938345858344656 0 0.025802711180602626 0.002136691983201525 0 0.025804238212825945 0.0018972662679597892 0 0.025546915776860066 0.0019681581673551898 0 0.025804238212825945 0.0018972662679597892 0 0.025616986731556692 0.0017834237005104959 0 0.025546915776860066 0.0019681581673551898 0 0.025616986731556692 0.0017834237005104959 0 0.025436570749456374 0.0017660718338327946 0 0.025546915776860066 0.0019681581673551898 0 0.026686203052232044 0.0027481526094031666 0 0.026704533522021266 0.0023019009146921857 0 0.026366808941801777 0.0024587781709511577 0 0.026704533522021266 0.0023019009146921857 0 0.026366808941801777 0.0024587781709511577 0 0.0264352595390344 0.0021218926936132638 0 0.026366808941801777 0.0024587781709511577 0 0.026230723380452264 0.0022149837092636719 0 0.0264352595390344 0.0021218926936132638 0 0.026024474730341807 0.0023473336399186021 0 0.026366808941801777 0.0024587781709511577 0 0.026230723380452264 0.0022149837092636719 0 0.026263138007200194 0.0018869403016639422 0 0.026607983184384648 0.0017960891448891713 0 0.026095286117333149 0.0014581875236814213 0 0.026230723380452264 0.0022149837092636719 0 0.026263138007200194 0.0018869403016639422 0 0.0264352595390344 0.0021218926936132638 0 0.026054956883925201 0.0020247290235074428 0 0.026230723380452264 0.0022149837092636719 0 0.026263138007200194 0.0018869403016639422 0 0.026263138007200194 0.0018869403016639422 0 0.0264352595390344 0.0021218926936132638 0 0.026607983184384648 0.0017960891448891713 0 0.0306617098606294 0.0014003845426527159 0 0.030206904529202654 0.0011831592941211305 0 0.03463941515390756 0.00072070433208760098 0 0.034126696419959107 0.00057334352864974207 0 0.034507943224767954 0.00044520384523252132 0 0.02697907162196185 0.0020692589387005991 0 0.026704533522021266 0.0023019009146921857 0 0.026607983184384648 0.0017960891448891713 0 0.026704533522021266 0.0023019009146921857 0 0.0264352595390344 0.0021218926936132638 0 0.026607983184384648 0.0017960891448891713 0 0.034126696419959107 0.00057334352864974207 0 0.034507943224767954 0.00044520384523252132 0 0.03425742619191241 6.7865945005681551e-05 0 0.034725340348562062 0.00023239948369923189 0 0.034507943224767954 0.00044520384523252132 0 0.03425742619191241 6.7865945005681551e-05 0 0.034126696419959107 0.00057334352864974207 0 0.03425742619191241 6.7865945005681551e-05 0 0.033501486934329944 0.0003223209812520866 0 0.035345587147878985 -0.00010399106527991105 0 0.030911731646409778 0.00034274008251101892 0 0.030206904529202654 0.0011831592941211305 0 0.030911731646409778 0.00034274008251101892 0 0.034999970739944923 -2.3108698468275294e-08 0 0.034982045268631537 2.3888386016587617e-06 0 0.035011214682066492 -1.4308226147290394e-06 0 0.034982045268631537 2.3888386016587617e-06 0 0.035011214682066492 -1.4308226147290394e-06 0 0.034920090310161363 7.7328832168987923e-05 0 0.034999970739944923 -2.3108698468275294e-08 0 0.035011214682066492 -1.4308226147290394e-06 0 0.034999900326381221 4.9507218127187818e-08 0 0.034984486337689663 1.7106136487491629e-05 0 0.034983325824194826 1.7237527439650669e-05 0 0.034965782127984957 6.1568126821380143e-05 0 0.034984486337689663 1.7106136487491629e-05 0 0.034984639327527663 2.166944277865616e-05 0 0.034965782127984957 6.1568126821380143e-05 0 0.026954807177994002 0.0010059337090419257 0 0.027425369732755563 -0.00023498783062696421 0 0.024926550237413848 0.0012924164483076532 0 0.032352614427420892 0.00012669847361474157 0 0.029821141360513056 0.00066565731144007962 0 0.033078856715697338 0.00033069797099092614 0 0.032352614427420892 0.00012669847361474157 0 0.025758643465642453 0.0015202886218745944 0 0.030911731646409778 0.00034274008251101892 0 0.02600253309002333 0.0017535175377864742 0 0.025640053565963231 0.0015794918109953867 0 0.026095286117333149 0.0014581875236814213 0 0.034982045268631537 2.3888386016587617e-06 0 0.034920090310161363 7.7328832168987923e-05 0 0.034828321824474505 4.6476439688429749e-05 0 0.026954807177994002 0.0010059337090419257 0 0.028712872706690588 0.00032822178702171913 0 0.027425369732755563 -0.00023498783062696421 0 0.030911731646409778 0.00034274008251101892 0 0.032352614427420892 0.00012669847361474157 0 0.034982045268631537 2.3888386016587617e-06 0 0.034984486337689663 1.7106136487491629e-05 0 0.034982553445457851 1.5417020046951714e-05 0 0.035750414196657594 -0.00032074173008767623 0 0.032352614427420892 0.00012669847361474157 0 0.034999970739944923 -2.3108698468275294e-08 0 0.034984486337689663 1.7106136487491629e-05 0 0.034999981004170802 2.8159408561865146e-08 0 0.034999970739944923 -2.3108698468275294e-08 0 0.034982045268631537 2.3888386016587617e-06 0 0.034984486337689663 1.7106136487491629e-05 0 0.034984486337689663 1.7106136487491629e-05 0 0.034999981004170802 2.8159408561865146e-08 0 0.034984639327527663 2.166944277865616e-05 0 0.034999981004170802 2.8159408561865146e-08 0 0.034984639327527663 2.166944277865616e-05 0 0.034999955285181954 1.0993887881148916e-08 0 0.034984639327527663 2.166944277865616e-05 0 0.034966695142370337 3.9775853563377291e-05 0 0.034965782127984957 6.1568126821380143e-05 0 0.034966695142370337 3.9775853563377291e-05 0 0.034965782127984957 6.1568126821380143e-05 0 0.034940333878619945 7.3581953423878868e-05 0 0.034984639327527663 2.166944277865616e-05 0 0.034966695142370337 3.9775853563377291e-05 0 0.034999955285181954 1.0993887881148916e-08 0 0.034966695142370337 3.9775853563377291e-05 0 0.034999955285181954 1.0993887881148916e-08 0 0.034942127804247582 4.8710013222342247e-05 0 0.034999955285181954 1.0993887881148916e-08 0 0.034999947201856528 4.0156321188497513e-08 0 0.034942127804247582 4.8710013222342247e-05 0 0.034999947201856528 4.0156321188497513e-08 0 0.03497834854093991 3.3687657780941841e-05 0 0.034942127804247582 4.8710013222342247e-05 0 0.03497834854093991 3.3687657780941841e-05 0 0.034963610209770069 5.9485116389006699e-05 0 0.034951509286911507 7.619414862028708e-05 0 0.03497834854093991 3.3687657780941841e-05 0 0.034963610209770069 5.9485116389006699e-05 0 0.034942127804247582 4.8710013222342247e-05 0 0.034966695142370337 3.9775853563377291e-05 0 0.034942127804247582 4.8710013222342247e-05 0 0.034940333878619945 7.3581953423878868e-05 0 0.034942127804247582 4.8710013222342247e-05 0 0.034809568938591627 0.00013786037850381291 0 0.034940333878619945 7.3581953423878868e-05 0 0.034887063276498889 0.0002040688286236779 0 0.034979065049307784 -0.00031771545043101371 0 0.034809568938591627 0.00013786037850381291 0 0.034940333878619945 7.3581953423878868e-05 0 0.03492263620294439 0.00015002560753976719 0 0.034963610209770069 5.9485116389006699e-05 0 0.034942127804247582 4.8710013222342247e-05 0 0.034976814904402249 8.4400773816634269e-05 0 0.034963610209770069 5.9485116389006699e-05 0 0.034952170427954059 0.00010638943760373565 0 0.034951509286911507 7.619414862028708e-05 0 0.034963610209770069 5.9485116389006699e-05 0 0.034976814904402249 8.4400773816634269e-05 0 0.034952170427954059 0.00010638943760373565 0 0.034976814904402249 8.4400773816634269e-05 0 0.034952170427954059 0.00010638943760373565 0 0.034965511353318393 0.00016188678359584753 0 0.034979065049307784 -0.00031771545043101371 0 0.030718120887677957 0.001777341766027069 0 0.034952170427954059 0.00010638943760373565 0 0.034965511353318393 0.00016188678359584753 0 0.034930657075420847 0.00016350549116945386 0 0.030718120887677957 0.001777341766027069 0 0.032776903282132425 0.0030096641675054474 0 0.034965511353318393 0.00016188678359584753 0 0.034930657075420847 0.00016350549116945386 0 0.034916201544479421 0.00020891492540628089 0 0.030718120887677957 0.001777341766027069 0 0.029151326337806666 0.0010306141518946917 0 0.023044245943785097 0.0023912606222469429 0 0.023994301377078288 0.0018901038616019415 0 0.024023967128510643 0.0026158134987398734 0 0.034809568938591627 0.00013786037850381291 0 0.034728516062503705 0.00029736775044098403 0 0.03492263620294439 0.00015002560753976719 0 0.024897974695395945 0.0023559987705877132 0 0.024616964781312749 0.001981068329212422 0 0.024023967128510643 0.0026158134987398734 0 0.024616964781312749 0.001981068329212422 0 0.023994301377078288 0.0018901038616019415 0 0.024023967128510643 0.0026158134987398734 0 0.02522783975399355 0.0024983972959448887 0 0.024897974695395945 0.0023559987705877132 0 0.025107117436916244 0.0027778939778853504 0 0.02522783975399355 0.0024983972959448887 0 0.025313283570526531 0.0022527727710479643 0 0.024897974695395945 0.0023559987705877132 0 0.025256880982906002 0.0019804162741673733 0 0.024897974695395945 0.0023559987705877132 0 0.025010179993493753 0.0018347671856969866 0 0.025313283570526531 0.0022527727710479643 0 0.025256880982906002 0.0019804162741673733 0 0.024897974695395945 0.0023559987705877132 0 0.024897974695395945 0.0023559987705877132 0 0.024616964781312749 0.001981068329212422 0 0.025010179993493753 0.0018347671856969866 0 0.024616964781312749 0.001981068329212422 0 0.025010179993493753 0.0018347671856969866 0 0.024926550237413848 0.0012924164483076532 0 0.025256880982906002 0.0019804162741673733 0 0.025010179993493753 0.0018347671856969866 0 0.025247083566000597 0.0017938345858344656 0 0.025010179993493753 0.0018347671856969866 0 0.025247083566000597 0.0017938345858344656 0 0.025241780668804829 0.0016109354196194704 0 0.025010179993493753 0.0018347671856969866 0 0.024926550237413848 0.0012924164483076532 0 0.025241780668804829 0.0016109354196194704 0 0.034965782127984957 6.1568126821380143e-05 0 0.034940333878619945 7.3581953423878868e-05 0 0.03492263620294439 0.00015002560753976719 0 0.029821141360513056 0.00066565731144007962 0 0.029151326337806666 0.0010306141518946917 0 0.024616964781312749 0.001981068329212422 0 0.024926550237413848 0.0012924164483076532 0 0.023994301377078288 0.0018901038616019415 0 0.034957162047543185 3.8574633187922633e-05 0 0.034963493822730923 3.7782274384603646e-05 0 0.034932181238645707 7.5729295490053263e-05 0 0.030999870846453583 0.002674253477937736 0 0.031804046547991717 0.0031391851252919826 0 0.034957162047543185 3.8574633187922633e-05 0 0.034999971043235156 2.4504901595752105e-08 0 0.034963493822730923 3.7782274384603646e-05 0 0.034957162047543185 3.8574633187922633e-05 0 0.034999971043235156 2.4504901595752105e-08 0 0.034999851767562727 2.7314753377903085e-08 0 0.034999971043235156 2.4504901595752105e-08 0 0.034963493822730923 3.7782274384603646e-05 0 0.034965246735340065 4.0128618565234976e-05 0 0.034963493822730923 3.7782274384603646e-05 0 0.034965246735340065 4.0128618565234976e-05 0 0.034932181238645707 7.5729295490053263e-05 0 0.034999971043235156 2.4504901595752105e-08 0 0.034965246735340065 4.0128618565234976e-05 0 0.034999957459164364 2.1547280254752737e-08 0 0.034999947201856528 4.0156321188497513e-08 0 0.03497834854093991 3.3687657780941841e-05 0 0.034999957459164364 2.1547280254752737e-08 0 0.03497834854093991 3.3687657780941841e-05 0 0.034965246735340065 4.0128618565234976e-05 0 0.034999957459164364 2.1547280254752737e-08 0 0.03497834854093991 3.3687657780941841e-05 0 0.034965246735340065 4.0128618565234976e-05 0 0.034951509286911507 7.619414862028708e-05 0 0.034951509286911507 7.619414862028708e-05 0 0.03493273595973885 0.00012454882207379111 0 0.034912782183053326 0.00012444050914618435 0 0.034952170427954059 0.00010638943760373565 0 0.034951509286911507 7.619414862028708e-05 0 0.03493273595973885 0.00012454882207379111 0 0.03493273595973885 0.00012454882207379111 0 0.034912782183053326 0.00012444050914618435 0 0.034911168094367312 0.00019877492073784369 0 0.03255848368366291 0.0035602182940893132 0 0.031907833309635217 0.0057398155720421807 0 0.034952170427954059 0.00010638943760373565 0 0.034930657075420847 0.00016350549116945386 0 0.03493273595973885 0.00012454882207379111 0 0.034930657075420847 0.00016350549116945386 0 0.03493273595973885 0.00012454882207379111 0 0.034911168094367312 0.00019877492073784369 0 0.033859443307836225 0.00047066816273673651 0 0.032776903282132425 0.0030096641675054474 0 0.034965246735340065 4.0128618565234976e-05 0 0.034951509286911507 7.619414862028708e-05 0 0.034912782183053326 0.00012444050914618435 0 0.034965246735340065 4.0128618565234976e-05 0 0.034912782183053326 0.00012444050914618435 0 0.034932181238645707 7.5729295490053263e-05 0 0.03255848368366291 0.0035602182940893132 0 0.031804046547991717 0.0031391851252919826 0 0.029979140345409817 0.0072669945501843665 0 0.028469868616500808 0.0073614597442600155 0 0.029078085271936744 0.0083663554946031768 0 0.029979140345409817 0.0072669945501843665 0 0.028657398735643064 0.0061746585941379615 0 0.028469868616500808 0.0073614597442600155 0 0.028469868616500808 0.0073614597442600155 0 0.027754612162460696 0.0081164139603964527 0 0.029078085271936744 0.0083663554946031768 0 0.028469868616500808 0.0073614597442600155 0 0.027470338823597385 0.0067218728656095713 0 0.027754612162460696 0.0081164139603964527 0 0.027470338823597385 0.0067218728656095713 0 0.027754612162460696 0.0081164139603964527 0 0.026665231103268731 0.007538214057335465 0 0.028657398735643064 0.0061746585941379615 0 0.028469868616500808 0.0073614597442600155 0 0.027470338823597385 0.0067218728656095713 0 0.027325569344768985 0.0051416364499533816 0 0.028657398735643064 0.0061746585941379615 0 0.027470338823597385 0.0067218728656095713 0 0.028098370149102329 0.0092975589048522288 0 0.027404422155422964 0.010417382262005569 0 0.026811382454632028 0.0088548313423397647 0 0.028098370149102329 0.0092975589048522288 0 0.028609150300594331 0.010142379779075823 0 0.027404422155422964 0.010417382262005569 0 0.028098370149102329 0.0092975589048522288 0 0.027754612162460696 0.0081164139603964527 0 0.026811382454632028 0.0088548313423397647 0 0.028098370149102329 0.0092975589048522288 0 0.029078085271936744 0.0083663554946031768 0 0.029216344691359551 0.0095202925365326079 0 0.028098370149102329 0.0092975589048522288 0 0.027754612162460696 0.0081164139603964527 0 0.029078085271936744 0.0083663554946031768 0 0.028098370149102329 0.0092975589048522288 0 0.029216344691359551 0.0095202925365326079 0 0.028609150300594331 0.010142379779075823 0 0.029216344691359551 0.0095202925365326079 0 0.028609150300594331 0.010142379779075823 0 0.029388394712798332 0.010250548591192598 0 0.029216344691359551 0.0095202925365326079 0 0.029388394712798332 0.010250548591192598 0 0.030150695826683487 0.0098695539582112253 0 0.029388394712798332 0.010250548591192598 0 0.030150695826683487 0.0098695539582112253 0 0.030060171933012001 0.010694944180009229 0 0.030150695826683487 0.0098695539582112253 0 0.031101337791828099 0.010288417594982328 0 0.030060171933012001 0.010694944180009229 0 0.030150695826683487 0.0098695539582112253 0 0.030319879249651956 0.0089211839276759353 0 0.03085866637334227 0.0091934310471089194 0 0.029216344691359551 0.0095202925365326079 0 0.030150695826683487 0.0098695539582112253 0 0.030319879249651956 0.0089211839276759353 0 0.029979140345409817 0.0072669945501843665 0 0.029078085271936744 0.0083663554946031768 0 0.030319879249651956 0.0089211839276759353 0 0.029979140345409817 0.0072669945501843665 0 0.030319879249651956 0.0089211839276759353 0 0.031304555727240904 0.0083457018880632831 0 0.029078085271936744 0.0083663554946031768 0 0.029216344691359551 0.0095202925365326079 0 0.030319879249651956 0.0089211839276759353 0 0.029898351379852157 0.0089658845744973563 0 0.031907833309635217 0.0057398155720421807 0 0.030319879249651956 0.0089211839276759353 0 0.031249575678413497 0.00836031348093552 0 0.03085866637334227 0.0091934310471089194 0 0.034930657075420847 0.00016350549116945386 0 0.034922229690190751 0.00019114746780817378 0 0.034911168094367312 0.00019877492073784369 0 0.032776903282132425 0.0030096641675054474 0 0.031907833309635217 0.0057398155720421807 0 0.032776903282132425 0.0030096641675054474 0 0.030631110102370563 0.0059156849929724456 0 0.031365830911755113 0.0050409302974205542 0 0.031197092121238054 0.0051412675522684356 0 0.031323192889458916 0.0052449936146221647 0 0.031907833309635217 0.0057398155720421807 0 0.030631110102370563 0.0059156849929724456 0 0.031249575678413497 0.00836031348093552 0 0.031464488891737252 0.0085332572232953985 0 0.03085866637334227 0.0091934310471089194 0 0.030631110102370563 0.0059156849929724456 0 0.025980000798086249 0.0082431954981361608 0 0.031464488891737252 0.0085332572232953985 0 0.03085866637334227 0.0091934310471089194 0 0.031101337791828099 0.010288417594982328 0 0.027193950892091742 0.0053190408744574124 0 0.026827449323249934 0.0070348607783218787 0 0.027453340165772989 0.0067991160859036791 0 0.030150695826683487 0.0098695539582112253 0 0.03085866637334227 0.0091934310471089194 0 0.031101337791828099 0.010288417594982328 0 0.025980000798086249 0.0082431954981361608 0 0.023697779096611915 0.005017665630692318 0 0.022074664812774824 0.0053533832269162347 0 0.023697779096611915 0.005017665630692318 0 0.022083232497445451 0.0053038806786676173 0 0.022130173802128159 0.0056890519455794772 0 0.022302474749360968 0.0052244813502270847 0 0.0235961887155045 0.010767539251399828 0 0.023647352509218782 0.010274365900633933 0 0.023945311156116814 0.010663167385064422 0 0.025980000798086249 0.0082431954981361608 0 0.02262753469106623 0.0080036370953245721 0 0.022083232497445451 0.0053038806786676173 0 0.022130173802128159 0.0056890519455794772 0 0.02192329280268495 0.0057864199605545032 0 0.025980000798086249 0.0082431954981361608 0 0.027105137313182558 0.010525588662844225 0 0.022149954372515861 0.0050684055639126611 0 0.022743060547246813 0.0060434661926432121 0 0.021916555823417016 0.0062227640565662356 0 0.022130173802128159 0.0056890519455794772 0 0.02192329280268495 0.0057864199605545032 0 0.021916555823417016 0.0062227640565662356 0 0.02262753469106623 0.0080036370953245721 0 0.02228768541282191 0.0084016768800423344 0 0.022074664812774824 0.0053533832269162347 0 0.02194249568777875 0.0061454981948344161 0 0.023647352509218782 0.010274365900633933 0 0.023967369349787333 0.010283541835243815 0 0.02392745697574605 0.010425615299230202 0 0.023647352509218782 0.010274365900633933 0 0.02391372419460262 0.010024906100771237 0 0.023706715010306811 0.0097309568836151696 0 0.023647352509218782 0.010274365900633933 0 0.02391372419460262 0.010024906100771237 0 0.023967369349787333 0.010283541835243815 0 0.02391372419460262 0.010024906100771237 0 0.023967369349787333 0.010283541835243815 0 0.024174033538334309 0.010144131786364776 0 0.023967369349787333 0.010283541835243815 0 0.024167930044640126 0.010484109314176877 0 0.02392745697574605 0.010425615299230202 0 0.023967369349787333 0.010283541835243815 0 0.024167930044640126 0.010484109314176877 0 0.024174033538334309 0.010144131786364776 0 0.027105137313182558 0.010525588662844225 0 0.026085470610798075 0.010622712684259046 0 0.024167930044640126 0.010484109314176877 0 0.02392745697574605 0.010425615299230202 0 0.023945311156116814 0.010663167385064422 0 0.024167930044640126 0.010484109314176877 0 0.023945311156116814 0.010663167385064422 0 0.024336403495086242 0.010561738459859572 0 0.023647352509218782 0.010274365900633933 0 0.02392745697574605 0.010425615299230202 0 0.023945311156116814 0.010663167385064422 0 0.029388394712798332 0.010250548591192598 0 0.030060171933012001 0.010694944180009229 0 0.029016911884500899 0.011091665064773911 0 0.028609150300594331 0.010142379779075823 0 0.029016911884500899 0.011091665064773911 0 0.027404422155422964 0.010417382262005569 0 0.024370997896572905 0.010543371512200085 0 0.02443393175070056 0.010441831450527022 0 0.024555153102631035 0.010467425025676482 0 0.026085470610798075 0.010622712684259046 0 0.024566617825630261 0.010495003490941271 0 0.028609150300594331 0.010142379779075823 0 0.029388394712798332 0.010250548591192598 0 0.029016911884500899 0.011091665064773911 0 0.024370997896572905 0.010543371512200085 0 0.024307480183719712 0.010442693852309261 0 0.02443393175070056 0.010441831450527022 0 0.024663089263543551 0.010237390256632971 0 0.026085470610798075 0.010622712684259046 0 0.024167930044640126 0.010484109314176877 0 0.024370997896572905 0.010543371512200085 0 0.024307480183719712 0.010442693852309261 0 0.02509241491016519 0.01032922588362897 0 0.021759685642194868 0.010096941435145152 0 0.024167930044640126 0.010484109314176877 0 0.024307480183719712 0.010442693852309261 0 0.024174033538334309 0.010144131786364776 0 0.024307480183719712 0.010442693852309261 0 0.024174033538334309 0.010144131786364776 0 0.02443393175070056 0.010441831450527022 0 0.024174033538334309 0.010144131786364776 0 0.02443393175070056 0.010441831450527022 0 0.024468863766261641 0.0095335355720822818 0 0.02443393175070056 0.010441831450527022 0 0.024495005916817494 0.010395612869430896 0 0.024441451355131073 0.010307068790877522 0 0.02443393175070056 0.010441831450527022 0 0.024555153102631035 0.010467425025676482 0 0.024495005916817494 0.010395612869430896 0 0.024555153102631035 0.010467425025676482 0 0.024561403568694753 0.010445482617766507 0 0.024573192260118421 0.010460788704566251 0 0.024962359131548734 0.010394500249091139 0 0.024720790053915396 0.010289599503089277 0 0.024573192260118421 0.010460788704566251 0 0.024495005916817494 0.010395612869430896 0 0.024561403568694753 0.010445482617766507 0 0.024616505250522391 0.010461285132907314 0 0.024566617825630261 0.010495003490941271 0 0.024666558479261948 0.010439114064496477 0 0.024555153102631035 0.010467425025676482 0 0.024495005916817494 0.010395612869430896 0 0.024561403568694753 0.010445482617766507 0 0.024962359131548734 0.010394500249091139 0 0.024851490033989298 0.010071379422410388 0 0.024720790053915396 0.010289599503089277 0 0.025302243759773902 0.010276035361253788 0 0.024962359131548734 0.010394500249091139 0 0.024851490033989298 0.010071379422410388 0 0.026085470610798075 0.010622712684259046 0 0.026342179400146284 0.010296355821006858 0 0.024214210727855495 0.0033467980890423744 0 0.023575935358827842 0.0031625434391372551 0 0.023772049208283581 0.0040037808044370233 0 0.024214210727855495 0.0033467980890423744 0 0.023772049208283581 0.0040037808044370233 0 0.024632949429504968 0.0039740032461732556 0 0.024214210727855495 0.0033467980890423744 0 0.025079324896102109 0.0033044822619761665 0 0.024632949429504968 0.0039740032461732556 0 0.02550879003524258 0.0035412924508413965 0 0.025079324896102109 0.0033044822619761665 0 0.024632949429504968 0.0039740032461732556 0 0.025584005272186978 0.0035918219884623894 0 0.024669490439706208 0.0039494526637703052 0 0.025209413477312929 0.0040773666466394683 0 0.025574628002201897 0.0036643690037220836 0 0.024632949429504968 0.0039740032461732556 0 0.024897974695395945 0.0023559987705877132 0 0.024684566565150817 0.0029049381235594415 0 0.024023967128510643 0.0026158134987398734 0 0.024214210727855495 0.0033467980890423744 0 0.025079324896102109 0.0033044822619761665 0 0.024684566565150817 0.0029049381235594415 0 0.025079324896102109 0.0033044822619761665 0 0.025107117436916244 0.0027778939778853504 0 0.024684566565150817 0.0029049381235594415 0 0.024897974695395945 0.0023559987705877132 0 0.025107117436916244 0.0027778939778853504 0 0.024684566565150817 0.0029049381235594415 0 0.024214210727855495 0.0033467980890423744 0 0.024684566565150817 0.0029049381235594415 0 0.024023967128510643 0.0026158134987398734 0 0.024214210727855495 0.0033467980890423744 0 0.024023967128510643 0.0026158134987398734 0 0.023575935358827842 0.0031625434391372551 0 0.023044245943785097 0.0023912606222469429 0 0.024023967128510643 0.0026158134987398734 0 0.023225034569199152 0.0029024202097064807 0 0.024023967128510643 0.0026158134987398734 0 0.023225034569199152 0.0029024202097064807 0 0.023575935358827842 0.0031625434391372551 0 0.023225034569199152 0.0029024202097064807 0 0.023575935358827842 0.0031625434391372551 0 0.023158625762193494 0.003464875691299081 0 0.030718120887677957 0.001777341766027069 0 0.026853251277269841 0.0045250014701911957 0 0.03055935213709373 0.0026964297070012412 0 0.029483830309709903 0.0033238527423212522 0 0.030097868232044574 0.0043131690444674605 0 0.023044245943785097 0.0023912606222469429 0 0.023225034569199152 0.0029024202097064807 0 0.022749446130299847 0.0031980638687735914 0 0.029483830309709903 0.0033238527423212522 0 0.02940030924649387 0.0037376238970025597 0 0.030097868232044574 0.0043131690444674605 0 0.023225034569199152 0.0029024202097064807 0 0.022749446130299847 0.0031980638687735914 0 0.023158625762193494 0.003464875691299081 0 0.030631110102370563 0.0059156849929724456 0 0.026853251277269841 0.0045250014701911957 0 0.027193950892091742 0.0053190408744574124 0 0.02775267437128779 0.0057789174148572828 0 0.027453340165772989 0.0067991160859036791 0 0.023158625762193494 0.003464875691299081 0 0.022875081220936001 0.0037682170185596828 0 0.023276291337732864 0.0045244167262457682 0 0.026853251277269841 0.0045250014701911957 0 0.023697779096611915 0.005017665630692318 0 0.022749446130299847 0.0031980638687735914 0 0.022875081220936001 0.0037682170185596828 0 0.022532346556589145 0.0039019241213278499 0 0.022749446130299847 0.0031980638687735914 0 0.023158625762193494 0.003464875691299081 0 0.022875081220936001 0.0037682170185596828 0 0.023061037711470698 0.0045736987401374966 0 0.023697779096611915 0.005017665630692318 0 0.022875081220936001 0.0037682170185596828 0 0.022462729865142514 0.0039112783608180775 0 0.022808968553113273 0.0041923133646548693 0 0.023575935358827842 0.0031625434391372551 0 0.023158625762193494 0.003464875691299081 0 0.023276291337732864 0.0045244167262457682 0 0.023539390953496463 0.0032423028310454294 0 0.023015993480680823 0.0044644671390297232 0 0.023575935358827842 0.0031625434391372551 0 0.022802756853670829 0.0043560531654650127 0 0.023772049208283581 0.0040037808044370233 0 0.022802756853670829 0.0043560531654650127 0 0.023547591828736912 0.0045265938391104137 0 0.023772049208283581 0.0040037808044370233 0 0.022802756853670829 0.0043560531654650127 0 0.023547591828736912 0.0045265938391104137 0 0.022963358810539892 0.0048096309159119874 0 0.022149954372515861 0.0050684055639126611 0 0.022462729865142514 0.0039112783608180775 0 0.022613994667822362 0.0045668620592116673 0 0.022462729865142514 0.0039112783608180775 0 0.022808968553113273 0.0041923133646548693 0 0.022613994667822362 0.0045668620592116673 0 0.022875081220936001 0.0037682170185596828 0 0.023276291337732864 0.0045244167262457682 0 0.022808968553113273 0.0041923133646548693 0 0.023276291337732864 0.0045244167262457682 0 0.022808968553113273 0.0041923133646548693 0 0.022613994667822362 0.0045668620592116673 0 0.022802756853670829 0.0043560531654650127 0 0.022963358810539892 0.0048096309159119874 0 0.022351713254909412 0.0052730925683868073 0 0.023015993480680823 0.0044644671390297232 0 0.022720829365773278 0.0055709199253580477 0 0.022149954372515861 0.0050684055639126611 0 0.022613994667822362 0.0045668620592116673 0 0.022743060547246813 0.0060434661926432121 0 0.023276291337732864 0.0045244167262457682 0 0.022613994667822362 0.0045668620592116673 0 0.022743060547246813 0.0060434661926432121 0 0.023022042859838349 0.004820244863823697 0 0.023721705316129965 0.0048281912561944917 0 0.023547591828736912 0.0045265938391104137 0 0.022963358810539892 0.0048096309159119874 0 0.024080049531634767 0.0048213252068706287 0 0.022963358810539892 0.0048096309159119874 0 0.023085647762671049 0.0050804078428148061 0 0.023299206705911273 0.0048433342557402045 0 0.022963358810539892 0.0048096309159119874 0 0.022804536052255631 0.0052409844856537401 0 0.022351713254909412 0.0052730925683868073 0 0.022963358810539892 0.0048096309159119874 0 0.023085647762671049 0.0050804078428148061 0 0.022804536052255631 0.0052409844856537401 0 0.023085647762671049 0.0050804078428148061 0 0.023426382980853852 0.0051447053674733897 0 0.023299206705911273 0.0048433342557402045 0 0.024080049531634767 0.0048213252068706287 0 0.023772049208283581 0.0040037808044370233 0 0.024632949429504968 0.0039740032461732556 0 0.023547591828736912 0.0045265938391104137 0 0.024080049531634767 0.0048213252068706287 0 0.023772049208283581 0.0040037808044370233 0 0.024080049531634767 0.0048213252068706287 0 0.024632949429504968 0.0039740032461732556 0 0.024994288356602373 0.0047659741024728489 0 0.025209413477312929 0.0040773666466394683 0 0.024632949429504968 0.0039740032461732556 0 0.024994288356602373 0.0047659741024728489 0 0.023222348059494819 0.0050847317094942796 0 0.023607401256870574 0.0046061022904990362 0 0.023672309784515781 0.0051497342371420278 0 0.023721705316129965 0.0048281912561944917 0 0.024120392346526132 0.004569719472186577 0 0.023426382980853852 0.0051447053674733897 0 0.023299206705911273 0.0048433342557402045 0 0.023770620807478667 0.0048266689822758302 0 0.023264929180628138 0.0051640735479397378 0 0.024120392346526132 0.004569719472186577 0 0.023222348059494819 0.0050847317094942796 0 0.023672309784515781 0.0051497342371420278 0 0.023448779977908653 0.005478717477666888 0 0.023222348059494819 0.0050847317094942796 0 0.023448779977908653 0.005478717477666888 0 0.023201621337666858 0.0054530110405427868 0 0.023448779977908653 0.005478717477666888 0 0.023694951335167278 0.0054326288948965008 0 0.023704663849334201 0.0056480558550769952 0 0.023672309784515781 0.0051497342371420278 0 0.023448779977908653 0.005478717477666888 0 0.023694951335167278 0.0054326288948965008 0 0.023264929180628138 0.0051640735479397378 0 0.023038748773888909 0.0054240272308725204 0 0.023085647762671049 0.0050804078428148061 0 0.023426382980853852 0.0051447053674733897 0 0.022979564430558395 0.0054971234575684974 0 0.023222348059494819 0.0050847317094942796 0 0.023201621337666858 0.0054530110405427868 0 0.022979564430558395 0.0054971234575684974 0 0.023448779977908653 0.005478717477666888 0 0.023201621337666858 0.0054530110405427868 0 0.023182904088878305 0.0057450086412835647 0 0.023201621337666858 0.0054530110405427868 0 0.022979564430558395 0.0054971234575684974 0 0.023182904088878305 0.0057450086412835647 0 0.023182904088878305 0.0057450086412835647 0 0.023411013979453953 0.0061008521296079506 0 0.022954700856515464 0.0061673147580788663 0 0.022979564430558395 0.0054971234575684974 0 0.023182904088878305 0.0057450086412835647 0 0.022841937468135502 0.0058193766169434905 0 0.023182904088878305 0.0057450086412835647 0 0.022954700856515464 0.0061673147580788663 0 0.022841937468135502 0.0058193766169434905 0 0.023731676542678447 0.0059280672535114848 0 0.023704663849334201 0.0056480558550769952 0 0.02348915466260762 0.0057768279635814134 0 0.023448779977908653 0.005478717477666888 0 0.023704663849334201 0.0056480558550769952 0 0.02348915466260762 0.0057768279635814134 0 0.023448779977908653 0.005478717477666888 0 0.023182904088878305 0.0057450086412835647 0 0.02348915466260762 0.0057768279635814134 0 0.023182904088878305 0.0057450086412835647 0 0.02348915466260762 0.0057768279635814134 0 0.023411013979453953 0.0061008521296079506 0 0.023731676542678447 0.0059280672535114848 0 0.02348915466260762 0.0057768279635814134 0 0.023411013979453953 0.0061008521296079506 0 0.023807488390242916 0.006224640714820341 0 0.023411013979453953 0.0061008521296079506 0 0.023361484112456005 0.0066667672488050405 0 0.023731676542678447 0.0059280672535114848 0 0.023807488390242916 0.006224640714820341 0 0.023411013979453953 0.0061008521296079506 0 0.023411013979453953 0.0061008521296079506 0 0.022954700856515464 0.0061673147580788663 0 0.023361484112456005 0.0066667672488050405 0 0.023361484112456005 0.0066667672488050405 0 0.022830620481701817 0.0065682877677895133 0 0.022679274574069878 0.0070109304123748767 0 0.022954700856515464 0.0061673147580788663 0 0.023361484112456005 0.0066667672488050405 0 0.022830620481701817 0.0065682877677895133 0 0.0091747475830719107 0.0046276511006763292 0 0.0094910346871139532 0.0047367745527643335 0 0.0094068353579853554 0.0044493107277115028 0 0.016177824671292428 0.0088459978661624122 0 0.016347554675725923 0.00907917525467428 0 0.016474517982124813 0.0088990057132406972 0 0.016177824671292428 0.0088459978661624122 0 0.016474517982124813 0.0088990057132406972 0 0.016429858718847369 0.0086501421485280644 0 0.019669456679707951 0.0082006778980686992 0 0.019900309398860887 0.0072213477595550225 0 0.022478943736794203 0.0066395384203232046 0 0.022830620481701817 0.0065682877677895133 0 0.022679274574069878 0.0070109304123748767 0 0.019669456679707951 0.0082006778980686992 0 0.01501595827279719 0.006809456633692844 0 0.022478943736794203 0.0066395384203232046 0 0.022830620481701817 0.0065682877677895133 0 0.022693702844462874 0.0063483153445907606 0 0.022478943736794203 0.0066395384203232046 0 0.022518281044859624 0.0062886766288174807 0 0.022693702844462874 0.0063483153445907606 0 0.022518281044859624 0.0062886766288174807 0 0.022693702844462874 0.0063483153445907606 0 0.022677302329966259 0.0060925850602454789 0 0.022954700856515464 0.0061673147580788663 0 0.022830620481701817 0.0065682877677895133 0 0.022693702844462874 0.0063483153445907606 0 0.022954700856515464 0.0061673147580788663 0 0.022693702844462874 0.0063483153445907606 0 0.022677302329966259 0.0060925850602454789 0 0.022954700856515464 0.0061673147580788663 0 0.022677302329966259 0.0060925850602454789 0 0.022841937468135502 0.0058193766169434905 0 0.022518281044859624 0.0062886766288174807 0 0.022677302329966259 0.0060925850602454789 0 0.022428036682557526 0.0060765141641663713 0 0.022428036682557526 0.0060765141641663713 0 0.022337056300524055 0.0063119881707501546 0 0.022270655973808517 0.006268572219391812 0 0.022518281044859624 0.0062886766288174807 0 0.022428036682557526 0.0060765141641663713 0 0.022337056300524055 0.0063119881707501546 0 0.022478943736794203 0.0066395384203232046 0 0.022337056300524055 0.0063119881707501546 0 0.0222678558581938 0.006267065865121494 0 0.022478943736794203 0.0066395384203232046 0 0.022518281044859624 0.0062886766288174807 0 0.022337056300524055 0.0063119881707501546 0 0.020527695212763424 0.0073251282013881546 0 0.019900309398860887 0.0072213477595550225 0 0.022428036682557526 0.0060765141641663713 0 0.022270655973808517 0.006268572219391812 0 0.022053253963266895 0.0059283293195649131 0 0.019900309398860887 0.0072213477595550225 0 0.020914064855286473 0.0068076523260195421 0 0.019900309398860887 0.0072213477595550225 0 0.01841627226507303 0.0082117362949561366 0 0.022414696429494996 0.0057418608372215565 0 0.022351713254909412 0.0052730925683868073 0 0.022053253963266895 0.0059283293195649131 0 0.022428036682557526 0.0060765141641663713 0 0.022414696429494996 0.0057418608372215565 0 0.022053253963266895 0.0059283293195649131 0 0.022428036682557526 0.0060765141641663713 0 0.022414696429494996 0.0057418608372215565 0 0.022579524787416573 0.0058491844199406798 0 0.022677302329966259 0.0060925850602454789 0 0.022428036682557526 0.0060765141641663713 0 0.022579524787416573 0.0058491844199406798 0 0.022677302329966259 0.0060925850602454789 0 0.022841937468135502 0.0058193766169434905 0 0.022579524787416573 0.0058491844199406798 0 0.022841937468135502 0.0058193766169434905 0 0.022579524787416573 0.0058491844199406798 0 0.022664708723299405 0.0055764592690553897 0 0.022414696429494996 0.0057418608372215565 0 0.022579524787416573 0.0058491844199406798 0 0.022664708723299405 0.0055764592690553897 0 0.022979564430558395 0.0054971234575684974 0 0.022841937468135502 0.0058193766169434905 0 0.022664708723299405 0.0055764592690553897 0 0.022979564430558395 0.0054971234575684974 0 0.022664708723299405 0.0055764592690553897 0 0.022804536052255631 0.0052409844856537401 0 0.022664708723299405 0.0055764592690553897 0 0.022804536052255631 0.0052409844856537401 0 0.022351713254909412 0.0052730925683868073 0 0.023085647762671049 0.0050804078428148061 0 0.022979564430558395 0.0054971234575684974 0 0.022804536052255631 0.0052409844856537401 0 0.022720829365773278 0.0055709199253580477 0 0.020914064855286473 0.0068076523260195421 0 0.022414696429494996 0.0057418608372215565 0 0.022664708723299405 0.0055764592690553897 0 0.022351713254909412 0.0052730925683868073 0 0.02192329280268495 0.0057864199605545032 0 0.021916555823417016 0.0062227640565662356 0 0.021687012020497921 0.0063989682058876703 0 0.022743060547246813 0.0060434661926432121 0 0.021916555823417016 0.0062227640565662356 0 0.022229137410094774 0.0072701999343629904 0 0.021916555823417016 0.0062227640565662356 0 0.021687012020497921 0.0063989682058876703 0 0.022229137410094774 0.0072701999343629904 0 0.02391372419460262 0.010024906100771237 0 0.023602722431022412 0.0096509189456775429 0 0.023995540767751157 0.0096729412876257331 0 0.023602722431022412 0.0096509189456775429 0 0.023995540767751157 0.0096729412876257331 0 0.023692945488914614 0.0090718101580200793 0 0.024054727401512113 0.010367799915419931 0 0.02228768541282191 0.0084016768800423344 0 0.02391372419460262 0.010024906100771237 0 0.024174033538334309 0.010144131786364776 0 0.023995540767751157 0.0096729412876257331 0 0.019789278557811801 0.0086972394346851688 0 0.021759685642194868 0.010096941435145152 0 0.017006504211875106 0.0093727851816898938 0 0.016764573676703004 0.0093865381245822957 0 0.017242001770094332 0.0096594685748762101 0 0.02228768541282191 0.0084016768800423344 0 0.019789278557811801 0.0086972394346851688 0 0.023995540767751157 0.0096729412876257331 0 0.023692945488914614 0.0090718101580200793 0 0.024468863766261641 0.0095335355720822818 0 0.017006504211875106 0.0093727851816898938 0 0.016764573676703004 0.0093865381245822957 0 0.016780881520946329 0.0092835095061374103 0 0.016770577857410738 0.0093692594737504742 0 0.016780881520946329 0.0092835095061374103 0 0.016670219037230496 0.0091929770662504823 0 0.019789278557811801 0.0086972394346851688 0 0.019071078987194453 0.0092710785355168673 0 0.019789278557811801 0.0086972394346851688 0 0.01841627226507303 0.0082117362949561366 0 0.020744777790631126 0.007888051439506074 0 0.020048818589018746 0.0078330500873227092 0 0.020151899433056192 0.007545100822487061 0 0.02228768541282191 0.0084016768800423344 0 0.020914064855286473 0.0068076523260195421 0 0.020612893264841108 0.0086205927574921591 0 0.020744777790631126 0.007888051439506074 0 0.020048818589018746 0.0078330500873227092 0 0.020914064855286473 0.0068076523260195421 0 0.01841627226507303 0.0082117362949561366 0 0.024495005916817494 0.010395612869430896 0 0.024441451355131073 0.010307068790877522 0 0.024616505250522391 0.010461285132907314 0 0.020972797477401255 0.010215360542861851 0 0.021027174193703039 0.01019399467245523 0 0.021078772057426136 0.010244502817770892 0 0.021759685642194868 0.010096941435145152 0 0.023030376335697593 0.010415811565822605 0 0.024174033538334309 0.010144131786364776 0 0.023995540767751157 0.0096729412876257331 0 0.024468863766261641 0.0095335355720822818 0 0.017006504211875106 0.0093727851816898938 0 0.017242001770094332 0.0096594685748762101 0 0.017192704172674298 0.0092132357961671359 0 0.020972797477401255 0.010215360542861851 0 0.021027174193703039 0.01019399467245523 0 0.020946676758008074 0.010140720455964125 0 0.021759685642194868 0.010096941435145152 0 0.01893713629998435 0.00971923393550711 0 0.021027174193703039 0.01019399467245523 0 0.02103567001535929 0.010157252203227463 0 0.020946676758008074 0.010140720455964125 0 0.020986945991889511 0.01010917985654093 0 0.02103567001535929 0.010157252203227463 0 0.020946676758008074 0.010140720455964125 0 0.020986945991889511 0.01010917985654093 0 0.02103567001535929 0.010157252203227463 0 0.021040430940851469 0.010089197034907064 0 0.017192704172674298 0.0092132357961671359 0 0.017018656402546059 0.0090146621445403134 0 0.01713344228072056 0.0088309198300930598 0 0.01893713629998435 0.00971923393550711 0 0.018209859574393261 0.0091055951524725443 0 0.020986945991889511 0.01010917985654093 0 0.020946676758008074 0.010140720455964125 0 0.020919471110945203 0.010043285614523252 0 0.017006504211875106 0.0093727851816898938 0 0.017192704172674298 0.0092132357961671359 0 0.016938282728738527 0.0091880723497586927 0 0.017192704172674298 0.0092132357961671359 0 0.017018656402546059 0.0090146621445403134 0 0.016938282728738527 0.0091880723497586927 0 0.017018656402546059 0.0090146621445403134 0 0.016982272028421109 0.0088122025259240473 0 0.01713344228072056 0.0088309198300930598 0 0.017119768481339632 0.0088651542154037713 0 0.018209859574393261 0.0091055951524725443 0 0.018209859574393261 0.0091055951524725443 0 0.019422168228051449 0.0098934866640376078 0 0.016874270851554449 0.0093734954429808941 0 0.017134678043108205 0.0091998471968273276 0 0.017482817531422907 0.0095237702142465623 0 0.020986945991889511 0.01010917985654093 0 0.020919471110945203 0.010043285614523252 0 0.021040430940851469 0.010089197034907064 0 0.016573011469510759 0.0090701684314595001 0 0.016687533312883421 0.0090800293684685212 0 0.016670219037230496 0.0091929770662504823 0 0.016573011469510759 0.0090701684314595001 0 0.016687533312883421 0.0090800293684685212 0 0.016660202015445002 0.008961494329460756 0 0.016347554675725923 0.00907917525467428 0 0.016573011469510759 0.0090701684314595001 0 0.016474517982124813 0.0088990057132406972 0 0.017241154166505852 0.0093563139882562561 0 0.01841627226507303 0.0082117362949561366 0 0.019904086137613304 0.0072330958220012944 0 0.020031699244108501 0.0074111189584929365 0 0.020061314880496797 0.007325451021748028 0 0.016347554675725923 0.00907917525467428 0 0.016573011469510759 0.0090701684314595001 0 0.016534912517197548 0.0091876253054954983 0 0.016573011469510759 0.0090701684314595001 0 0.016523703793909772 0.0092200407106068968 0 0.016670219037230496 0.0091929770662504823 0 0.016770577857410738 0.0093692594737504742 0 0.016523703793909772 0.0092200407106068968 0 0.016670219037230496 0.0091929770662504823 0 0.016780881520946329 0.0092835095061374103 0 0.016670219037230496 0.0091929770662504823 0 0.016782400134732412 0.0091578342594220707 0 0.016780881520946329 0.0092835095061374103 0 0.016782400134732412 0.0091578342594220707 0 0.016938282728738527 0.0091880723497586927 0 0.016687533312883421 0.0090800293684685212 0 0.016670219037230496 0.0091929770662504823 0 0.016782400134732412 0.0091578342594220707 0 0.017006504211875106 0.0093727851816898938 0 0.016780881520946329 0.0092835095061374103 0 0.016938282728738527 0.0091880723497586927 0 0.017018656402546059 0.0090146621445403134 0 0.016938282728738527 0.0091880723497586927 0 0.016849015112336611 0.0090079206046387219 0 0.016782400134732412 0.0091578342594220707 0 0.016938282728738527 0.0091880723497586927 0 0.016849015112336611 0.0090079206046387219 0 0.016687533312883421 0.0090800293684685212 0 0.016849015112336611 0.0090079206046387219 0 0.016660202015445002 0.008961494329460756 0 0.016687533312883421 0.0090800293684685212 0 0.016782400134732412 0.0091578342594220707 0 0.016849015112336611 0.0090079206046387219 0 0.016844872933455272 0.0089871757830586388 0 0.016864296755486324 0.0087008352046336786 0 0.016849015112336611 0.0090079206046387219 0 0.01665418279873139 0.0088027038007470523 0 0.016850204287371346 0.0086793576351419151 0 0.016982272028421109 0.0088122025259240473 0 0.016849015112336611 0.0090079206046387219 0 0.01690051603291778 0.0087277714794878562 0 0.016849015112336611 0.0090079206046387219 0 0.01665418279873139 0.0088027038007470523 0 0.016660202015445002 0.008961494329460756 0 0.017018656402546059 0.0090146621445403134 0 0.016982272028421109 0.0088122025259240473 0 0.016849015112336611 0.0090079206046387219 0 0.01665418279873139 0.0088027038007470523 0 0.016474517982124813 0.0088990057132406972 0 0.016429858718847369 0.0086501421485280644 0 0.016573011469510759 0.0090701684314595001 0 0.016660202015445002 0.008961494329460756 0 0.016474517982124813 0.0088990057132406972 0 0.01665418279873139 0.0088027038007470523 0 0.016660202015445002 0.008961494329460756 0 0.016474517982124813 0.0088990057132406972 0 0.016429858718847369 0.0086501421485280644 0 0.016573348556543088 0.0085098214087797261 0 0.016322366448903811 0.0084437452099355628 0 0.016429858718847369 0.0086501421485280644 0 0.016573348556543088 0.0085098214087797261 0 0.016664026850736015 0.0086390411569578218 0 0.01665418279873139 0.0088027038007470523 0 0.016429858718847369 0.0086501421485280644 0 0.016664026850736015 0.0086390411569578218 0 0.01665418279873139 0.0088027038007470523 0 0.016664026850736015 0.0086390411569578218 0 0.016850204287371346 0.0086793576351419151 0 0.016864296755486324 0.0087008352046336786 0 0.016997113604479426 0.008549385201823417 0 0.016850204287371346 0.0086793576351419151 0 0.016738319853759297 0.0085062144863963657 0 0.016858474748559407 0.008389579377861979 0 0.016573348556543088 0.0085098214087797261 0 0.016664026850736015 0.0086390411569578218 0 0.016738319853759297 0.0085062144863963657 0 0.016664026850736015 0.0086390411569578218 0 0.016850204287371346 0.0086793576351419151 0 0.016738319853759297 0.0085062144863963657 0 0.016738319853759297 0.0085062144863963657 0 0.016858474748559407 0.008389579377861979 0 0.016623576049836476 0.0082809606918622936 0 0.016573348556543088 0.0085098214087797261 0 0.016738319853759297 0.0085062144863963657 0 0.016623576049836476 0.0082809606918622936 0 0.013699901873584918 0.0073057608987360445 0 0.012771152342704768 0.0078196315244704433 0 0.016573348556543088 0.0085098214087797261 0 0.016623576049836476 0.0082809606918622936 0 0.016322366448903811 0.0084437452099355628 0 0.017303872227237498 0.0089965577411515191 0 0.016883665838713216 0.0089121812374417762 0 0.017182526131328278 0.0086879863031398691 0 0.017134678043108205 0.0091998471968273276 0 0.017303872227237498 0.0089965577411515191 0 0.016883665838713216 0.0089121812374417762 0 0.017134678043108205 0.0091998471968273276 0 0.017303872227237498 0.0089965577411515191 0 0.017482817531422907 0.0095237702142465623 0 0.01690051603291778 0.0087277714794878562 0 0.016984480245473346 0.0086535093732589968 0 0.016858129152718976 0.0085562282694034535 0 0.018209859574393261 0.0091055951524725443 0 0.016908441883719975 0.0087856333101613907 0 0.016982272028421109 0.0088122025259240473 0 0.01703836938479051 0.0088226523298904867 0 0.016984480245473346 0.0086535093732589968 0 0.016982272028421109 0.0088122025259240473 0 0.01690051603291778 0.0087277714794878562 0 0.016984480245473346 0.0086535093732589968 0 0.016874270851554449 0.0093734954429808941 0 0.017134678043108205 0.0091998471968273276 0 0.016883665838713216 0.0089121812374417762 0 0.016883665838713216 0.0089121812374417762 0 0.017182526131328278 0.0086879863031398691 0 0.016929413059674502 0.0084618486271478711 0 0.016984480245473346 0.0086535093732589968 0 0.016858129152718976 0.0085562282694034535 0 0.016929413059674502 0.0084618486271478711 0 0.016908441883719975 0.0087856333101613907 0 0.016933280375654211 0.0085009223576959572 0 0.017182526131328278 0.0086879863031398691 0 0.016929413059674502 0.0084618486271478711 0 0.017375251228716734 0.0083999133978113621 0 0.017303872227237498 0.0089965577411515191 0 0.017182526131328278 0.0086879863031398691 0 0.017583107844967073 0.008695755534787894 0 0.013272082211868002 0.0071195548679347615 0 0.014908124776152909 0.0078461261185261144 0 0.016898667531260552 0.0081889072094058352 0 0.016929413059674502 0.0084618486271478711 0 0.017375251228716734 0.0083999133978113621 0 0.011882132690637552 0.0066258810252732047 0 0.011196109415197063 0.0066343485844446064 0 0.012065759371832777 0.0071203449119033538 0 0.016858129152718976 0.0085562282694034535 0 0.016929413059674502 0.0084618486271478711 0 0.016820894309020704 0.0082515215397412165 0 0.016997113604479426 0.008549385201823417 0 0.014197657612656796 0.0073480856532085704 0 0.016898667531260552 0.0081889072094058352 0 0.016929413059674502 0.0084618486271478711 0 0.016820894309020704 0.0082515215397412165 0 0.013272082211868002 0.0071195548679347615 0 0.014197657612656796 0.0073480856532085704 0 0.013113002563307699 0.0073388945308712379 0 0.013490855333180941 0.0071232697144057548 0 0.013409987266146717 0.0074978355861971008 0 0.014197657612656796 0.0073480856532085704 0 0.01227635683372688 0.0064328231985160316 0 0.011196403390473434 0.0061826511945321802 0 0.011222772212377408 0.0060569110570885152 0 0.010915635808957391 0.0060599743735202808 0 0.01108140741757418 0.0061368894216148624 0 0.010915900560647713 0.0058458246265494663 0 0.011169015184152224 0.005743637483405898 0 0.011045278196953759 0.0065107558467037904 0 0.011265924110403046 0.0062556990956277453 0 0.011158292345425017 0.0059280182723964441 0 0.01227635683372688 0.0064328231985160316 0 0.011207341951384165 0.0058543419327992717 0 0.011265924110403046 0.0062556990956277453 0 0.011571865764646886 0.0060210222855460512 0 0.011158292345425017 0.0059280182723964441 0 0.011183341791384954 0.0065852398864923532 0 0.011045278196953759 0.0065107558467037904 0 0.011265924110403046 0.0062556990956277453 0 0.013272082211868002 0.0071195548679347615 0 0.01227635683372688 0.0064328231985160316 0 0.013272082211868002 0.0071195548679347615 0 0.011233878404669611 0.0062739218070086613 0 0.011265924110403046 0.0062556990956277453 0 0.011571865764646886 0.0060210222855460512 0 0.011951980642891434 0.006159323337097497 0 0.011882132690637552 0.0066258810252732047 0 0.011196109415197063 0.0066343485844446064 0 0.011951980642891434 0.006159323337097497 0 0.011183341791384954 0.0065852398864923532 0 0.011265924110403046 0.0062556990956277453 0 0.011951980642891434 0.006159323337097497 0 0.010263922018260083 0.0061721896706716439 0 0.010627604262757788 0.0064711804518795754 0 0.010123431615678866 0.0067227002397113149 0 0.010601532015207173 0.0061643434613244232 0 0.010263922018260083 0.0061721896706716439 0 0.010627604262757788 0.0064711804518795754 0 0.010601532015207173 0.0061643434613244232 0 0.010627604262757788 0.0064711804518795754 0 0.010915635808957391 0.0060599743735202808 0 0.014197657612656796 0.0073480856532085704 0 0.013699901873584918 0.0073057608987360445 0 0.011196403390473434 0.0061826511945321802 0 0.010627604262757788 0.0064711804518795754 0 0.010915635808957391 0.0060599743735202808 0 0.016858474748559407 0.008389579377861979 0 0.016879953700563659 0.0081222269132984765 0 0.016623576049836476 0.0082809606918622936 0 0.01108140741757418 0.0061368894216148624 0 0.010915900560647713 0.0058458246265494663 0 0.010632474288514477 0.0058741367903048566 0 0.011222772212377408 0.0060569110570885152 0 0.010915635808957391 0.0060599743735202808 0 0.010743220489018745 0.0058187702441757482 0 0.01227635683372688 0.0064328231985160316 0 0.010481219522108004 0.0057479254668011499 0 0.010601532015207173 0.0061643434613244232 0 0.010915635808957391 0.0060599743735202808 0 0.010743220489018745 0.0058187702441757482 0 0.010915900560647713 0.0058458246265494663 0 0.010632474288514477 0.0058741367903048566 0 0.010859775575819065 0.0056299306192345517 0 0.010743220489018745 0.0058187702441757482 0 0.010430070373105175 0.0059283287826403146 0 0.01025810869765922 0.0056234254376511259 0 0.010601532015207173 0.0061643434613244232 0 0.010743220489018745 0.0058187702441757482 0 0.010430070373105175 0.0059283287826403146 0 0.010601532015207173 0.0061643434613244232 0 0.010263922018260083 0.0061721896706716439 0 0.010430070373105175 0.0059283287826403146 0 0.010263922018260083 0.0061721896706716439 0 0.010430070373105175 0.0059283287826403146 0 0.010196882861077398 0.0058646347014630722 0 0.010430070373105175 0.0059283287826403146 0 0.010196882861077398 0.0058646347014630722 0 0.01025810869765922 0.0056234254376511259 0 0.010196882861077398 0.0058646347014630722 0 0.0098798479603721297 0.0059494405323688923 0 0.0099869233447961395 0.0057054093512582853 0 0.010263922018260083 0.0061721896706716439 0 0.010196882861077398 0.0058646347014630722 0 0.0098798479603721297 0.0059494405323688923 0 0.010263922018260083 0.0061721896706716439 0 0.0098825358791833906 0.0063097386644202641 0 0.010123431615678866 0.0067227002397113149 0 0.010263922018260083 0.0061721896706716439 0 0.0098798479603721297 0.0059494405323688923 0 0.0098825358791833906 0.0063097386644202641 0 0.0098798479603721297 0.0059494405323688923 0 0.0098825358791833906 0.0063097386644202641 0 0.0094269336230067662 0.0061254602044563842 0 0.0098825358791833906 0.0063097386644202641 0 0.0094269336230067662 0.0061254602044563842 0 0.0097665558161777796 0.0066473511832577529 0 0.0098798479603721297 0.0059494405323688923 0 0.0099869233447961395 0.0057054093512582853 0 0.0094394731661810709 0.0056130258306239097 0 0.0098798479603721297 0.0059494405323688923 0 0.0094269336230067662 0.0061254602044563842 0 0.0094394731661810709 0.0056130258306239097 0 0.0085415988675199422 0.0035544011911654615 0 0.0084882996155486983 0.0034173989129600087 0 0.008356813587477769 0.0038616763899910777 0 0.0094763990399697809 0.0044713719947774289 0 0.0030030547573120705 0.0062119219247645735 0 0.0085415988675199422 0.0035544011911654615 0 0.008356813587477769 0.0038616763899910777 0 0.0086744569138540693 0.0037715412146064119 0 0.0085415988675199422 0.0035544011911654615 0 0.008800802098938746 0.0035426871895536814 0 0.0089225771863013451 0.0036415972142409781 0 0.0099037396408523694 0.0045552814280075196 0 0.0018903634309664415 0.0041561447989471754 0 0.0085415988675199422 0.0035544011911654615 0 0.0084882996155486983 0.0034173989129600087 0 0.0087090969916093566 0.00343149385300288 0 0.0085415988675199422 0.0035544011911654615 0 0.008800802098938746 0.0035426871895536814 0 0.0087090969916093566 0.00343149385300288 0 0.008800802098938746 0.0035426871895536814 0 0.008995655359981999 0.0035486445912337951 0 0.0089225771863013451 0.0036415972142409781 0 0.008800802098938746 0.0035426871895536814 0 0.008995655359981999 0.0035486445912337951 0 0.0087090969916093566 0.00343149385300288 0 0.008995655359981999 0.0035486445912337951 0 0.0087685005577093043 0.0032777185640510548 0 0.0087090969916093566 0.00343149385300288 0 0.0090595802381459884 0.0035914896718773097 0 0.0090411243086768907 0.0034253981056811072 0 0.008995655359981999 0.0035486445912337951 0 0.0091446795699449759 0.0037451670643025695 0 0.0094398681517067068 0.0037833338302964725 0 0.0091446795699449759 0.0037451670643025695 0 0.0094398681517067068 0.0037833338302964725 0 0.0093231109089559755 0.0039984899037996324 0 0.009027029104462729 0.0038349290286354043 0 0.0091446795699449759 0.0037451670643025695 0 0.0093231109089559755 0.0039984899037996324 0 0.0087685005577093043 0.0032777185640510548 0 0.0084882996155486983 0.0034173989129600087 0 0.0085667749965187105 0.0030043611882801355 0 0.0094763990399697809 0.0044713719947774289 0 0.0091039920941725673 0.0044464854185759612 0 0.0087685005577093043 0.0032777185640510548 0 0.0084882996155486983 0.0034173989129600087 0 0.0087090969916093566 0.00343149385300288 0 0.0090411243086768907 0.0034253981056811072 0 0.0091039920941725673 0.0044464854185759612 0 0.0097624726927905657 0.0041257273667050127 0 0.0095050612405102614 0.0042447091029703451 0 0.0097705346353388692 0.0044304702362681194 0 0.0094398681517067068 0.0037833338302964725 0 0.0097624726927905657 0.0041257273667050127 0 0.0093231109089559755 0.0039984899037996324 0 0.0097624726927905657 0.0041257273667050127 0 0.0093231109089559755 0.0039984899037996324 0 0.0095050612405102614 0.0042447091029703451 0 0.0091066431373643918 0.004075642821593459 0 0.0093231109089559755 0.0039984899037996324 0 0.0092777680356461688 0.0042207700371793989 0 0.0093231109089559755 0.0039984899037996324 0 0.0095050612405102614 0.0042447091029703451 0 0.0092777680356461688 0.0042207700371793989 0 0.0094910346871139532 0.0047367745527643335 0 0.0094068353579853554 0.0044493107277115028 0 0.0097705346353388692 0.0044304702362681194 0 0.0095050612405102614 0.0042447091029703451 0 0.0094068353579853554 0.0044493107277115028 0 0.0097705346353388692 0.0044304702362681194 0 0.0090670721940421979 0.0043278300624275618 0 0.0092777680356461688 0.0042207700371793989 0 0.0094068353579853554 0.0044493107277115028 0 0.0095050612405102614 0.0042447091029703451 0 0.0092777680356461688 0.0042207700371793989 0 0.0094068353579853554 0.0044493107277115028 0 0.0094910346871139532 0.0047367745527643335 0 0.0097705346353388692 0.0044304702362681194 0 0.010061607031543617 0.0044735916748688005 0 0.016728878033162239 0.0057524011216489746 0 0.01501595827279719 0.006809456633692844 0 0.0091039920941725673 0.0044464854185759612 0 0.0096759488711361686 0.0042716767129383978 0 0.0091039920941725673 0.0044464854185759612 0 0.01501595827279719 0.006809456633692844 0 0.0098118014652262206 0.004127385144859907 0 0.0097705346353388692 0.0044304702362681194 0 0.010061607031543617 0.0044735916748688005 0 0.01501595827279719 0.006809456633692844 0 0.012771152342704768 0.0078196315244704433 0 0.016429858718847369 0.0086501421485280644 0 0.016009480729544081 0.0086141856375639304 0 0.016322366448903811 0.0084437452099355628 0 0.016177824671292428 0.0088459978661624122 0 0.016429858718847369 0.0086501421485280644 0 0.016009480729544081 0.0086141856375639304 0 0.0098825358791833906 0.0063097386644202641 0 0.010123431615678866 0.0067227002397113149 0 0.0097665558161777796 0.0066473511832577529 0 0.0094269336230067662 0.0061254602044563842 0 0.0094067819949112726 0.0066376621047095396 0 0.0097665558161777796 0.0066473511832577529 0 0.0094067819949112726 0.0066376621047095396 0 0.0096687305716647871 0.0069733540271577918 0 0.0097665558161777796 0.0066473511832577529 0 0.0096687305716647871 0.0069733540271577918 0 0.010123431615678866 0.0067227002397113149 0 0.0097665558161777796 0.0066473511832577529 0 0.019784983737373574 0.0086750565489341052 0 0.019208035931832564 0.0085144072818558059 0 0.019327097593709455 0.0080595896659067263 0 0.019784983737373574 0.0086750565489341052 0 0.019208035931832564 0.0085144072818558059 0 0.019242389322084216 0.0089082027142032057 0 0.019208035931832564 0.0085144072818558059 0 0.019242389322084216 0.0089082027142032057 0 0.018876871063424071 0.0087518525188233186 0 0.019242389322084216 0.0089082027142032057 0 0.018881300761557387 0.0091950531291104774 0 0.019561320242458539 0.00938616540143755 0 0.019784983737373574 0.0086750565489341052 0 0.020207018974163281 0.0093337381536538529 0 0.019561320242458539 0.00938616540143755 0 0.019784983737373574 0.0086750565489341052 0 0.019242389322084216 0.0089082027142032057 0 0.019561320242458539 0.00938616540143755 0 0.016057719623121261 0.0082238284478184064 0 0.017788429603471191 0.0092755857027455486 0 0.017783593916099155 0.0085055464069921111 0 0.018234799134343168 0.008487833148295652 0 0.018942440587053303 0.0091968289868481403 0 0.017788429603471191 0.0092755857027455486 0 0.019253478016071791 0.0090321485355506943 0 0.017783593916099155 0.0085055464069921111 0 0.019253478016071791 0.0090321485355506943 0 0.017783593916099155 0.0085055464069921111 0 0.01868214050269287 0.0082364983195653534 0 0.017783593916099155 0.0085055464069921111 0 0.017037284571683988 0.0077899664308967971 0 0.01868214050269287 0.0082364983195653534 0 0.016057719623121261 0.0082238284478184064 0 0.017783593916099155 0.0085055464069921111 0 0.017037284571683988 0.0077899664308967971 0 0.016057719623121261 0.0082238284478184064 0 0.017037284571683988 0.0077899664308967971 0 0.015960591146108868 0.0075429034490642997 0 0.017037284571683988 0.0077899664308967971 0 0.015641654541927699 0.006960760531556854 0 0.015960591146108868 0.0075429034490642997 0 0.017037284571683988 0.0077899664308967971 0 0.017824623341850775 0.0072583290642059123 0 0.01868214050269287 0.0082364983195653534 0 0.017037284571683988 0.0077899664308967971 0 0.017824623341850775 0.0072583290642059123 0 0.015641654541927699 0.006960760531556854 0 0.017824623341850775 0.0072583290642059123 0 0.015641654541927699 0.006960760531556854 0 0.016682758711923366 0.0057093240564241726 0 0.015641654541927699 0.006960760531556854 0 0.013712230185742301 0.0061390547415048902 0 0.014699664546009315 0.0050622213570749456 0 0.013712230185742301 0.0061390547415048902 0 0.012075257414983311 0.0082666654259466212 0 0.012200271267707834 0.0066091502676260275 0 0.015641654541927699 0.006960760531556854 0 0.013712230185742301 0.0061390547415048902 0 0.012075257414983311 0.0082666654259466212 0 0.014997021941738452 0.0070431492279365788 0 0.015243026813336998 0.0080304126906472033 0 0.018234799134343168 0.008487833148295652 0 0.015243026813336998 0.0080304126906472033 0 0.015641654541927699 0.006960760531556854 0 0.015960591146108868 0.0075429034490642997 0 0.015440382977967322 0.0074032712843609344 0 0.016057719623121261 0.0082238284478184064 0 0.015960591146108868 0.0075429034490642997 0 0.015440382977967322 0.0074032712843609344 0 0.019208035931832564 0.0085144072818558059 0 0.019327097593709455 0.0080595896659067263 0 0.018842662924414819 0.008259767692331348 0 0.015243026813336998 0.0080304126906472033 0 0.014624651696565608 0.0083948139432767546 0 0.011980283479089984 0.0079769668931612085 0 0.011103065755524971 0.0077468665492585525 0 0.010548927853609866 0.0084483275073115836 0 0.015243026813336998 0.0080304126906472033 0 0.013633988867321034 0.0071525434482787925 0 0.011980283479089984 0.0079769668931612085 0 0.011103065755524971 0.0077468665492585525 0 0.011685417225974836 0.0075978346529902924 0 0.011103065755524971 0.0077468665492585525 0 0.011685417225974836 0.0075978346529902924 0 0.011327091129589835 0.0068606201597035546 0 0.011685417225974836 0.0075978346529902924 0 0.012200271267707834 0.0066091502676260275 0 0.011327091129589835 0.0068606201597035546 0 0.012075257414983311 0.0082666654259466212 0 0.011685417225974836 0.0075978346529902924 0 0.012200271267707834 0.0066091502676260275 0 0.012200271267707834 0.0066091502676260275 0 0.011327091129589835 0.0068606201597035546 0 0.011724950847260282 0.0058638442327726857 0 0.011327091129589835 0.0068606201597035546 0 0.010963873836237845 0.0060492159149040121 0 0.011724950847260282 0.0058638442327726857 0 0.010501139389364166 0.0072042778389070743 0 0.0097860346331824118 0.0062888744360515524 0 0.010963873836237845 0.0060492159149040121 0 0.011327091129589835 0.0068606201597035546 0 0.010501139389364166 0.0072042778389070743 0 0.010963873836237845 0.0060492159149040121 0 0.011103065755524971 0.0077468665492585525 0 0.011327091129589835 0.0068606201597035546 0 0.010501139389364166 0.0072042778389070743 0 0.010501139389364166 0.0072042778389070743 0 0.0097860346331824118 0.0062888744360515524 0 0.0093727231782090598 0.0074483724187418788 0 0.0097860346331824118 0.0062888744360515524 0 0.0087040992468502675 0.0062059538004474611 0 0.0093727231782090598 0.0074483724187418788 0 0.0087040992468502675 0.0062059538004474611 0 0.0093727231782090598 0.0074483724187418788 0 0.0077597087331814094 0.0073101012919108707 0 0.0093727231782090598 0.0074483724187418788 0 0.0077597087331814094 0.0073101012919108707 0 0.0091133357066608568 0.0089762621188816099 0 0.0099639238685475043 0.0068202218431526315 0 0.014363822075215103 0.0079131267499450413 0 0.0093727231782090598 0.0074483724187418788 0 0.010548927853609866 0.0084483275073115836 0 0.0091133357066608568 0.0089762621188816099 0 0.014624651696565608 0.0083948139432767546 0 0.014363822075215103 0.0079131267499450413 0 0.011103065755524971 0.0077468665492585525 0 0.010501139389364166 0.0072042778389070743 0 0.010548927853609866 0.0084483275073115836 0 0.010501139389364166 0.0072042778389070743 0 0.0093727231782090598 0.0074483724187418788 0 0.010548927853609866 0.0084483275073115836 0 0.011951980642891434 0.006159323337097497 0 0.012326079588067996 0.006587740287590356 0 0.012324174608285552 0.0058150950998155596 0 0.012326079588067996 0.006587740287590356 0 0.012999257584006092 0.006571374193434374 0 0.012324174608285552 0.0058150950998155596 0 0.011882132690637552 0.0066258810252732047 0 0.011951980642891434 0.006159323337097497 0 0.012326079588067996 0.006587740287590356 0 0.0087040992468502675 0.0062059538004474611 0 0.0077597087331814094 0.0073101012919108707 0 0.007683197321584693 0.0058917464432962571 0 0.0077597087331814094 0.0073101012919108707 0 0.0065126182855891283 0.0056770001805709902 0 0.007683197321584693 0.0058917464432962571 0 0.0099639238685475043 0.0068202218431526315 0 0.0094892379975232647 0.0057776958205256008 0 0.012326079588067996 0.006587740287590356 0 0.012999257584006092 0.006571374193434374 0 0.012840877778007001 0.0071491617395582257 0 0.012999257584006092 0.006571374193434374 0 0.012840877778007001 0.0071491617395582257 0 0.013673972644650428 0.0073489264482204577 0 0.012326079588067996 0.006587740287590356 0 0.012840877778007001 0.0071491617395582257 0 0.012065759371832777 0.0071203449119033538 0 0.011882132690637552 0.0066258810252732047 0 0.012326079588067996 0.006587740287590356 0 0.012065759371832777 0.0071203449119033538 0 0.012840877778007001 0.0071491617395582257 0 0.012065759371832777 0.0071203449119033538 0 0.01301358219145405 0.0076122832651786343 0 0.017375251228716734 0.0083999133978113621 0 0.017583107844967073 0.008695755534787894 0 0.017961003176121749 0.0086629292315619742 0 0.017182526131328278 0.0086879863031398691 0 0.017375251228716734 0.0083999133978113621 0 0.017583107844967073 0.008695755534787894 0 0.014908124776152909 0.0078461261185261144 0 0.015333641244782851 0.008024447548794016 0 0.017583107844967073 0.008695755534787894 0 0.017783336138388714 0.0087890640103525618 0 0.017677268954752884 0.0090247238087897488 0 0.018049283517649155 0.0087068083420054725 0 0.017961003176121749 0.0086629292315619742 0 0.018373627196911053 0.0084834652733615876 0 0.012840877778007001 0.0071491617395582257 0 0.01301358219145405 0.0076122832651786343 0 0.013673972644650428 0.0073489264482204577 0 0.017583107844967073 0.008695755534787894 0 0.017783336138388714 0.0087890640103525618 0 0.017961003176121749 0.0086629292315619742 0 0.017783336138388714 0.0087890640103525618 0 0.017906316301440066 0.0087841501230672674 0 0.017882791130867253 0.0089221676877621961 0 0.017906316301440066 0.0087841501230672674 0 0.017989870527604382 0.0088136953015464491 0 0.017882791130867253 0.0089221676877621961 0 0.017783336138388714 0.0087890640103525618 0 0.017906316301440066 0.0087841501230672674 0 0.017961003176121749 0.0086629292315619742 0 0.017906316301440066 0.0087841501230672674 0 0.017961003176121749 0.0086629292315619742 0 0.017966429132973683 0.0087434879724361536 0 0.018049283517649155 0.0087068083420054725 0 0.017961003176121749 0.0086629292315619742 0 0.017966429132973683 0.0087434879724361536 0 0.018049283517649155 0.0087068083420054725 0 0.017966429132973683 0.0087434879724361536 0 0.017989870527604382 0.0088136953015464491 0 0.017906316301440066 0.0087841501230672674 0 0.017966429132973683 0.0087434879724361536 0 0.017989870527604382 0.0088136953015464491 0 0.018049283517649155 0.0087068083420054725 0 0.017989870527604382 0.0088136953015464491 0 0.018115303593438513 0.0088133185733152205 0 0.018066279524023631 0.0089989869351083471 0 0.017994075290038252 0.0092406559303051059 0 0.017882791130867253 0.0089221676877621961 0 0.017989870527604382 0.0088136953015464491 0 0.018115303593438513 0.0088133185733152205 0 0.018066279524023631 0.0089989869351083471 0 0.017989870527604382 0.0088136953015464491 0 0.018066279524023631 0.0089989869351083471 0 0.017882791130867253 0.0089221676877621961 0 0.018066279524023631 0.0089989869351083471 0 0.017994075290038252 0.0092406559303051059 0 0.018374655971346365 0.0092390624773670323 0 0.017994075290038252 0.0092406559303051059 0 0.017882791130867253 0.0089221676877621961 0 0.017677268954752884 0.0090247238087897488 0 0.017783336138388714 0.0087890640103525618 0 0.017882791130867253 0.0089221676877621961 0 0.017677268954752884 0.0090247238087897488 0 0.017303872227237498 0.0089965577411515191 0 0.017677268954752884 0.0090247238087897488 0 0.017482817531422907 0.0095237702142465623 0 0.017303872227237498 0.0089965577411515191 0 0.017583107844967073 0.008695755534787894 0 0.017677268954752884 0.0090247238087897488 0 0.018842662924414819 0.008259767692331348 0 0.018876871063424071 0.0087518525188233186 0 0.018554914509829511 0.008678032965812368 0 0.019208035931832564 0.0085144072818558059 0 0.018842662924414819 0.008259767692331348 0 0.018876871063424071 0.0087518525188233186 0 0.018842662924414819 0.008259767692331348 0 0.018342248922212062 0.0084517406664218839 0 0.018554914509829511 0.008678032965812368 0 0.018876871063424071 0.0087518525188233186 0 0.018554914509829511 0.008678032965812368 0 0.018540568153647422 0.0089355104152330483 0 0.018373627196911053 0.0084834652733615876 0 0.01831946545689337 0.0087114539326909584 0 0.018554914509829511 0.008678032965812368 0 0.015333641244782851 0.008024447548794016 0 0.014363822075215103 0.0079131267499450413 0 0.014363822075215103 0.0079131267499450413 0 0.017788777154819101 0.0095222961337646309 0 0.018049283517649155 0.0087068083420054725 0 0.018373627196911053 0.0084834652733615876 0 0.01831946545689337 0.0087114539326909584 0 0.018115303593438513 0.0088133185733152205 0 0.01831946545689337 0.0087114539326909584 0 0.018286732916348657 0.0089505747854693989 0 0.018049283517649155 0.0087068083420054725 0 0.018115303593438513 0.0088133185733152205 0 0.01831946545689337 0.0087114539326909584 0 0.01831946545689337 0.0087114539326909584 0 0.018554914509829511 0.008678032965812368 0 0.018540568153647422 0.0089355104152330483 0 0.01831946545689337 0.0087114539326909584 0 0.018540568153647422 0.0089355104152330483 0 0.018286732916348657 0.0089505747854693989 0 0.018540568153647422 0.0089355104152330483 0 0.018286732916348657 0.0089505747854693989 0 0.018374655971346365 0.0092390624773670323 0 0.018115303593438513 0.0088133185733152205 0 0.018066279524023631 0.0089989869351083471 0 0.018286732916348657 0.0089505747854693989 0 0.018066279524023631 0.0089989869351083471 0 0.018286732916348657 0.0089505747854693989 0 0.018374655971346365 0.0092390624773670323 0 0.018876871063424071 0.0087518525188233186 0 0.018540568153647422 0.0089355104152330483 0 0.018881300761557387 0.0091950531291104774 0 0.018540568153647422 0.0089355104152330483 0 0.018374655971346365 0.0092390624773670323 0 0.018881300761557387 0.0091950531291104774 0 0.019242389322084216 0.0089082027142032057 0 0.018876871063424071 0.0087518525188233186 0 0.018881300761557387 0.0091950531291104774 0 0.018374655971346365 0.0092390624773670323 0 0.018881300761557387 0.0091950531291104774 0 0.018843461076709818 0.0098881779453598596 0 0.018374655971346365 0.0092390624773670323 0 0.018843461076709818 0.0098881779453598596 0 0.018124081277256524 0.0097058757364904893 0 0.021110798201010347 0.010220800977821357 0 0.021111072272751018 0.010149948284049703 0 0.021129695312552373 0.010191355834919723 0 0.019981699280044611 0.010055212602025663 0 0.019581005432360247 0.0099148796822170707 0 0.017994075290038252 0.0092406559303051059 0 0.017677268954752884 0.0090247238087897488 0 0.017482817531422907 0.0095237702142465623 0 0.017994075290038252 0.0092406559303051059 0 0.017482817531422907 0.0095237702142465623 0 0.018124081277256524 0.0097058757364904893 0 0.019422168228051449 0.0098934866640376078 0 0.019581005432360247 0.0099148796822170707 0 0.017994075290038252 0.0092406559303051059 0 0.018374655971346365 0.0092390624773670323 0 0.018124081277256524 0.0097058757364904893 0 0.021040430940851469 0.010089197034907064 0 0.021111072272751018 0.010149948284049703 0 0.021098623373177156 0.010168325820773238 0 0.021111072272751018 0.010149948284049703 0 0.021098623373177156 0.010168325820773238 0 0.021129695312552373 0.010191355834919723 0 0.02103567001535929 0.010157252203227463 0 0.021040430940851469 0.010089197034907064 0 0.021098623373177156 0.010168325820773238 0 0.021027174193703039 0.01019399467245523 0 0.02103567001535929 0.010157252203227463 0 0.021089533421071182 0.010199678988277663 0 0.02103567001535929 0.010157252203227463 0 0.021098623373177156 0.010168325820773238 0 0.021089533421071182 0.010199678988277663 0 0.021098623373177156 0.010168325820773238 0 0.02112958944846343 0.010196162865362013 0 0.021129695312552373 0.010191355834919723 0 0.021098623373177156 0.010168325820773238 0 0.021089533421071182 0.010199678988277663 0 0.02112958944846343 0.010196162865362013 0 0.021089533421071182 0.010199678988277663 0 0.02112958944846343 0.010196162865362013 0 0.021130517894375922 0.010218208576048111 0 0.02112958944846343 0.010196162865362013 0 0.021130517894375922 0.010218208576048111 0 0.021173799344020479 0.01020206549528313 0 0.021027174193703039 0.01019399467245523 0 0.021089533421071182 0.010199678988277663 0 0.021078772057426136 0.010244502817770892 0 0.021089533421071182 0.010199678988277663 0 0.021130517894375922 0.010218208576048111 0 0.021078772057426136 0.010244502817770892 0 0.021114980264254429 0.010191537782826152 0 0.021129695312552373 0.010191355834919723 0 0.021173799344020479 0.01020206549528313 0 0.021110798201010347 0.010220800977821357 0 0.021114980264254429 0.010191537782826152 0 0.021044045349371775 0.010184872385938832 0 0.021110798201010347 0.010220800977821357 0 0.021114980264254429 0.010191537782826152 0 0.021129695312552373 0.010191355834919723 0 0.02112958944846343 0.010196162865362013 0 0.021129695312552373 0.010191355834919723 0 0.021173799344020479 0.01020206549528313 0 0.021114980264254429 0.010191537782826152 0 0.021173799344020479 0.01020206549528313 0 0.021115523682399367 0.010202480129840952 0 0.021115523682399367 0.010202480129840952 0 0.020908076748853234 0.010114499322849748 0 0.021044045349371775 0.010184872385938832 0 0.021114980264254429 0.010191537782826152 0 0.021115523682399367 0.010202480129840952 0 0.021044045349371775 0.010184872385938832 0 0.021115523682399367 0.010202480129840952 0 0.020908076748853234 0.010114499322849748 0 0.021101243774254524 0.01030581727477195 0 0.020908076748853234 0.010114499322849748 0 0.020975502451777584 0.010245425659200794 0 0.020517585063615854 0.0099983472873259194 0 0.020908076748853234 0.010114499322849748 0 0.021044045349371775 0.010184872385938832 0 0.020975502451777584 0.010245425659200794 0 0.018843461076709818 0.0098881779453598596 0 0.019616195245324982 0.010027403794462125 0 0.019561320242458539 0.00938616540143755 0 0.019981699280044611 0.010055212602025663 0 0.020293815268320706 0.010113149243909131 0 0.021110798201010347 0.010220800977821357 0 0.021044045349371775 0.010184872385938832 0 0.020975502451777584 0.010245425659200794 0 0.020293815268320706 0.010113149243909131 0 0.020498912952816646 0.010033523233668649 0 0.019616195245324982 0.010027403794462125 0 0.019561320242458539 0.00938616540143755 0 0.020127963601116659 0.0096945438267349374 0 0.020207018974163281 0.0093337381536538529 0 0.019561320242458539 0.00938616540143755 0 0.020127963601116659 0.0096945438267349374 0 0.018881300761557387 0.0091950531291104774 0 0.018843461076709818 0.0098881779453598596 0 0.019561320242458539 0.00938616540143755 0 0.019253478016071791 0.0090321485355506943 0 0.020146858393689029 0.0097707023357577975 0 0.020249343704688404 0.0093420915496626022 0 0.017788429603471191 0.0092755857027455486 0 0.019253478016071791 0.0090321485355506943 0 0.020146858393689029 0.0097707023357577975 0 0.018942440587053303 0.0091968289868481403 0 0.019952936342743682 0.0097276268338052953 0 0.020207018974163281 0.0093337381536538529 0 0.020127963601116659 0.0096945438267349374 0 0.020146858393689029 0.0097707023357577975 0 0.019616195245324982 0.010027403794462125 0 0.020127963601116659 0.0096945438267349374 0 0.020517585063615854 0.0099983472873259194 0 0.020127963601116659 0.0096945438267349374 0 0.020517585063615854 0.0099983472873259194 0 0.020146858393689029 0.0097707023357577975 0 0.020517585063615854 0.0099983472873259194 0 0.020146858393689029 0.0097707023357577975 0 0.020822731682147988 0.0098370493212612247 0 0.020822731682147988 0.0098370493212612247 0 0.020922293210643126 0.010077853061595919 0 0.021388752300929553 0.010017025829236175 0 0.020517585063615854 0.0099983472873259194 0 0.020822731682147988 0.0098370493212612247 0 0.020922293210643126 0.010077853061595919 0 0.020908076748853234 0.010114499322849748 0 0.020517585063615854 0.0099983472873259194 0 0.020922293210643126 0.010077853061595919 0 0.020908076748853234 0.010114499322849748 0 0.020922293210643126 0.010077853061595919 0 0.021068011671323182 0.010330977842874985 0 0.020922293210643126 0.010077853061595919 0 0.021068011671323182 0.010330977842874985 0 0.021618755626371316 0.010358620073400007 0 0.020922293210643126 0.010077853061595919 0 0.021618755626371316 0.010358620073400007 0 0.021388752300929553 0.010017025829236175 0 0.021384430726611132 0.010686822006038909 0 0.021068011671323182 0.010330977842874985 0 0.021618755626371316 0.010358620073400007 0 0.021384430726611132 0.010686822006038909 0 0.02130104896723856 0.010696593974200658 0 0.022188159092082566 0.011229408676980886 0 0.021384430726611132 0.010686822006038909 0 0.021174733055383119 0.010490974362995188 0 0.02130104896723856 0.010696593974200658 0 0.021174733055383119 0.010490974362995188 0 0.02130104896723856 0.010696593974200658 0 0.021196665546176382 0.010416390049796675 0 0.021174733055383119 0.010490974362995188 0 0.021232350939538749 0.01035348346844882 0 0.021196665546176382 0.010416390049796675 0 0.021174733055383119 0.010490974362995188 0 0.021068011671323182 0.010330977842874985 0 0.021101243774254524 0.01030581727477195 0 0.020908076748853234 0.010114499322849748 0 0.021068011671323182 0.010330977842874985 0 0.021101243774254524 0.01030581727477195 0 0.021384430726611132 0.010686822006038909 0 0.021174733055383119 0.010490974362995188 0 0.021068011671323182 0.010330977842874985 0 0.021115523682399367 0.010202480129840952 0 0.021270692052837152 0.010235233521587313 0 0.021205681968053381 0.01020701361684228 0 0.021115523682399367 0.010202480129840952 0 0.021101243774254524 0.01030581727477195 0 0.021270692052837152 0.010235233521587313 0 0.021270692052837152 0.010235233521587313 0 0.021505835579984509 0.0098110146558460839 0 0.021287260017486709 0.010206283458455916 0 0.021101243774254524 0.01030581727477195 0 0.021270692052837152 0.010235233521587313 0 0.021232350939538749 0.01035348346844882 0 0.021174733055383119 0.010490974362995188 0 0.021101243774254524 0.01030581727477195 0 0.021232350939538749 0.01035348346844882 0 0.021569481361748868 0.0099519637519515976 0 0.020794423278241849 0.0099511505850764861 0 0.021232350939538749 0.01035348346844882 0 0.02198467854189446 0.0097931993501665111 0 0.0211811351960755 0.010090045992220386 0 0.021270692052837152 0.010235233521587313 0 0.021232350939538749 0.01035348346844882 0 0.021505835579984509 0.0098110146558460839 0 0.021232350939538749 0.01035348346844882 0 0.021505835579984509 0.0098110146558460839 0 0.021354997753958226 0.0089132870343530766 0 0.021505835579984509 0.0098110146558460839 0 0.021354997753958226 0.0089132870343530766 0 0.022557648823456511 0.0092223357138893538 0 0.021354997753958226 0.0089132870343530766 0 0.022557648823456511 0.0092223357138893538 0 0.022535263027692685 0.0083833135036571194 0 0.035492039654840012 0.0044391185221595584 0 0.035514475384512127 0.002608182018290401 0 0.036837735067941281 0.0028697348718590564 0 0.028255209144297917 0.0073326560291201047 0 0.029743502882911502 0.0058865292087009686 0 0.02198467854189446 0.0097931993501665111 0 0.0211811351960755 0.010090045992220386 0 0.021747378411219358 0.0093030962991910316 0 0.035492039654840012 0.0044391185221595584 0 0.034070894680512831 0.0027670101082665388 0 0.035514475384512127 0.002608182018290401 0 0.034070894680512831 0.0027670101082665388 0 0.032510574256997542 0.0027613835176924671 0 0.032764634214304526 0.0043422463210680403 0 0.035492039654840012 0.0044391185221595584 0 0.034070894680512831 0.0027670101082665388 0 0.032764634214304526 0.0043422463210680403 0 0.035492039654840012 0.0044391185221595584 0 0.033487337492362455 0.0065154849357106394 0 0.032764634214304526 0.0043422463210680403 0 0.021232350939538749 0.01035348346844882 0 0.0211811351960755 0.010090045992220386 0 0.021196665546176382 0.010416390049796675 0 0.0211811351960755 0.010090045992220386 0 0.02130104896723856 0.010696593974200658 0 0.021196665546176382 0.010416390049796675 0 0.028255209144297917 0.0073326560291201047 0 0.027429682451579868 0.0085777786849493328 0 0.024851490033989298 0.010071379422410388 0 0.0245317937690431 0.010230369965140186 0 0.024720790053915396 0.010289599503089277 0 0.0245317937690431 0.010230369965140186 0 0.024720790053915396 0.010289599503089277 0 0.024573192260118421 0.010460788704566251 0 0.0245317937690431 0.010230369965140186 0 0.024573192260118421 0.010460788704566251 0 0.024272059349941501 0.010509570143640854 0 0.023030376335697593 0.010415811565822605 0 0.022656103849141362 0.010350948252920551 0 0.024573192260118421 0.010460788704566251 0 0.024616505250522391 0.010461285132907314 0 0.024272059349941501 0.010509570143640854 0 0.024561403568694753 0.010445482617766507 0 0.024573192260118421 0.010460788704566251 0 0.024616505250522391 0.010461285132907314 0 0.021130517894375922 0.010218208576048111 0 0.021173799344020479 0.01020206549528313 0 0.021162572092721644 0.010234580708664299 0 0.021130517894375922 0.010218208576048111 0 0.021078772057426136 0.010244502817770892 0 0.021162572092721644 0.010234580708664299 0 0.0245317937690431 0.010230369965140186 0 0.024272059349941501 0.010509570143640854 0 0.024051491402456382 0.010099562674003417 0 0.024272059349941501 0.010509570143640854 0 0.024051491402456382 0.010099562674003417 0 0.023252951482173451 0.01036493038421841 0 0.022656103849141362 0.010350948252920551 0 0.022242761834945141 0.010249744281248419 0 0.021173799344020479 0.01020206549528313 0 0.021162572092721644 0.010234580708664299 0 0.021287260017486709 0.010206283458455916 0 0.021173799344020479 0.01020206549528313 0 0.021115523682399367 0.010202480129840952 0 0.021205681968053381 0.01020701361684228 0 0.021173799344020479 0.01020206549528313 0 0.021205681968053381 0.01020701361684228 0 0.021287260017486709 0.010206283458455916 0 0.021270692052837152 0.010235233521587313 0 0.021205681968053381 0.01020701361684228 0 0.021287260017486709 0.010206283458455916 0 0.021505835579984509 0.0098110146558460839 0 0.023252951482173451 0.01036493038421841 0 0.022557648823456511 0.0092223357138893538 0 0.021505891365806263 0.0098210238110138168 0 0.022242761834945141 0.010249744281248419 0 0.023252951482173451 0.01036493038421841 0 0.022557648823456511 0.0092223357138893538 0 0.023737267676052779 0.0091254829740915182 0 0.023045045383838027 0.0086527231818014326 0 0.023737267676052779 0.0091254829740915182 0 0.023373167266611719 0.0078389452610458654 0 0.022557648823456511 0.0092223357138893538 0 0.023045045383838027 0.0086527231818014326 0 0.023737267676052779 0.0091254829740915182 0 0.022557648823456511 0.0092223357138893538 0 0.022535263027692685 0.0083833135036571194 0 0.023045045383838027 0.0086527231818014326 0 0.022535263027692685 0.0083833135036571194 0 0.023045045383838027 0.0086527231818014326 0 0.023373167266611719 0.0078389452610458654 0 0.023737267676052779 0.0091254829740915182 0 0.025237923764687975 0.0078343877276089453 0 0.023373167266611719 0.0078389452610458654 0 0.024051491402456382 0.010099562674003417 0 0.023252951482173451 0.01036493038421841 0 0.023737267676052779 0.0091254829740915182 0 0.024051491402456382 0.010099562674003417 0 0.023737267676052779 0.0091254829740915182 0 0.024432797728726325 0.009762677385867044 0 0.0245317937690431 0.010230369965140186 0 0.024051491402456382 0.010099562674003417 0 0.024432797728726325 0.009762677385867044 0 0.023815164813589314 0.0091713164248946929 0 0.024972229966773955 0.0097334438580599196 0 0.025689004213433925 0.0097904550006295502 0 0.026811382454632028 0.0088548313423397647 0 0.025237923764687975 0.0078343877276089453 0 0.023737267676052779 0.0091254829740915182 0 0.025689004213433925 0.0097904550006295502 0 0.025237923764687975 0.0078343877276089453 0 0.027754612162460696 0.0081164139603964527 0 0.026811382454632028 0.0088548313423397647 0 0.026665231103268731 0.007538214057335465 0 0.026342179400146284 0.010296355821006858 0 0.024972229966773955 0.0097334438580599196 0 0.024851490033989298 0.010071379422410388 0 0.0245317937690431 0.010230369965140186 0 0.024432797728726325 0.009762677385867044 0 0.027404422155422964 0.010417382262005569 0 0.025689004213433925 0.0097904550006295502 0 0.026811382454632028 0.0088548313423397647 0 0.027325569344768985 0.0051416364499533816 0 0.027470338823597385 0.0067218728656095713 0 0.026197245492343899 0.0061131846851836917 0 0.027470338823597385 0.0067218728656095713 0 0.026197245492343899 0.0061131846851836917 0 0.026665231103268731 0.007538214057335465 0 0.026197245492343899 0.0061131846851836917 0 0.026665231103268731 0.007538214057335465 0 0.025237923764687975 0.0078343877276089453 0 0.026811382454632028 0.0088548313423397647 0 0.026665231103268731 0.007538214057335465 0 0.025237923764687975 0.0078343877276089453 0 0.026430525171577287 0.0060751681314562206 0 0.023981385445545837 0.0062190915167541798 0 0.026197245492343899 0.0061131846851836917 0 0.025261999309504492 0.0059711858552340714 0 0.025981957028698301 0.0052876661221318991 0 0.026197245492343899 0.0061131846851836917 0 0.025237923764687975 0.0078343877276089453 0 0.024451292279939221 0.0061848203011363317 0 0.024451292279939221 0.0061848203011363317 0 0.023429218142927283 0.0066489592672697917 0 0.022816802255491594 0.0062611741879752877 0 0.023981385445545837 0.0062190915167541798 0 0.028114410685358034 0.0038919099991567186 0 0.025261999309504492 0.0059711858552340714 0 0.024463173049676209 0.0059605022949982258 0 0.025220326101189027 0.0052614766705233358 0 0.023944388159380766 0.0070185822947558922 0 0.023135716519353335 0.0070826894443596564 0 0.023429218142927283 0.0066489592672697917 0 0.024451292279939221 0.0061848203011363317 0 0.023944388159380766 0.0070185822947558922 0 0.023429218142927283 0.0066489592672697917 0 0.025237923764687975 0.0078343877276089453 0 0.024451292279939221 0.0061848203011363317 0 0.023944388159380766 0.0070185822947558922 0 0.025237923764687975 0.0078343877276089453 0 0.023944388159380766 0.0070185822947558922 0 0.023373167266611719 0.0078389452610458654 0 0.023944388159380766 0.0070185822947558922 0 0.023135716519353335 0.0070826894443596564 0 0.023373167266611719 0.0078389452610458654 0 0.023135716519353335 0.0070826894443596564 0 0.023373167266611719 0.0078389452610458654 0 0.022567187123736426 0.0076023392537251117 0 0.022535263027692685 0.0083833135036571194 0 0.023373167266611719 0.0078389452610458654 0 0.022567187123736426 0.0076023392537251117 0 0.023135716519353335 0.0070826894443596564 0 0.022567187123736426 0.0076023392537251117 0 0.022774124701876446 0.0068006682406879151 0 0.022567187123736426 0.0076023392537251117 0 0.022271567745769494 0.0067041231585311294 0 0.022774124701876446 0.0068006682406879151 0 0.029129569231829276 0.0044804357836455352 0 0.029815219726101332 0.0030655795562484342 0 0.030878798442023216 0.0030300735001499413 0 0.027999251370786748 0.0056362330296307389 0 0.03331337233185068 0.0022257779629789505 0 0.022271567745769494 0.0067041231585311294 0 0.022774124701876446 0.0068006682406879151 0 0.022816802255491594 0.0062611741879752877 0 0.027999251370786748 0.0056362330296307389 0 0.028114410685358034 0.0038919099991567186 0 0.022774124701876446 0.0068006682406879151 0 0.023429218142927283 0.0066489592672697917 0 0.022816802255491594 0.0062611741879752877 0 0.023135716519353335 0.0070826894443596564 0 0.022774124701876446 0.0068006682406879151 0 0.023429218142927283 0.0066489592672697917 0 0.034374456391325497 0.00082302156924782439 0 0.034503295807515828 0.00081642721819685327 0 0.034634792125543393 0.00035576869427388931 0 0.03331337233185068 0.0022257779629789505 0 0.028114410685358034 0.0038919099991567186 0 0.034503295807515828 0.00081642721819685327 0 0.034634792125543393 0.00035576869427388931 0 0.03500512948909712 0.00028524934279802288 0 0.035136886874173892 0.0003886630004667115 0 0.035116175619529857 0.00022112499807926567 0 0.035102755128047787 0.00030707257488698245 0 0.03331337233185068 0.0022257779629789505 0 0.035019239001788875 -1.3006138495330928e-05 0 0.035019239001788875 -1.3006138495330928e-05 0 0.034901971323570431 0.00021927454175122048 0 0.035116175619529857 0.00022112499807926567 0 0.035060951484315213 0.0001340976506758304 0 0.035102755128047787 0.00030707257488698245 0 0.035060951484315213 0.0001340976506758304 0 0.034999953984898025 1.263809679854058e-07 0 0.034975408629201621 6.1729486113572875e-05 0 0.035116175619529857 0.00022112499807926567 0 0.035060951484315213 0.0001340976506758304 0 0.034975408629201621 6.1729486113572875e-05 0 0.034975408629201621 6.1729486113572875e-05 0 0.035010668987080162 9.4477697727648793e-05 0 0.035000171542228321 8.9059336889115905e-08 0 0.034999953984898025 1.263809679854058e-07 0 0.034975408629201621 6.1729486113572875e-05 0 0.035000171542228321 8.9059336889115905e-08 0 0.034975408629201621 6.1729486113572875e-05 0 0.03500512948909712 0.00028524934279802288 0 0.035010668987080162 9.4477697727648793e-05 0 0.034634792125543393 0.00035576869427388931 0 0.034975408629201621 6.1729486113572875e-05 0 0.03500512948909712 0.00028524934279802288 0 0.028114410685358034 0.0038919099991567186 0 0.030101303947270494 0.0028523881224107204 0 0.025220326101189027 0.0052614766705233358 0 0.025981957028698301 0.0052876661221318991 0 0.026213875265359777 0.0043216038071472972 0 0.025261999309504492 0.0059711858552340714 0 0.025220326101189027 0.0052614766705233358 0 0.025981957028698301 0.0052876661221318991 0 0.03500512948909712 0.00028524934279802288 0 0.035010668987080162 9.4477697727648793e-05 0 0.035082980640774766 5.3613290190695763e-05 0 0.030101303947270494 0.0028523881224107204 0 0.031869846166246919 0.0010911394503609569 0 0.034999983985844758 4.5654584948401826e-09 0 0.034992645050472337 2.845062487418403e-06 0 0.034999987393305905 1.4804296443430481e-10 0 0.035010668987080162 9.4477697727648793e-05 0 0.035000171542228321 8.9059336889115905e-08 0 0.035082980640774766 5.3613290190695763e-05 0 0.034999538316023857 1.4816121042461617e-06 0 0.031869846166246919 0.0010911394503609569 0 0.030999870846453583 0.002674253477937736 0 0.031869846166246919 0.0010911394503609569 0 0.034957162047543185 3.8574633187922633e-05 0 0.034962568530104571 1.7593082830732893e-05 0 0.034999851767562727 2.7314753377903085e-08 0 0.031869846166246919 0.0010911394503609569 0 0.035000340136259633 -1.0364504414663883e-06 0 0.027325569344768985 0.0051416364499533816 0 0.026197245492343899 0.0061131846851836917 0 0.025981957028698301 0.0052876661221318991 0 0.027325569344768985 0.0051416364499533816 0 0.025981957028698301 0.0052876661221318991 0 0.026213875265359777 0.0043216038071472972 0 0.034781713920469588 0.0011212571112087812 0 0.035514475384512127 0.002608182018290401 0 0.036668944305774637 0.0013736056303604539 0 0.034517529883588728 0.0011247464071960358 0 0.036549991900487938 0.00086470496312903301 0 0.034781713920469588 0.0011212571112087812 0 0.035086588301466271 0.00059809186578174852 0 0.034979675609065411 0.00027504802457015988 0 0.034781713920469588 0.0011212571112087812 0 0.033710920456103667 0.0012187964639899834 0 0.034654917924950068 0.00041512712450182074 0 0.034781713920469588 0.0011212571112087812 0 0.033710920456103667 0.0012187964639899834 0 0.034070894680512831 0.0027670101082665388 0 0.033710920456103667 0.0012187964639899834 0 0.034070894680512831 0.0027670101082665388 0 0.032510574256997542 0.0027613835176924671 0 0.034781713920469588 0.0011212571112087812 0 0.034070894680512831 0.0027670101082665388 0 0.035514475384512127 0.002608182018290401 0 0.035514475384512127 0.002608182018290401 0 0.036837735067941281 0.0028697348718590564 0 0.036668944305774637 0.0013736056303604539 0 0.021354997753958226 0.0089132870343530766 0 0.022567187123736426 0.0076023392537251117 0 0.022271567745769494 0.0067041231585311294 0 0.02198467854189446 0.0097931993501665111 0 0.022929516432483123 0.0083540198614995096 0 0.021747378411219358 0.0093030962991910316 0 0.027999251370786748 0.0056362330296307389 0 0.029743502882911502 0.0058865292087009686 0 0.020794423278241849 0.0099511505850764861 0 0.027999251370786748 0.0056362330296307389 0 0.021354997753958226 0.0089132870343530766 0 0.022535263027692685 0.0083833135036571194 0 0.022567187123736426 0.0076023392537251117 0 0.037961137740559384 0.0017634406887958181 0 0.036837735067941281 0.0028697348718590564 0 0.036668944305774637 0.0013736056303604539 0 0.037961137740559384 0.0017634406887958181 0 0.038108605631099544 0.0014448920350802353 0 0.036668944305774637 0.0013736056303604539 0 0.035136886874173892 0.0003886630004667115 0 0.035086588301466271 0.00059809186578174852 0 0.035102755128047787 0.00030707257488698245 0 0.03331337233185068 0.0022257779629789505 0 0.036549991900487938 0.00086470496312903301 0 0.035086588301466271 0.00059809186578174852 0 0.035060179592998397 0.00024209394544280255 0 0.034979675609065411 0.00027504802457015988 0 0.035086588301466271 0.00059809186578174852 0 0.035102755128047787 0.00030707257488698245 0 0.035060179592998397 0.00024209394544280255 0 0.035060951484315213 0.0001340976506758304 0 0.035102755128047787 0.00030707257488698245 0 0.035060179592998397 0.00024209394544280255 0 0.035060951484315213 0.0001340976506758304 0 0.034999953984898025 1.263809679854058e-07 0 0.035000201683631757 1.96151264055073e-07 0 0.035060951484315213 0.0001340976506758304 0 0.035060179592998397 0.00024209394544280255 0 0.035000201683631757 1.96151264055073e-07 0 0.035000201683631757 1.96151264055073e-07 0 0.034999652115370546 -5.6655075095069576e-08 0 0.034979675609065411 0.00027504802457015988 0 0.035060179592998397 0.00024209394544280255 0 0.035000201683631757 1.96151264055073e-07 0 0.034979675609065411 0.00027504802457015988 0 0.034999652115370546 -5.6655075095069576e-08 0 0.034979675609065411 0.00027504802457015988 0 0.034654917924950068 0.00041512712450182074 0 0.034781713920469588 0.0011212571112087812 0 0.034979675609065411 0.00027504802457015988 0 0.034654917924950068 0.00041512712450182074 0 0.033710920456103667 0.0012187964639899834 0 0.034654917924950068 0.00041512712450182074 0 0.034262439709129608 0.00024971903008364979 0 0.034999652115370546 -5.6655075095069576e-08 0 0.034654917924950068 0.00041512712450182074 0 0.034262439709129608 0.00024971903008364979 0 0.034999652115370546 -5.6655075095069576e-08 0 0.034999014446846374 1.4990972879877093e-07 0 0.034262439709129608 0.00024971903008364979 0 0.034999014446846374 1.4990972879877093e-07 0 0.033703518944775301 0.00014446711134184418 0 0.034262439709129608 0.00024971903008364979 0 0.034999014446846374 1.4990972879877093e-07 0 0.033703518944775301 0.00014446711134184418 0 0.034995322364945874 -7.333957919748982e-07 0 0.033703518944775301 0.00014446711134184418 0 0.032048198183738823 0.0009083506751149797 0 0.031223285415409186 0.00046946060390376699 0 0.033703518944775301 0.00014446711134184418 0 0.033200879088068007 0.0007603871531390538 0 0.032048198183738823 0.0009083506751149797 0 0.033703518944775301 0.00014446711134184418 0 0.034262439709129608 0.00024971903008364979 0 0.033200879088068007 0.0007603871531390538 0 0.033710920456103667 0.0012187964639899834 0 0.034262439709129608 0.00024971903008364979 0 0.033200879088068007 0.0007603871531390538 0 0.033710920456103667 0.0012187964639899834 0 0.033200879088068007 0.0007603871531390538 0 0.032186795718668539 0.0017936269800131056 0 0.033200879088068007 0.0007603871531390538 0 0.032048198183738823 0.0009083506751149797 0 0.032186795718668539 0.0017936269800131056 0 0.032048198183738823 0.0009083506751149797 0 0.030691186258637131 0.0021687539472868534 0 0.032186795718668539 0.0017936269800131056 0 0.032048198183738823 0.0009083506751149797 0 0.030691186258637131 0.0021687539472868534 0 0.030326034927761331 0.001634956616222381 0 0.030691186258637131 0.0021687539472868534 0 0.03126673040055853 0.002704335348070908 0 0.032186795718668539 0.0017936269800131056 0 0.030691186258637131 0.0021687539472868534 0 0.029964301311247658 0.0032812597265011014 0 0.029221655902819943 0.0026931262447843136 0 0.030691186258637131 0.0021687539472868534 0 0.029964301311247658 0.0032812597265011014 0 0.03126673040055853 0.002704335348070908 0 0.029964301311247658 0.0032812597265011014 0 0.03126673040055853 0.002704335348070908 0 0.030964151620550027 0.0038154487411010923 0 0.03126673040055853 0.002704335348070908 0 0.032510574256997542 0.0027613835176924671 0 0.030964151620550027 0.0038154487411010923 0 0.033710920456103667 0.0012187964639899834 0 0.032510574256997542 0.0027613835176924671 0 0.032186795718668539 0.0017936269800131056 0 0.03126673040055853 0.002704335348070908 0 0.032510574256997542 0.0027613835176924671 0 0.032186795718668539 0.0017936269800131056 0 0.035056946402867967 0.00038835773137425758 0 0.035115286093508009 0.00044614784110200308 0 0.035061777419095039 0.00028579242312902058 0 0.035056946402867967 0.00038835773137425758 0 0.035052580636581745 0.00049174258125167579 0 0.035019641636935078 0.00044543173237075674 0 0.035056946402867967 0.00038835773137425758 0 0.035052580636581745 0.00049174258125167579 0 0.035115286093508009 0.00044614784110200308 0 0.028617583033390542 0.0013802048643970059 0 0.028147082394882176 0.0019008380695144441 0 0.029221655902819943 0.0026931262447843136 0 0.028405894431680095 0.0023005805837487338 0 0.02802065248037679 0.0033563653819369283 0 0.027255163084332925 0.0026730944754306167 0 0.028405894431680095 0.0023005805837487338 0 0.02802065248037679 0.0033563653819369283 0 0.029964301311247658 0.0032812597265011014 0 0.029221655902819943 0.0026931262447843136 0 0.028551328742147834 0.0038665832670047098 0 0.029221655902819943 0.0026931262447843136 0 0.028551328742147834 0.0038665832670047098 0 0.02802065248037679 0.0033563653819369283 0 0.030691186258637131 0.0021687539472868534 0 0.029221655902819943 0.0026931262447843136 0 0.030326034927761331 0.001634956616222381 0 0.029221655902819943 0.0026931262447843136 0 0.028405894431680095 0.0023005805837487338 0 0.030326034927761331 0.001634956616222381 0 0.028617583033390542 0.0013802048643970059 0 0.033534305514353623 0.00051478149817446085 0 0.028405894431680095 0.0023005805837487338 0 0.030326034927761331 0.001634956616222381 0 0.031223285415409186 0.00046946060390376699 0 0.032048198183738823 0.0009083506751149797 0 0.030326034927761331 0.001634956616222381 0 0.031223285415409186 0.00046946060390376699 0 0.027692451361822596 0.0025340332746587998 0 0.028405894431680095 0.0023005805837487338 0 0.031223285415409186 0.00046946060390376699 0 0.035115286093508009 0.00044614784110200308 0 0.035061777419095039 0.00028579242312902058 0 0.035114425719518817 0.00016908039398685584 0 0.035000234476082623 3.0475359839712722e-08 0 0.035031647109724208 6.8330600811969991e-05 0 0.034999963250915589 9.7330505135550144e-08 0 0.035061777419095039 0.00028579242312902058 0 0.035114425719518817 0.00016908039398685584 0 0.035012880386255309 0.00013896195942386921 0 0.035114425719518817 0.00016908039398685584 0 0.035031647109724208 6.8330600811969991e-05 0 0.035012880386255309 0.00013896195942386921 0 0.033703518944775301 0.00014446711134184418 0 0.031223285415409186 0.00046946060390376699 0 0.034995322364945874 -7.333957919748982e-07 0 0.035114425719518817 0.00016908039398685584 0 0.035000234476082623 3.0475359839712722e-08 0 0.035031647109724208 6.8330600811969991e-05 0 0.033534305514353623 0.00051478149817446085 0 0.034998985940125384 6.4595463637899803e-07 0 0.035031647109724208 6.8330600811969991e-05 0 0.034999963250915589 9.7330505135550144e-08 0 0.035012880386255309 0.00013896195942386921 0 0.034999963250915589 9.7330505135550144e-08 0 0.034941218082400985 0.00013335994018906633 0 0.034999897651918743 4.3031578771567363e-08 0 0.034941218082400985 0.00013335994018906633 0 0.035012880386255309 0.00013896195942386921 0 0.034985365608092657 0.00030387347424457029 0 0.034999963250915589 9.7330505135550144e-08 0 0.034941218082400985 0.00013335994018906633 0 0.035012880386255309 0.00013896195942386921 0 0.034941218082400985 0.00013335994018906633 0 0.034999897651918743 4.3031578771567363e-08 0 0.034802491475510386 0.00021010939532494814 0 0.034999897651918743 4.3031578771567363e-08 0 0.034802491475510386 0.00021010939532494814 0 0.034532086521288259 0.00026167391704938085 0 0.034802491475510386 0.00021010939532494814 0 0.034704593441115594 0.00043646476605177764 0 0.034532086521288259 0.00026167391704938085 0 0.034941218082400985 0.00013335994018906633 0 0.034802491475510386 0.00021010939532494814 0 0.03487269357101775 0.00034399060707196986 0 0.034802491475510386 0.00021010939532494814 0 0.034704593441115594 0.00043646476605177764 0 0.03487269357101775 0.00034399060707196986 0 0.034704593441115594 0.00043646476605177764 0 0.03487269357101775 0.00034399060707196986 0 0.034863627213419519 0.00058652176894091984 0 0.034704593441115594 0.00043646476605177764 0 0.034532086521288259 0.00026167391704938085 0 0.034391693398709407 0.00061264014179320924 0 0.035061777419095039 0.00028579242312902058 0 0.035012880386255309 0.00013896195942386921 0 0.034985365608092657 0.00030387347424457029 0 0.035056946402867967 0.00038835773137425758 0 0.035061777419095039 0.00028579242312902058 0 0.034985365608092657 0.00030387347424457029 0 0.034941218082400985 0.00013335994018906633 0 0.034985365608092657 0.00030387347424457029 0 0.03487269357101775 0.00034399060707196986 0 0.034985365608092657 0.00030387347424457029 0 0.03487269357101775 0.00034399060707196986 0 0.034951618458213277 0.00049906061646042845 0 0.03487269357101775 0.00034399060707196986 0 0.034951618458213277 0.00049906061646042845 0 0.034863627213419519 0.00058652176894091984 0 0.034985365608092657 0.00030387347424457029 0 0.034951618458213277 0.00049906061646042845 0 0.035019641636935078 0.00044543173237075674 0 0.034951618458213277 0.00049906061646042845 0 0.035019641636935078 0.00044543173237075674 0 0.034994949792496149 0.00052727877999017526 0 0.035056946402867967 0.00038835773137425758 0 0.034985365608092657 0.00030387347424457029 0 0.035019641636935078 0.00044543173237075674 0 0.035019641636935078 0.00044543173237075674 0 0.035014153922699229 0.00052225923127978923 0 0.034994949792496149 0.00052727877999017526 0 0.035052580636581745 0.00049174258125167579 0 0.035019641636935078 0.00044543173237075674 0 0.035014153922699229 0.00052225923127978923 0 0.035052580636581745 0.00049174258125167579 0 0.034973633938674323 0.0006705668609895321 0 0.034988806959557681 0.00062479942131314029 0 0.035052580636581745 0.00049174258125167579 0 0.035014153922699229 0.00052225923127978923 0 0.034988806959557681 0.00062479942131314029 0 0.022111926397111854 0.0037130167398580732 0 0.02102769220132027 0.003588606879309239 0 0.022620166662887724 0.0028559760006238279 0 0.034999196263575047 0.00068155791896238043 0 0.034988806959557681 0.00062479942131314029 0 0.03497235184081595 0.00064972435224854399 0 0.028120788113658542 0.0018938076947104987 0 0.029788614082840812 0.00051437208268897017 0 0.034988806959557681 0.00062479942131314029 0 0.03497235184081595 0.00064972435224854399 0 0.034974953533511863 0.00058351762697926308 0 0.034951618458213277 0.00049906061646042845 0 0.034974953533511863 0.00058351762697926308 0 0.034994949792496149 0.00052727877999017526 0 0.034988806959557681 0.00062479942131314029 0 0.034974953533511863 0.00058351762697926308 0 0.034994949792496149 0.00052727877999017526 0 0.035014153922699229 0.00052225923127978923 0 0.034988806959557681 0.00062479942131314029 0 0.034994949792496149 0.00052727877999017526 0 0.034951618458213277 0.00049906061646042845 0 0.034943544309140685 0.0006126574879000543 0 0.034863627213419519 0.00058652176894091984 0 0.034951618458213277 0.00049906061646042845 0 0.034974953533511863 0.00058351762697926308 0 0.034943544309140685 0.0006126574879000543 0 0.03497235184081595 0.00064972435224854399 0 0.034974953533511863 0.00058351762697926308 0 0.034943544309140685 0.0006126574879000543 0 0.034943544309140685 0.0006126574879000543 0 0.034863627213419519 0.00058652176894091984 0 0.034928437774161707 0.00074489927198815231 0 0.034863627213419519 0.00058652176894091984 0 0.034928437774161707 0.00074489927198815231 0 0.034838915681037627 0.00082090300766726678 0 0.034999196263575047 0.00068155791896238043 0 0.03497235184081595 0.00064972435224854399 0 0.034928437774161707 0.00074489927198815231 0 0.03497235184081595 0.00064972435224854399 0 0.034943544309140685 0.0006126574879000543 0 0.034928437774161707 0.00074489927198815231 0 0.024919476311558452 0.0014524142945151048 0 0.023988617912671352 0.0021698125166908118 0 0.024299319983013851 0.0029709686924920468 0 0.028120788113658542 0.0018938076947104987 0 0.029447410526631312 0.0015044351197513895 0 0.034999196263575047 0.00068155791896238043 0 0.034928437774161707 0.00074489927198815231 0 0.034925393739378904 0.00091484674684319664 0 0.034928437774161707 0.00074489927198815231 0 0.034925393739378904 0.00091484674684319664 0 0.034838915681037627 0.00082090300766726678 0 0.021436261085337367 0.0052622683668874098 0 0.021254221040504152 0.0067172180298645627 0 0.023064917625013264 0.0045855248339329024 0 0.028120788113658542 0.0018938076947104987 0 0.021491290246378567 0.0050875288276750162 0 0.02102769220132027 0.003588606879309239 0 0.021436261085337367 0.0052622683668874098 0 0.020056152168555927 0.0066566294817229556 0 0.022111926397111854 0.0037130167398580732 0 0.02102769220132027 0.003588606879309239 0 0.021900065314042687 0.0043188839613523588 0 0.021436261085337367 0.0052622683668874098 0 0.021900065314042687 0.0043188839613523588 0 0.023064917625013264 0.0045855248339329024 0 0.02102769220132027 0.003588606879309239 0 0.021436261085337367 0.0052622683668874098 0 0.021900065314042687 0.0043188839613523588 0 0.034704593441115594 0.00043646476605177764 0 0.034691878236005731 0.00071598373789380672 0 0.034391693398709407 0.00061264014179320924 0 0.034691878236005731 0.00071598373789380672 0 0.034458136181592852 0.0010060881755555777 0 0.034391693398709407 0.00061264014179320924 0 0.034704593441115594 0.00043646476605177764 0 0.034863627213419519 0.00058652176894091984 0 0.034691878236005731 0.00071598373789380672 0 0.034863627213419519 0.00058652176894091984 0 0.034691878236005731 0.00071598373789380672 0 0.034838915681037627 0.00082090300766726678 0 0.034838915681037627 0.00082090300766726678 0 0.03483731332566975 0.00099099326447157281 0 0.034707689269543374 0.00098005564307737008 0 0.034925393739378904 0.00091484674684319664 0 0.03483731332566975 0.00099099326447157281 0 0.034784869614862025 0.001137790332767384 0 0.034925393739378904 0.00091484674684319664 0 0.034838915681037627 0.00082090300766726678 0 0.03483731332566975 0.00099099326447157281 0 0.03483731332566975 0.00099099326447157281 0 0.034707689269543374 0.00098005564307737008 0 0.034861962666714645 0.0013124372875715799 0 0.034691878236005731 0.00071598373789380672 0 0.034838915681037627 0.00082090300766726678 0 0.034707689269543374 0.00098005564307737008 0 0.034691878236005731 0.00071598373789380672 0 0.034707689269543374 0.00098005564307737008 0 0.034458136181592852 0.0010060881755555777 0 0.034707689269543374 0.00098005564307737008 0 0.034458136181592852 0.0010060881755555777 0 0.034652147483562781 0.0012562253853519506 0 0.0344383777449601 0.0013760026719459068 0 0.03451725912708542 0.0016297586239581261 0 0.03425953551090629 0.0017959924013190402 0 0.0344383777449601 0.0013760026719459068 0 0.03425953551090629 0.0017959924013190402 0 0.034198780682413658 0.0013527786484003827 0 0.034458136181592852 0.0010060881755555777 0 0.0344383777449601 0.0013760026719459068 0 0.034198780682413658 0.0013527786484003827 0 0.0344383777449601 0.0013760026719459068 0 0.034652147483562781 0.0012562253853519506 0 0.03451725912708542 0.0016297586239581261 0 0.034458136181592852 0.0010060881755555777 0 0.0344383777449601 0.0013760026719459068 0 0.034652147483562781 0.0012562253853519506 0 0.03451725912708542 0.0016297586239581261 0 0.034751096952194152 0.0015526365096452065 0 0.034584410132360556 0.0019350742674108684 0 0.034652147483562781 0.0012562253853519506 0 0.03451725912708542 0.0016297586239581261 0 0.034751096952194152 0.0015526365096452065 0 0.034380183368532775 0.0008848005017265308 0 0.031485948565508959 0.0022401588193027722 0 0.034652147483562781 0.0012562253853519506 0 0.034751096952194152 0.0015526365096452065 0 0.034861962666714645 0.0013124372875715799 0 0.034707689269543374 0.00098005564307737008 0 0.034652147483562781 0.0012562253853519506 0 0.034861962666714645 0.0013124372875715799 0 0.034063162340808049 0.00047075377751581581 0 0.031485948565508959 0.0022401588193027722 0 0.023988617912671352 0.0021698125166908118 0 0.023157639945536899 0.0028726776487962465 0 0.023778713130929004 0.002801575187993672 0 0.029447410526631312 0.0015044351197513895 0 0.031485948565508959 0.0022401588193027722 0 0.023157639945536899 0.0028726776487962465 0 0.023595911396700513 0.0033269943190378836 0 0.023241205283114283 0.0035009905795490223 0 0.023157639945536899 0.0028726776487962465 0 0.023595911396700513 0.0033269943190378836 0 0.023778713130929004 0.002801575187993672 0 0.023157639945536899 0.0028726776487962465 0 0.023241205283114283 0.0035009905795490223 0 0.023036125332009692 0.0038816123037600072 0 0.023157639945536899 0.0028726776487962465 0 0.023036125332009692 0.0038816123037600072 0 0.022676720321367732 0.004223593487136015 0 0.023595911396700513 0.0033269943190378836 0 0.023322933568428086 0.0037920309077536215 0 0.023667661867970629 0.0042801389264485786 0 0.034751096952194152 0.0015526365096452065 0 0.034990992674294279 0.0012922238069495383 0 0.034806553329972671 0.0024838528971803512 0 0.031485948565508959 0.0022401588193027722 0 0.028346890057353597 0.0034102572614556994 0 0.023595911396700513 0.0033269943190378836 0 0.023241205283114283 0.0035009905795490223 0 0.023322933568428086 0.0037920309077536215 0 0.023241205283114283 0.0035009905795490223 0 0.023322933568428086 0.0037920309077536215 0 0.023036125332009692 0.0038816123037600072 0 0.023322933568428086 0.0037920309077536215 0 0.023036125332009692 0.0038816123037600072 0 0.023188173400420189 0.0042162679510559234 0 0.023322933568428086 0.0037920309077536215 0 0.023667661867970629 0.0042801389264485786 0 0.023188173400420189 0.0042162679510559234 0 0.023036125332009692 0.0038816123037600072 0 0.022676720321367732 0.004223593487136015 0 0.022931355906366559 0.004316972398436484 0 0.023036125332009692 0.0038816123037600072 0 0.022931355906366559 0.004316972398436484 0 0.023188173400420189 0.0042162679510559234 0 0.034751096952194152 0.0015526365096452065 0 0.034584410132360556 0.0019350742674108684 0 0.034806553329972671 0.0024838528971803512 0 0.034584410132360556 0.0019350742674108684 0 0.034524529737290525 0.0022239792602889059 0 0.034806553329972671 0.0024838528971803512 0 0.034482971163906806 0.0023817712900008436 0 0.034524529737290525 0.0022239792602889059 0 0.034806553329972671 0.0024838528971803512 0 0.034482971163906806 0.0023817712900008436 0 0.034524529737290525 0.0022239792602889059 0 0.03432602960892394 0.0021304517763599132 0 0.034482971163906806 0.0023817712900008436 0 0.03432602960892394 0.0021304517763599132 0 0.034120268927742725 0.0024397751186096472 0 0.034584410132360556 0.0019350742674108684 0 0.03432602960892394 0.0021304517763599132 0 0.03425953551090629 0.0017959924013190402 0 0.03451725912708542 0.0016297586239581261 0 0.034584410132360556 0.0019350742674108684 0 0.03425953551090629 0.0017959924013190402 0 0.034584410132360556 0.0019350742674108684 0 0.034524529737290525 0.0022239792602889059 0 0.03432602960892394 0.0021304517763599132 0 0.021254221040504152 0.0067172180298645627 0 0.020056152168555927 0.0066566294817229556 0 0.020749645454530681 0.0082823889942271675 0 0.021254221040504152 0.0067172180298645627 0 0.022097658069275293 0.0075594714990462868 0 0.023064917625013264 0.0045855248339329024 0 0.021436261085337367 0.0052622683668874098 0 0.021254221040504152 0.0067172180298645627 0 0.020056152168555927 0.0066566294817229556 0 0.023988617912671352 0.0021698125166908118 0 0.024299319983013851 0.0029709686924920468 0 0.023778713130929004 0.002801575187993672 0 0.023595911396700513 0.0033269943190378836 0 0.024299319983013851 0.0029709686924920468 0 0.023778713130929004 0.002801575187993672 0 0.020056152168555927 0.0066566294817229556 0 0.020749645454530681 0.0082823889942271675 0 0.019644593436769196 0.0089464445388139583 0 0.021491290246378567 0.0050875288276750162 0 0.021778810493020821 0.0064755983419194155 0 0.023595911396700513 0.0033269943190378836 0 0.024299319983013851 0.0029709686924920468 0 0.023667661867970629 0.0042801389264485786 0 0.020749645454530681 0.0082823889942271675 0 0.020268091844088808 0.0089571674321913559 0 0.019644593436769196 0.0089464445388139583 0 0.020749645454530681 0.0082823889942271675 0 0.022097658069275293 0.0075594714990462868 0 0.02133265803125136 0.010392794916191852 0 0.022856754260180221 0.008509275399969797 0 0.021206254012170193 0.0098748204583267128 0 0.021254221040504152 0.0067172180298645627 0 0.020749645454530681 0.0082823889942271675 0 0.022097658069275293 0.0075594714990462868 0 0.023181153632454429 0.0094632877719096498 0 0.023446241679924783 0.010095021256919105 0 0.02308991409431722 0.010303515856939238 0 0.023181153632454429 0.0094632877719096498 0 0.024343258523308889 0.0096693735481603003 0 0.023446241679924783 0.010095021256919105 0 0.024343258523308889 0.0096693735481603003 0 0.023518702307716317 0.010326179534775151 0 0.023446241679924783 0.010095021256919105 0 0.023181153632454429 0.0094632877719096498 0 0.024897673038309625 0.0079076101257848138 0 0.024523523393293317 0.0062342611146232697 0 0.022856754260180221 0.008509275399969797 0 0.023399399009752686 0.0056592578372132336 0 0.023181153632454429 0.0094632877719096498 0 0.024897673038309625 0.0079076101257848138 0 0.024343258523308889 0.0096693735481603003 0 0.024897673038309625 0.0079076101257848138 0 0.02611924091952569 0.0082574955110312851 0 0.024343258523308889 0.0096693735481603003 0 0.024343258523308889 0.0096693735481603003 0 0.024573018051692871 0.010547589959919799 0 0.023518702307716317 0.010326179534775151 0 0.02611924091952569 0.0082574955110312851 0 0.024343258523308889 0.0096693735481603003 0 0.024573018051692871 0.010547589959919799 0 0.024889048356419852 0.010482881224709766 0 0.026181884260677551 0.0098921057052291129 0 0.021384430726611132 0.010686822006038909 0 0.021618755626371316 0.010358620073400007 0 0.022188159092082566 0.011229408676980886 0 0.024573018051692871 0.010547589959919799 0 0.021618755626371316 0.010358620073400007 0 0.022188159092082566 0.011229408676980886 0 0.027429682451579868 0.0085777786849493328 0 0.026181884260677551 0.0098921057052291129 0 0.02611924091952569 0.0082574955110312851 0 0.030157345580290061 0.0088629289657513738 0 0.028375779938422559 0.0064973758618986563 0 0.02611924091952569 0.0082574955110312851 0 0.024573018051692871 0.010547589959919799 0 0.030157345580290061 0.0088629289657513738 0 0.030157345580290061 0.0088629289657513738 0 0.028375779938422559 0.0064973758618986563 0 0.030574742406899492 0.0058164174191756351 0 0.028375779938422559 0.0064973758618986563 0 0.030574742406899492 0.0058164174191756351 0 0.029036878826601914 0.0047652464833083628 0 0.033487337492362455 0.0065154849357106394 0 0.030157345580290061 0.0088629289657513738 0 0.030574742406899492 0.0058164174191756351 0 0.033487337492362455 0.0065154849357106394 0 0.030574742406899492 0.0058164174191756351 0 0.032764634214304526 0.0043422463210680403 0 0.030574742406899492 0.0058164174191756351 0 0.032764634214304526 0.0043422463210680403 0 0.030964151620550027 0.0038154487411010923 0 0.032510574256997542 0.0027613835176924671 0 0.032764634214304526 0.0043422463210680403 0 0.030964151620550027 0.0038154487411010923 0 0.030574742406899492 0.0058164174191756351 0 0.029036878826601914 0.0047652464833083628 0 0.030964151620550027 0.0038154487411010923 0 0.029964301311247658 0.0032812597265011014 0 0.029036878826601914 0.0047652464833083628 0 0.028551328742147834 0.0038665832670047098 0 0.029964301311247658 0.0032812597265011014 0 0.029036878826601914 0.0047652464833083628 0 0.030964151620550027 0.0038154487411010923 0 0.027255163084332925 0.0026730944754306167 0 0.026648904059031361 0.0053517671882379308 0 0.02802065248037679 0.0033563653819369283 0 0.029036878826601914 0.0047652464833083628 0 0.028551328742147834 0.0038665832670047098 0 0.026648904059031361 0.0053517671882379308 0 0.028551328742147834 0.0038665832670047098 0 0.026648904059031361 0.0053517671882379308 0 0.02802065248037679 0.0033563653819369283 0 0.027255163084332925 0.0026730944754306167 0 0.026648904059031361 0.0053517671882379308 0 0.024523523393293317 0.0062342611146232697 0 0.035052580636581745 0.00049174258125167579 0 0.035115286093508009 0.00044614784110200308 0 0.034973633938674323 0.0006705668609895321 0 0.023962761724618645 0.0012384473691571742 0 0.022620166662887724 0.0028559760006238279 0 0.023064917625013264 0.0045855248339329024 0 0.028617583033390542 0.0013802048643970059 0 0.023399399009752686 0.0056592578372132336 0 0.028617583033390542 0.0013802048643970059 0 0.028120788113658542 0.0018938076947104987 0 0.023962761724618645 0.0012384473691571742 0 0.02102769220132027 0.003588606879309239 0 0.022620166662887724 0.0028559760006238279 0 0.022111926397111854 0.0037130167398580732 0 0.022620166662887724 0.0028559760006238279 0 0.023064917625013264 0.0045855248339329024 0 0.024897673038309625 0.0079076101257848138 0 0.026648904059031361 0.0053517671882379308 0 0.024523523393293317 0.0062342611146232697 0 0.022111926397111854 0.0037130167398580732 0 0.021900065314042687 0.0043188839613523588 0 0.023064917625013264 0.0045855248339329024 0 0.024897673038309625 0.0079076101257848138 0 0.02611924091952569 0.0082574955110312851 0 0.026648904059031361 0.0053517671882379308 0 0.02611924091952569 0.0082574955110312851 0 0.028375779938422559 0.0064973758618986563 0 0.026648904059031361 0.0053517671882379308 0 0.028375779938422559 0.0064973758618986563 0 0.029036878826601914 0.0047652464833083628 0 0.026648904059031361 0.0053517671882379308 0 0.032730812044946191 0.00012279033627247718 0 0.034997085261500221 -4.5329002572248421e-07 0 0.028777066771902476 1.2842683748808641e-06 0 0.034997085261500221 -4.5329002572248421e-07 0 0.034092965793830414 -1.0050467374505283e-05 0 0.034998345447629496 2.9327139648044473e-08 0 0.032730812044946191 0.00012279033627247718 0 0.034997085261500221 -4.5329002572248421e-07 0 0.034092965793830414 -1.0050467374505283e-05 0 0.032730812044946191 0.00012279033627247718 0 0.030239413832506779 -0.00016884663053784029 0 0.029660836390039455 -0.00020532582017540181 0 0.034092965793830414 -1.0050467374505283e-05 0 0.033738582762571447 0.00059586145426844853 0 0.034106950528299297 0.00038830489458626418 0 0.032730812044946191 0.00012279033627247718 0 0.034092965793830414 -1.0050467374505283e-05 0 0.033738582762571447 0.00059586145426844853 0 0.032560580903724684 0.00012987778035163965 0 0.032044636990728272 0.00013756331827833156 0 0.033738582762571447 0.00059586145426844853 0 0.034106950528299297 0.00038830489458626418 0 0.033814141295577874 0.00059502080660341745 0 0.032044636990728272 0.00013756331827833156 0 0.032411712368367901 0.00014786667729373073 0 0.034092965793830414 -1.0050467374505283e-05 0 0.034106950528299297 0.00038830489458626418 0 0.034570872782414386 0.00015772254084087049 0 0.034106950528299297 0.00038830489458626418 0 0.034570872782414386 0.00015772254084087049 0 0.03388071360180761 0.00057296341191153061 0 0.034092965793830414 -1.0050467374505283e-05 0 0.034570872782414386 0.00015772254084087049 0 0.034998345447629496 2.9327139648044473e-08 0 0.034999897651918743 4.3031578771567363e-08 0 0.034570872782414386 0.00015772254084087049 0 0.034998345447629496 2.9327139648044473e-08 0 0.034999897651918743 4.3031578771567363e-08 0 0.034570872782414386 0.00015772254084087049 0 0.034532086521288259 0.00026167391704938085 0 0.034570872782414386 0.00015772254084087049 0 0.034532086521288259 0.00026167391704938085 0 0.03388071360180761 0.00057296341191153061 0 0.034532086521288259 0.00026167391704938085 0 0.034391693398709407 0.00061264014179320924 0 0.03388071360180761 0.00057296341191153061 0 0.034391693398709407 0.00061264014179320924 0 0.03388071360180761 0.00057296341191153061 0 0.034023309818425884 0.0010183765249022849 0 0.03388071360180761 0.00057296341191153061 0 0.033573847860682585 0.00112070731912113 0 0.03323686509050789 0.00075602908553301261 0 0.03388071360180761 0.00057296341191153061 0 0.034023309818425884 0.0010183765249022849 0 0.033573847860682585 0.00112070731912113 0 0.034458136181592852 0.0010060881755555777 0 0.034391693398709407 0.00061264014179320924 0 0.034023309818425884 0.0010183765249022849 0 0.034458136181592852 0.0010060881755555777 0 0.034023309818425884 0.0010183765249022849 0 0.034198780682413658 0.0013527786484003827 0 0.034023309818425884 0.0010183765249022849 0 0.034198780682413658 0.0013527786484003827 0 0.033764876269516436 0.0016634136260874155 0 0.03425953551090629 0.0017959924013190402 0 0.034198780682413658 0.0013527786484003827 0 0.033764876269516436 0.0016634136260874155 0 0.03425953551090629 0.0017959924013190402 0 0.033764876269516436 0.0016634136260874155 0 0.033927992865220843 0.0021509714470450123 0 0.03432602960892394 0.0021304517763599132 0 0.03425953551090629 0.0017959924013190402 0 0.033927992865220843 0.0021509714470450123 0 0.033764876269516436 0.0016634136260874155 0 0.033927992865220843 0.0021509714470450123 0 0.033287475458600009 0.0023534387813152762 0 0.033927992865220843 0.0021509714470450123 0 0.033287475458600009 0.0023534387813152762 0 0.033690266838081274 0.0025916587348972266 0 0.03432602960892394 0.0021304517763599132 0 0.033927992865220843 0.0021509714470450123 0 0.034120268927742725 0.0024397751186096472 0 0.033927992865220843 0.0021509714470450123 0 0.034120268927742725 0.0024397751186096472 0 0.033690266838081274 0.0025916587348972266 0 0.033764876269516436 0.0016634136260874155 0 0.033287475458600009 0.0023534387813152762 0 0.03302782581668471 0.0019296129472077541 0 0.034023309818425884 0.0010183765249022849 0 0.033764876269516436 0.0016634136260874155 0 0.033573847860682585 0.00112070731912113 0 0.033764876269516436 0.0016634136260874155 0 0.033573847860682585 0.00112070731912113 0 0.03302782581668471 0.0019296129472077541 0 0.033573847860682585 0.00112070731912113 0 0.03302782581668471 0.0019296129472077541 0 0.03323686509050789 0.00075602908553301261 0 0.03302782581668471 0.0019296129472077541 0 0.032062164153904622 0.0018073667493459251 0 0.03323686509050789 0.00075602908553301261 0 0.03302782581668471 0.0019296129472077541 0 0.032254869758907054 0.0026863317145348555 0 0.032062164153904622 0.0018073667493459251 0 0.033287475458600009 0.0023534387813152762 0 0.03302782581668471 0.0019296129472077541 0 0.032254869758907054 0.0026863317145348555 0 0.031368429737216687 0.0022396884548659445 0 0.029422866102930847 0.0014722043892947737 0 0.030492062556601255 0.0016908561860928182 0 0.028254280262406957 0.00092290267388619931 0 0.028217460565229707 0.0015637023656321545 0 0.032254869758907054 0.0026863317145348555 0 0.032062164153904622 0.0018073667493459251 0 0.030554545414814525 0.0021394233982555185 0 0.032062164153904622 0.0018073667493459251 0 0.03134902855832683 0.00089661255201440204 0 0.030554545414814525 0.0021394233982555185 0 0.032062164153904622 0.0018073667493459251 0 0.03134902855832683 0.00089661255201440204 0 0.03323686509050789 0.00075602908553301261 0 0.034106950528299297 0.00038830489458626418 0 0.03388071360180761 0.00057296341191153061 0 0.033814141295577874 0.00059502080660341745 0 0.03134902855832683 0.00089661255201440204 0 0.03323686509050789 0.00075602908553301261 0 0.030939404786242405 -0.00046519964614575291 0 0.033225940190435579 0.00073491763449799481 0 0.032411712368367901 0.00014786667729373073 0 0.03388071360180761 0.00057296341191153061 0 0.03323686509050789 0.00075602908553301261 0 0.033814141295577874 0.00059502080660341745 0 0.025633758131790235 0.00041375347505164558 0 0.028777066771902476 1.2842683748808641e-06 0 0.024085467629820799 3.8329257037897116e-07 0 0.030239413832506779 -0.00016884663053784029 0 0.030939404786242405 -0.00046519964614575291 0 0.029660836390039455 -0.00020532582017540181 0 0.030939404786242405 -0.00046519964614575291 0 0.029660836390039455 -0.00020532582017540181 0 0.030035904704926616 0.0004262966789262685 0 0.029660836390039455 -0.00020532582017540181 0 0.030035904704926616 0.0004262966789262685 0 0.028040335845133529 0.00056360321927884094 0 0.03134902855832683 0.00089661255201440204 0 0.030939404786242405 -0.00046519964614575291 0 0.030035904704926616 0.0004262966789262685 0 0.030035904704926616 0.0004262966789262685 0 0.030554545414814525 0.0021394233982555185 0 0.028040335845133529 0.00056360321927884094 0 0.03134902855832683 0.00089661255201440204 0 0.030035904704926616 0.0004262966789262685 0 0.030554545414814525 0.0021394233982555185 0 0.028254280262406957 0.00092290267388619931 0 0.028217460565229707 0.0015637023656321545 0 0.027595652953183423 0.00075328586999926807 0 0.025997534273818207 0.0011511240341644747 0 0.027243765275953527 0.00079578162850595558 0 0.025378425154885552 0.00064662402152247298 0 0.027595652953183423 0.00075328586999926807 0 0.025633758131790235 0.00041375347505164558 0 0.023657719598966474 0.00098861297900755779 0 0.025378425154885552 0.00064662402152247298 0 0.027595652953183423 0.00075328586999926807 0 0.025378425154885552 0.00064662402152247298 0 0.025633758131790235 0.00041375347505164558 0 0.024295668616889456 0.00043867251169581151 0 0.023657719598966474 0.00098861297900755779 0 0.025378425154885552 0.00064662402152247298 0 0.024295668616889456 0.00043867251169581151 0 0.029422866102930847 0.0014722043892947737 0 0.028088508896401288 0.000626464289108322 0 0.028254280262406957 0.00092290267388619931 0 0.027595652953183423 0.00075328586999926807 0 0.028040335845133529 0.00056360321927884094 0 0.027595652953183423 0.00075328586999926807 0 0.025633758131790235 0.00041375347505164558 0 0.028777066771902476 1.2842683748808641e-06 0 0.027595652953183423 0.00075328586999926807 0 0.028040335845133529 0.00056360321927884094 0 0.028777066771902476 1.2842683748808641e-06 0 0.029660836390039455 -0.00020532582017540181 0 0.028040335845133529 0.00056360321927884094 0 0.028777066771902476 1.2842683748808641e-06 0 0.032730812044946191 0.00012279033627247718 0 0.029660836390039455 -0.00020532582017540181 0 0.028777066771902476 1.2842683748808641e-06 0 0.0217739745157252 -5.6288517215408672e-05 0 0.024085467629820799 3.8329257037897116e-07 0 0.02311563044657065 7.3023643823218569e-05 0 0.0217739745157252 -5.6288517215408672e-05 0 0.024085467629820799 3.8329257037897116e-07 0 0.020550135396877323 -1.065017443116462e-06 0 0.025633758131790235 0.00041375347505164558 0 0.024085467629820799 3.8329257037897116e-07 0 0.02311563044657065 7.3023643823218569e-05 0 0.02311563044657065 7.3023643823218569e-05 0 0.024295668616889456 0.00043867251169581151 0 0.022923580567896697 0.00031928559676626476 0 0.025633758131790235 0.00041375347505164558 0 0.02311563044657065 7.3023643823218569e-05 0 0.024295668616889456 0.00043867251169581151 0 0.023657719598966474 0.00098861297900755779 0 0.024295668616889456 0.00043867251169581151 0 0.022923580567896697 0.00031928559676626476 0 0.023657719598966474 0.00098861297900755779 0 0.022923580567896697 0.00031928559676626476 0 0.021603980734317397 0.00049600897710701437 0 0.022923580567896697 0.00031928559676626476 0 0.021850768076619148 6.6242274836825546e-05 0 0.021603980734317397 0.00049600897710701437 0 0.02311563044657065 7.3023643823218569e-05 0 0.022923580567896697 0.00031928559676626476 0 0.021850768076619148 6.6242274836825546e-05 0 0.02311563044657065 7.3023643823218569e-05 0 0.021850768076619148 6.6242274836825546e-05 0 0.020962000401898079 -3.0841297112298518e-06 0 0.0217739745157252 -5.6288517215408672e-05 0 0.02311563044657065 7.3023643823218569e-05 0 0.020962000401898079 -3.0841297112298518e-06 0 0.020962000401898079 -3.0841297112298518e-06 0 0.020788968600055687 -5.0960806664402898e-05 0 0.020143348257836868 4.7524682730545168e-05 0 0.020788968600055687 -5.0960806664402898e-05 0 0.020253148198835908 -7.209485129253112e-06 0 0.020143348257836868 4.7524682730545168e-05 0 0.020788968600055687 -5.0960806664402898e-05 0 0.020460770725700208 1.4323046769918102e-06 0 0.020253148198835908 -7.209485129253112e-06 0 0.020460770725700208 1.4323046769918102e-06 0 0.020426620700749229 6.8139425723606385e-05 0 0.020253148198835908 -7.209485129253112e-06 0 0.020561189453472122 0.00011995697482574308 0 0.020788968600055687 -5.0960806664402898e-05 0 0.020460770725700208 1.4323046769918102e-06 0 0.020561189453472122 0.00011995697482574308 0 0.020788968600055687 -5.0960806664402898e-05 0 0.021603980734317397 0.00049600897710701437 0 0.021850768076619148 6.6242274836825546e-05 0 0.020788968600055687 -5.0960806664402898e-05 0 0.021603980734317397 0.00049600897710701437 0 0.021850768076619148 6.6242274836825546e-05 0 0.020962000401898079 -3.0841297112298518e-06 0 0.020788968600055687 -5.0960806664402898e-05 0 0.025997534273818207 0.0011511240341644747 0 0.025749504647954124 0.0018863112921626961 0 0.030492062556601255 0.0016908561860928182 0 0.028217460565229707 0.0015637023656321545 0 0.030054539845701635 0.003353629397627273 0 0.030492062556601255 0.0016908561860928182 0 0.030054539845701635 0.003353629397627273 0 0.032881044199579858 0.0030803117777845643 0 0.031368429737216687 0.0022396884548659445 0 0.032806037460746798 0.0030331789924030452 0 0.026614911685717391 0.002411621934313764 0 0.025749504647954124 0.0018863112921626961 0 0.031906350733366395 0.0049970124686851596 0 0.030054539845701635 0.003353629397627273 0 0.032881044199579858 0.0030803117777845643 0 0.032881044199579858 0.0030803117777845643 0 0.033610826447556641 0.0038418416604059143 0 0.0330650274826624 0.0045751963527280474 0 0.031906350733366395 0.0049970124686851596 0 0.032881044199579858 0.0030803117777845643 0 0.0330650274826624 0.0045751963527280474 0 0.033287475458600009 0.0023534387813152762 0 0.032881044199579858 0.0030803117777845643 0 0.033690266838081274 0.0025916587348972266 0 0.033287475458600009 0.0023534387813152762 0 0.032254869758907054 0.0026863317145348555 0 0.032881044199579858 0.0030803117777845643 0 0.032881044199579858 0.0030803117777845643 0 0.033690266838081274 0.0025916587348972266 0 0.034024624040104999 0.0029549279574515876 0 0.032881044199579858 0.0030803117777845643 0 0.034024624040104999 0.0029549279574515876 0 0.033610826447556641 0.0038418416604059143 0 0.034120268927742725 0.0024397751186096472 0 0.033690266838081274 0.0025916587348972266 0 0.034024624040104999 0.0029549279574515876 0 0.034024624040104999 0.0029549279574515876 0 0.033610826447556641 0.0038418416604059143 0 0.034369072122352393 0.0034640262318820624 0 0.03358814262876636 0.0057481650027715438 0 0.033802902128479917 0.0038590611667276139 0 0.033610826447556641 0.0038418416604059143 0 0.033908555863594723 0.0049551811439457862 0 0.034369072122352393 0.0034640262318820624 0 0.032253128145044718 0.0062430236210071974 0 0.033557101478808346 0.0049155346922047033 0 0.033324340150813953 0.0042172875789704767 0 0.032253128145044718 0.0062430236210071974 0 0.032313795177274 0.0075576221668157148 0 0.033557101478808346 0.0049155346922047033 0 0.033908555863594723 0.0049551811439457862 0 0.033043183119300289 0.0052355243778345727 0 0.033267034608241049 0.0064057714925995638 0 0.024299024118339028 0.0060028656279199543 0 0.02846833696494596 0.0050201376109622834 0 0.033908555863594723 0.0049551811439457862 0 0.0330650274826624 0.0045751963527280474 0 0.033043183119300289 0.0052355243778345727 0 0.033610826447556641 0.0038418416604059143 0 0.033908555863594723 0.0049551811439457862 0 0.0330650274826624 0.0045751963527280474 0 0.031906350733366395 0.0049970124686851596 0 0.033043183119300289 0.0052355243778345727 0 0.033267034608241049 0.0064057714925995638 0 0.031906350733366395 0.0049970124686851596 0 0.0330650274826624 0.0045751963527280474 0 0.033043183119300289 0.0052355243778345727 0 0.020460770725700208 1.4323046769918102e-06 0 0.020510873249209586 7.906337060905713e-06 0 0.020426620700749229 6.8139425723606385e-05 0 0.026614911685717391 0.002411621934313764 0 0.02431499779675516 0.0045813110021929683 0 0.020561189453472122 0.00011995697482574308 0 0.020460770725700208 1.4323046769918102e-06 0 0.020510873249209586 7.906337060905713e-06 0 0.020519076101474562 2.8855837287960259e-05 0 0.020510873249209586 7.906337060905713e-06 0 0.020426620700749229 6.8139425723606385e-05 0 0.022837706474532544 0.0054728244327796136 0 0.023107680145964857 0.0052629708927533813 0 0.022966277965357228 0.0056217254900069007 0 0.024299024118339028 0.0060028656279199543 0 0.020871717659130585 0.0058672033763413674 0 0.013383401092667181 0.0049153391644328236 0 0.013321643979959483 0.0051037043008257061 0 0.012952035348756982 0.0046878604503700324 0 0.032253128145044718 0.0062430236210071974 0 0.031237213676496085 0.0083289197075811106 0 0.032313795177274 0.0075576221668157148 0 0.02431499779675516 0.0045813110021929683 0 0.020871717659130585 0.0058672033763413674 0 0.03358814262876636 0.0057481650027715438 0 0.02431499779675516 0.0045813110021929683 0 0.01964943254473199 0.0043287971829239855 0 0.02431499779675516 0.0045813110021929683 0 0.020893959732510604 0.0072800343662985292 0 0.020982725264127661 0.0075667226259643295 0 0.020591966645898994 0.0075209749474623886 0 0.020893959732510604 0.0072800343662985292 0 0.020748248870956398 0.0069185111108705667 0 0.020591966645898994 0.0075209749474623886 0 0.020893959732510604 0.0072800343662985292 0 0.020982725264127661 0.0075667226259643295 0 0.021224167408132235 0.0073269611763680971 0 0.020893959732510604 0.0072800343662985292 0 0.020748248870956398 0.0069185111108705667 0 0.021390132616316424 0.0067965065707806527 0 0.02431499779675516 0.0045813110021929683 0 0.024299024118339028 0.0060028656279199543 0 0.021409953843886116 0.0079186908520490294 0 0.021236820163814597 0.0079157546813245581 0 0.021303999929308381 0.0081908150454834648 0 0.021409953843886116 0.0079186908520490294 0 0.021236820163814597 0.0079157546813245581 0 0.021252363389382217 0.0077155616639491128 0 0.01564701297110431 0.0053862314055007077 0 0.014664946610461166 0.0041492118152826 0 0.01564701297110431 0.0053862314055007077 0 0.015424807318417376 0.0049083728343595114 0 0.02104106046756922 0.0079201054368910062 0 0.021236820163814597 0.0079157546813245581 0 0.02108571135339244 0.0078122681811274818 0 0.021413599616071238 0.0081101147175984111 0 0.020871717659130585 0.0058672033763413674 0 0.02104106046756922 0.0079201054368910062 0 0.020982725264127661 0.0075667226259643295 0 0.020591966645898994 0.0075209749474623886 0 0.02104106046756922 0.0079201054368910062 0 0.021236820163814597 0.0079157546813245581 0 0.021303999929308381 0.0081908150454834648 0 0.013248164569231119 0.0038421074183744249 0 0.012952035348756982 0.0046878604503700324 0 0.01334228433453614 0.0043159616817747817 0 0.01564701297110431 0.0053862314055007077 0 0.020871717659130585 0.0058672033763413674 0 0.013383401092667181 0.0049153391644328236 0 0.012952035348756982 0.0046878604503700324 0 0.01334228433453614 0.0043159616817747817 0 0.013240938399714536 0.0050738733077726524 0 0.013706852946895963 0.0039376057460795751 0 0.015109825386132116 0.0034601413004713972 0 0.01964943254473199 0.0043287971829239855 0 0.014533042268506121 0.0051991501521458016 0 0.01964943254473199 0.0043287971829239855 0 0.017298357073674654 0.0016630157129261258 0 0.013383401092667181 0.0049153391644328236 0 0.01334228433453614 0.0043159616817747817 0 0.013706852946895963 0.0039376057460795751 0 0.020519076101474562 2.8855837287960259e-05 0 0.020426620700749229 6.8139425723606385e-05 0 0.020290169382742328 0.00031777533405387068 0 0.013706852946895963 0.0039376057460795751 0 0.014084588720430497 0.0030360300989063713 0 0.015109825386132116 0.0034601413004713972 0 0.013706852946895963 0.0039376057460795751 0 0.013583093546238703 0.0031998305699600174 0 0.014084588720430497 0.0030360300989063713 0 0.013085549118588528 0.0037133007566013585 0 0.01334228433453614 0.0043159616817747817 0 0.013706852946895963 0.0039376057460795751 0 0.013085549118588528 0.0037133007566013585 0 0.013156996569447849 0.0033465299090894157 0 0.013706852946895963 0.0039376057460795751 0 0.013156996569447849 0.0033465299090894157 0 0.013706852946895963 0.0039376057460795751 0 0.013583093546238703 0.0031998305699600174 0 0.013156996569447849 0.0033465299090894157 0 0.013583093546238703 0.0031998305699600174 0 0.013374147256871846 0.0024403324769099143 0 0.013374147256871846 0.0024403324769099143 0 0.014084588720430497 0.0030360300989063713 0 0.014032727144557573 0.0019062977518601112 0 0.013583093546238703 0.0031998305699600174 0 0.013374147256871846 0.0024403324769099143 0 0.014084588720430497 0.0030360300989063713 0 0.014084588720430497 0.0030360300989063713 0 0.014032727144557573 0.0019062977518601112 0 0.015109825386132116 0.0034601413004713972 0 0.013374147256871846 0.0024403324769099143 0 0.014032727144557573 0.0019062977518601112 0 0.01254457119077957 0.001399376777654554 0 0.013008469854514869 0.0037452102048133261 0 0.013156996569447849 0.0033465299090894157 0 0.01254457119077957 0.001399376777654554 0 0.01564701297110431 0.0053862314055007077 0 0.017085190576800021 0.0044410575450191461 0 0.021409953843886116 0.0079186908520490294 0 0.021252363389382217 0.0077155616639491128 0 0.021413895963638019 0.0073327302576149363 0 0.013156996569447849 0.0033465299090894157 0 0.013374147256871846 0.0024403324769099143 0 0.01254457119077957 0.001399376777654554 0 0.021236820163814597 0.0079157546813245581 0 0.02108571135339244 0.0078122681811274818 0 0.021252363389382217 0.0077155616639491128 0 0.02108571135339244 0.0078122681811274818 0 0.021252363389382217 0.0077155616639491128 0 0.021105511927725799 0.0075659982698357171 0 0.021252363389382217 0.0077155616639491128 0 0.021105511927725799 0.0075659982698357171 0 0.021413895963638019 0.0073327302576149363 0 0.021105511927725799 0.0075659982698357171 0 0.021413895963638019 0.0073327302576149363 0 0.02104706131852771 0.0073280251118862209 0 0.021413895963638019 0.0073327302576149363 0 0.021308612410501838 0.0064450545572500122 0 0.021054894880521948 0.0067227994374994505 0 0.017085190576800021 0.0044410575450191461 0 0.017098499460582735 0.0035672769613054288 0 0.01254457119077957 0.001399376777654554 0 0.012943301257542488 0.00040874262461981618 0 0.012531512581288656 2.3304417947215356e-05 0 0.021413895963638019 0.0073327302576149363 0 0.020967173054553586 0.0070163171658808006 0 0.02104706131852771 0.0073280251118862209 0 0.021413895963638019 0.0073327302576149363 0 0.021054894880521948 0.0067227994374994505 0 0.020967173054553586 0.0070163171658808006 0 0.012531512581288656 2.3304417947215356e-05 0 0.012607550206504821 1.3222255568828482e-06 0 0.012695819648736012 -8.7561917455493545e-05 0 0.021308612410501838 0.0064450545572500122 0 0.021099572821468994 0.0061248646909875604 0 0.021061089410317969 0.0054104057342398331 0 0.012607550206504821 1.3222255568828482e-06 0 0.012567883566150979 -0.00023278419888684811 0 0.012304096411466188 -0.00074106185076368628 0 0.021076711162305427 0.0064534017225890174 0 0.021308612410501838 0.0064450545572500122 0 0.021054894880521948 0.0067227994374994505 0 0.021076711162305427 0.0064534017225890174 0 0.021308612410501838 0.0064450545572500122 0 0.021099572821468994 0.0061248646909875604 0 0.01288347120769659 0.00043468777115049124 0 0.012165626031856287 -0.00082338646829076625 0 0.012943301257542488 0.00040874262461981618 0 0.012531512581288656 2.3304417947215356e-05 0 0.012607550206504821 1.3222255568828482e-06 0 0.012943301257542488 0.00040874262461981618 0 0.012134698753349884 -0.00060451542093986589 0 0.012962780914686061 -0.00047699038537832316 0 0.012943301257542488 0.00040874262461981618 0 0.012607550206504821 1.3222255568828482e-06 0 0.012567883566150979 -0.00023278419888684811 0 0.012134698753349884 -0.00060451542093986589 0 0.012962780914686061 -0.00047699038537832316 0 0.012404433777191446 -0.00085613751627303504 0 0.013812949226876165 -0.00079351410541228474 0 0.013616622437407831 1.950742772039259e-05 0 0.014618745695714194 0.00026702583130879193 0 0.013812949226876165 -0.00079351410541228474 0 0.012962780914686061 -0.00047699038537832316 0 0.013616622437407831 1.950742772039259e-05 0 0.013812949226876165 -0.00079351410541228474 0 0.012962780914686061 -0.00047699038537832316 0 0.012865057551043913 -0.0009220965965323106 0 0.012962780914686061 -0.00047699038537832316 0 0.012865057551043913 -0.0009220965965323106 0 0.012404433777191446 -0.00085613751627303504 0 0.012943301257542488 0.00040874262461981618 0 0.012962780914686061 -0.00047699038537832316 0 0.013616622437407831 1.950742772039259e-05 0 0.013616622437407831 1.950742772039259e-05 0 0.013744074360604312 0.00083734105656295627 0 0.014618745695714194 0.00026702583130879193 0 0.012943301257542488 0.00040874262461981618 0 0.013616622437407831 1.950742772039259e-05 0 0.013744074360604312 0.00083734105656295627 0 0.01254457119077957 0.001399376777654554 0 0.012943301257542488 0.00040874262461981618 0 0.013744074360604312 0.00083734105656295627 0 0.014032727144557573 0.0019062977518601112 0 0.01254457119077957 0.001399376777654554 0 0.013744074360604312 0.00083734105656295627 0 0.013744074360604312 0.00083734105656295627 0 0.014618745695714194 0.00026702583130879193 0 0.015523846102381222 0.0013407802139678005 0 0.014032727144557573 0.0019062977518601112 0 0.013744074360604312 0.00083734105656295627 0 0.015523846102381222 0.0013407802139678005 0 0.014618745695714194 0.00026702583130879193 0 0.017912372557593887 0.0007275566445662544 0 0.015523846102381222 0.0013407802139678005 0 0.014618745695714194 0.00026702583130879193 0 0.015169715739728713 -0.00050633865139563703 0 0.017912372557593887 0.0007275566445662544 0 0.013812949226876165 -0.00079351410541228474 0 0.014618745695714194 0.00026702583130879193 0 0.015169715739728713 -0.00050633865139563703 0 0.015169715739728713 -0.00050633865139563703 0 0.016235682409822046 -0.00070914942524566611 0 0.014624089034360023 -0.0011870256085237773 0 0.013812949226876165 -0.00079351410541228474 0 0.015169715739728713 -0.00050633865139563703 0 0.014624089034360023 -0.0011870256085237773 0 0.015169715739728713 -0.00050633865139563703 0 0.016235682409822046 -0.00070914942524566611 0 0.017912372557593887 0.0007275566445662544 0 0.016235682409822046 -0.00070914942524566611 0 0.017912372557593887 0.0007275566445662544 0 0.018281014114363801 -0.00012963831638491572 0 0.017912372557593887 0.0007275566445662544 0 0.019381168072574631 0.00027184167306792799 0 0.019519334312176721 0.00028068294000657798 0 0.017912372557593887 0.0007275566445662544 0 0.020290169382742328 0.00031777533405387068 0 0.019381168072574631 0.00027184167306792799 0 0.017912372557593887 0.0007275566445662544 0 0.015523846102381222 0.0013407802139678005 0 0.015109825386132116 0.0034601413004713972 0 0.014032727144557573 0.0019062977518601112 0 0.015523846102381222 0.0013407802139678005 0 0.015109825386132116 0.0034601413004713972 0 0.018137363675113542 0.00082521265846062562 0 0.017298357073674654 0.0016630157129261258 0 0.020290169382742328 0.00031777533405387068 0 0.020253148198835908 -7.209485129253112e-06 0 0.019381168072574631 0.00027184167306792799 0 0.020426620700749229 6.8139425723606385e-05 0 0.020290169382742328 0.00031777533405387068 0 0.020253148198835908 -7.209485129253112e-06 0 0.020253148198835908 -7.209485129253112e-06 0 0.020143348257836868 4.7524682730545168e-05 0 0.019381168072574631 0.00027184167306792799 0 0.020143348257836868 4.7524682730545168e-05 0 0.019381168072574631 0.00027184167306792799 0 0.019519334312176721 0.00028068294000657798 0 0.019001968466600318 -0.00024951768592024025 0 0.020550135396877323 -1.065017443116462e-06 0 0.015882495719126394 8.6438256500278589e-07 0 0.020962000401898079 -3.0841297112298518e-06 0 0.019519334312176721 0.00028068294000657798 0 0.019950530691396174 2.0352994600878868e-05 0 0.020962000401898079 -3.0841297112298518e-06 0 0.020143348257836868 4.7524682730545168e-05 0 0.019519334312176721 0.00028068294000657798 0 0.0217739745157252 -5.6288517215408672e-05 0 0.020962000401898079 -3.0841297112298518e-06 0 0.019950530691396174 2.0352994600878868e-05 0 0.019519334312176721 0.00028068294000657798 0 0.019950530691396174 2.0352994600878868e-05 0 0.018281014114363801 -0.00012963831638491572 0 0.017912372557593887 0.0007275566445662544 0 0.019519334312176721 0.00028068294000657798 0 0.018281014114363801 -0.00012963831638491572 0 0.018281014114363801 -0.00012963831638491572 0 0.018499057955231248 -0.00044623112258892675 0 0.018505663734317702 -0.00044223843924865651 0 0.016235682409822046 -0.00070914942524566611 0 0.018281014114363801 -0.00012963831638491572 0 0.016141459056190022 -0.0014043210306244895 0 0.01809628372509196 -6.0755865180806884e-05 0 0.017326211773282467 -0.00080963063982293279 0 0.018281014114363801 -0.00012963831638491572 0 0.018883436335415504 -0.00022940264908141031 0 0.018499057955231248 -0.00044623112258892675 0 0.018883436335415504 -0.00022940264908141031 0 0.018596000779892017 -0.00020529607416579958 0 0.018499057955231248 -0.00044623112258892675 0 0.019950530691396174 2.0352994600878868e-05 0 0.018281014114363801 -0.00012963831638491572 0 0.018883436335415504 -0.00022940264908141031 0 0.019950530691396174 2.0352994600878868e-05 0 0.018883436335415504 -0.00022940264908141031 0 0.019001968466600318 -0.00024951768592024025 0 0.019001968466600318 -0.00024951768592024025 0 0.018596000779892017 -0.00020529607416579958 0 0.018110999542039447 0.00010827196516762927 0 0.018883436335415504 -0.00022940264908141031 0 0.019001968466600318 -0.00024951768592024025 0 0.018596000779892017 -0.00020529607416579958 0 0.0217739745157252 -5.6288517215408672e-05 0 0.019950530691396174 2.0352994600878868e-05 0 0.020550135396877323 -1.065017443116462e-06 0 0.019950530691396174 2.0352994600878868e-05 0 0.019001968466600318 -0.00024951768592024025 0 0.020550135396877323 -1.065017443116462e-06 0 0.02165792646955194 0.009470150970139278 0 0.02117258435845152 0.0094149510278606005 0 0.022116028508424656 0.0098470006491223512 0 0.02165792646955194 0.009470150970139278 0 0.022317341587346846 0.0097910609266694988 0 0.022116028508424656 0.0098470006491223512 0 0.02165792646955194 0.009470150970139278 0 0.022317341587346846 0.0097910609266694988 0 0.021932981054613117 0.009439791859828928 0 0.022317341587346846 0.0097910609266694988 0 0.022768320926183899 0.0098406717839274963 0 0.021932981054613117 0.009439791859828928 0 0.02126150614463455 0.0096875580602232298 0 0.020269006234915374 0.0090162688179348978 0 0.021932981054613117 0.009439791859828928 0 0.021717571377171702 0.0088660471680266795 0 0.021243842756922014 0.0090652540802573355 0 0.01910035739838015 0.0090184589843280722 0 0.019569013919020217 0.0092060400646352646 0 0.019461620361998871 0.0087688852143566268 0 0.022768320926183899 0.0098406717839274963 0 0.021932981054613117 0.009439791859828928 0 0.021717571377171702 0.0088660471680266795 0 0.019713491562173002 0.0094735478732908378 0 0.01910035739838015 0.0090184589843280722 0 0.019569013919020217 0.0092060400646352646 0 0.021717571377171702 0.0088660471680266795 0 0.021243842756922014 0.0090652540802573355 0 0.02067417397153079 0.0086263216190355946 0 0.021243842756922014 0.0090652540802573355 0 0.020570000840134845 0.0086878501480117283 0 0.02067417397153079 0.0086263216190355946 0 0.02165792646955194 0.009470150970139278 0 0.021932981054613117 0.009439791859828928 0 0.021243842756922014 0.0090652540802573355 0 0.02165792646955194 0.009470150970139278 0 0.021243842756922014 0.0090652540802573355 0 0.020898636349902553 0.0090821663726526579 0 0.02165792646955194 0.009470150970139278 0 0.020898636349902553 0.0090821663726526579 0 0.02117258435845152 0.0094149510278606005 0 0.021243842756922014 0.0090652540802573355 0 0.020898636349902553 0.0090821663726526579 0 0.020570000840134845 0.0086878501480117283 0 0.020466172213606481 0.0090261834355639444 0 0.020249343704688404 0.0093420915496626022 0 0.02117258435845152 0.0094149510278606005 0 0.020898636349902553 0.0090821663726526579 0 0.020466172213606481 0.0090261834355639444 0 0.020258523200507549 0.0086588638046066688 0 0.020898636349902553 0.0090821663726526579 0 0.020466172213606481 0.0090261834355639444 0 0.02117258435845152 0.0094149510278606005 0 0.020466172213606481 0.0090261834355639444 0 0.020249343704688404 0.0093420915496626022 0 0.01980312126982435 0.0086871525670004536 0 0.020146858393689029 0.0097707023357577975 0 0.020249343704688404 0.0093420915496626022 0 0.020932982690502627 0.0096002717043537703 0 0.020822731682147988 0.0098370493212612247 0 0.020932982690502627 0.0096002717043537703 0 0.021662613964740143 0.0098222768907920144 0 0.020146858393689029 0.0097707023357577975 0 0.020822731682147988 0.0098370493212612247 0 0.020932982690502627 0.0096002717043537703 0 0.020932982690502627 0.0096002717043537703 0 0.02117258435845152 0.0094149510278606005 0 0.022116028508424656 0.0098470006491223512 0 0.020249343704688404 0.0093420915496626022 0 0.020932982690502627 0.0096002717043537703 0 0.02117258435845152 0.0094149510278606005 0 0.020932982690502627 0.0096002717043537703 0 0.021662613964740143 0.0098222768907920144 0 0.022116028508424656 0.0098470006491223512 0 0.021662613964740143 0.0098222768907920144 0 0.022657884777164777 0.010030471892869717 0 0.022116028508424656 0.0098470006491223512 0 0.020822731682147988 0.0098370493212612247 0 0.021662613964740143 0.0098222768907920144 0 0.021388752300929553 0.010017025829236175 0 0.021662613964740143 0.0098222768907920144 0 0.021388752300929553 0.010017025829236175 0 0.022657884777164777 0.010030471892869717 0 0.021618755626371316 0.010358620073400007 0 0.021388752300929553 0.010017025829236175 0 0.022657884777164777 0.010030471892869717 0 0.024573018051692871 0.010547589959919799 0 0.022657884777164777 0.010030471892869717 0 0.023518702307716317 0.010326179534775151 0 0.024573018051692871 0.010547589959919799 0 0.021618755626371316 0.010358620073400007 0 0.022657884777164777 0.010030471892869717 0 0.023518702307716317 0.010326179534775151 0 0.022116028508424656 0.0098470006491223512 0 0.022819289111887797 0.010115610625505336 0 0.022317341587346846 0.0097910609266694988 0 0.022116028508424656 0.0098470006491223512 0 0.022819289111887797 0.010115610625505336 0 0.022657884777164777 0.010030471892869717 0 0.023518702307716317 0.010326179534775151 0 0.022116028508424656 0.0098470006491223512 0 0.022768320926183899 0.0098406717839274963 0 0.023104324626757496 0.010251405368932575 0 0.02308991409431722 0.010303515856939238 0 0.022768320926183899 0.0098406717839274963 0 0.022819289111887797 0.010115610625505336 0 0.023104324626757496 0.010251405368932575 0 0.022317341587346846 0.0097910609266694988 0 0.022768320926183899 0.0098406717839274963 0 0.022819289111887797 0.010115610625505336 0 0.023104324626757496 0.010251405368932575 0 0.023446241679924783 0.010095021256919105 0 0.02308991409431722 0.010303515856939238 0 0.023518702307716317 0.010326179534775151 0 0.023104324626757496 0.010251405368932575 0 0.023446241679924783 0.010095021256919105 0 0.023518702307716317 0.010326179534775151 0 0.022819289111887797 0.010115610625505336 0 0.023104324626757496 0.010251405368932575 0 0.020749645454530681 0.0082823889942271675 0 0.020455791280813151 0.0092959149382269048 0 0.020268091844088808 0.0089571674321913559 0 0.020660487297267754 0.0083508031347223101 0 0.021206254012170193 0.0098748204583267128 0 0.020455791280813151 0.0092959149382269048 0 0.020268091844088808 0.0089571674321913559 0 0.020090158645770902 0.0093284645438149131 0 0.020268091844088808 0.0089571674321913559 0 0.019644593436769196 0.0089464445388139583 0 0.020090158645770902 0.0093284645438149131 0 0.019644593436769196 0.0089464445388139583 0 0.020090158645770902 0.0093284645438149131 0 0.019908448652971086 0.0094190949796831101 0 0.020090158645770902 0.0093284645438149131 0 0.019908448652971086 0.0094190949796831101 0 0.020025161768391229 0.0095398690808085763 0 0.019908448652971086 0.0094190949796831101 0 0.020025161768391229 0.0095398690808085763 0 0.019977317947486081 0.0094268051174544367 0 0.02126150614463455 0.0096875580602232298 0 0.021206254012170193 0.0098748204583267128 0 0.019713491562173002 0.0094735478732908378 0 0.020046861963134353 0.0097221066538242442 0 0.020025161768391229 0.0095398690808085763 0 0.021206254012170193 0.0098748204583267128 0 0.020281792648844253 0.009514750881685647 0 0.020455791280813151 0.0092959149382269048 0 0.020090158645770902 0.0093284645438149131 0 0.020025161768391229 0.0095398690808085763 0 0.0344131734998279 0.0025322448979745375 0 0.033802902128479917 0.0038590611667276139 0 0.028346890057353597 0.0034102572614556994 0 0.02846833696494596 0.0050201376109622834 0 0.034806553329972671 0.0024838528971803512 0 0.033557101478808346 0.0049155346922047033 0 0.033324340150813953 0.0042172875789704767 0 0.022676720321367732 0.004223593487136015 0 0.022697260760712396 0.0047606087808084209 0 0.022473121101713851 0.0051721872780667562 0 0.034482971163906806 0.0023817712900008436 0 0.034806553329972671 0.0024838528971803512 0 0.033324340150813953 0.0042172875789704767 0 0.034482971163906806 0.0023817712900008436 0 0.034024624040104999 0.0029549279574515876 0 0.034369072122352393 0.0034640262318820624 0 0.034482971163906806 0.0023817712900008436 0 0.034120268927742725 0.0024397751186096472 0 0.034024624040104999 0.0029549279574515876 0 0.022676720321367732 0.004223593487136015 0 0.022697260760712396 0.0047606087808084209 0 0.022856071340899092 0.004536785017712628 0 0.023667661867970629 0.0042801389264485786 0 0.023161810434398734 0.0046582166880136232 0 0.023066301020411507 0.0053167285327385735 0 0.021778810493020821 0.0064755983419194155 0 0.021481941867467051 0.0074080968857274119 0 0.022697260760712396 0.0047606087808084209 0 0.022853328128331463 0.0047250749747507932 0 0.022831653960833101 0.0049399300816013918 0 0.022853328128331463 0.0047250749747507932 0 0.023161810434398734 0.0046582166880136232 0 0.022831653960833101 0.0049399300816013918 0 0.022853328128331463 0.0047250749747507932 0 0.022856071340899092 0.004536785017712628 0 0.023161810434398734 0.0046582166880136232 0 0.022697260760712396 0.0047606087808084209 0 0.022853328128331463 0.0047250749747507932 0 0.022856071340899092 0.004536785017712628 0 0.022676720321367732 0.004223593487136015 0 0.022856071340899092 0.004536785017712628 0 0.022931355906366559 0.004316972398436484 0 0.022931355906366559 0.004316972398436484 0 0.023188173400420189 0.0042162679510559234 0 0.023161810434398734 0.0046582166880136232 0 0.022856071340899092 0.004536785017712628 0 0.022931355906366559 0.004316972398436484 0 0.023161810434398734 0.0046582166880136232 0 0.023667661867970629 0.0042801389264485786 0 0.023188173400420189 0.0042162679510559234 0 0.023161810434398734 0.0046582166880136232 0 0.019644593436769196 0.0089464445388139583 0 0.019908448652971086 0.0094190949796831101 0 0.019933957220368816 0.0095077570160448949 0 0.019908448652971086 0.0094190949796831101 0 0.019933957220368816 0.0095077570160448949 0 0.019925561976467953 0.009340779069332129 0 0.023161810434398734 0.0046582166880136232 0 0.023066301020411507 0.0053167285327385735 0 0.022889725216310414 0.0051484752555274894 0 0.023066301020411507 0.0053167285327385735 0 0.022889725216310414 0.0051484752555274894 0 0.02158065811669704 0.0060625171297312907 0 0.023161810434398734 0.0046582166880136232 0 0.022889725216310414 0.0051484752555274894 0 0.022831653960833101 0.0049399300816013918 0 0.022889725216310414 0.0051484752555274894 0 0.022831653960833101 0.0049399300816013918 0 0.022747493225099277 0.0051335363149405356 0 0.022697260760712396 0.0047606087808084209 0 0.022678097619906804 0.0050376223234075883 0 0.022473121101713851 0.0051721872780667562 0 0.022697260760712396 0.0047606087808084209 0 0.022831653960833101 0.0049399300816013918 0 0.022678097619906804 0.0050376223234075883 0 0.022831653960833101 0.0049399300816013918 0 0.022678097619906804 0.0050376223234075883 0 0.022747493225099277 0.0051335363149405356 0 0.022678097619906804 0.0050376223234075883 0 0.022747493225099277 0.0051335363149405356 0 0.022641135892832068 0.0051690079491235998 0 0.022889725216310414 0.0051484752555274894 0 0.022747493225099277 0.0051335363149405356 0 0.022585338038949361 0.0053922728536620595 0 0.022678097619906804 0.0050376223234075883 0 0.022641135892832068 0.0051690079491235998 0 0.022473121101713851 0.0051721872780667562 0 0.022886969580682679 0.0050975974928360495 0 0.021778883620670389 0.0059793366263921023 0 0.022747493225099277 0.0051335363149405356 0 0.022641135892832068 0.0051690079491235998 0 0.022585338038949361 0.0053922728536620595 0 0.022641135892832068 0.0051690079491235998 0 0.022473121101713851 0.0051721872780667562 0 0.022585338038949361 0.0053922728536620595 0 0.022405338606941209 0.0056285150657206457 0 0.022473121101713851 0.0051721872780667562 0 0.022585338038949361 0.0053922728536620595 0 0.020748248870956398 0.0069185111108705667 0 0.02158065811669704 0.0060625171297312907 0 0.021390132616316424 0.0067965065707806527 0 0.024299024118339028 0.0060028656279199543 0 0.021778883620670389 0.0059793366263921023 0 0.02158065811669704 0.0060625171297312907 0 0.022042031114025928 0.0070894743119725434 0 0.021390132616316424 0.0067965065707806527 0 0.021481941867467051 0.0074080968857274119 0 0.021228289580373944 0.0080301583145348 0 0.023066301020411507 0.0053167285327385735 0 0.02158065811669704 0.0060625171297312907 0 0.022042031114025928 0.0070894743119725434 0 0.019933957220368816 0.0095077570160448949 0 0.019925561976467953 0.009340779069332129 0 0.02041339548196909 0.0091092066945891899 0 0.019925561976467953 0.009340779069332129 0 0.02041339548196909 0.0091092066945891899 0 0.019909235988859023 0.0090597461338749238 0 0.02041339548196909 0.0091092066945891899 0 0.019909235988859023 0.0090597461338749238 0 0.020177911389851946 0.0084555336359506943 0 0.022042031114025928 0.0070894743119725434 0 0.021224167408132235 0.0073269611763680971 0 0.021390132616316424 0.0067965065707806527 0 0.022042031114025928 0.0070894743119725434 0 0.021224167408132235 0.0073269611763680971 0 0.021210887353172423 0.0076090390680560206 0 0.020893959732510604 0.0072800343662985292 0 0.021224167408132235 0.0073269611763680971 0 0.021390132616316424 0.0067965065707806527 0 0.019713491562173002 0.0094735478732908378 0 0.019977317947486081 0.0094268051174544367 0 0.019569013919020217 0.0092060400646352646 0 0.019713491562173002 0.0094735478732908378 0 0.020025161768391229 0.0095398690808085763 0 0.019977317947486081 0.0094268051174544367 0 0.019895462325451845 0.0094142331317107458 0 0.019797756789763695 0.0093551749335503229 0 0.019908448652971086 0.0094190949796831101 0 0.019925561976467953 0.009340779069332129 0 0.019648722640602224 0.0093175027412809378 0 0.019925561976467953 0.009340779069332129 0 0.019648722640602224 0.0093175027412809378 0 0.019909235988859023 0.0090597461338749238 0 0.019648722640602224 0.0093175027412809378 0 0.019909235988859023 0.0090597461338749238 0 0.019539804592925685 0.0088648767992247947 0 0.019909235988859023 0.0090597461338749238 0 0.019539804592925685 0.0088648767992247947 0 0.020177911389851946 0.0084555336359506943 0 0.019977317947486081 0.0094268051174544367 0 0.019569013919020217 0.0092060400646352646 0 0.019461620361998871 0.0087688852143566268 0 0.019648722640602224 0.0093175027412809378 0 0.019539804592925685 0.0088648767992247947 0 0.019049974051956201 0.0087557069974240447 0 0.019797756789763695 0.0093551749335503229 0 0.019206330258596853 0.0087639276271569144 0 0.019049974051956201 0.0087557069974240447 0 0.019581317107435135 0.0083960012014028269 0 0.019200507061792181 0.0078764515821441606 0 0.019539804592925685 0.0088648767992247947 0 0.019049974051956201 0.0087557069974240447 0 0.019581317107435135 0.0083960012014028269 0 0.01947707252266927 0.0088658006661945545 0 0.020776162363858729 0.0077412290747550672 0 0.019539804592925685 0.0088648767992247947 0 0.019581317107435135 0.0083960012014028269 0 0.020698115224994682 0.0079759132489345842 0 0.019539804592925685 0.0088648767992247947 0 0.01989655783897697 0.0077716918981820989 0 0.020177911389851946 0.0084555336359506943 0 0.019581317107435135 0.0083960012014028269 0 0.020698115224994682 0.0079759132489345842 0 0.019200507061792181 0.0078764515821441606 0 0.020698115224994682 0.0079759132489345842 0 0.019200507061792181 0.0078764515821441606 0 0.019850620238974818 0.0069452356901717185 0 0.019049974051956201 0.0087557069974240447 0 0.019200507061792181 0.0078764515821441606 0 0.018108361464356692 0.0078411319732975982 0 0.019200507061792181 0.0078764515821441606 0 0.018628690980497267 0.0067934162743307535 0 0.018108361464356692 0.0078411319732975982 0 0.021228289580373944 0.0080301583145348 0 0.02105395860759051 0.0079946072245523671 0 0.022042031114025928 0.0070894743119725434 0 0.021210887353172423 0.0076090390680560206 0 0.020998746734823888 0.0080070540542405543 0 0.02104106046756922 0.0079201054368910062 0 0.02108571135339244 0.0078122681811274818 0 0.020998746734823888 0.0080070540542405543 0 0.02104106046756922 0.0079201054368910062 0 0.021210887353172423 0.0076090390680560206 0 0.020998746734823888 0.0080070540542405543 0 0.02104106046756922 0.0079201054368910062 0 0.020982725264127661 0.0075667226259643295 0 0.021210887353172423 0.0076090390680560206 0 0.020982725264127661 0.0075667226259643295 0 0.021224167408132235 0.0073269611763680971 0 0.021210887353172423 0.0076090390680560206 0 0.020998746734823888 0.0080070540542405543 0 0.020177911389851946 0.0084555336359506943 0 0.020403039636834333 0.0078749669378597158 0 0.02041339548196909 0.0091092066945891899 0 0.020998746734823888 0.0080070540542405543 0 0.020177911389851946 0.0084555336359506943 0 0.01989655783897697 0.0077716918981820989 0 0.020177911389851946 0.0084555336359506943 0 0.020403039636834333 0.0078749669378597158 0 0.01989655783897697 0.0077716918981820989 0 0.020556983035947315 0.0075369673646834903 0 0.020471741328150571 0.0072579548024548036 0 0.01989655783897697 0.0077716918981820989 0 0.020403039636834333 0.0078749669378597158 0 0.020556983035947315 0.0075369673646834903 0 0.020998746734823888 0.0080070540542405543 0 0.020403039636834333 0.0078749669378597158 0 0.020899610281994961 0.0076932970577425659 0 0.020403039636834333 0.0078749669378597158 0 0.020899610281994961 0.0076932970577425659 0 0.020556983035947315 0.0075369673646834903 0 0.020556983035947315 0.0075369673646834903 0 0.020878070272287295 0.0074441619113212922 0 0.020689658967107158 0.0072995574973044406 0 0.020899610281994961 0.0076932970577425659 0 0.020556983035947315 0.0075369673646834903 0 0.020878070272287295 0.0074441619113212922 0 0.020556983035947315 0.0075369673646834903 0 0.020689658967107158 0.0072995574973044406 0 0.020471741328150571 0.0072579548024548036 0 0.021105511927725799 0.0075659982698357171 0 0.020899610281994961 0.0076932970577425659 0 0.020878070272287295 0.0074441619113212922 0 0.021105511927725799 0.0075659982698357171 0 0.020878070272287295 0.0074441619113212922 0 0.02104706131852771 0.0073280251118862209 0 0.02108571135339244 0.0078122681811274818 0 0.021105511927725799 0.0075659982698357171 0 0.020899610281994961 0.0076932970577425659 0 0.02108571135339244 0.0078122681811274818 0 0.020998746734823888 0.0080070540542405543 0 0.020899610281994961 0.0076932970577425659 0 0.021054894880521948 0.0067227994374994505 0 0.020864514423290927 0.0068068506928217563 0 0.020709966113939642 0.0065904607164671255 0 0.021054894880521948 0.0067227994374994505 0 0.020864514423290927 0.0068068506928217563 0 0.020967173054553586 0.0070163171658808006 0 0.020864514423290927 0.0068068506928217563 0 0.020724574566820107 0.0068893391394983933 0 0.020709966113939642 0.0065904607164671255 0 0.020967173054553586 0.0070163171658808006 0 0.020710106881588489 0.007109236539089527 0 0.020724574566820107 0.0068893391394983933 0 0.020864514423290927 0.0068068506928217563 0 0.020967173054553586 0.0070163171658808006 0 0.020724574566820107 0.0068893391394983933 0 0.020967173054553586 0.0070163171658808006 0 0.02104706131852771 0.0073280251118862209 0 0.020870589871397515 0.0072351724520576489 0 0.020878070272287295 0.0074441619113212922 0 0.02104706131852771 0.0073280251118862209 0 0.020870589871397515 0.0072351724520576489 0 0.020967173054553586 0.0070163171658808006 0 0.020870589871397515 0.0072351724520576489 0 0.020710106881588489 0.007109236539089527 0 0.020878070272287295 0.0074441619113212922 0 0.020870589871397515 0.0072351724520576489 0 0.020689658967107158 0.0072995574973044406 0 0.020870589871397515 0.0072351724520576489 0 0.020710106881588489 0.007109236539089527 0 0.020689658967107158 0.0072995574973044406 0 0.020710106881588489 0.007109236539089527 0 0.020689658967107158 0.0072995574973044406 0 0.020471741328150571 0.0072579548024548036 0 0.020710106881588489 0.007109236539089527 0 0.020570147684752668 0.0069908915300565116 0 0.020471741328150571 0.0072579548024548036 0 0.020570147684752668 0.0069908915300565116 0 0.020544598945037316 0.006825810130631077 0 0.020402205156669878 0.006874752594700227 0 0.020570147684752668 0.0069908915300565116 0 0.020724574566820107 0.0068893391394983933 0 0.020544598945037316 0.006825810130631077 0 0.020544598945037316 0.006825810130631077 0 0.020330994358008985 0.0068084436151016848 0 0.020709966113939642 0.0065904607164671255 0 0.020710106881588489 0.007109236539089527 0 0.020570147684752668 0.0069908915300565116 0 0.020724574566820107 0.0068893391394983933 0 0.020724574566820107 0.0068893391394983933 0 0.020544598945037316 0.006825810130631077 0 0.020709966113939642 0.0065904607164671255 0 0.020776162363858729 0.0077412290747550672 0 0.017951873092618493 0.0061332344914561019 0 0.01989655783897697 0.0077716918981820989 0 0.020342952021277137 0.0068039349331153378 0 0.020402205156669878 0.006874752594700227 0 0.01989655783897697 0.0077716918981820989 0 0.020402205156669878 0.006874752594700227 0 0.020471741328150571 0.0072579548024548036 0 0.020698115224994682 0.0079759132489345842 0 0.022147107375256013 0.0060929441345185216 0 0.020822824729960502 0.0066780767252456012 0 0.020544598945037316 0.006825810130631077 0 0.020330994358008985 0.0068084436151016848 0 0.020402205156669878 0.006874752594700227 0 0.017951873092618493 0.0061332344914561019 0 0.018228370166519202 0.0063675453273993599 0 0.020570147684752668 0.0069908915300565116 0 0.020402205156669878 0.006874752594700227 0 0.020471741328150571 0.0072579548024548036 0 0.022147107375256013 0.0060929441345185216 0 0.02117976179963375 0.0057824340340877156 0 0.020822824729960502 0.0066780767252456012 0 0.012445201964038997 0.0055035190310525539 0 0.011659808496273804 0.0045744377953730667 0 0.012301444879427909 0.0041922084340489975 0 0.012445201964038997 0.0055035190310525539 0 0.012998856355005826 0.0045043214301013516 0 0.012301444879427909 0.0041922084340489975 0 0.022147107375256013 0.0060929441345185216 0 0.02117976179963375 0.0057824340340877156 0 0.021196632684150066 0.0047186012103013087 0 0.017951873092618493 0.0061332344914561019 0 0.016290443970728423 0.0045252849525714532 0 0.020330994358008985 0.0068084436151016848 0 0.020709966113939642 0.0065904607164671255 0 0.020609974889908355 0.0060861580237095243 0 0.017951873092618493 0.0061332344914561019 0 0.016727325635240313 0.0056456643885423666 0 0.020609974889908355 0.0060861580237095243 0 0.020912539119885148 0.0062469343447837458 0 0.020935819507426318 0.0058292430630176315 0 0.020709966113939642 0.0065904607164671255 0 0.020609974889908355 0.0060861580237095243 0 0.020912539119885148 0.0062469343447837458 0 0.021099572821468994 0.0061248646909875604 0 0.020912539119885148 0.0062469343447837458 0 0.020935819507426318 0.0058292430630176315 0 0.021076711162305427 0.0064534017225890174 0 0.021099572821468994 0.0061248646909875604 0 0.020912539119885148 0.0062469343447837458 0 0.021076711162305427 0.0064534017225890174 0 0.021054894880521948 0.0067227994374994505 0 0.020709966113939642 0.0065904607164671255 0 0.021076711162305427 0.0064534017225890174 0 0.020709966113939642 0.0065904607164671255 0 0.020912539119885148 0.0062469343447837458 0 0.018628690980497267 0.0067934162743307535 0 0.019850620238974818 0.0069452356901717185 0 0.019768422495031728 0.0057786268342967665 0 0.019200507061792181 0.0078764515821441606 0 0.018628690980497267 0.0067934162743307535 0 0.019850620238974818 0.0069452356901717185 0 0.020698115224994682 0.0079759132489345842 0 0.019850620238974818 0.0069452356901717185 0 0.020822824729960502 0.0066780767252456012 0 0.019850620238974818 0.0069452356901717185 0 0.020822824729960502 0.0066780767252456012 0 0.020495801453025549 0.0060896597716767606 0 0.02117976179963375 0.0057824340340877156 0 0.020822824729960502 0.0066780767252456012 0 0.020495801453025549 0.0060896597716767606 0 0.019850620238974818 0.0069452356901717185 0 0.020495801453025549 0.0060896597716767606 0 0.019768422495031728 0.0057786268342967665 0 0.020843471409132366 0.0052054316894382634 0 0.019457057273897609 0.0042929197333861895 0 0.020358264369210847 0.0024699584252825873 0 0.021196632684150066 0.0047186012103013087 0 0.020843471409132366 0.0052054316894382634 0 0.020023385433915478 0.0033815386373775755 0 0.020495801453025549 0.0060896597716767606 0 0.019768422495031728 0.0057786268342967665 0 0.020843471409132366 0.0052054316894382634 0 0.019768422495031728 0.0057786268342967665 0 0.020843471409132366 0.0052054316894382634 0 0.019457057273897609 0.0042929197333861895 0 0.02117976179963375 0.0057824340340877156 0 0.020495801453025549 0.0060896597716767606 0 0.020843471409132366 0.0052054316894382634 0 0.02117976179963375 0.0057824340340877156 0 0.021196632684150066 0.0047186012103013087 0 0.020843471409132366 0.0052054316894382634 0 0.018628690980497267 0.0067934162743307535 0 0.019768422495031728 0.0057786268342967665 0 0.017890429065299796 0.0050300086878682223 0 0.019457057273897609 0.0042929197333861895 0 0.017890429065299796 0.0050300086878682223 0 0.01826820831561194 0.002645259669220136 0 0.019768422495031728 0.0057786268342967665 0 0.019457057273897609 0.0042929197333861895 0 0.017890429065299796 0.0050300086878682223 0 0.017890429065299796 0.0050300086878682223 0 0.014593333970205005 0.0042832453925290793 0 0.01660254938645065 0.0063041097929410232 0 0.014593333970205005 0.0042832453925290793 0 0.014512209330455529 0.0073590778017199807 0 0.01660254938645065 0.0063041097929410232 0 0.014593333970205005 0.0042832453925290793 0 0.014512209330455529 0.0073590778017199807 0 0.010682048804551012 0.0042398333380669244 0 0.014512209330455529 0.0073590778017199807 0 0.01660254938645065 0.0063041097929410232 0 0.018108361464356692 0.0078411319732975982 0 0.018628690980497267 0.0067934162743307535 0 0.01660254938645065 0.0063041097929410232 0 0.018108361464356692 0.0078411319732975982 0 0.018628690980497267 0.0067934162743307535 0 0.017890429065299796 0.0050300086878682223 0 0.01660254938645065 0.0063041097929410232 0 0.019461620361998871 0.0087688852143566268 0 0.018343932023300834 0.0082003477335738668 0 0.018108361464356692 0.0078411319732975982 0 0.019206330258596853 0.0087639276271569144 0 0.018250808697198206 0.0078766887703715337 0 0.017337601705517972 0.0074529776875952259 0 0.018828589613326802 0.0082419475863852384 0 0.020252780295465622 0.0079052255310139447 0 0.019965344890546719 0.0083309465396570782 0 0.020012717937323354 0.0083815995701218438 0 0.014512209330455529 0.0073590778017199807 0 0.018343932023300834 0.0082003477335738668 0 0.018108361464356692 0.0078411319732975982 0 0.020252780295465622 0.0079052255310139447 0 0.01917652543701738 0.0083932664007632541 0 0.019965344890546719 0.0083309465396570782 0 0.014512209330455529 0.0073590778017199807 0 0.018343932023300834 0.0082003477335738668 0 0.01917652543701738 0.0083932664007632541 0 0.019965344890546719 0.0083309465396570782 0 0.020191767156720348 0.008471611379743579 0 0.020012717937323354 0.0083815995701218438 0 0.01917652543701738 0.0083932664007632541 0 0.020136270144667259 0.0084284246199867151 0 0.02067417397153079 0.0086263216190355946 0 0.01917652543701738 0.0083932664007632541 0 0.019965344890546719 0.0083309465396570782 0 0.020136270144667259 0.0084284246199867151 0 0.020136270144667259 0.0084284246199867151 0 0.020191767156720348 0.008471611379743579 0 0.020570000840134845 0.0086878501480117283 0 0.019965344890546719 0.0083309465396570782 0 0.020136270144667259 0.0084284246199867151 0 0.020191767156720348 0.008471611379743579 0 0.020898636349902553 0.0090821663726526579 0 0.020570000840134845 0.0086878501480117283 0 0.020258523200507549 0.0086588638046066688 0 0.020191767156720348 0.008471611379743579 0 0.020570000840134845 0.0086878501480117283 0 0.020258523200507549 0.0086588638046066688 0 0.020136270144667259 0.0084284246199867151 0 0.020570000840134845 0.0086878501480117283 0 0.02067417397153079 0.0086263216190355946 0 0.020269006234915374 0.0090162688179348978 0 0.018771950415327251 0.0083280620653487254 0 0.01910035739838015 0.0090184589843280722 0 0.019461620361998871 0.0087688852143566268 0 0.018343932023300834 0.0082003477335738668 0 0.021717571377171702 0.0088660471680266795 0 0.018343932023300834 0.0082003477335738668 0 0.01917652543701738 0.0083932664007632541 0 0.021717571377171702 0.0088660471680266795 0 0.01917652543701738 0.0083932664007632541 0 0.02067417397153079 0.0086263216190355946 0 0.019253478016071791 0.0090321485355506943 0 0.020249343704688404 0.0093420915496626022 0 0.01980312126982435 0.0086871525670004536 0 0.019253478016071791 0.0090321485355506943 0 0.01980312126982435 0.0086871525670004536 0 0.01868214050269287 0.0082364983195653534 0 0.020466172213606481 0.0090261834355639444 0 0.01980312126982435 0.0086871525670004536 0 0.020258523200507549 0.0086588638046066688 0 0.020191767156720348 0.008471611379743579 0 0.020258523200507549 0.0086588638046066688 0 0.020012717937323354 0.0083815995701218438 0 0.01980312126982435 0.0086871525670004536 0 0.020258523200507549 0.0086588638046066688 0 0.020012717937323354 0.0083815995701218438 0 0.01980312126982435 0.0086871525670004536 0 0.020012717937323354 0.0083815995701218438 0 0.019346878658178666 0.0079690181144168835 0 0.020252780295465622 0.0079052255310139447 0 0.020012717937323354 0.0083815995701218438 0 0.019346878658178666 0.0079690181144168835 0 0.01980312126982435 0.0086871525670004536 0 0.01868214050269287 0.0082364983195653534 0 0.019346878658178666 0.0079690181144168835 0 0.017824623341850775 0.0072583290642059123 0 0.019346878658178666 0.0079690181144168835 0 0.019353359464774986 0.0062303391586526376 0 0.017824623341850775 0.0072583290642059123 0 0.01868214050269287 0.0082364983195653534 0 0.019346878658178666 0.0079690181144168835 0 0.020252780295465622 0.0079052255310139447 0 0.019346878658178666 0.0079690181144168835 0 0.019353359464774986 0.0062303391586526376 0 0.017337601705517972 0.0074529776875952259 0 0.014995475955363989 0.0051816171656168782 0 0.017824623341850775 0.0072583290642059123 0 0.019353359464774986 0.0062303391586526376 0 0.016682758711923366 0.0057093240564241726 0 0.019353359464774986 0.0062303391586526376 0 0.01780382887197824 0.0042676672561462164 0 0.016682758711923366 0.0057093240564241726 0 0.014995475955363989 0.0051816171656168782 0 0.012708311228242954 0.002200658083939364 0 0.010682048804551012 0.0042398333380669244 0 0.0073996685531495902 0.00012581937103108191 0 0.01219467769594706 0.00046610396246509075 0 0.0073996685531495902 0.00012581937103108191 0 0.00959294955509544 -0.0016739347028169199 0 0.01219467769594706 0.00046610396246509075 0 0.0073996685531495902 0.00012581937103108191 0 0.00959294955509544 -0.0016739347028169199 0 0.0063280680042489173 -0.0028661180338445062 0 0.0073996685531495902 0.00012581937103108191 0 0.0063280680042489173 -0.0028661180338445062 0 0.0077747128797564513 -0.0024702378004346952 0 0.00959294955509544 -0.0016739347028169199 0 0.010246458250745964 -0.0051233122823126295 0 0.0063280680042489173 -0.0028661180338445062 0 0.00959294955509544 -0.0016739347028169199 0 0.010246458250745964 -0.0051233122823126295 0 0.012939956393101701 -0.0027039099252144073 0 0.005903572202756867 -0.0030987399173770646 0 0.0060719986436324072 -0.0029462942614249268 0 0.00081019745200499411 -0.0010091721533972467 0 0.0063280680042489173 -0.0028661180338445062 0 0.0029862795490603528 0.0020883101134275511 0 0.0063280680042489173 -0.0028661180338445062 0 0.0029862795490603528 0.0020883101134275511 0 0.0081053862797407263 -0.00048532040830444724 0 0.0063280680042489173 -0.0028661180338445062 0 0.0077747128797564513 -0.0024702378004346952 0 0.0081053862797407263 -0.00048532040830444724 0 0.0095259387504318793 -0.0002528560845368269 0 0.0078341716145524671 -0.00067594112703607827 0 0.0098857148216666864 -0.0015801909359916351 0 0.0095259387504318793 -0.0002528560845368269 0 0.010721007155660888 0.00050786759462629195 0 0.0098857148216666864 -0.0015801909359916351 0 0.004738362525658282 -0.00057521229547714966 0 0.013187965012872347 -0.0011328961942347279 0 0.0095259387504318793 -0.0002528560845368269 0 0.0078341716145524671 -0.00067594112703607827 0 0.0093443407541805024 0.0011225263344249341 0 0.0095259387504318793 -0.0002528560845368269 0 0.0093443407541805024 0.0011225263344249341 0 0.010721007155660888 0.00050786759462629195 0 0.013354548653704093 -0.006486322601402591 0 0.012939956393101701 -0.0027039099252144073 0 0.016068604665083811 -0.0032588759015455761 0 0.010246458250745964 -0.0051233122823126295 0 0.013354548653704093 -0.006486322601402591 0 0.012939956393101701 -0.0027039099252144073 0 0.005903572202756867 -0.0030987399173770646 0 0.004738362525658282 -0.00057521229547714966 0 0.00959294955509544 -0.0016739347028169199 0 0.012939956393101701 -0.0027039099252144073 0 0.01219467769594706 0.00046610396246509075 0 0.013187965012872347 -0.0011328961942347279 0 0.014648466604826035 0.0013389452429574467 0 0.012939956393101701 -0.0027039099252144073 0 0.016068604665083811 -0.0032588759015455761 0 0.015295245521429857 -0.00065025631548171398 0 0.016068604665083811 -0.0032588759015455761 0 0.015295245521429857 -0.00065025631548171398 0 0.018443737494883698 -0.00027522818569559722 0 0.015295245521429857 -0.00065025631548171398 0 0.015773821719579025 0.0020807712170088886 0 0.018443737494883698 -0.00027522818569559722 0 0.015295245521429857 -0.00065025631548171398 0 0.01219467769594706 0.00046610396246509075 0 0.015773821719579025 0.0020807712170088886 0 0.012939956393101701 -0.0027039099252144073 0 0.015295245521429857 -0.00065025631548171398 0 0.01219467769594706 0.00046610396246509075 0 0.014593333970205005 0.0042832453925290793 0 0.010682048804551012 0.0042398333380669244 0 0.01219467769594706 0.00046610396246509075 0 0.014593333970205005 0.0042832453925290793 0 0.01219467769594706 0.00046610396246509075 0 0.015773821719579025 0.0020807712170088886 0 0.017890429065299796 0.0050300086878682223 0 0.014593333970205005 0.0042832453925290793 0 0.015773821719579025 0.0020807712170088886 0 0.017890429065299796 0.0050300086878682223 0 0.015773821719579025 0.0020807712170088886 0 0.01826820831561194 0.002645259669220136 0 0.019457057273897609 0.0042929197333861895 0 0.01826820831561194 0.002645259669220136 0 0.020358264369210847 0.0024699584252825873 0 0.021433000050652597 0.0051147472413991023 0 0.015915503619251408 0.0035362192544406163 0 0.011659808496273804 0.0045744377953730667 0 0.01088639668824393 0.0036503220633928297 0 0.0119560671302332 0.0035914159616093804 0 0.016290443970728423 0.0045252849525714532 0 0.015915503619251408 0.0035362192544406163 0 0.015915503619251408 0.0035362192544406163 0 0.010700680587933362 0.0024666815828477905 0 0.01088639668824393 0.0036503220633928297 0 0.011450992283070281 0.0026238813311046704 0 0.01039479579518277 0.0024199303709557412 0 0.01088639668824393 0.0036503220633928297 0 0.011450992283070281 0.0026238813311046704 0 0.0119560671302332 0.0035914159616093804 0 0.012455951688066496 0.0047638553465545186 0 0.010881735226216121 0.002933650693975047 0 0.011579196021025548 0.0026222099481348253 0 0.01826820831561194 0.002645259669220136 0 0.020358264369210847 0.0024699584252825873 0 0.018443737494883698 -0.00027522818569559722 0 0.015915503619251408 0.0035362192544406163 0 0.014648466604826035 0.0013389452429574467 0 0.015773821719579025 0.0020807712170088886 0 0.01826820831561194 0.002645259669220136 0 0.018443737494883698 -0.00027522818569559722 0 0.012998856355005826 0.0045043214301013516 0 0.012837959467754982 0.0036296101836285699 0 0.013576707090191844 0.0034646051113916242 0 0.016727325635240313 0.0056456643885423666 0 0.013644708791949858 0.00079751650623484545 0 0.020609974889908355 0.0060861580237095243 0 0.020935819507426318 0.0058292430630176315 0 0.021004024040700352 0.0052316775941047165 0 0.012837959467754982 0.0036296101836285699 0 0.013432715516723696 0.0032096800138125253 0 0.013576707090191844 0.0034646051113916242 0 0.020935819507426318 0.0058292430630176315 0 0.021061089410317969 0.0054104057342398331 0 0.021004024040700352 0.0052316775941047165 0 0.012715695972340218 0.00084335029490995408 0 0.013644708791949858 0.00079751650623484545 0 0.012998856355005826 0.0045043214301013516 0 0.012837959467754982 0.0036296101836285699 0 0.012301444879427909 0.0041922084340489975 0 0.012837959467754982 0.0036296101836285699 0 0.0119560671302332 0.0035914159616093804 0 0.012463229372353531 0.0029990956216258474 0 0.012837959467754982 0.0036296101836285699 0 0.012301444879427909 0.0041922084340489975 0 0.0119560671302332 0.0035914159616093804 0 0.011659808496273804 0.0045744377953730667 0 0.012301444879427909 0.0041922084340489975 0 0.0119560671302332 0.0035914159616093804 0 0.011450992283070281 0.0026238813311046704 0 0.012463229372353531 0.0029990956216258474 0 0.012730715324378203 0.0018437722191223097 0 0.011450992283070281 0.0026238813311046704 0 0.0119560671302332 0.0035914159616093804 0 0.012463229372353531 0.0029990956216258474 0 0.010556589516647291 -0.0008299979986641959 0 0.010370127781066942 -0.0022389524569336378 0 0.010721739812133623 -0.00051649184797757423 0 0.010370127781066942 -0.0022389524569336378 0 0.011433464772414184 -0.0013002097773680864 0 0.011029654944744846 -0.0018300633757381824 0 0.010556589516647291 -0.0008299979986641959 0 0.010370127781066942 -0.0022389524569336378 0 0.0098760652584848549 -0.0025444872775597801 0 0.012715695972340218 0.00084335029490995408 0 0.010720083854584988 -0.00016048967535687265 0 0.012463229372353531 0.0029990956216258474 0 0.013432715516723696 0.0032096800138125253 0 0.012730715324378203 0.0018437722191223097 0 0.0099368438677393152 -0.0030146152784811938 0 0.013644708791949858 0.00079751650623484545 0 0.012837959467754982 0.0036296101836285699 0 0.012463229372353531 0.0029990956216258474 0 0.013432715516723696 0.0032096800138125253 0 0.010370127781066942 -0.0022389524569336378 0 0.0098760652584848549 -0.0025444872775597801 0 0.010061133261735633 -0.0026159028718048256 0 0.010370127781066942 -0.0022389524569336378 0 0.011029654944744846 -0.0018300633757381824 0 0.01093601276478952 -0.0020805063157601292 0 0.011450992283070281 0.0026238813311046704 0 0.012730715324378203 0.0018437722191223097 0 0.011600866429610536 0.0015575197535866287 0 0.011600866429610536 0.0015575197535866287 0 0.012041694723625186 0.0005102075645344044 0 0.011178655901998196 0.0010061293422887194 0 0.012730715324378203 0.0018437722191223097 0 0.011600866429610536 0.0015575197535866287 0 0.012041694723625186 0.0005102075645344044 0 0.010720083854584988 -0.00016048967535687265 0 0.011185349131930426 0.00038014516337839558 0 0.0098026482136741259 0.00011229412193364926 0 0.0096799972679502411 -1.0313285004435621e-05 0 0.0096965569209666556 -1.8654992767313501e-05 0 0.010720083854584988 -0.00016048967535687265 0 0.0098204745170156604 -0.0012710055533027946 0 0.0098760652584848549 -0.0025444872775597801 0 0.0086800494440101763 -0.0019343919611285959 0 0.0095040681644919505 -0.0019234379239697153 0 0.0098760652584848549 -0.0025444872775597801 0 0.0086800494440101763 -0.0019343919611285959 0 0.010061133261735633 -0.0026159028718048256 0 0.01039479579518277 0.0024199303709557412 0 0.01073574322673871 0.0016434030557862204 0 0.0099535273819596551 0.0012154511662927291 0 0.010700680587933362 0.0024666815828477905 0 0.010618370135102865 0.00074163146503739106 0 0.0093443407541805024 0.0011225263344249341 0 0.010881735226216121 0.002933650693975047 0 0.010721007155660888 0.00050786759462629195 0 0.010881735226216121 0.002933650693975047 0 0.011579196021025548 0.0026222099481348253 0 0.010721007155660888 0.00050786759462629195 0 0.011450992283070281 0.0026238813311046704 0 0.011600866429610536 0.0015575197535866287 0 0.01073574322673871 0.0016434030557862204 0 0.011450992283070281 0.0026238813311046704 0 0.01039479579518277 0.0024199303709557412 0 0.01073574322673871 0.0016434030557862204 0 0.01073574322673871 0.0016434030557862204 0 0.011178655901998196 0.0010061293422887194 0 0.010366181349898656 0.0010491905408360925 0 0.011600866429610536 0.0015575197535866287 0 0.01073574322673871 0.0016434030557862204 0 0.011178655901998196 0.0010061293422887194 0 0.012041694723625186 0.0005102075645344044 0 0.011178655901998196 0.0010061293422887194 0 0.011137333003391457 0.00026166990039190851 0 0.011178655901998196 0.0010061293422887194 0 0.010366181349898656 0.0010491905408360925 0 0.011137333003391457 0.00026166990039190851 0 0.010618370135102865 0.00074163146503739106 0 0.0049460570070650944 0.0014341168454594755 0 0.010366181349898656 0.0010491905408360925 0 0.0099535273819596551 0.0012154511662927291 0 0.010309628929350678 0.00034972832158669352 0 0.0099535273819596551 0.0012154511662927291 0 0.010309628929350678 0.00034972832158669352 0 0.0095937549499747182 0.00028830064335566444 0 0.01073574322673871 0.0016434030557862204 0 0.010366181349898656 0.0010491905408360925 0 0.0099535273819596551 0.0012154511662927291 0 0.010309628929350678 0.00034972832158669352 0 0.010693191196303131 -0.00020633089658497297 0 0.0095937549499747182 0.00028830064335566444 0 0.0028154204750532445 0.0023748509639151243 0 0.0029903125484560451 0.0024131546134077354 0 0.0030773677908938098 0.002258983718628438 0 0.0080175174907677581 0.0006734586724209588 0 0.0049460570070650944 0.0014341168454594755 0 0.01121049445811074 0.0003906706349487459 0 0.0080175174907677581 0.0006734586724209588 0 0.011137333003391457 0.00026166990039190851 0 0.010905431766833597 -0.00063238037259345087 0 0.011367956339546044 -0.00083831468072136659 0 0.010366181349898656 0.0010491905408360925 0 0.010309628929350678 0.00034972832158669352 0 0.010693191196303131 -0.00020633089658497297 0 0.010366181349898656 0.0010491905408360925 0 0.011137333003391457 0.00026166990039190851 0 0.010905431766833597 -0.00063238037259345087 0 0.0072096230091651748 0.00057499949651777045 0 0.0065771521044435703 0.00085767537487706842 0 0.0068877570875620613 0.0015352641257892327 0 0.0080175174907677581 0.0006734586724209588 0 0.0050702982626908968 0.0019945192690833053 0 0.0080175174907677581 0.0006734586724209588 0 0.0082694503971621775 0.00056335668255705568 0 0.0082694503971621775 0.00056335668255705568 0 0.0050702982626908968 0.0019945192690833053 0 0.0057316536236793232 0.0017313083879095324 0 0.005794445295096734 0.0018910855118696856 0 0.0056513196328634224 0.0017669839447006456 0 0.005794445295096734 0.0018910855118696856 0 0.0056513196328634224 0.0017669839447006456 0 0.0057375654273852323 0.0020395291612933146 0 0.0070674633854365043 0.0011948786363217678 0 0.0033032572365437412 0.0027669143606524451 0 0.0028154204750532445 0.0023748509639151243 0 0.0027558623641884814 0.0025132026280741656 0 0.0028265506913234088 0.0025162939263145036 0 0.0028154204750532445 0.0023748509639151243 0 0.0028265506913234088 0.0025162939263145036 0 0.0029068672278985646 0.0024879097546614795 0 0.0027558623641884814 0.0025132026280741656 0 0.0028265506913234088 0.0025162939263145036 0 0.0027744556537838 0.002581963792601802 0 0.0028154204750532445 0.0023748509639151243 0 0.0029068672278985646 0.0024879097546614795 0 0.0029903125484560451 0.0024131546134077354 0 0.0028265506913234088 0.0025162939263145036 0 0.0029068672278985646 0.0024879097546614795 0 0.0028811730410982592 0.0026258423291592309 0 0.0029903125484560451 0.0024131546134077354 0 0.0030100857246459127 0.0025505897211023335 0 0.0031210162230062943 0.0024458634784672675 0 0.0029068672278985646 0.0024879097546614795 0 0.0029903125484560451 0.0024131546134077354 0 0.0030100857246459127 0.0025505897211023335 0 0.0086800494440101763 -0.0019343919611285959 0 0.0087952500384321664 -0.00045707937584679541 0 0.0066835094801534836 0.00042543204612008291 0 0.0086800494440101763 -0.0019343919611285959 0 0.0087952500384321664 -0.00045707937584679541 0 0.0095040681644919505 -0.0019234379239697153 0 0.0098204745170156604 -0.0012710055533027946 0 0.0070674633854365043 0.0011948786363217678 0 0.0087952500384321664 -0.00045707937584679541 0 0.0095040681644919505 -0.0019234379239697153 0 0.010531331390405338 0.00050836105668534688 0 0.012041694723625186 0.0005102075645344044 0 0.011137333003391457 0.00026166990039190851 0 0.011367956339546044 -0.00083831468072136659 0 0.009568783174741578 -0.00012486087656181591 0 0.0096965569209666556 -1.8654992767313501e-05 0 0.0095926805826162601 -0.00013606532499448002 0 0.0096799972679502411 -1.0313285004435621e-05 0 0.009568783174741578 -0.00012486087656181591 0 0.0096965569209666556 -1.8654992767313501e-05 0 0.011185349131930426 0.00038014516337839558 0 0.0082694503971621775 0.00056335668255705568 0 0.0082694503971621775 0.00056335668255705568 0 0.0070674633854365043 0.0011948786363217678 0 0.0070674633854365043 0.0011948786363217678 0 0.0058280085917682576 0.0024094307910835829 0 0.0025734983686023618 0.00361621761875348 0 0.0034281776475565315 0.0033226336572313598 0 0.0028497741263642149 0.0028783924034623998 0 0.0087952500384321664 -0.00045707937584679541 0 0.010531331390405338 0.00050836105668534688 0 0.0086107898844578427 0.0015523144374503112 0 0.0087952500384321664 -0.00045707937584679541 0 0.0086107898844578427 0.0015523144374503112 0 0.0066835094801534836 0.00042543204612008291 0 0.0086107898844578427 0.0015523144374503112 0 0.0066835094801534836 0.00042543204612008291 0 0.0049742655533695579 0.0024843662846568589 0 0.0031601039952306926 0.0023906909515294715 0 0.003065281666741844 0.0021665597141782064 0 0.0049742655533695579 0.0024843662846568589 0 0.0034281776475565315 0.0033226336572313598 0 0.0031601039952306926 0.0023906909515294715 0 0.0049742655533695579 0.0024843662846568589 0 0.0058280085917682576 0.0024094307910835829 0 0.005233702585856986 0.002516467135022296 0 0.0031601039952306926 0.0023906909515294715 0 0.0028497741263642149 0.0028783924034623998 0 0.002533825850737987 0.002159647505921711 0 0.0034281776475565315 0.0033226336572313598 0 0.0031601039952306926 0.0023906909515294715 0 0.0028497741263642149 0.0028783924034623998 0 0.0020676501653791421 0.002493815072974785 0 0.0033032572365437412 0.0027669143606524451 0 0.0028497741263642149 0.0028783924034623998 0 0.002533825850737987 0.002159647505921711 0 0.0023252071033924146 0.0028905075277248166 0 0.0025734983686023618 0.00361621761875348 0 0.0028497741263642149 0.0028783924034623998 0 0.0023252071033924146 0.0028905075277248166 0 0.002533825850737987 0.002159647505921711 0 0.003065281666741844 0.0021665597141782064 0 0.0020845550431615343 0.0019686259033490378 0 0.0031601039952306926 0.0023906909515294715 0 0.002533825850737987 0.002159647505921711 0 0.003065281666741844 0.0021665597141782064 0 0.0029784330257285399 0.0027217638877519898 0 0.0030100857246459127 0.0025505897211023335 0 0.0028811730410982592 0.0026258423291592309 0 0.0029068672278985646 0.0024879097546614795 0 0.0030100857246459127 0.0025505897211023335 0 0.0028811730410982592 0.0026258423291592309 0 0.0028265506913234088 0.0025162939263145036 0 0.0028811730410982592 0.0026258423291592309 0 0.0027744556537838 0.002581963792601802 0 0.0028811730410982592 0.0026258423291592309 0 0.0027744556537838 0.002581963792601802 0 0.0027839872675664984 0.0028994279232465929 0 0.0027744556537838 0.002581963792601802 0 0.0027134918047883125 0.0026063833906955335 0 0.0027839872675664984 0.0028994279232465929 0 0.0050702982626908968 0.0019945192690833053 0 0.0043072889905753937 0.0019720265116237941 0 0.0027519676586113041 0.0025148902189304615 0 0.0027744556537838 0.002581963792601802 0 0.0027134918047883125 0.0026063833906955335 0 0.0050702982626908968 0.0019945192690833053 0 0.0033032572365437412 0.0027669143606524451 0 0.0018158149457936303 0.0026298696043002743 0 0.0016297043580949079 0.0032402867667067495 0 0.0012993571221331191 0.0024349141884511382 0 0.0033032572365437412 0.0027669143606524451 0 0.0020317381368966081 0.0024920003196287556 0 0.0018158149457936303 0.0026298696043002743 0 0.0012993571221331191 0.0024349141884511382 0 0.0015639160833434875 0.0021275457613949122 0 0.0029784330257285399 0.0027217638877519898 0 0.0028811730410982592 0.0026258423291592309 0 0.0027839872675664984 0.0028994279232465929 0 0.0029784330257285399 0.0027217638877519898 0 0.0027839872675664984 0.0028994279232465929 0 0.0030314117671254607 0.0029177354422067559 0 -0.0019252828452890776 0.0052103986799351106 0 -0.0015463404795715144 0.0048939450751038236 0 -0.0017617734706138984 0.0050489428016035846 0 -0.0019252828452890776 0.0052103986799351106 0 -0.0016947530788417357 0.0047294533362586379 0 -0.0015463404795715144 0.0048939450751038236 0 0.0029784330257285399 0.0027217638877519898 0 0.0030314117671254607 0.0029177354422067559 0 0.003171616774819364 0.0026396559311079406 0 0.00072259685922324728 0.0040539779864366661 0 -0.00039783846700740152 0.0038139800587703998 0 0.0029784330257285399 0.0027217638877519898 0 0.0030100857246459127 0.0025505897211023335 0 0.003171616774819364 0.0026396559311079406 0 -0.0019252828452890776 0.0052103986799351106 0 -0.0016947530788417357 0.0047294533362586379 0 -0.0017206072345136243 0.0046621674437070746 0 -0.0016947530788417357 0.0047294533362586379 0 -0.0017482275492178459 0.0046137078709040718 0 -0.0015339919035108611 0.0047096064047114075 0 -0.0004822859235943239 0.0039600114696425664 0 -0.00039783846700740152 0.0038139800587703998 0 -0.00039783846700740152 0.0038139800587703998 0 -0.0014189809636677665 0.0045754002292182593 0 -0.0012920224544017728 0.004559020225221146 0 -0.00088935701674729281 0.0047209473479637295 0 -0.00075970674528899357 0.0041173380003356021 0 -0.0017482275492178459 0.0046137078709040718 0 -0.0012920224544017728 0.004559020225221146 0 -0.0014738704990069859 0.0041337317342321862 0 -0.0017482275492178459 0.0046137078709040718 0 -0.0012920224544017728 0.004559020225221146 0 -0.0015339919035108611 0.0047096064047114075 0 -0.0016947530788417357 0.0047294533362586379 0 -0.0015339919035108611 0.0047096064047114075 0 -0.0015463404795715144 0.0048939450751038236 0 -0.0012920224544017728 0.004559020225221146 0 -0.0015339919035108611 0.0047096064047114075 0 -0.0015463404795715144 0.0048939450751038236 0 -0.0012920224544017728 0.004559020225221146 0 -0.0015463404795715144 0.0048939450751038236 0 -0.00088935701674729281 0.0047209473479637295 0 -0.0015463404795715144 0.0048939450751038236 0 -0.0017617734706138984 0.0050489428016035846 0 -0.0013262578915853476 0.0049156268553129994 0 -0.0015463404795715144 0.0048939450751038236 0 -0.0013262578915853476 0.0049156268553129994 0 -0.00088935701674729281 0.0047209473479637295 0 -0.0013262578915853476 0.0049156268553129994 0 -0.00066265039986121161 0.004701309659293048 0 -0.0018733065372231272 0.0047934463401668641 0 -0.0017617734706138984 0.0050489428016035846 0 -0.0013262578915853476 0.0049156268553129994 0 -0.001955166115734196 0.0050090903535769385 0 -0.00066265039986121161 0.004701309659293048 0 -0.0018733065372231272 0.0047934463401668641 0 -0.0016211844813823495 0.0042965584438922283 0 -0.00066265039986121161 0.004701309659293048 0 -0.00073969371488137093 0.0045883295976674029 0 -0.0016211844813823495 0.0042965584438922283 0 -0.00066265039986121161 0.004701309659293048 0 0.00073964676779401993 0.0045526692487692071 0 -0.00073969371488137093 0.0045883295976674029 0 -0.00066265039986121161 0.004701309659293048 0 -0.00012754915616601192 0.00452765223865837 0 0.00073964676779401993 0.0045526692487692071 0 -0.0013262578915853476 0.0049156268553129994 0 -0.00066265039986121161 0.004701309659293048 0 -0.00088935701674729281 0.0047209473479637295 0 -0.00066265039986121161 0.004701309659293048 0 -0.00088935701674729281 0.0047209473479637295 0 -0.00012754915616601192 0.00452765223865837 0 -0.00088935701674729281 0.0047209473479637295 0 -0.00012754915616601192 0.00452765223865837 0 -0.00075970674528899357 0.0041173380003356021 0 -0.00012754915616601192 0.00452765223865837 0 0.00026095791597706013 0.0038513150592984257 0 -0.00075970674528899357 0.0041173380003356021 0 0.00026095791597706013 0.0038513150592984257 0 -0.00062681886101372767 0.0029057770133075291 0 -0.00075970674528899357 0.0041173380003356021 0 -0.00012754915616601192 0.00452765223865837 0 0.00026095791597706013 0.0038513150592984257 0 0.00073964676779401993 0.0045526692487692071 0 0.0002845888788401343 0.0037855413762971388 0 -0.00056485293235976602 0.0022575717301130654 0 0.00073964676779401993 0.0045526692487692071 0 0.0017339682662171128 0.0032612666911212276 0 0.0027727091002437568 0.0027600184079014231 0 0.00026095791597706013 0.0038513150592984257 0 0.00073964676779401993 0.0045526692487692071 0 0.0017339682662171128 0.0032612666911212276 0 0.0017339682662171128 0.0032612666911212276 0 0.0027727091002437568 0.0027600184079014231 0 0.0029862795490603528 0.0020883101134275511 0 0.00026095791597706013 0.0038513150592984257 0 0.0017339682662171128 0.0032612666911212276 0 0.0029862795490603528 0.0020883101134275511 0 0.00026095791597706013 0.0038513150592984257 0 0.0029862795490603528 0.0020883101134275511 0 -0.0004285000777678435 0.0025739099675156705 0 0.00081019745200499411 -0.0010091721533972467 0 0.0029862795490603528 0.0020883101134275511 0 -0.0004285000777678435 0.0025739099675156705 0 0.00081019745200499411 -0.0010091721533972467 0 -0.0021612483758562564 0.00028323927471008667 0 -0.0004285000777678435 0.0025739099675156705 0 -0.0012383506898656915 0.0021375276134449422 0 -0.00062681886101372767 0.0029057770133075291 0 -0.0014567032865522183 0.0032719631548073225 0 0.004738362525658282 -0.00057521229547714966 0 -0.00056485293235976602 0.0022575717301130654 0 -0.0014567032865522183 0.0032719631548073225 0 -0.0024714477796025647 0.0027187313747961831 0 -0.0021370574160996694 0.0037626985028031469 0 0.004738362525658282 -0.00057521229547714966 0 0.0049460570070650944 0.0014341168454594755 0 -0.0012383506898656915 0.0021375276134449422 0 -0.0014567032865522183 0.0032719631548073225 0 -0.0024714477796025647 0.0027187313747961831 0 0.0049460570070650944 0.0014341168454594755 0 0.00052312523310921156 0.0030322984643197447 0 -0.0014567032865522183 0.0032719631548073225 0 -0.0021370574160996694 0.0037626985028031469 0 -0.0014738704990069859 0.0041337317342321862 0 0.0029903125484560451 0.0024131546134077354 0 0.0030773677908938098 0.002258983718628438 0 0.0031210162230062943 0.0024458634784672675 0 0.0030100857246459127 0.0025505897211023335 0 0.003171616774819364 0.0026396559311079406 0 0.0031210162230062943 0.0024458634784672675 0 -0.00039783846700740152 0.0038139800587703998 0 0.00052312523310921156 0.0030322984643197447 0 -0.0017791553163188064 0.0047521758022869131 0 -0.0021370574160996694 0.0037626985028031469 0 -0.0014738704990069859 0.0041337317342321862 0 -0.00062681886101372767 0.0029057770133075291 0 -0.0014567032865522183 0.0032719631548073225 0 -0.00075970674528899357 0.0041173380003356021 0 -0.0012920224544017728 0.004559020225221146 0 -0.0014738704990069859 0.0041337317342321862 0 -0.00075970674528899357 0.0041173380003356021 0 -0.0014567032865522183 0.0032719631548073225 0 -0.0014738704990069859 0.0041337317342321862 0 -0.00075970674528899357 0.0041173380003356021 0 0.013754153262841908 -6.4875578687982091e-07 0 0.012392727952689715 0.00026578158615845867 0 0.012266778861677386 -0.00036969930127385403 0 0.012392727952689715 0.00026578158615845867 0 0.011647277208935661 -0.00061605920890907587 0 0.012266778861677386 -0.00036969930127385403 0 0.014936392525042478 0.00087107132670022553 0 0.015433734576411791 -2.1911893261835418e-07 0 0.017168187482281647 0.0011896081716924814 0 0.015438611814202502 2.2112855546581207e-06 0 0.016654244261225231 5.7109556723869877e-05 0 0.013754153262841908 -6.4875578687982091e-07 0 0.012392727952689715 0.00026578158615845867 0 0.01543147518817266 1.8692653378847896e-06 0 0.019001968466600318 -0.00024951768592024025 0 0.015882495719126394 8.6438256500278589e-07 0 0.018110999542039447 0.00010827196516762927 0 0.015878381516565201 -3.258190526137386e-08 0 0.017555316365350189 -0.0002306612517018077 0 0.015874143735763107 -1.93599295463167e-06 0 0.015438611814202502 2.2112855546581207e-06 0 0.016654244261225231 5.7109556723869877e-05 0 0.015874143735763107 -1.93599295463167e-06 0 0.017013648975897213 -0.00050230536196092324 0 0.016654244261225231 5.7109556723869877e-05 0 0.017168187482281647 0.0011896081716924814 0 0.016654244261225231 5.7109556723869877e-05 0 0.017934697427124155 -9.746635845164443e-05 0 0.017013648975897213 -0.00050230536196092324 0 0.016654244261225231 5.7109556723869877e-05 0 0.017934697427124155 -9.746635845164443e-05 0 0.018596000779892017 -0.00020529607416579958 0 0.018110999542039447 0.00010827196516762927 0 0.018499057955231248 -0.00044623112258892675 0 0.017555316365350189 -0.0002306612517018077 0 0.018366320087461425 -0.00041428175960958152 0 0.017013648975897213 -0.00050230536196092324 0 0.017934697427124155 -9.746635845164443e-05 0 0.018499057955231248 -0.00044623112258892675 0 0.017934697427124155 -9.746635845164443e-05 0 0.018499057955231248 -0.00044623112258892675 0 0.018505663734317702 -0.00044223843924865651 0 0.016141459056190022 -0.0014043210306244895 0 0.014366972359931859 -0.001759681084981113 0 0.014959251588195581 -0.0016410489142314683 0 0.017934697427124155 -9.746635845164443e-05 0 0.018505663734317702 -0.00044223843924865651 0 0.018460203792018428 0.00066834409244606369 0 0.017326211773282467 -0.00080963063982293279 0 0.016597237332158548 -0.0003273945059642604 0 0.014366972359931859 -0.001759681084981113 0 0.013227773614712963 -0.0017604322560702309 0 0.013597830310058111 -0.0018005054845535141 0 0.017168187482281647 0.0011896081716924814 0 0.017934697427124155 -9.746635845164443e-05 0 0.018460203792018428 0.00066834409244606369 0 0.012392727952689715 0.00026578158615845867 0 0.011098772572452866 -0.00048104584380684052 0 0.011647277208935661 -0.00061605920890907587 0 0.014936392525042478 0.00087107132670022553 0 0.014100527191964196 -0.00055826190544686083 0 0.017168187482281647 0.0011896081716924814 0 0.018460203792018428 0.00066834409244606369 0 0.018339089723489643 0.001901568036203647 0 0.014366972359931859 -0.001759681084981113 0 0.012960660210135151 -0.0017348809468514322 0 0.013227773614712963 -0.0017604322560702309 0 0.016597237332158548 -0.0003273945059642604 0 0.014100527191964196 -0.00055826190544686083 0 0.012960660210135151 -0.0017348809468514322 0 0.013227773614712963 -0.0017604322560702309 0 0.01246554071835135 -0.0016837813251233255 0 0.013227773614712963 -0.0017604322560702309 0 0.013597830310058111 -0.0018005054845535141 0 0.01227750018253893 -0.0014648872528900895 0 0.013285462307076411 -0.0022584221012291895 0 0.012082137948399409 -0.0020935535132682475 0 0.012977522969023127 -0.0027101515496863304 0 0.012655384563039506 -0.0024965162410636316 0 0.012128029421788471 -0.0028506832698431774 0 0.012977522969023127 -0.0027101515496863304 0 0.012128029421788471 -0.0028506832698431774 0 0.012214467449587063 -0.0028273225374133488 0 0.012655384563039506 -0.0024965162410636316 0 0.013320682404436728 -0.0021927974639559351 0 0.012531062632173155 -0.0020486645812769345 0 0.012977522969023127 -0.0027101515496863304 0 0.012655384563039506 -0.0024965162410636316 0 0.013320682404436728 -0.0021927974639559351 0 0.014366972359931859 -0.001759681084981113 0 0.013597830310058111 -0.0018005054845535141 0 0.014959251588195581 -0.0016410489142314683 0 0.013285462307076411 -0.0022584221012291895 0 0.01468284305001852 -0.0017502750751565779 0 0.012977522969023127 -0.0027101515496863304 0 0.014290656140900977 -0.0019398440508953275 0 0.013320682404436728 -0.0021927974639559351 0 0.015953671852353621 -0.00073133834838672994 0 0.01468284305001852 -0.0017502750751565779 0 0.016235682409822046 -0.00070914942524566611 0 0.016141459056190022 -0.0014043210306244895 0 0.014959251588195581 -0.0016410489142314683 0 0.016235682409822046 -0.00070914942524566611 0 0.014290656140900977 -0.0019398440508953275 0 0.014624089034360023 -0.0011870256085237773 0 0.013812949226876165 -0.00079351410541228474 0 0.014624089034360023 -0.0011870256085237773 0 0.013496142436715311 -0.0016459749513407134 0 0.014290656140900977 -0.0019398440508953275 0 0.014624089034360023 -0.0011870256085237773 0 0.013496142436715311 -0.0016459749513407134 0 0.013320682404436728 -0.0021927974639559351 0 0.013496142436715311 -0.0016459749513407134 0 0.012531062632173155 -0.0020486645812769345 0 0.014290656140900977 -0.0019398440508953275 0 0.013320682404436728 -0.0021927974639559351 0 0.013496142436715311 -0.0016459749513407134 0 0.012531062632173155 -0.0020486645812769345 0 0.011950183750070951 -0.0017444612250332441 0 0.011759176612405107 -0.0020586156629978903 0 0.012531062632173155 -0.0020486645812769345 0 0.012521964341060104 -0.001564113152553721 0 0.011950183750070951 -0.0017444612250332441 0 0.013496142436715311 -0.0016459749513407134 0 0.012531062632173155 -0.0020486645812769345 0 0.012521964341060104 -0.001564113152553721 0 0.013812949226876165 -0.00079351410541228474 0 0.013496142436715311 -0.0016459749513407134 0 0.012968314441020527 -0.0012605761738061915 0 0.013496142436715311 -0.0016459749513407134 0 0.012521964341060104 -0.001564113152553721 0 0.012968314441020527 -0.0012605761738061915 0 0.012521964341060104 -0.001564113152553721 0 0.012968314441020527 -0.0012605761738061915 0 0.012343438528598273 -0.0011991939216439724 0 0.013812949226876165 -0.00079351410541228474 0 0.012968314441020527 -0.0012605761738061915 0 0.012865057551043913 -0.0009220965965323106 0 0.012968314441020527 -0.0012605761738061915 0 0.012865057551043913 -0.0009220965965323106 0 0.012343438528598273 -0.0011991939216439724 0 0.017098499460582735 0.0035672769613054288 0 0.014395438240773523 0.0013539983872280171 0 0.012567883566150979 -0.00023278419888684811 0 0.012304096411466188 -0.00074106185076368628 0 0.012273286407256511 -0.00087561157685428633 0 0.012134698753349884 -0.00060451542093986589 0 0.011712888437025558 -0.001135608623253273 0 0.011433464772414184 -0.0013002097773680864 0 0.012194068694997194 -0.00081828452795973145 0 0.014395438240773523 0.0013539983872280171 0 0.012165626031856287 -0.00082338646829076625 0 0.013644708791949858 0.00079751650623484545 0 0.021099572821468994 0.0061248646909875604 0 0.020935819507426318 0.0058292430630176315 0 0.021061089410317969 0.0054104057342398331 0 0.012134698753349884 -0.00060451542093986589 0 0.012080075708804908 -0.00091165949589730433 0 0.011712888437025558 -0.001135608623253273 0 0.012080075708804908 -0.00091165949589730433 0 0.012087559773714802 -0.0010438638239309603 0 0.011712888437025558 -0.001135608623253273 0 0.012134698753349884 -0.00060451542093986589 0 0.012080075708804908 -0.00091165949589730433 0 0.012404433777191446 -0.00085613751627303504 0 0.012865057551043913 -0.0009220965965323106 0 0.012404433777191446 -0.00085613751627303504 0 0.012343438528598273 -0.0011991939216439724 0 0.012404433777191446 -0.00085613751627303504 0 0.012087559773714802 -0.0010438638239309603 0 0.012343438528598273 -0.0011991939216439724 0 0.012080075708804908 -0.00091165949589730433 0 0.012404433777191446 -0.00085613751627303504 0 0.012087559773714802 -0.0010438638239309603 0 0.012087559773714802 -0.0010438638239309603 0 0.011938618044032611 -0.0012003857277464046 0 0.012343438528598273 -0.0011991939216439724 0 0.011938618044032611 -0.0012003857277464046 0 0.012343438528598273 -0.0011991939216439724 0 0.011862657245800415 -0.0013876165610088196 0 0.012521964341060104 -0.001564113152553721 0 0.012343438528598273 -0.0011991939216439724 0 0.011862657245800415 -0.0013876165610088196 0 0.011862657245800415 -0.0013876165610088196 0 0.011613434897691432 -0.0013652564654424197 0 0.011708360549047123 -0.0012719335332016688 0 0.011938618044032611 -0.0012003857277464046 0 0.011862657245800415 -0.0013876165610088196 0 0.011708360549047123 -0.0012719335332016688 0 0.011938618044032611 -0.0012003857277464046 0 0.011708360549047123 -0.0012719335332016688 0 0.011712888437025558 -0.001135608623253273 0 0.012087559773714802 -0.0010438638239309603 0 0.011938618044032611 -0.0012003857277464046 0 0.011712888437025558 -0.001135608623253273 0 0.011613434897691432 -0.0013652564654424197 0 0.011433464772414184 -0.0013002097773680864 0 0.01155223283110021 -0.0012995970831680937 0 0.014395438240773523 0.0013539983872280171 0 0.013644708791949858 0.00079751650623484545 0 0.011712888437025558 -0.001135608623253273 0 0.011433464772414184 -0.0013002097773680864 0 0.01155223283110021 -0.0012995970831680937 0 0.011613434897691432 -0.0013652564654424197 0 0.011433464772414184 -0.0013002097773680864 0 0.011433986700130966 -0.0014434962692842308 0 0.011708360549047123 -0.0012719335332016688 0 0.011712888437025558 -0.001135608623253273 0 0.01155223283110021 -0.0012995970831680937 0 0.011613434897691432 -0.0013652564654424197 0 0.011708360549047123 -0.0012719335332016688 0 0.01155223283110021 -0.0012995970831680937 0 0.011433464772414184 -0.0013002097773680864 0 0.011433986700130966 -0.0014434962692842308 0 0.011303629028239129 -0.0015998945907513406 0 0.011433986700130966 -0.0014434962692842308 0 0.011593433697099406 -0.0015581841673701759 0 0.011303629028239129 -0.0015998945907513406 0 0.011433464772414184 -0.0013002097773680864 0 0.011303629028239129 -0.0015998945907513406 0 0.011029654944744846 -0.0018300633757381824 0 0.011862657245800415 -0.0013876165610088196 0 0.011613434897691432 -0.0013652564654424197 0 0.011593433697099406 -0.0015581841673701759 0 0.011613434897691432 -0.0013652564654424197 0 0.011433986700130966 -0.0014434962692842308 0 0.011593433697099406 -0.0015581841673701759 0 0.011593433697099406 -0.0015581841673701759 0 0.011303629028239129 -0.0015998945907513406 0 0.011425049731666926 -0.0018142800915885943 0 0.012521964341060104 -0.001564113152553721 0 0.011862657245800415 -0.0013876165610088196 0 0.011950183750070951 -0.0017444612250332441 0 0.011862657245800415 -0.0013876165610088196 0 0.011593433697099406 -0.0015581841673701759 0 0.011950183750070951 -0.0017444612250332441 0 0.011593433697099406 -0.0015581841673701759 0 0.011950183750070951 -0.0017444612250332441 0 0.011425049731666926 -0.0018142800915885943 0 0.011950183750070951 -0.0017444612250332441 0 0.011425049731666926 -0.0018142800915885943 0 0.011759176612405107 -0.0020586156629978903 0 0.011425049731666926 -0.0018142800915885943 0 0.01093601276478952 -0.0020805063157601292 0 0.011759176612405107 -0.0020586156629978903 0 0.011303629028239129 -0.0015998945907513406 0 0.011029654944744846 -0.0018300633757381824 0 0.011425049731666926 -0.0018142800915885943 0 0.011029654944744846 -0.0018300633757381824 0 0.011425049731666926 -0.0018142800915885943 0 0.01093601276478952 -0.0020805063157601292 0 0.01093601276478952 -0.0020805063157601292 0 0.011083341971769106 -0.0022251490278340797 0 0.011759176612405107 -0.0020586156629978903 0 0.010370127781066942 -0.0022389524569336378 0 0.01093601276478952 -0.0020805063157601292 0 0.011083341971769106 -0.0022251490278340797 0 0.011083341971769106 -0.0022251490278340797 0 0.011986359200345057 -0.0024497836595434959 0 0.011511439466918523 -0.0028018907381726667 0 0.010370127781066942 -0.0022389524569336378 0 0.011083341971769106 -0.0022251490278340797 0 0.010061133261735633 -0.0026159028718048256 0 0.011083341971769106 -0.0022251490278340797 0 0.011759176612405107 -0.0020586156629978903 0 0.011986359200345057 -0.0024497836595434959 0 0.012655384563039506 -0.0024965162410636316 0 0.011986359200345057 -0.0024497836595434959 0 0.012128029421788471 -0.0028506832698431774 0 0.012531062632173155 -0.0020486645812769345 0 0.011759176612405107 -0.0020586156629978903 0 0.011986359200345057 -0.0024497836595434959 0 0.012655384563039506 -0.0024965162410636316 0 0.012531062632173155 -0.0020486645812769345 0 0.011986359200345057 -0.0024497836595434959 0 0.011986359200345057 -0.0024497836595434959 0 0.012128029421788471 -0.0028506832698431774 0 0.011511439466918523 -0.0028018907381726667 0 0.012128029421788471 -0.0028506832698431774 0 0.011511439466918523 -0.0028018907381726667 0 0.011952478962107526 -0.003015978308446709 0 0.011083341971769106 -0.0022251490278340797 0 0.011511439466918523 -0.0028018907381726667 0 0.010061133261735633 -0.0026159028718048256 0 0.011511439466918523 -0.0028018907381726667 0 0.010061133261735633 -0.0026159028718048256 0 0.011952478962107526 -0.003015978308446709 0 0.0098276735673985417 -0.0023666469761509335 0 0.009057150738154756 -0.0017615827208224985 0 0.0086800494440101763 -0.0019343919611285959 0 0.010061133261735633 -0.0026159028718048256 0 0.006168254865250607 -0.00097046852138810537 0 0.0086800494440101763 -0.0019343919611285959 0 0.0066835094801534836 0.00042543204612008291 0 0.006168254865250607 -0.00097046852138810537 0 0.012128029421788471 -0.0028506832698431774 0 0.011952478962107526 -0.003015978308446709 0 0.012061963581320062 -0.0026758772585795351 0 0.012061963581320062 -0.0026758772585795351 0 0.012340988820039738 -0.001997393094731504 0 0.011842387990964489 -0.0018395014877971788 0 0.011952478962107526 -0.003015978308446709 0 0.012061963581320062 -0.0026758772585795351 0 0.012340988820039738 -0.001997393094731504 0 0.0066835094801534836 0.00042543204612008291 0 0.006168254865250607 -0.00097046852138810537 0 0.0038434726896816578 0.002343306126192584 0 0.0066835094801534836 0.00042543204612008291 0 0.0049742655533695579 0.0024843662846568589 0 0.0038434726896816578 0.002343306126192584 0 0.009057150738154756 -0.0017615827208224985 0 0.0081062938450347857 0.0001596548571131465 0 0.0049742655533695579 0.0024843662846568589 0 0.0038434726896816578 0.002343306126192584 0 0.0036864373565928575 0.0024027790967303801 0 0.003065281666741844 0.0021665597141782064 0 0.0049742655533695579 0.0024843662846568589 0 0.0036864373565928575 0.0024027790967303801 0 0.0038434726896816578 0.002343306126192584 0 0.0036864373565928575 0.0024027790967303801 0 0.0033124807405405963 0.0022579739310488473 0 0.0036864373565928575 0.0024027790967303801 0 0.0033124807405405963 0.0022579739310488473 0 0.003016019378389116 0.0021150247093619842 0 0.003065281666741844 0.0021665597141782064 0 0.0036864373565928575 0.0024027790967303801 0 0.003016019378389116 0.0021150247093619842 0 0.0081062938450347857 0.0001596548571131465 0 0.007632760013498492 0.00066241752975073384 0 0.012340988820039738 -0.001997393094731504 0 0.012080015255150529 -0.0009964719214514571 0 0.011842387990964489 -0.0018395014877971788 0 0.011842387990964489 -0.0018395014877971788 0 0.011306018251498379 -0.0014595120916343458 0 0.011261800121550472 -0.00076833050499583021 0 0.012080015255150529 -0.0009964719214514571 0 0.011842387990964489 -0.0018395014877971788 0 0.011261800121550472 -0.00076833050499583021 0 0.011306018251498379 -0.0014595120916343458 0 0.010585158719715151 -0.00091027301602502719 0 0.011261800121550472 -0.00076833050499583021 0 0.011306018251498379 -0.0014595120916343458 0 0.01175097814199837 -0.0012805394672122526 0 0.011101165999394549 -0.0011801275717156084 0 0.011427342934550836 -0.0015215462282286197 0 0.012082137948399409 -0.0020935535132682475 0 0.011306018251498379 -0.0014595120916343458 0 0.01227750018253893 -0.0014648872528900895 0 0.01175097814199837 -0.0012805394672122526 0 0.011842387990964489 -0.0018395014877971788 0 0.011306018251498379 -0.0014595120916343458 0 0.011837439545855992 -0.002732287186786639 0 0.012061963581320062 -0.0026758772585795351 0 0.011842387990964489 -0.0018395014877971788 0 0.011837439545855992 -0.002732287186786639 0 0.012128029421788471 -0.0028506832698431774 0 0.012061963581320062 -0.0026758772585795351 0 0.012214467449587063 -0.0028273225374133488 0 0.012061963581320062 -0.0026758772585795351 0 0.012214467449587063 -0.0028273225374133488 0 0.011837439545855992 -0.002732287186786639 0 0.013227773614712963 -0.0017604322560702309 0 0.01227750018253893 -0.0014648872528900895 0 0.01246554071835135 -0.0016837813251233255 0 0.012977522969023127 -0.0027101515496863304 0 0.012214467449587063 -0.0028273225374133488 0 0.011837439545855992 -0.002732287186786639 0 0.01227750018253893 -0.0014648872528900895 0 0.01246554071835135 -0.0016837813251233255 0 0.01175097814199837 -0.0012805394672122526 0 0.011398177835606583 -0.0011209332182163399 0 0.01246554071835135 -0.0016837813251233255 0 0.01175097814199837 -0.0012805394672122526 0 0.011098772572452866 -0.00048104584380684052 0 0.011398177835606583 -0.0011209332182163399 0 0.011368043067034289 -0.00084671709839638108 0 0.014100527191964196 -0.00055826190544686083 0 0.012428142332088254 -0.0017164590874207044 0 0.011753968911198351 -0.0021579376793998814 0 0.011398177835606583 -0.0011209332182163399 0 0.01246554071835135 -0.0016837813251233255 0 0.014100527191964196 -0.00055826190544686083 0 0.011854847843211022 -0.001229548320276268 0 0.011647277208935661 -0.00061605920890907587 0 0.011368043067034289 -0.00084671709839638108 0 0.011068655581210011 -0.0010657675981405508 0 0.011098772572452866 -0.00048104584380684052 0 0.011647277208935661 -0.00061605920890907587 0 0.011368043067034289 -0.00084671709839638108 0 0.011398177835606583 -0.0011209332182163399 0 0.011368043067034289 -0.00084671709839638108 0 0.011068655581210011 -0.0010657675981405508 0 0.011647277208935661 -0.00061605920890907587 0 0.011068655581210011 -0.0010657675981405508 0 0.011288613304953087 -0.00080722745179475904 0 0.011068655581210011 -0.0010657675981405508 0 0.010433932960962436 -0.00098034753185622845 0 0.011288613304953087 -0.00080722745179475904 0 0.011398177835606583 -0.0011209332182163399 0 0.01175097814199837 -0.0012805394672122526 0 0.011101165999394549 -0.0011801275717156084 0 0.011398177835606583 -0.0011209332182163399 0 0.011068655581210011 -0.0010657675981405508 0 0.011101165999394549 -0.0011801275717156084 0 0.011306018251498379 -0.0014595120916343458 0 0.011101165999394549 -0.0011801275717156084 0 0.010585158719715151 -0.00091027301602502719 0 0.011101165999394549 -0.0011801275717156084 0 0.010585158719715151 -0.00091027301602502719 0 0.010342225070542176 -0.00094717730377756148 0 0.010585158719715151 -0.00091027301602502719 0 0.010342225070542176 -0.00094717730377756148 0 0.0094649344539877688 -0.00042681855641510863 0 0.011068655581210011 -0.0010657675981405508 0 0.010342225070542176 -0.00094717730377756148 0 0.010433932960962436 -0.00098034753185622845 0 0.011068655581210011 -0.0010657675981405508 0 0.011101165999394549 -0.0011801275717156084 0 0.010342225070542176 -0.00094717730377756148 0 0.010342225070542176 -0.00094717730377756148 0 0.010433932960962436 -0.00098034753185622845 0 0.0097268704023945884 -0.00073772613366640668 0 0.010209951090163276 -0.00050627501511174686 0 0.011065495397723288 -0.00073110431001934461 0 0.010433932960962436 -0.00098034753185622845 0 0.0095352069154437426 -0.00096502450443810845 0 0.011288613304953087 -0.00080722745179475904 0 0.010433932960962436 -0.00098034753185622845 0 0.0097268704023945884 -0.00073772613366640668 0 0.0095352069154437426 -0.00096502450443810845 0 0.010342225070542176 -0.00094717730377756148 0 0.0097268704023945884 -0.00073772613366640668 0 0.009220784869937184 -0.00050247010119671039 0 0.0097268704023945884 -0.00073772613366640668 0 0.0087096747625622604 -1.8316714257320876e-06 0 0.009220784869937184 -0.00050247010119671039 0 0.0097268704023945884 -0.00073772613366640668 0 0.0095352069154437426 -0.00096502450443810845 0 0.0087096747625622604 -1.8316714257320876e-06 0 0.010392802380894186 -5.6333766321869195e-07 0 0.010878811778508198 1.2651933220147714e-05 0 0.0087132075471933572 8.3614293450141791e-07 0 0.010209951090163276 -0.00050627501511174686 0 0.0087125263298286799 -3.0301417463030624e-07 0 0.010392802380894186 -5.6333766321869195e-07 0 0.010878811778508198 1.2651933220147714e-05 0 0.011302476738763789 -0.00034864612272491566 0 0.010392802380894186 -5.6333766321869195e-07 0 0.011302476738763789 -0.00034864612272491566 0 0.012072918509740396 -8.8117011690826987e-07 0 0.011302476738763789 -0.00034864612272491566 0 0.012072918509740396 -8.8117011690826987e-07 0 0.012266778861677386 -0.00036969930127385403 0 0.011302476738763789 -0.00034864612272491566 0 0.011288613304953087 -0.00080722745179475904 0 0.012266778861677386 -0.00036969930127385403 0 0.010878811778508198 1.2651933220147714e-05 0 0.011302476738763789 -0.00034864612272491566 0 0.011288613304953087 -0.00080722745179475904 0 0.011647277208935661 -0.00061605920890907587 0 0.011288613304953087 -0.00080722745179475904 0 0.012266778861677386 -0.00036969930127385403 0 0.013754153262841908 -6.4875578687982091e-07 0 0.012072918509740396 -8.8117011690826987e-07 0 0.012266778861677386 -0.00036969930127385403 0 0.0067184474630087995 0.00023458317180914299 0 0.0070221721561976019 0.0012247663787524864 0 0.0038048534277527672 3.1678954968861446e-06 0 0.0054389927694421525 -2.6243719054691216e-07 0 0.0067184474630087995 0.00023458317180914299 0 0.0038048534277527672 3.1678954968861446e-06 0 0.0067184474630087995 0.00023458317180914299 0 0.0080523217065433736 1.2015980869538007e-06 0 0.0090133246339062622 0.0012787994817710234 0 0.0067184474630087995 0.00023458317180914299 0 0.0090133246339062622 0.0012787994817710234 0 0.0070221721561976019 0.0012247663787524864 0 0.0067184474630087995 0.00023458317180914299 0 0.0080523217065433736 1.2015980869538007e-06 0 0.0070762094731283212 -1.282852261248812e-07 0 0.0054389927694421525 -2.6243719054691216e-07 0 0.0067184474630087995 0.00023458317180914299 0 0.0070762094731283212 -1.282852261248812e-07 0 0.0080523217065433736 1.2015980869538007e-06 0 0.0070762094731283212 -1.282852261248812e-07 0 0.0082919766380561682 -0.00025144953879273157 0 0.0070762094731283212 -1.282852261248812e-07 0 0.0087096747625622604 -1.8316714257320876e-06 0 0.0082919766380561682 -0.00025144953879273157 0 0.0087096747625622604 -1.8316714257320876e-06 0 0.009220784869937184 -0.00050247010119671039 0 0.0082919766380561682 -0.00025144953879273157 0 0.009220784869937184 -0.00050247010119671039 0 0.0082919766380561682 -0.00025144953879273157 0 0.0094649344539877688 -0.00042681855641510863 0 0.0080523217065433736 1.2015980869538007e-06 0 0.0082919766380561682 -0.00025144953879273157 0 0.0094649344539877688 -0.00042681855641510863 0 0.0080523217065433736 1.2015980869538007e-06 0 0.0094649344539877688 -0.00042681855641510863 0 0.0094739092616860157 0.00028441009631099458 0 0.010342225070542176 -0.00094717730377756148 0 0.009220784869937184 -0.00050247010119671039 0 0.0094649344539877688 -0.00042681855641510863 0 0.010585158719715151 -0.00091027301602502719 0 0.0094649344539877688 -0.00042681855641510863 0 0.010407739651230204 -0.00013896940908212681 0 0.0094649344539877688 -0.00042681855641510863 0 0.0094739092616860157 0.00028441009631099458 0 0.010407739651230204 -0.00013896940908212681 0 0.0094739092616860157 0.00028441009631099458 0 0.010361143507174991 0.0010923303701851682 0 0.010407739651230204 -0.00013896940908212681 0 0.0080523217065433736 1.2015980869538007e-06 0 0.0094739092616860157 0.00028441009631099458 0 0.0090133246339062622 0.0012787994817710234 0 0.0047917941299397649 0.0010543765206147552 0 0.0043451497026830892 0.00094993168207097749 0 0.0047917941299397649 0.0010543765206147552 0 0.0058640246610567196 0.00083774805791905522 0 0.00068106733639422871 0.00083010933975704573 0 0.00057058390242808576 0.0006208019303673187 0 0.0005236082290959016 0.00063410483197341824 0 0.0094739092616860157 0.00028441009631099458 0 0.0090133246339062622 0.0012787994817710234 0 0.010361143507174991 0.0010923303701851682 0 0.0040929482215449689 0.00036257542243474253 0 -5.5586358161322208e-05 0.0010211867624289593 0 0.00057058390242808576 0.0006208019303673187 0 0.00073827841739478517 0.0005613010143210006 0 0.00065536230214014368 0.00068958911029144514 0 0.0012079988810848718 0.00082660195294751619 0 0.0011344330893806398 0.00087015810554057671 0 0.00065536230214014368 0.00068958911029144514 0 0.0058640246610567196 0.00083774805791905522 0 0.0040929482215449689 0.00036257542243474253 0 0.010361143507174991 0.0010923303701851682 0 0.01136338624004599 0.00087303802082386187 0 0.011090298895129896 0.00020805345504960426 0 0.01136338624004599 0.00087303802082386187 0 0.011090298895129896 0.00020805345504960426 0 0.011703995476739939 -9.4859457428987057e-05 0 0.010361143507174991 0.0010923303701851682 0 0.011090298895129896 0.00020805345504960426 0 0.010407739651230204 -0.00013896940908212681 0 0.011090298895129896 0.00020805345504960426 0 0.010407739651230204 -0.00013896940908212681 0 0.011261800121550472 -0.00076833050499583021 0 0.010585158719715151 -0.00091027301602502719 0 0.010407739651230204 -0.00013896940908212681 0 0.011261800121550472 -0.00076833050499583021 0 0.011090298895129896 0.00020805345504960426 0 0.011261800121550472 -0.00076833050499583021 0 0.011703995476739939 -9.4859457428987057e-05 0 0.007632760013498492 0.00066241752975073384 0 0.0076053982176887691 0.00088593644428232505 0 0.012080015255150529 -0.0009964719214514571 0 0.011261800121550472 -0.00076833050499583021 0 0.011703995476739939 -9.4859457428987057e-05 0 0.0033124807405405963 0.0022579739310488473 0 0.0027688154142168292 0.0017977648145643807 0 0.003016019378389116 0.0021150247093619842 0 0.0027688154142168292 0.0017977648145643807 0 0.003016019378389116 0.0021150247093619842 0 0.0023422892791567273 0.00182795436265121 0 0.0027688154142168292 0.0017977648145643807 0 0.0020026138248267077 0.0014653386093694376 0 0.0023422892791567273 0.00182795436265121 0 0.0020026138248267077 0.0014653386093694376 0 0.0018782005370047998 0.001069276218497681 0 0.0015349922895442755 0.0012568562856060856 0 0.0028207633271858734 0.00080217965875515349 0 0.0027688154142168292 0.0017977648145643807 0 0.0018782005370047998 0.001069276218497681 0 0.0027688154142168292 0.0017977648145643807 0 0.0020026138248267077 0.0014653386093694376 0 0.0018782005370047998 0.001069276218497681 0 0.0040929482215449689 0.00036257542243474253 0 0.0076053982176887691 0.00088593644428232505 0 0.0040929482215449689 0.00036257542243474253 0 0.0011143685227191125 0.0011908585687780042 0 0.0012079988810848718 0.00082660195294751619 0 0.0018782005370047998 0.001069276218497681 0 0.0011344330893806398 0.00087015810554057671 0 0.0018782005370047998 0.001069276218497681 0 0.0012940544913256089 0.0009840734932063458 0 0.0011344330893806398 0.00087015810554057671 0 0.0018782005370047998 0.001069276218497681 0 0.0012940544913256089 0.0009840734932063458 0 0.0015349922895442755 0.0012568562856060856 0 0.0012940544913256089 0.0009840734932063458 0 0.00092074609390608458 0.00080027919605576395 0 0.0011344330893806398 0.00087015810554057671 0 0.0012940544913256089 0.0009840734932063458 0 0.00092074609390608458 0.00080027919605576395 0 0.00099155922702758026 0.00088958274758329538 0 0.00092074609390608458 0.00080027919605576395 0 0.00099155922702758026 0.00088958274758329538 0 0.00076454856225490939 0.00075101966766936653 0 0.00092074609390608458 0.00080027919605576395 0 0.0011344330893806398 0.00087015810554057671 0 0.00069238041711731078 0.00067986468448657448 0 0.0011344330893806398 0.00087015810554057671 0 0.00069238041711731078 0.00067986468448657448 0 0.00065536230214014368 0.00068958911029144514 0 0.00069238041711731078 0.00067986468448657448 0 0.00059907675024990748 0.00063061448873802264 0 0.00039610677330524391 0.00051739872326733282 0 0.00092074609390608458 0.00080027919605576395 0 0.00059907675024990748 0.00063061448873802264 0 0.00076454856225490939 0.00075101966766936653 0 0.00092074609390608458 0.00080027919605576395 0 0.00069238041711731078 0.00067986468448657448 0 0.00059907675024990748 0.00063061448873802264 0 0.00059907675024990748 0.00063061448873802264 0 0.00034396002386385819 0.00052665089202080556 0 0.00039610677330524391 0.00051739872326733282 0 0.00059907675024990748 0.00063061448873802264 0 0.00034396002386385819 0.00052665089202080556 0 0.00053497684170073032 0.00064187512634613427 0 0.00034396002386385819 0.00052665089202080556 0 0.00013892125433929219 0.00043440377662137412 0 0.00039610677330524391 0.00051739872326733282 0 0.00034396002386385819 0.00052665089202080556 0 0.00013892125433929219 0.00043440377662137412 0 0.00019896390837847566 0.00052387229149798459 0 0.00013892125433929219 0.00043440377662137412 0 0.00039610677330524391 0.00051739872326733282 0 6.5332588434422002e-05 0.00038854547241932899 0 0.00069238041711731078 0.00067986468448657448 0 0.00039610677330524391 0.00051739872326733282 0 0.00038811821523651656 0.00049750823175815663 0 0.00038811821523651656 0.00049750823175815663 0 6.5332588434422002e-05 0.00038854547241932899 0 0.00010250579997551417 0.00030080597503334905 0 0.00039610677330524391 0.00051739872326733282 0 0.00038811821523651656 0.00049750823175815663 0 6.5332588434422002e-05 0.00038854547241932899 0 -0.00015844508506427266 0.00024256672499283318 0 6.5332588434422002e-05 0.00038854547241932899 0 0.00010250579997551417 0.00030080597503334905 0 -0.00015844508506427266 0.00024256672499283318 0 1.3975330358599303e-05 0.00011805942910650727 0 0.00010250579997551417 0.00030080597503334905 0 1.3975330358599303e-05 0.00011805942910650727 0 0.00010250579997551417 0.00030080597503334905 0 0.00025719723367641326 0.00030829497790418951 0 0.00038811821523651656 0.00049750823175815663 0 0.00025719723367641326 0.00030829497790418951 0 0.00042134196919210113 0.00043677723074859819 0 0.00038811821523651656 0.00049750823175815663 0 0.00010250579997551417 0.00030080597503334905 0 0.00025719723367641326 0.00030829497790418951 0 0.00038811821523651656 0.00049750823175815663 0 0.00065536230214014368 0.00068958911029144514 0 0.00042134196919210113 0.00043677723074859819 0 0.00069238041711731078 0.00067986468448657448 0 0.00038811821523651656 0.00049750823175815663 0 0.00065536230214014368 0.00068958911029144514 0 0.00065536230214014368 0.00068958911029144514 0 0.0005236082290959016 0.00063410483197341824 0 0.00042134196919210113 0.00043677723074859819 0 0.00057058390242808576 0.0006208019303673187 0 0.00065536230214014368 0.00068958911029144514 0 0.0005236082290959016 0.00063410483197341824 0 0.00068106733639422871 0.00083010933975704573 0 0.0005236082290959016 0.00063410483197341824 0 0.00075860782151658795 0.00048700186667416162 0 0.0005236082290959016 0.00063410483197341824 0 0.00075860782151658795 0.00048700186667416162 0 0.00042134196919210113 0.00043677723074859819 0 0.00068106733639422871 0.00083010933975704573 0 0.00075860782151658795 0.00048700186667416162 0 0.001498237071767644 0.00094929156773158093 0 0.00075860782151658795 0.00048700186667416162 0 0.00042134196919210113 0.00043677723074859819 0 0.00080356464453137163 4.4274459924490728e-05 0 0.00025719723367641326 0.00030829497790418951 0 0.00042134196919210113 0.00043677723074859819 0 0.00027196661877656558 5.0416313281681846e-05 0 -0.00010753353735853362 -0.00010613164054670589 0 1.3975330358599303e-05 0.00011805942910650727 0 0.00027196661877656558 5.0416313281681846e-05 0 1.3975330358599303e-05 0.00011805942910650727 0 0.00025719723367641326 0.00030829497790418951 0 0.00027196661877656558 5.0416313281681846e-05 0 -0.00010753353735853362 -0.00010613164054670589 0 0.00027196661877656558 5.0416313281681846e-05 0 0.00017645646312097329 -0.00018510563892442373 0 0.00042134196919210113 0.00043677723074859819 0 0.00027196661877656558 5.0416313281681846e-05 0 0.00080356464453137163 4.4274459924490728e-05 0 0.00027196661877656558 5.0416313281681846e-05 0 0.00080356464453137163 4.4274459924490728e-05 0 0.00017645646312097329 -0.00018510563892442373 0 0.00080356464453137163 4.4274459924490728e-05 0 0.00017645646312097329 -0.00018510563892442373 0 0.0017072972950250525 -1.0424622676226391e-06 0 -0.00038698400494472854 -4.8443219078191608e-07 0 0.00017645646312097329 -0.00018510563892442373 0 0.0017072972950250525 -1.0424622676226391e-06 0 0.0017072972950250525 -1.0424622676226391e-06 0 0.0018512179713134366 5.5391755591312634e-05 0 0.0037981329674125477 2.6231287979241512e-06 0 0.00080356464453137163 4.4274459924490728e-05 0 0.0017072972950250525 -1.0424622676226391e-06 0 0.0018512179713134366 5.5391755591312634e-05 0 0.00075860782151658795 0.00048700186667416162 0 0.00080356464453137163 4.4274459924490728e-05 0 0.0018512179713134366 5.5391755591312634e-05 0 0.00075860782151658795 0.00048700186667416162 0 0.0018512179713134366 5.5391755591312634e-05 0 0.001498237071767644 0.00094929156773158093 0 0.0043451497026830892 0.00094993168207097749 0 0.0038022342216489078 4.5758978892011001e-07 0 0.0018512179713134366 5.5391755591312634e-05 0 0.001498237071767644 0.00094929156773158093 0 0.0037981329674125477 2.6231287979241512e-06 0 -0.0027924793466255387 0.0048857525105514632 0 -0.0025189874683860607 0.0045381731722380515 0 -0.0030667139543841659 0.0049685854485582194 0 -0.0027924793466255387 0.0048857525105514632 0 -0.0031409658247441028 0.0051019015120307249 0 -0.0028009270217866956 0.005058086232204234 0 -0.0027924793466255387 0.0048857525105514632 0 -0.0030667139543841659 0.0049685854485582194 0 -0.0031409658247441028 0.0051019015120307249 0 -0.0027924793466255387 0.0048857525105514632 0 -0.0028009270217866956 0.005058086232204234 0 -0.0024696064525677902 0.0050008037813449946 0 -0.0027924793466255387 0.0048857525105514632 0 -0.0025189874683860607 0.0045381731722380515 0 -0.0024696064525677902 0.0050008037813449946 0 -0.0025189874683860607 0.0045381731722380515 0 -0.0013835312569693962 0.0029078480974064859 0 -0.0014874935617689177 0.0021723237101060129 0 -0.0025189874683860607 0.0045381731722380515 0 -0.0016948161059390414 0.0044481865234549823 0 -0.0016531548281630488 0.0039052702288076883 0 -0.0025189874683860607 0.0045381731722380515 0 -0.0016531548281630488 0.0039052702288076883 0 -0.0013835312569693962 0.0029078480974064859 0 -0.0025189874683860607 0.0045381731722380515 0 -0.0014874935617689177 0.0021723237101060129 0 -0.0016293888955449018 0.001353667237682075 0 -0.0025189874683860607 0.0045381731722380515 0 -0.0030667139543841659 0.0049685854485582194 0 -0.0035396670236225603 0.0052121350442148927 0 -0.0025729872290973965 0.0046294565283473751 0 -0.0024968196851826792 0.0031762961375788835 0 -0.0013835312569693962 0.0029078480974064859 0 -0.0014874935617689177 0.0021723237101060129 0 -0.00094812874969695015 0.002025729175649138 0 -0.0014874935617689177 0.0021723237101060129 0 -0.001503676734029534 0.0017030389490376766 0 -0.0016293888955449018 0.001353667237682075 0 -0.0014874935617689177 0.0021723237101060129 0 -0.0012212676961913577 0.0018126952025995405 0 -0.00094812874969695015 0.002025729175649138 0 -0.001503676734029534 0.0017030389490376766 0 -0.0015233504968548749 0.0014959578826964186 0 -0.0013325829403787609 0.0015555788115473729 0 -0.0012212676961913577 0.0018126952025995405 0 -0.00096563788037198461 0.0015219794634263083 0 -0.0013325829403787609 0.0015555788115473729 0 -0.0014874935617689177 0.0021723237101060129 0 -0.001503676734029534 0.0017030389490376766 0 -0.0012212676961913577 0.0018126952025995405 0 -0.001503676734029534 0.0017030389490376766 0 -0.0012212676961913577 0.0018126952025995405 0 -0.0013325829403787609 0.0015555788115473729 0 -0.0033702308698206999 0.005147741980960934 0 -0.0030667139543841659 0.0049685854485582194 0 -0.0035396670236225603 0.0052121350442148927 0 -0.0033702308698206999 0.005147741980960934 0 -0.0033531945412072399 0.0051449343128477957 0 -0.0030667139543841659 0.0049685854485582194 0 -0.0033531945412072399 0.0051449343128477957 0 -0.0030667139543841659 0.0049685854485582194 0 -0.0032494585449611159 0.0050961476861884894 0 -0.0030667139543841659 0.0049685854485582194 0 -0.0031409658247441028 0.0051019015120307249 0 -0.0032494585449611159 0.0050961476861884894 0 -0.0033531945412072399 0.0051449343128477957 0 -0.0032494585449611159 0.0050961476861884894 0 -0.0034944456302903868 0.0051900903374649324 0 -0.0031409658247441028 0.0051019015120307249 0 -0.0032494585449611159 0.0050961476861884894 0 -0.0034944456302903868 0.0051900903374649324 0 -0.0034944456302903868 0.0051900903374649324 0 -0.00351715606474697 0.0052778788062851278 0 -0.0039793992998486058 0.0052584090279521409 0 -0.0031409658247441028 0.0051019015120307249 0 -0.0034944456302903868 0.0051900903374649324 0 -0.00351715606474697 0.0052778788062851278 0 -0.00351715606474697 0.0052778788062851278 0 -0.0039834956929525652 0.0053712990753069963 0 -0.0033750075340683847 0.0054329957627024987 0 -0.00351715606474697 0.0052778788062851278 0 -0.0039834956929525652 0.0053712990753069963 0 -0.0039793992998486058 0.0052584090279521409 0 -0.00351715606474697 0.0052778788062851278 0 -0.0033750075340683847 0.0054329957627024987 0 -0.0030602993634678624 0.0052216764185953543 0 -0.0033750075340683847 0.0054329957627024987 0 -0.0030602993634678624 0.0052216764185953543 0 -0.0026315849184050701 0.0051217642998380858 0 -0.0031409658247441028 0.0051019015120307249 0 -0.00351715606474697 0.0052778788062851278 0 -0.0030602993634678624 0.0052216764185953543 0 -0.0031409658247441028 0.0051019015120307249 0 -0.0030602993634678624 0.0052216764185953543 0 -0.0028009270217866956 0.005058086232204234 0 -0.0030602993634678624 0.0052216764185953543 0 -0.0028009270217866956 0.005058086232204234 0 -0.0024951183195232531 0.0050578341690119778 0 -0.0024951183195232531 0.0050578341690119778 0 -0.001955166115734196 0.0050090903535769385 0 -0.0024696064525677902 0.0050008037813449946 0 -0.0028009270217866956 0.005058086232204234 0 -0.0024951183195232531 0.0050578341690119778 0 -0.0024696064525677902 0.0050008037813449946 0 -0.0024951183195232531 0.0050578341690119778 0 -0.0026315849184050701 0.0051217642998380858 0 -0.0018733065372231272 0.0047934463401668641 0 -0.0030602993634678624 0.0052216764185953543 0 -0.0024951183195232531 0.0050578341690119778 0 -0.0026315849184050701 0.0051217642998380858 0 -0.0024951183195232531 0.0050578341690119778 0 -0.0018733065372231272 0.0047934463401668641 0 -0.001955166115734196 0.0050090903535769385 0 -0.0013262578915853476 0.0049156268553129994 0 -0.0018733065372231272 0.0047934463401668641 0 -0.001955166115734196 0.0050090903535769385 0 -0.001955166115734196 0.0050090903535769385 0 -0.0020318464570535984 0.0051170812863279265 0 -0.0024696064525677902 0.0050008037813449946 0 -0.0017617734706138984 0.0050489428016035846 0 -0.001955166115734196 0.0050090903535769385 0 -0.0020318464570535984 0.0051170812863279265 0 -0.0025189874683860607 0.0045381731722380515 0 -0.0024696064525677902 0.0050008037813449946 0 -0.001947169961607066 0.0050125103299207491 0 -0.0020318464570535984 0.0051170812863279265 0 -0.0024696064525677902 0.0050008037813449946 0 -0.001947169961607066 0.0050125103299207491 0 -0.0025189874683860607 0.0045381731722380515 0 -0.0016948161059390414 0.0044481865234549823 0 -0.001947169961607066 0.0050125103299207491 0 -0.0019252828452890776 0.0052103986799351106 0 -0.0017617734706138984 0.0050489428016035846 0 -0.0020318464570535984 0.0051170812863279265 0 -0.0019252828452890776 0.0052103986799351106 0 -0.0020318464570535984 0.0051170812863279265 0 -0.001947169961607066 0.0050125103299207491 0 0.0020317381368966081 0.0024920003196287556 0 0.00072001552861883996 0.0036256779641107681 0 0.0027839872675664984 0.0028994279232465929 0 0.0030314117671254607 0.0029177354422067559 0 0.0028687264301402288 0.0032051901726872375 0 0.00072259685922324728 0.0040539779864366661 0 0.00072001552861883996 0.0036256779641107681 0 -0.0019252828452890776 0.0052103986799351106 0 -0.001947169961607066 0.0050125103299207491 0 -0.0013096875598959375 0.0050025703224346896 0 0.0012993571221331191 0.0024349141884511382 0 0.0013559309275246818 0.0020298811003876395 0 0.0011164505009191826 0.0018223844141009703 0 0.0012993571221331191 0.0024349141884511382 0 0.0015639160833434875 0.0021275457613949122 0 0.0013559309275246818 0.0020298811003876395 0 0.0015639160833434875 0.0021275457613949122 0 0.0013559309275246818 0.0020298811003876395 0 0.0014313439771665311 0.0017846277669482569 0 0.0013559309275246818 0.0020298811003876395 0 0.0014313439771665311 0.0017846277669482569 0 0.0011164505009191826 0.0018223844141009703 0 0.0014313439771665311 0.0017846277669482569 0 0.0011164505009191826 0.0018223844141009703 0 0.0012189075837144405 0.0016821021870654148 0 0.0014313439771665311 0.0017846277669482569 0 0.0012718966188312031 0.0016657792915045029 0 0.0012189075837144405 0.0016821021870654148 0 0.00072001552861883996 0.0036256779641107681 0 0.00059336424464503544 0.0028163001558599715 0 -0.0011975156114071167 0.0047846940480764629 0 -0.00089822032917474988 0.0055438465457439941 0 9.1569354384011222e-05 0.0039201180223282202 0 8.3046703447842596e-05 0.0043466640443395486 0 0.00072001552861883996 0.0036256779641107681 0 -0.0016948161059390414 0.0044481865234549823 0 -0.001947169961607066 0.0050125103299207491 0 -0.0011975156114071167 0.0047846940480764629 0 -0.001947169961607066 0.0050125103299207491 0 -0.0011975156114071167 0.0047846940480764629 0 -0.0013096875598959375 0.0050025703224346896 0 0.003065281666741844 0.0021665597141782064 0 0.0020845550431615343 0.0019686259033490378 0 0.0023422892791567273 0.00182795436265121 0 0.003065281666741844 0.0021665597141782064 0 0.003016019378389116 0.0021150247093619842 0 0.0023422892791567273 0.00182795436265121 0 0.0020676501653791421 0.002493815072974785 0 0.002167347444991891 0.0019336698438018674 0 0.0018158149457936303 0.0026298696043002743 0 0.0015639160833434875 0.0021275457613949122 0 0.0020845550431615343 0.0019686259033490378 0 0.0015639160833434875 0.0021275457613949122 0 0.0014313439771665311 0.0017846277669482569 0 0.0020845550431615343 0.0019686259033490378 0 0.0014313439771665311 0.0017846277669482569 0 0.0020845550431615343 0.0019686259033490378 0 0.0017517721945034519 0.0017396070614626421 0 0.0014313439771665311 0.0017846277669482569 0 0.0017517721945034519 0.0017396070614626421 0 0.0012718966188312031 0.0016657792915045029 0 0.0020845550431615343 0.0019686259033490378 0 0.0017517721945034519 0.0017396070614626421 0 0.0023422892791567273 0.00182795436265121 0 0.0020026138248267077 0.0014653386093694376 0 0.0023422892791567273 0.00182795436265121 0 0.0016707220731591245 0.0015360619388146723 0 0.0017517721945034519 0.0017396070614626421 0 0.0023422892791567273 0.00182795436265121 0 0.0016707220731591245 0.0015360619388146723 0 0.0016707220731591245 0.0015360619388146723 0 0.0011285503060128011 0.0014729960302778469 0 0.0015349922895442755 0.0012568562856060856 0 0.0020026138248267077 0.0014653386093694376 0 0.0016707220731591245 0.0015360619388146723 0 0.0015349922895442755 0.0012568562856060856 0 0.0012718966188312031 0.0016657792915045029 0 0.0011285503060128011 0.0014729960302778469 0 0.00084470238232088688 0.0019180253650741385 0 0.0016707220731591245 0.0015360619388146723 0 0.0012718966188312031 0.0016657792915045029 0 0.0011285503060128011 0.0014729960302778469 0 0.0017517721945034519 0.0017396070614626421 0 0.0016707220731591245 0.0015360619388146723 0 0.0012718966188312031 0.0016657792915045029 0 0.0011285503060128011 0.0014729960302778469 0 0.000595852517880764 0.0012202220800621238 0 0.00085520414456109924 0.0010848115057715214 0 0.0011285503060128011 0.0014729960302778469 0 0.00084470238232088688 0.0019180253650741385 0 0.000595852517880764 0.0012202220800621238 0 0.0011285503060128011 0.0014729960302778469 0 0.0011311687923760269 0.0010922515369719919 0 0.00085520414456109924 0.0010848115057715214 0 0.0011285503060128011 0.0014729960302778469 0 0.0015349922895442755 0.0012568562856060856 0 0.0011311687923760269 0.0010922515369719919 0 0.0012940544913256089 0.0009840734932063458 0 0.0015349922895442755 0.0012568562856060856 0 0.0011311687923760269 0.0010922515369719919 0 -0.0010572131045088749 0.0037026267631047206 0 9.1569354384011222e-05 0.0039201180223282202 0 -0.00032749774118374497 0.0023176313969419256 0 -0.0016531548281630488 0.0039052702288076883 0 -0.0013835312569693962 0.0029078480974064859 0 -0.0010572131045088749 0.0037026267631047206 0 -0.0013835312569693962 0.0029078480974064859 0 -0.0010572131045088749 0.0037026267631047206 0 -0.00032749774118374497 0.0023176313969419256 0 -0.0016948161059390414 0.0044481865234549823 0 -0.0011975156114071167 0.0047846940480764629 0 -0.0010572131045088749 0.0037026267631047206 0 -0.0016948161059390414 0.0044481865234549823 0 -0.0016531548281630488 0.0039052702288076883 0 -0.0010572131045088749 0.0037026267631047206 0 -0.0011975156114071167 0.0047846940480764629 0 -0.0010572131045088749 0.0037026267631047206 0 9.1569354384011222e-05 0.0039201180223282202 0 0.0012718966188312031 0.0016657792915045029 0 0.0012189075837144405 0.0016821021870654148 0 0.00084470238232088688 0.0019180253650741385 0 0.00059336424464503544 0.0028163001558599715 0 0.00087431688882673084 0.0020341906190133466 0 9.1569354384011222e-05 0.0039201180223282202 0 0.00084470238232088688 0.0019180253650741385 0 -0.00032749774118374497 0.0023176313969419256 0 0.00084470238232088688 0.0019180253650741385 0 0.00020644305106593111 0.0015460544954344593 0 -0.00032749774118374497 0.0023176313969419256 0 0.00084470238232088688 0.0019180253650741385 0 0.00020644305106593111 0.0015460544954344593 0 0.000595852517880764 0.0012202220800621238 0 0.00020644305106593111 0.0015460544954344593 0 -0.00042069523790445233 0.0015695549575636017 0 -0.00032749774118374497 0.0023176313969419256 0 -0.00042069523790445233 0.0015695549575636017 0 -0.00032749774118374497 0.0023176313969419256 0 -0.00094812874969695015 0.002025729175649138 0 -0.0013835312569693962 0.0029078480974064859 0 -0.00032749774118374497 0.0023176313969419256 0 -0.00094812874969695015 0.002025729175649138 0 -0.00042069523790445233 0.0015695549575636017 0 -0.00094812874969695015 0.002025729175649138 0 -0.00096563788037198461 0.0015219794634263083 0 -0.0012212676961913577 0.0018126952025995405 0 -0.00094812874969695015 0.002025729175649138 0 -0.00096563788037198461 0.0015219794634263083 0 -0.00096563788037198461 0.0015219794634263083 0 -0.0010197603298447977 0.0011682610663944183 0 -0.0012135137009743413 0.0014051382114456336 0 -0.0010197603298447977 0.0011682610663944183 0 -0.00058353808188156466 0.00090904291074095508 0 -0.00058382943430947446 0.00057792317616806813 0 -0.00042069523790445233 0.0015695549575636017 0 -0.00096563788037198461 0.0015219794634263083 0 -0.00064002259796595764 0.0012202820873405062 0 -0.00096563788037198461 0.0015219794634263083 0 -0.00064002259796595764 0.0012202820873405062 0 -0.0010197603298447977 0.0011682610663944183 0 -0.00064002259796595764 0.0012202820873405062 0 -0.0010197603298447977 0.0011682610663944183 0 -0.00058353808188156466 0.00090904291074095508 0 -0.00064002259796595764 0.0012202820873405062 0 -0.00058353808188156466 0.00090904291074095508 0 -0.00037281115235089597 0.00097483932810926211 0 -0.00064002259796595764 0.0012202820873405062 0 -0.00037281115235089597 0.00097483932810926211 0 1.8585024753852882e-09 0.001067922716267549 0 -0.00037281115235089597 0.00097483932810926211 0 1.8585024753852882e-09 0.001067922716267549 0 -0.00027592101210311012 0.00074770423752282375 0 -0.00058353808188156466 0.00090904291074095508 0 -0.00037281115235089597 0.00097483932810926211 0 -0.00027592101210311012 0.00074770423752282375 0 -0.00042069523790445233 0.0015695549575636017 0 -0.00064002259796595764 0.0012202820873405062 0 1.8585024753852882e-09 0.001067922716267549 0 0.00020644305106593111 0.0015460544954344593 0 -0.00042069523790445233 0.0015695549575636017 0 1.8585024753852882e-09 0.001067922716267549 0 0.00020644305106593111 0.0015460544954344593 0 0.000595852517880764 0.0012202220800621238 0 1.8585024753852882e-09 0.001067922716267549 0 0.000595852517880764 0.0012202220800621238 0 0.00020109467495367731 0.00080532785150459101 0 0.00055889559683360045 0.00084909369466963918 0 0.000595852517880764 0.0012202220800621238 0 1.8585024753852882e-09 0.001067922716267549 0 0.00020109467495367731 0.00080532785150459101 0 1.8585024753852882e-09 0.001067922716267549 0 0.00020109467495367731 0.00080532785150459101 0 -0.00027592101210311012 0.00074770423752282375 0 0.00020109467495367731 0.00080532785150459101 0 -8.6092875827822676e-05 0.0005949150868613572 0 -0.00027592101210311012 0.00074770423752282375 0 0.00020109467495367731 0.00080532785150459101 0 0.00055889559683360045 0.00084909369466963918 0 0.00021836459607443831 0.00059854992648838566 0 0.00020109467495367731 0.00080532785150459101 0 -8.6092875827822676e-05 0.0005949150868613572 0 0.00021836459607443831 0.00059854992648838566 0 -0.00030224241524120198 0.0006056364964519079 0 -8.6092875827822676e-05 0.0005949150868613572 0 -0.00027592101210311012 0.00074770423752282375 0 -0.00030224241524120198 0.0006056364964519079 0 -8.6092875827822676e-05 0.0005949150868613572 0 -0.00026770031799792124 0.0005201804850794964 0 -0.00030224241524120198 0.0006056364964519079 0 -0.00026770031799792124 0.0005201804850794964 0 -0.00058382943430947446 0.00057792317616806813 0 -0.00058353808188156466 0.00090904291074095508 0 -0.00027592101210311012 0.00074770423752282375 0 -0.00058382943430947446 0.00057792317616806813 0 -0.00030224241524120198 0.0006056364964519079 0 -0.00027592101210311012 0.00074770423752282375 0 -0.00058382943430947446 0.00057792317616806813 0 0.00099155922702758026 0.00088958274758329538 0 0.0011311687923760269 0.0010922515369719919 0 0.00077826174571108536 0.00083898269117611715 0 0.0011311687923760269 0.0010922515369719919 0 0.00085520414456109924 0.0010848115057715214 0 0.00077826174571108536 0.00083898269117611715 0 0.0012940544913256089 0.0009840734932063458 0 0.00099155922702758026 0.00088958274758329538 0 0.0011311687923760269 0.0010922515369719919 0 0.00085520414456109924 0.0010848115057715214 0 0.00055889559683360045 0.00084909369466963918 0 0.00077826174571108536 0.00083898269117611715 0 0.000595852517880764 0.0012202220800621238 0 0.00085520414456109924 0.0010848115057715214 0 0.00055889559683360045 0.00084909369466963918 0 0.00055889559683360045 0.00084909369466963918 0 0.00047986961518995059 0.00068158700318571221 0 0.00021836459607443831 0.00059854992648838566 0 0.00055889559683360045 0.00084909369466963918 0 0.00047986961518995059 0.00068158700318571221 0 0.00077826174571108536 0.00083898269117611715 0 0.00059907675024990748 0.00063061448873802264 0 0.00076454856225490939 0.00075101966766936653 0 0.00053497684170073032 0.00064187512634613427 0 0.00077826174571108536 0.00083898269117611715 0 0.00076454856225490939 0.00075101966766936653 0 0.00053497684170073032 0.00064187512634613427 0 0.00047986961518995059 0.00068158700318571221 0 0.00077826174571108536 0.00083898269117611715 0 0.00053497684170073032 0.00064187512634613427 0 0.00099155922702758026 0.00088958274758329538 0 0.00077826174571108536 0.00083898269117611715 0 0.00076454856225490939 0.00075101966766936653 0 0.00034396002386385819 0.00052665089202080556 0 0.00053497684170073032 0.00064187512634613427 0 0.00026986329762826623 0.00054257767191449315 0 0.00026986329762826623 0.00054257767191449315 0 0.00021836459607443831 0.00059854992648838566 0 7.9940073819213719e-05 0.00050859233406479632 0 0.00047986961518995059 0.00068158700318571221 0 0.00053497684170073032 0.00064187512634613427 0 0.00026986329762826623 0.00054257767191449315 0 0.00047986961518995059 0.00068158700318571221 0 0.00026986329762826623 0.00054257767191449315 0 0.00021836459607443831 0.00059854992648838566 0 0.00026986329762826623 0.00054257767191449315 0 9.2344115714300306e-05 0.00052617309497946213 0 7.9940073819213719e-05 0.00050859233406479632 0 8.5507448096789024e-05 0.00055739801000884842 0 0.00026986329762826623 0.00054257767191449315 0 9.2344115714300306e-05 0.00052617309497946213 0 -8.84928736405229e-05 0.00060271797617148448 0 8.5507448096789024e-05 0.00055739801000884842 0 9.2344115714300306e-05 0.00052617309497946213 0 -8.84928736405229e-05 0.00060271797617148448 0 9.2344115714300306e-05 0.00052617309497946213 0 -1.1885389631747148e-05 0.0005131384082343361 0 8.5507448096789024e-05 0.00055739801000884842 0 0.00026986329762826623 0.00054257767191449315 0 0.00019896390837847566 0.00052387229149798459 0 0.00034396002386385819 0.00052665089202080556 0 0.00026986329762826623 0.00054257767191449315 0 0.00019896390837847566 0.00052387229149798459 0 -0.0001807958856370953 0.00044186769329093587 0 -0.00026770031799792124 0.0005201804850794964 0 -0.00058382943430947446 0.00057792317616806813 0 -0.0014946037857193454 0.0023442085956064999 0 -0.0010795528778944985 0.0009685097980854083 0 -0.0001807958856370953 0.00044186769329093587 0 -6.9432009831808716e-05 0.00049057370561956376 0 -5.9451814948137453e-05 0.00047668971617871337 0 -0.0001807958856370953 0.00044186769329093587 0 -0.00026770031799792124 0.0005201804850794964 0 -6.9432009831808716e-05 0.00049057370561956376 0 -8.6092875827822676e-05 0.0005949150868613572 0 -0.00026770031799792124 0.0005201804850794964 0 -6.9432009831808716e-05 0.00049057370561956376 0 -8.6092875827822676e-05 0.0005949150868613572 0 0.00021836459607443831 0.00059854992648838566 0 -6.9432009831808716e-05 0.00049057370561956376 0 0.00021836459607443831 0.00059854992648838566 0 7.9940073819213719e-05 0.00050859233406479632 0 -6.9432009831808716e-05 0.00049057370561956376 0 7.9940073819213719e-05 0.00050859233406479632 0 -6.9432009831808716e-05 0.00049057370561956376 0 -5.9451814948137453e-05 0.00047668971617871337 0 7.9940073819213719e-05 0.00050859233406479632 0 -1.1885389631747148e-05 0.0005131384082343361 0 -5.9451814948137453e-05 0.00047668971617871337 0 9.2344115714300306e-05 0.00052617309497946213 0 7.9940073819213719e-05 0.00050859233406479632 0 -1.1885389631747148e-05 0.0005131384082343361 0 -0.00010770069815712941 0.00057248393663420979 0 -1.1885389631747148e-05 0.0005131384082343361 0 -3.6947548814908216e-05 0.00051097962874599554 0 -1.1885389631747148e-05 0.0005131384082343361 0 -3.6947548814908216e-05 0.00051097962874599554 0 -5.9451814948137453e-05 0.00047668971617871337 0 8.8471850004307988e-06 0.00053442794428780872 0 -3.6947548814908216e-05 0.00051097962874599554 0 -5.9451814948137453e-05 0.00047668971617871337 0 -0.00035201030692557809 0.0009034835090594663 0 -0.0014946037857193454 0.0023442085956064999 0 -0.0020017368516792862 0.0029915882037883537 0 -0.0014946037857193454 0.0023442085956064999 0 8.8471850004307988e-06 0.00053442794428780872 0 -0.0001807958856370953 0.00044186769329093587 0 -5.9451814948137453e-05 0.00047668971617871337 0 -0.00091709169782858125 0.0016937441320367249 0 -0.001233680989878485 0.0017043851307839894 0 -0.0013998586112116468 0.002544749901655831 0 -0.0026527134829283212 0.0037703628609072727 0 -0.003009134402537346 0.0047622050247017027 0 -0.0033064920911444469 0.0042638703341528654 0 -0.0033819022102254161 0.0035735259788796324 0 -0.0033064920911444469 0.0042638703341528654 0 -0.0037189143318519611 0.003963670462453054 0 -0.0033064920911444469 0.0042638703341528654 0 -0.0037189143318519611 0.003963670462453054 0 -0.003811531926002627 0.0042711025297826532 0 -0.0037189143318519611 0.003963670462453054 0 -0.003811531926002627 0.0042711025297826532 0 -0.004132389111254367 0.0040099885394402103 0 -0.003811531926002627 0.0042711025297826532 0 -0.0041441710150339397 0.0044187079471230415 0 -0.0037728822353321392 0.004625474550211897 0 -0.0033064920911444469 0.0042638703341528654 0 -0.003811531926002627 0.0042711025297826532 0 -0.0037728822353321392 0.004625474550211897 0 -0.003811531926002627 0.0042711025297826532 0 -0.004132389111254367 0.0040099885394402103 0 -0.0041441710150339397 0.0044187079471230415 0 -0.0046396818271909291 0.0041240526022844797 0 -0.004132389111254367 0.0040099885394402103 0 -0.0041441710150339397 0.0044187079471230415 0 -0.0046396818271909291 0.0041240526022844797 0 -0.0041441710150339397 0.0044187079471230415 0 -0.0044903811566127392 0.0045882101422817685 0 -0.0044903811566127392 0.0045882101422817685 0 -0.0040484527430015502 0.0047487580335308383 0 -0.0042737468567762265 0.0048448133713531391 0 -0.0041441710150339397 0.0044187079471230415 0 -0.0044903811566127392 0.0045882101422817685 0 -0.0040484527430015502 0.0047487580335308383 0 -0.0041441710150339397 0.0044187079471230415 0 -0.0040484527430015502 0.0047487580335308383 0 -0.0037728822353321392 0.004625474550211897 0 -0.0040484527430015502 0.0047487580335308383 0 -0.0038113910853507463 0.0048846818198161413 0 -0.003909645635878682 0.0050130819344848749 0 -0.0040484527430015502 0.0047487580335308383 0 -0.0042737468567762265 0.0048448133713531391 0 -0.003909645635878682 0.0050130819344848749 0 -0.0042737468567762265 0.0048448133713531391 0 -0.003909645635878682 0.0050130819344848749 0 -0.0042835608323930569 0.0050021740223491146 0 -0.0033064920911444469 0.0042638703341528654 0 -0.0037728822353321392 0.004625474550211897 0 -0.0035966745022081681 0.0050050737094816389 0 -0.0016871031334498056 0.0021321449890826308 0 -0.0016272869693508205 0.0017242988459188202 0 -0.0015480757881143543 0.0018577591061793941 0 -0.003009134402537346 0.0047622050247017027 0 -0.0033064920911444469 0.0042638703341528654 0 -0.0033722134701333617 0.0054247267116628089 0 -0.0034329438315910087 0.0047069274191816803 0 -0.0030566988480062334 0.0042421908643314465 0 -0.0040484527430015502 0.0047487580335308383 0 -0.0037728822353321392 0.004625474550211897 0 -0.0038113910853507463 0.0048846818198161413 0 -0.0037728822353321392 0.004625474550211897 0 -0.0038113910853507463 0.0048846818198161413 0 -0.0035966745022081681 0.0050050737094816389 0 -0.0038113910853507463 0.0048846818198161413 0 -0.0035966745022081681 0.0050050737094816389 0 -0.003909645635878682 0.0050130819344848749 0 -0.0014946037857193454 0.0023442085956064999 0 -0.0030566988480062334 0.0042421908643314465 0 -0.0035966745022081681 0.0050050737094816389 0 -0.003909645635878682 0.0050130819344848749 0 -0.0036314348633981778 0.005174871500980731 0 -0.0030566988480062334 0.0042421908643314465 0 -0.0024968196851826792 0.0031762961375788835 0 -0.0030566988480062334 0.0042421908643314465 0 -0.0038034092512078304 0.0054556500942726013 0 -0.0016272869693508205 0.0017242988459188202 0 -0.0015480757881143543 0.0018577591061793941 0 -0.0016293888955449018 0.001353667237682075 0 -0.0036066674465230759 0.0050925283846070214 0 -0.0035396670236225603 0.0052121350442148927 0 -0.0036314348633981778 0.005174871500980731 0 -0.003909645635878682 0.0050130819344848749 0 -0.0038686539083595552 0.0051813314482986881 0 -0.0042835608323930569 0.0050021740223491146 0 -0.003909645635878682 0.0050130819344848749 0 -0.0038686539083595552 0.0051813314482986881 0 -0.0036314348633981778 0.005174871500980731 0 -0.0038686539083595552 0.0051813314482986881 0 -0.0035222654898583914 0.0052001407501417723 0 -0.0036314348633981778 0.005174871500980731 0 -0.0034944456302903868 0.0051900903374649324 0 -0.0038686539083595552 0.0051813314482986881 0 -0.0035222654898583914 0.0052001407501417723 0 -0.0033702308698206999 0.005147741980960934 0 -0.0033531945412072399 0.0051449343128477957 0 -0.0035222654898583914 0.0052001407501417723 0 -0.0033531945412072399 0.0051449343128477957 0 -0.0034944456302903868 0.0051900903374649324 0 -0.0035222654898583914 0.0052001407501417723 0 -0.0016272869693508205 0.0017242988459188202 0 -0.0016293888955449018 0.001353667237682075 0 -0.0015701405668426512 0.0013796078877543587 0 -0.0033702308698206999 0.005147741980960934 0 -0.0035222654898583914 0.0052001407501417723 0 -0.0035396670236225603 0.0052121350442148927 0 -0.0010795528778944985 0.0009685097980854083 0 -0.0014928907272061976 0.0015102853221533959 0 -0.0010197603298447977 0.0011682610663944183 0 -0.00058382943430947446 0.00057792317616806813 0 -0.0015701405668426512 0.0013796078877543587 0 -0.0035222654898583914 0.0052001407501417723 0 -0.0035396670236225603 0.0052121350442148927 0 -0.0036314348633981778 0.005174871500980731 0 -0.0016293888955449018 0.001353667237682075 0 -0.0015233504968548749 0.0014959578826964186 0 -0.0015701405668426512 0.0013796078877543587 0 -0.001503676734029534 0.0017030389490376766 0 -0.0016293888955449018 0.001353667237682075 0 -0.0015233504968548749 0.0014959578826964186 0 -0.0015233504968548749 0.0014959578826964186 0 -0.0015701405668426512 0.0013796078877543587 0 -0.0013325829403787609 0.0015555788115473729 0 -0.00096563788037198461 0.0015219794634263083 0 -0.0013325829403787609 0.0015555788115473729 0 -0.0012135137009743413 0.0014051382114456336 0 -0.0015701405668426512 0.0013796078877543587 0 -0.0013325829403787609 0.0015555788115473729 0 -0.0012135137009743413 0.0014051382114456336 0 -0.0010197603298447977 0.0011682610663944183 0 -0.0015701405668426512 0.0013796078877543587 0 -0.0012135137009743413 0.0014051382114456336 0 -0.0045340501069584711 0.0052599080092253381 0 -0.0039793992998486058 0.0052584090279521409 0 -0.0045304009899367892 0.0050970096683670462 0 -0.0039834956929525652 0.0053712990753069963 0 -0.0045340501069584711 0.0052599080092253381 0 -0.0043317798932979122 0.0054761882455624166 0 -0.0039834956929525652 0.0053712990753069963 0 -0.0045340501069584711 0.0052599080092253381 0 -0.0039793992998486058 0.0052584090279521409 0 -0.0034944456302903868 0.0051900903374649324 0 -0.0038686539083595552 0.0051813314482986881 0 -0.0039793992998486058 0.0052584090279521409 0 -0.0038686539083595552 0.0051813314482986881 0 -0.0039793992998486058 0.0052584090279521409 0 -0.0045304009899367892 0.0050970096683670462 0 -0.0038686539083595552 0.0051813314482986881 0 -0.0045304009899367892 0.0050970096683670462 0 -0.0042835608323930569 0.0050021740223491146 0 -0.0045304009899367892 0.0050970096683670462 0 -0.0042835608323930569 0.0050021740223491146 0 -0.0047803547432433901 0.0047913555354082869 0 -0.0045304009899367892 0.0050970096683670462 0 -0.0051892228450047574 0.0050199808737977124 0 -0.0052249061444688306 0.0048452256713349727 0 -0.0045340501069584711 0.0052599080092253381 0 -0.0045304009899367892 0.0050970096683670462 0 -0.0051892228450047574 0.0050199808737977124 0 -0.0051892228450047574 0.0050199808737977124 0 -0.0052249061444688306 0.0048452256713349727 0 -0.0060563684686245926 0.0047464723957507445 0 -0.0052249061444688306 0.0048452256713349727 0 -0.0047803547432433901 0.0047913555354082869 0 -0.0056192715268022723 0.0045424189509014369 0 -0.0052249061444688306 0.0048452256713349727 0 -0.0056192715268022723 0.0045424189509014369 0 -0.0060563684686245926 0.0047464723957507445 0 -0.0042737468567762265 0.0048448133713531391 0 -0.0042835608323930569 0.0050021740223491146 0 -0.0047803547432433901 0.0047913555354082869 0 -0.0045304009899367892 0.0050970096683670462 0 -0.0052249061444688306 0.0048452256713349727 0 -0.0047803547432433901 0.0047913555354082869 0 -0.0047803547432433901 0.0047913555354082869 0 -0.0051421117461977498 0.0043447962146798509 0 -0.0056192715268022723 0.0045424189509014369 0 -0.0044903811566127392 0.0045882101422817685 0 -0.0047803547432433901 0.0047913555354082869 0 -0.0051421117461977498 0.0043447962146798509 0 -0.0044903811566127392 0.0045882101422817685 0 -0.0042737468567762265 0.0048448133713531391 0 -0.0047803547432433901 0.0047913555354082869 0 -0.0046396818271909291 0.0041240526022844797 0 -0.0044903811566127392 0.0045882101422817685 0 -0.0051421117461977498 0.0043447962146798509 0 -0.005356937435909058 0.0037035439734275826 0 -0.0051421117461977498 0.0043447962146798509 0 -0.0060260261021622017 0.0040430295609891302 0 -0.005356937435909058 0.0037035439734275826 0 -0.0046396818271909291 0.0041240526022844797 0 -0.0051421117461977498 0.0043447962146798509 0 -0.0056192715268022723 0.0045424189509014369 0 -0.0060260261021622017 0.0040430295609891302 0 -0.0065689331892304029 0.0043381233759470991 0 -0.0056192715268022723 0.0045424189509014369 0 -0.0065689331892304029 0.0043381233759470991 0 -0.0060563684686245926 0.0047464723957507445 0 -0.0051421117461977498 0.0043447962146798509 0 -0.0056192715268022723 0.0045424189509014369 0 -0.0060260261021622017 0.0040430295609891302 0 -0.0070956826287382913 0.0036834147156960761 0 -0.0060260261021622017 0.0040430295609891302 0 -0.0065689331892304029 0.0043381233759470991 0 -0.0070956826287382913 0.0036834147156960761 0 -0.0065689331892304029 0.0043381233759470991 0 -0.0077305115376285673 0.0043275747312158906 0 -0.0065689331892304029 0.0043381233759470991 0 -0.0069943271291803685 0.0045843851342431963 0 -0.0060563684686245926 0.0047464723957507445 0 -0.0065689331892304029 0.0043381233759470991 0 -0.0069943271291803685 0.0045843851342431963 0 -0.0077305115376285673 0.0043275747312158906 0 -0.0091214360767275533 0.0047948094473944988 0 -0.0077305115376285673 0.0043275747312158906 0 -0.0077228320114267586 0.0046807804124333946 0 -0.0069943271291803685 0.0045843851342431963 0 -0.0077305115376285673 0.0043275747312158906 0 -0.0077228320114267586 0.0046807804124333946 0 -0.0069943271291803685 0.0045843851342431963 0 -0.0077228320114267586 0.0046807804124333946 0 -0.0067213863907224225 0.004827505186209005 0 -0.0077228320114267586 0.0046807804124333946 0 -0.0067213863907224225 0.004827505186209005 0 -0.00720177848578781 0.0047605323341456274 0 -0.0067213863907224225 0.004827505186209005 0 -0.0060563684686245926 0.0047464723957507445 0 -0.0056873856965034605 0.005080982317411986 0 -0.0069943271291803685 0.0045843851342431963 0 -0.0067213863907224225 0.004827505186209005 0 -0.0060563684686245926 0.0047464723957507445 0 -0.0091214360767275533 0.0047948094473944988 0 -0.0077228320114267586 0.0046807804124333946 0 -0.0078256691454919539 0.0046042929138724259 0 -0.0091214360767275533 0.0047948094473944988 0 -0.0077325186075654258 0.0047735756906885883 0 -0.0078256691454919539 0.0046042929138724259 0 -0.0090527652492856416 0.0048511183203748488 0 -0.010527916292711749 0.0054529936949272205 0 -0.0077228320114267586 0.0046807804124333946 0 -0.00720177848578781 0.0047605323341456274 0 -0.0078256691454919539 0.0046042929138724259 0 -0.00720177848578781 0.0047605323341456274 0 -0.0078256691454919539 0.0046042929138724259 0 -0.0076429110944970687 0.0047330547238600877 0 -0.0077325186075654258 0.0047735756906885883 0 -0.0078256691454919539 0.0046042929138724259 0 -0.0076429110944970687 0.0047330547238600877 0 -0.0021589270516221802 0.0049311747704092173 0 -0.0019523045762967503 0.0052757950822739166 0 -0.0022611599049421342 0.0051508304876193263 0 -0.00720177848578781 0.0047605323341456274 0 -0.0076429110944970687 0.0047330547238600877 0 -0.0068658548874599313 0.0052564437439455219 0 -0.0043743562540083788 0.0048987021858705347 0 -0.0044826547349300925 0.0051831695276206855 0 -0.00720177848578781 0.0047605323341456274 0 -0.0068658548874599313 0.0052564437439455219 0 -0.006351642015024769 0.0050121749035251326 0 -0.0068658548874599313 0.0052564437439455219 0 -0.006351642015024769 0.0050121749035251326 0 -0.0054870656942341634 0.0053180313348433501 0 -0.0044826547349300925 0.0051831695276206855 0 -0.0036379812197821111 0.005584809508501592 0 -0.0068658548874599313 0.0052564437439455219 0 -0.0054870656942341634 0.0053180313348433501 0 -0.0052223084617506153 0.0056871731091768284 0 -0.0019523045762967503 0.0052757950822739166 0 -0.0019707836282943456 0.0055227687996496693 0 -0.0021254104549334623 0.0053819885124576526 0 -0.0019523045762967503 0.0052757950822739166 0 -0.0021254104549334623 0.0053819885124576526 0 -0.0022611599049421342 0.0051508304876193263 0 -0.0045340501069584711 0.0052599080092253381 0 -0.0051892228450047574 0.0050199808737977124 0 -0.0056873856965034605 0.005080982317411986 0 -0.0051892228450047574 0.0050199808737977124 0 -0.0060563684686245926 0.0047464723957507445 0 -0.0056873856965034605 0.005080982317411986 0 -0.0067213863907224225 0.004827505186209005 0 -0.0056873856965034605 0.005080982317411986 0 -0.006351642015024769 0.0050121749035251326 0 -0.0067213863907224225 0.004827505186209005 0 -0.00720177848578781 0.0047605323341456274 0 -0.006351642015024769 0.0050121749035251326 0 -0.0056873856965034605 0.005080982317411986 0 -0.006351642015024769 0.0050121749035251326 0 -0.0054870656942341634 0.0053180313348433501 0 -0.0056873856965034605 0.005080982317411986 0 -0.0054870656942341634 0.0053180313348433501 0 -0.0043317798932979122 0.0054761882455624166 0 -0.0045340501069584711 0.0052599080092253381 0 -0.0056873856965034605 0.005080982317411986 0 -0.0043317798932979122 0.0054761882455624166 0 -0.0039834956929525652 0.0053712990753069963 0 -0.0033750075340683847 0.0054329957627024987 0 -0.0043317798932979122 0.0054761882455624166 0 -0.0033750075340683847 0.0054329957627024987 0 -0.0026315849184050701 0.0051217642998380858 0 -0.002880362777324019 0.0056115801627660451 0 -0.0033750075340683847 0.0054329957627024987 0 -0.0043317798932979122 0.0054761882455624166 0 -0.002880362777324019 0.0056115801627660451 0 -0.0030966250844650664 0.005548764066343418 0 -0.0036379812197821111 0.005584809508501592 0 -0.002880362777324019 0.0056115801627660451 0 -0.0019981914496732408 0.0057004483239726069 0 -0.0018434761624264466 0.0055598881262925448 0 -0.0054870656942341634 0.0053180313348433501 0 -0.0043317798932979122 0.0054761882455624166 0 -0.0052223084617506153 0.0056871731091768284 0 -0.0043317798932979122 0.0054761882455624166 0 -0.002880362777324019 0.0056115801627660451 0 -0.0052223084617506153 0.0056871731091768284 0 -0.0019981914496732408 0.0057004483239726069 0 -0.0019707836282943456 0.0055227687996496693 0 -0.0018434761624264466 0.0055598881262925448 0 -0.0019523045762967503 0.0052757950822739166 0 -0.0019981914496732408 0.0057004483239726069 0 -0.0019707836282943456 0.0055227687996496693 0 -0.0019707836282943456 0.0055227687996496693 0 -0.0019597080481698697 0.0055102181474047949 0 -0.0021254104549334623 0.0053819885124576526 0 -0.0019707836282943456 0.0055227687996496693 0 -0.0019597080481698697 0.0055102181474047949 0 -0.0018434761624264466 0.0055598881262925448 0 -0.0019597080481698697 0.0055102181474047949 0 -0.0018434761624264466 0.0055598881262925448 0 -0.0017832360408055604 0.0055171354710330635 0 -0.0018434761624264466 0.0055598881262925448 0 -0.0017832360408055604 0.0055171354710330635 0 -0.001269165606568898 0.0053277829684569749 0 -0.002880362777324019 0.0056115801627660451 0 -0.0018434761624264466 0.0055598881262925448 0 -0.001269165606568898 0.0053277829684569749 0 -0.0017832360408055604 0.0055171354710330635 0 -0.001269165606568898 0.0053277829684569749 0 -0.0019704639213311012 0.0057706051504946478 0 -0.001269165606568898 0.0053277829684569749 0 0.0037103554215180386 0.0056884721007834571 0 0.0022363276256314782 0.0027390957588780051 0 -0.0011395728668461768 0.0054214716277184421 0 0.00079036105992428857 0.0056210768614410236 0 -0.001269165606568898 0.0053277829684569749 0 -0.0022017455470819316 0.0048882527767658184 0 -0.0016463431518855664 0.0040572153441452543 0 -0.0018733065372231272 0.0047934463401668641 0 -0.0022017455470819316 0.0048882527767658184 0 -0.0016211844813823495 0.0042965584438922283 0 -0.0026315849184050701 0.0051217642998380858 0 -0.0018733065372231272 0.0047934463401668641 0 -0.0022017455470819316 0.0048882527767658184 0 -0.0022017455470819316 0.0048882527767658184 0 -0.0016463431518855664 0.0040572153441452543 0 -0.0016211844813823495 0.0042965584438922283 0 -0.0026315849184050701 0.0051217642998380858 0 -0.002880362777324019 0.0056115801627660451 0 -0.0022017455470819316 0.0048882527767658184 0 -0.002880362777324019 0.0056115801627660451 0 -0.001269165606568898 0.0053277829684569749 0 -0.0022017455470819316 0.0048882527767658184 0 -0.0025199794835565658 0.0056116636251513407 0 -0.0027210185860256763 0.0057988061359486968 0 -0.0023685605628139673 0.0058131407132059462 0 -0.0025199794835565658 0.0056116636251513407 0 -0.002729942446624107 0.0056075204056961897 0 -0.0027210185860256763 0.0057988061359486968 0 -0.002729942446624107 0.0056075204056961897 0 -0.002742066264071941 0.0057212045117150234 0 -0.002848670244799934 0.0056451405965112465 0 -0.00255519399238587 0.0065016586689743217 0 0.0025796622461069655 0.0039610255227709532 0 0.008619883946075638 0.0041097280682239733 0 0.0082841651292073319 0.0033944118326748487 0 0.0086246357787524899 0.0029273134867114823 0 0.0025796622461069655 0.0039610255227709532 0 0.0082584918170496274 0.0017990021253961371 0 0.008619883946075638 0.0041097280682239733 0 0.0079803751335618747 0.0037121770116318306 0 0.0082841651292073319 0.0033944118326748487 0 0.0067049831055079048 0.0014597309317620634 0 0.0068039027387821237 0.0013750741329331599 0 0.0068283623338203196 0.0013200208427299031 0 0.0079803751335618747 0.0037121770116318306 0 0.0075528400245592911 0.0046010954055544107 0 0.0074827200239445616 0.0032555414648307557 0 0.0025796622461069655 0.0039610255227709532 0 0.0026043227121218355 0.0053683784675677771 0 0.008619883946075638 0.0041097280682239733 0 0.0079803751335618747 0.0037121770116318306 0 0.0075528400245592911 0.0046010954055544107 0 0.0075528400245592911 0.0046010954055544107 0 0.0062125647214277095 0.0035370354719056183 0 0.0074827200239445616 0.0032555414648307557 0 0.0026043227121218355 0.0053683784675677771 0 0.00079036105992428857 0.0056210768614410236 0 0.0062125647214277095 0.0035370354719056183 0 0.0037103554215180386 0.0056884721007834571 0 0.0022363276256314782 0.0027390957588780051 0 0.0075528400245592911 0.0046010954055544107 0 0.0062125647214277095 0.0035370354719056183 0 0.0037103554215180386 0.0056884721007834571 0 -0.0017832360408055604 0.0055171354710330635 0 -0.0019704639213311012 0.0057706051504946478 0 -0.0021972725873069792 0.0055861304859381325 0 -0.0023685605628139673 0.0058131407132059462 0 -0.0019704639213311012 0.0057706051504946478 0 -0.0021972725873069792 0.0055861304859381325 0 -0.0025199794835565658 0.0056116636251513407 0 -0.0023685605628139673 0.0058131407132059462 0 -0.0021972725873069792 0.0055861304859381325 0 -0.0025199794835565658 0.0056116636251513407 0 -0.0021972725873069792 0.0055861304859381325 0 -0.0024032452922403782 0.0054459656397142656 0 -0.0021972725873069792 0.0055861304859381325 0 -0.0024032452922403782 0.0054459656397142656 0 -0.0022007387266072273 0.0054432642608109273 0 -0.0019597080481698697 0.0055102181474047949 0 -0.0017832360408055604 0.0055171354710330635 0 -0.0021972725873069792 0.0055861304859381325 0 -0.0019597080481698697 0.0055102181474047949 0 -0.0021972725873069792 0.0055861304859381325 0 -0.0022007387266072273 0.0054432642608109273 0 -0.0019597080481698697 0.0055102181474047949 0 -0.0022007387266072273 0.0054432642608109273 0 -0.0021254104549334623 0.0053819885124576526 0 -0.0022007387266072273 0.0054432642608109273 0 -0.0021254104549334623 0.0053819885124576526 0 -0.0023383102041190981 0.0053106469903641982 0 -0.0024032452922403782 0.0054459656397142656 0 -0.0022007387266072273 0.0054432642608109273 0 -0.0023383102041190981 0.0053106469903641982 0 -0.0024032452922403782 0.0054459656397142656 0 -0.0023383102041190981 0.0053106469903641982 0 -0.0025813411311802611 0.005283292520607618 0 -0.0025813411311802611 0.005283292520607618 0 -0.0026348531666675274 0.0054104703597957979 0 -0.0027885104527348159 0.0052947715707767282 0 -0.0024032452922403782 0.0054459656397142656 0 -0.0025813411311802611 0.005283292520607618 0 -0.0026348531666675274 0.0054104703597957979 0 -0.0025199794835565658 0.0056116636251513407 0 -0.0024032452922403782 0.0054459656397142656 0 -0.0026348531666675274 0.0054104703597957979 0 -0.0025199794835565658 0.0056116636251513407 0 -0.002729942446624107 0.0056075204056961897 0 -0.0026348531666675274 0.0054104703597957979 0 -0.002729942446624107 0.0056075204056961897 0 -0.0028684922928510896 0.0054394025827402409 0 -0.002848670244799934 0.0056451405965112465 0 -0.002729942446624107 0.0056075204056961897 0 -0.0026348531666675274 0.0054104703597957979 0 -0.0028684922928510896 0.0054394025827402409 0 -0.0028684922928510896 0.0054394025827402409 0 -0.0027885104527348159 0.0052947715707767282 0 -0.0029703693390442853 0.0051743446611366246 0 -0.0026348531666675274 0.0054104703597957979 0 -0.0028684922928510896 0.0054394025827402409 0 -0.0027885104527348159 0.0052947715707767282 0 -0.0027840785476471903 0.0051538008474367883 0 -0.0030150607681132913 0.0050371002337480054 0 -0.0029703693390442853 0.0051743446611366246 0 -0.0027885104527348159 0.0052947715707767282 0 -0.0027840785476471903 0.0051538008474367883 0 -0.0029703693390442853 0.0051743446611366246 0 -0.0025813411311802611 0.005283292520607618 0 -0.0027885104527348159 0.0052947715707767282 0 -0.0027840785476471903 0.0051538008474367883 0 -0.0025813411311802611 0.005283292520607618 0 -0.0027840785476471903 0.0051538008474367883 0 -0.0025926956072976387 0.005071478132291877 0 -0.0027840785476471903 0.0051538008474367883 0 -0.002878455141338632 0.0049966418662910142 0 -0.0025926956072976387 0.005071478132291877 0 -0.002878455141338632 0.0049966418662910142 0 -0.0025926956072976387 0.005071478132291877 0 -0.0027793193238362388 0.004786594898307241 0 -0.0030150607681132913 0.0050371002337480054 0 -0.002878455141338632 0.0049966418662910142 0 -0.0031637652869730025 0.0049360311332531312 0 -0.0027840785476471903 0.0051538008474367883 0 -0.0030150607681132913 0.0050371002337480054 0 -0.002878455141338632 0.0049966418662910142 0 -0.0021254104549334623 0.0053819885124576526 0 -0.0023383102041190981 0.0053106469903641982 0 -0.0022611599049421342 0.0051508304876193263 0 -0.0023383102041190981 0.0053106469903641982 0 -0.0025813411311802611 0.005283292520607618 0 -0.0025926956072976387 0.005071478132291877 0 -0.0023383102041190981 0.0053106469903641982 0 -0.0022611599049421342 0.0051508304876193263 0 -0.0025926956072976387 0.005071478132291877 0 -0.0025926956072976387 0.005071478132291877 0 -0.0024407700949697795 0.0049179905780858931 0 -0.0027793193238362388 0.004786594898307241 0 -0.0022611599049421342 0.0051508304876193263 0 -0.0025926956072976387 0.005071478132291877 0 -0.0024407700949697795 0.0049179905780858931 0 -0.0021589270516221802 0.0049311747704092173 0 -0.0022611599049421342 0.0051508304876193263 0 -0.0024407700949697795 0.0049179905780858931 0 -0.0021589270516221802 0.0049311747704092173 0 -0.0024407700949697795 0.0049179905780858931 0 -0.0024112703037209005 0.0046594189215814451 0 -0.0043743562540083788 0.0048987021858705347 0 -0.0093589825522408521 0.0057098729420171461 0 -0.0077325186075654258 0.0047735756906885883 0 -0.0076429110944970687 0.0047330547238600877 0 -0.007678817826920219 0.0047702664202970901 0 -0.0093589825522408521 0.0057098729420171461 0 -0.010112992445516404 0.0055797868385270262 0 -0.0024407700949697795 0.0049179905780858931 0 -0.0024112703037209005 0.0046594189215814451 0 -0.0027793193238362388 0.004786594898307241 0 -0.015698258498023903 0.0055397306565644804 0 -0.015244377692806718 0.0061394821598302627 0 -0.017058331617190992 0.0053425486874358764 0 -0.015244377692806718 0.0061394821598302627 0 -0.017669106029054131 0.0065463493347240097 0 -0.017058331617190992 0.0053425486874358764 0 -0.016387190726975469 0.0049665108454979351 0 -0.015698258498023903 0.0055397306565644804 0 -0.017058331617190992 0.0053425486874358764 0 -0.010527916292711749 0.0054529936949272205 0 -0.0093589825522408521 0.0057098729420171461 0 -0.012646196226417683 0.006068585301147681 0 -0.015036514094065442 0.0066483831691107366 0 -0.014206755839120629 0.0054486093038947697 0 -0.013793144697717108 0.0044039528900250641 0 -0.0093589825522408521 0.0057098729420171461 0 -0.015698258498023903 0.0055397306565644804 0 -0.015036514094065442 0.0066483831691107366 0 -0.014206755839120629 0.0054486093038947697 0 -0.018460045499088185 0.0058386386241594769 0 -0.019339144118514565 0.0058416949773581247 0 -0.019429284372533363 0.0067105466425408005 0 -0.002878455141338632 0.0049966418662910142 0 -0.0027793193238362388 0.004786594898307241 0 -0.0031637652869730025 0.0049360311332531312 0 -0.017669106029054131 0.0065463493347240097 0 -0.018460045499088185 0.0058386386241594769 0 -0.019429284372533363 0.0067105466425408005 0 -0.010112992445516404 0.0055797868385270262 0 -0.011097437400952419 0.0059685502445368495 0 -0.017058331617190992 0.0053425486874358764 0 -0.01811190439116047 0.0050463799737523584 0 -0.018460045499088185 0.0058386386241594769 0 -0.017669106029054131 0.0065463493347240097 0 -0.017058331617190992 0.0053425486874358764 0 -0.018460045499088185 0.0058386386241594769 0 -0.018900874916269239 0.0048090927928506428 0 -0.01811190439116047 0.0050463799737523584 0 -0.018460045499088185 0.0058386386241594769 0 -0.018900874916269239 0.0048090927928506428 0 -0.018460045499088185 0.0058386386241594769 0 -0.019339144118514565 0.0058416949773581247 0 -0.020282639230695301 0.0049056074438225163 0 -0.020541989208439866 0.0069381309657057452 0 -0.018900874916269239 0.0048090927928506428 0 -0.02005872577006277 0.0048685082080334599 0 -0.019339144118514565 0.0058416949773581247 0 -0.02005872577006277 0.0048685082080334599 0 -0.019339144118514565 0.0058416949773581247 0 -0.02135616512144765 0.0068765136039300647 0 -0.019339144118514565 0.0058416949773581247 0 -0.019820326877725683 0.0064274124298566776 0 -0.019429284372533363 0.0067105466425408005 0 -0.019380035179816322 0.0058478872020685732 0 -0.020541989208439866 0.0069381309657057452 0 -0.02005872577006277 0.0048685082080334599 0 -0.02113472546825711 0.0063171358358898155 0 -0.021487086361510421 0.0048195151899755135 0 -0.02113472546825711 0.0063171358358898155 0 -0.021487086361510421 0.0048195151899755135 0 -0.022628511284732311 0.0055060203578535041 0 -0.022680473736037272 0.0026354273223162059 0 -0.022367728118697933 0.0023932805821397082 0 -0.022415902381932914 0.0029458735446369244 0 -0.022543921372758353 0.0037830132830915879 0 -0.021487086361510421 0.0048195151899755135 0 -0.022628511284732311 0.0055060203578535041 0 -0.022418404314630942 0.0030399516991425563 0 -0.022780649253236276 0.0043359042773083792 0 -0.022680473736037272 0.0026354273223162059 0 -0.022721427709230281 0.0029425892572508879 0 -0.022942327391170157 0.0027895387828747943 0 -0.022680473736037272 0.0026354273223162059 0 -0.022415902381932914 0.0029458735446369244 0 -0.022721427709230281 0.0029425892572508879 0 -0.022721427709230281 0.0029425892572508879 0 -0.022942327391170157 0.0027895387828747943 0 -0.022912913781648891 0.003108359879597592 0 -0.02263990444849057 0.0031948400464003567 0 -0.022719001703208942 0.003526283888678477 0 -0.022912913781648891 0.003108359879597592 0 -0.022721427709230281 0.0029425892572508879 0 -0.02263990444849057 0.0031948400464003567 0 -0.022912913781648891 0.003108359879597592 0 -0.022415902381932914 0.0029458735446369244 0 -0.022721427709230281 0.0029425892572508879 0 -0.02263990444849057 0.0031948400464003567 0 -0.022780649253236276 0.0043359042773083792 0 -0.019332904348284826 0.0048589355094147309 0 -0.022415902381932914 0.0029458735446369244 0 -0.02263990444849057 0.0031948400464003567 0 -0.022434214815592841 0.0033860444617854653 0 -0.02113472546825711 0.0063171358358898155 0 -0.022628511284732311 0.0055060203578535041 0 -0.022719194854270399 0.007091597201430053 0 -0.020541989208439866 0.0069381309657057452 0 -0.019332904348284826 0.0048589355094147309 0 -0.019166957232772314 0.0071718543674009023 0 -0.015445499608745472 0.0052681760428211046 0 -0.017115044786768719 0.0041235104026700739 0 -0.019332904348284826 0.0048589355094147309 0 -0.013375109128359552 0.0031511085289815657 0 -0.013375109128359552 0.0031511085289815657 0 -0.012484171778407769 0.0048803714381389987 0 -0.015445499608745472 0.0052681760428211046 0 -0.01528270856917969 0.0034960285468468811 0 -0.017115044786768719 0.0041235104026700739 0 -0.02263990444849057 0.0031948400464003567 0 -0.022434214815592841 0.0033860444617854653 0 -0.022719001703208942 0.003526283888678477 0 -0.019332904348284826 0.0048589355094147309 0 -0.017614938992805276 0.0014948043018329406 0 -0.01691569173248425 0.003820431748839477 0 -0.016788373570805211 0.0024640839716066156 0 -0.014910243860601647 0.0027874638096524905 0 -0.016788373570805211 0.0024640839716066156 0 -0.014910243860601647 0.0027874638096524905 0 -0.0151847446955486 0.0019114221128514457 0 -0.017614938992805276 0.0014948043018329406 0 -0.013138617874273914 0.0014373390690972628 0 -0.014908123162782519 0.0010618046743468897 0 -0.015256134717850173 -4.0016030629045372e-05 0 -0.014268727332599424 0.00024725987492974844 0 -0.0097486060405244952 0.0017116885239960192 0 -0.0097883558357721358 0.0015772946318338148 0 -0.0095654701169615493 0.0013713848338989091 0 -0.013138617874273914 0.0014373390690972628 0 -0.012671814735681481 0.0017479954666436549 0 -0.010289776329350884 0.0019134345063875088 0 -0.0097883558357721358 0.0015772946318338148 0 -0.010207880978249036 0.0012893758065477701 0 -0.013375109128359552 0.0031511085289815657 0 -0.013138617874273914 0.0014373390690972628 0 -0.010289776329350884 0.0019134345063875088 0 -0.009747475299913877 0.0017206952636158507 0 -0.0097883558357721358 0.0015772946318338148 0 -0.0097883558357721358 0.0015772946318338148 0 -0.010207880978249036 0.0012893758065477701 0 -0.0096857148987249935 0.0010965457133164447 0 -0.0097883558357721358 0.0015772946318338148 0 -0.0095654701169615493 0.0013713848338989091 0 -0.0096857148987249935 0.0010965457133164447 0 -0.0030581172225972141 0.0050376421038457742 0 -0.0026915419471120871 0.0047015400885718692 0 -0.0030112783809504327 0.0046663533221669978 0 -0.0099014272114242713 0.0044765007048997796 0 -0.011740249235039137 0.0051026040368711834 0 -0.0096741683992462718 0.0020489260426251907 0 -0.012484171778407769 0.0048803714381389987 0 -0.0066704621598172682 0.0027162126673572003 0 -0.013375109128359552 0.0031511085289815657 0 -0.0066704621598172682 0.0027162126673572003 0 -0.0066704621598172682 0.0027162126673572003 0 -0.0063997402273882151 0.0031502816518202141 0 -0.0030581172225972141 0.0050376421038457742 0 -0.0030112783809504327 0.0046663533221669978 0 -0.0031824807513854106 0.0049833578051496621 0 -0.0030112783809504327 0.0046663533221669978 0 -0.0031824807513854106 0.0049833578051496621 0 -0.003323835067107424 0.0045084215230357088 0 -0.0029703693390442853 0.0051743446611366246 0 -0.0031824807513854106 0.0049833578051496621 0 -0.0030933223321010753 0.0053109985045605547 0 -0.0031912695018604898 0.005004511323595087 0 -0.0031839888375354533 0.0047947434497440499 0 -0.0030150607681132913 0.0050371002337480054 0 -0.0029703693390442853 0.0051743446611366246 0 -0.0031824807513854106 0.0049833578051496621 0 -0.0030150607681132913 0.0050371002337480054 0 -0.0031824807513854106 0.0049833578051496621 0 -0.0031637652869730025 0.0049360311332531312 0 -0.019820326877725683 0.0064274124298566776 0 -0.019945474285560233 0.0067417216977812451 0 -0.019429284372533363 0.0067105466425408005 0 -0.0030581172225972141 0.0050376421038457742 0 -0.0031824807513854106 0.0049833578051496621 0 -0.0031637652869730025 0.0049360311332531312 0 -0.020541989208439866 0.0069381309657057452 0 -0.012484171778407769 0.0048803714381389987 0 -0.012484171778407769 0.0048803714381389987 0 -0.011097437400952419 0.0059685502445368495 0 -0.011960557752872442 -0.00086497415388232357 0 -0.012399210655887408 -0.00084148617491002897 0 -0.012224256524058985 -0.0012504119615868539 0 -0.011960557752872442 -0.00086497415388232357 0 -0.012244562197535384 -0.00051237959950725697 0 -0.012399210655887408 -0.00084148617491002897 0 -0.012427998572339904 -6.8715209995884324e-05 0 -0.01181822252467859 -0.00040193327246185325 0 -0.012244562197535384 -0.00051237959950725697 0 -0.01181822252467859 -0.00040193327246185325 0 -0.011960557752872442 -0.00086497415388232357 0 -0.012244562197535384 -0.00051237959950725697 0 -0.012427998572339904 -6.8715209995884324e-05 0 -0.012244562197535384 -0.00051237959950725697 0 -0.012621603651050648 -0.00044041181095945002 0 -0.012816518204925626 -0.00010069828749321343 0 -0.012621603651050648 -0.00044041181095945002 0 -0.012947004701192517 -0.0004036295642627617 0 -0.012244562197535384 -0.00051237959950725697 0 -0.012621603651050648 -0.00044041181095945002 0 -0.012399210655887408 -0.00084148617491002897 0 -0.012399210655887408 -0.00084148617491002897 0 -0.012890036054813162 -0.00080255504484000849 0 -0.012532419996398625 -0.001128085656773304 0 -0.012621603651050648 -0.00044041181095945002 0 -0.012399210655887408 -0.00084148617491002897 0 -0.012890036054813162 -0.00080255504484000849 0 -0.012890036054813162 -0.00080255504484000849 0 -0.012947004701192517 -0.0004036295642627617 0 -0.013463409797586307 -0.0007502355367589354 0 -0.012890036054813162 -0.00080255504484000849 0 -0.013463409797586307 -0.0007502355367589354 0 -0.013015697277469318 -0.0011389824571152801 0 -0.012890036054813162 -0.00080255504484000849 0 -0.012808270252208249 -0.0010676186921776043 0 -0.012532419996398625 -0.001128085656773304 0 -0.012890036054813162 -0.00080255504484000849 0 -0.013015697277469318 -0.0011389824571152801 0 -0.012808270252208249 -0.0010676186921776043 0 -0.012621603651050648 -0.00044041181095945002 0 -0.012890036054813162 -0.00080255504484000849 0 -0.012947004701192517 -0.0004036295642627617 0 -0.023386186081452102 0.0024879548419736814 0 -0.023026437695395453 0.0028307309585454787 0 -0.023013361492622588 0.0032282390290135159 0 -0.017918483971296823 0.0010390153904297937 0 -0.019062237082137615 0.001571424399318513 0 -0.013230207683470864 -0.00014452857311424177 0 -0.012947004701192517 -0.0004036295642627617 0 -0.013463409797586307 -0.0007502355367589354 0 -0.022854476440004233 0.0031275742000951658 0 -0.019062237082137615 0.001571424399318513 0 -0.013463409797586307 -0.0007502355367589354 0 -0.013371816656580974 -0.0014639883041545146 0 -0.013015697277469318 -0.0011389824571152801 0 -0.019062237082137615 0.001571424399318513 0 -0.013652727812162056 -0.0010935454164878056 0 -0.017248823883110245 0.00024818187569912187 0 -0.016810569822917783 0.0016969421093052212 0 -0.016545926881848146 -0.00010914500477345012 0 -0.017614938992805276 0.0014948043018329406 0 -0.019062237082137615 0.001571424399318513 0 -0.017614938992805276 0.0014948043018329406 0 -0.013652727812162056 -0.0010935454164878056 0 -0.014908123162782519 0.0010618046743468897 0 -0.014268727332599424 0.00024725987492974844 0 -0.013236796048385286 0.0002073130645478833 0 -0.013138617874273914 0.0014373390690972628 0 -0.011898001716027944 -0.00076810197762455172 0 -0.013357742123312916 -0.001440691754565784 0 -0.013335603332105588 -0.0016191098707768277 0 -0.012807176330539533 -0.0017419465014766955 0 -0.015256134717850173 -4.0016030629045372e-05 0 -0.014268727332599424 0.00024725987492974844 0 -0.013110401171277632 -0.00077653591784915537 0 -0.0097486060405244952 0.0017116885239960192 0 -0.0095654701169615493 0.0013713848338989091 0 -0.0091939171662176258 0.0015106645764234267 0 -0.014268727332599424 0.00024725987492974844 0 -0.013236796048385286 0.0002073130645478833 0 -0.013110401171277632 -0.00077653591784915537 0 -0.013652727812162056 -0.0010935454164878056 0 -0.011898001716027944 -0.00076810197762455172 0 -0.0095654701169615493 0.0013713848338989091 0 -0.0091939171662176258 0.0015106645764234267 0 -0.0094125715073839333 0.00096142489295965392 0 -0.013335603332105588 -0.0016191098707768277 0 -0.012670838465659185 -0.0018693594383944623 0 -0.012807176330539533 -0.0017419465014766955 0 -0.011076173150327384 -0.0021587956504346851 0 -0.011347944673927591 -0.0021049799294241239 0 -0.011188117873151158 -0.0020255933815801529 0 -0.013371816656580974 -0.0014639883041545146 0 -0.012807176330539533 -0.0017419465014766955 0 -0.012826318274657808 -0.0014689831596787105 0 -0.011898001716027944 -0.00076810197762455172 0 -0.012030827697110502 -0.0020842242813301419 0 -0.013652727812162056 -0.0010935454164878056 0 -0.012716619848502558 -0.0018157483629798507 0 -0.012670838465659185 -0.0018693594383944623 0 -0.012807176330539533 -0.0017419465014766955 0 -0.012634302208625306 -0.0016700258611560053 0 -0.012807176330539533 -0.0017419465014766955 0 -0.012826318274657808 -0.0014689831596787105 0 -0.012634302208625306 -0.0016700258611560053 0 -0.012826318274657808 -0.0014689831596787105 0 -0.012726807727623772 -0.001257991566992744 0 -0.013015697277469318 -0.0011389824571152801 0 -0.013371816656580974 -0.0014639883041545146 0 -0.012826318274657808 -0.0014689831596787105 0 -0.013015697277469318 -0.0011389824571152801 0 -0.012726807727623772 -0.001257991566992744 0 -0.013015697277469318 -0.0011389824571152801 0 -0.012808270252208249 -0.0010676186921776043 0 -0.012399210655887408 -0.00084148617491002897 0 -0.012532419996398625 -0.001128085656773304 0 -0.012224256524058985 -0.0012504119615868539 0 -0.012726807727623772 -0.001257991566992744 0 -0.012808270252208249 -0.0010676186921776043 0 -0.012532419996398625 -0.001128085656773304 0 -0.012532419996398625 -0.001128085656773304 0 -0.012447272523916279 -0.0014994378400114241 0 -0.012224256524058985 -0.0012504119615868539 0 -0.012447272523916279 -0.0014994378400114241 0 -0.012119120576978108 -0.0016078209309195238 0 -0.012224256524058985 -0.0012504119615868539 0 -0.012826318274657808 -0.0014689831596787105 0 -0.012726807727623772 -0.001257991566992744 0 -0.012447272523916279 -0.0014994378400114241 0 -0.012726807727623772 -0.001257991566992744 0 -0.012532419996398625 -0.001128085656773304 0 -0.012447272523916279 -0.0014994378400114241 0 -0.012826318274657808 -0.0014689831596787105 0 -0.012447272523916279 -0.0014994378400114241 0 -0.012634302208625306 -0.0016700258611560053 0 -0.012447272523916279 -0.0014994378400114241 0 -0.012634302208625306 -0.0016700258611560053 0 -0.012487065522919833 -0.0016955747725051458 0 -0.012670838465659185 -0.0018693594383944623 0 -0.012487065522919833 -0.0016955747725051458 0 -0.01220793593194581 -0.0017701041319965771 0 -0.012670838465659185 -0.0018693594383944623 0 -0.012634302208625306 -0.0016700258611560053 0 -0.012487065522919833 -0.0016955747725051458 0 -0.012447272523916279 -0.0014994378400114241 0 -0.012487065522919833 -0.0016955747725051458 0 -0.01220793593194581 -0.0017701041319965771 0 -0.012447272523916279 -0.0014994378400114241 0 -0.01220793593194581 -0.0017701041319965771 0 -0.012119120576978108 -0.0016078209309195238 0 -0.01220793593194581 -0.0017701041319965771 0 -0.012119120576978108 -0.0016078209309195238 0 -0.011810176639992913 -0.0019163314499360666 0 -0.012119120576978108 -0.0016078209309195238 0 -0.011902662282901801 -0.0015453451114496638 0 -0.011810176639992913 -0.0019163314499360666 0 -0.012119120576978108 -0.0016078209309195238 0 -0.011902662282901801 -0.0015453451114496638 0 -0.012224256524058985 -0.0012504119615868539 0 -0.011525573397552408 -0.0017125538834035659 0 -0.011712980401793782 -0.0016068861300086975 0 -0.011356287401196472 -0.001725068910550266 0 -0.011960557752872442 -0.00086497415388232357 0 -0.011902662282901801 -0.0015453451114496638 0 -0.012224256524058985 -0.0012504119615868539 0 -0.011931573709171228 -0.00089875462446260292 0 -0.011801526561684771 -0.0015494869115165082 0 -0.011546090629000253 -0.0018396528858654654 0 -0.01139779704750072 -0.0016523432049852559 0 -0.011200950927090851 -0.0015977420379004413 0 -0.011356287401196472 -0.001725068910550266 0 -0.011373124770670984 -0.0016167486173241507 0 -0.011520324580926517 -0.0017835057841095478 0 -0.011718992528606493 -0.0019703545009967047 0 -0.011373124770670984 -0.0016167486173241507 0 -0.011520324580926517 -0.0017835057841095478 0 -0.011581664468513801 -0.0018674086610740068 0 -0.011472467219430188 -0.0017607839661915414 0 -0.011520324580926517 -0.0017835057841095478 0 -0.011472467219430188 -0.0017607839661915414 0 -0.011450321211915193 -0.0017017264231293204 0 -0.011520324580926517 -0.0017835057841095478 0 -0.011581664468513801 -0.0018674086610740068 0 -0.011718992528606493 -0.0019703545009967047 0 -0.011801526561684771 -0.0015494869115165082 0 -0.011546090629000253 -0.0018396528858654654 0 -0.011902662282901801 -0.0015453451114496638 0 -0.011718992528606493 -0.0019703545009967047 0 -0.011810176639992913 -0.0019163314499360666 0 -0.011810176639992913 -0.0019163314499360666 0 -0.01168127813799945 -0.001911578148913024 0 -0.011524797506133038 -0.0019457173792869372 0 -0.011718992528606493 -0.0019703545009967047 0 -0.011810176639992913 -0.0019163314499360666 0 -0.01168127813799945 -0.001911578148913024 0 -0.011581664468513801 -0.0018674086610740068 0 -0.011718992528606493 -0.0019703545009967047 0 -0.01168127813799945 -0.001911578148913024 0 -0.011581664468513801 -0.0018674086610740068 0 -0.01168127813799945 -0.001911578148913024 0 -0.011524797506133038 -0.0019457173792869372 0 -0.012030827697110502 -0.0020842242813301419 0 -0.011839807111631106 -0.0019132620431730959 0 -0.011581664468513801 -0.0018674086610740068 0 -0.011524797506133038 -0.0019457173792869372 0 -0.011428263669459785 -0.0018198417122760266 0 -0.012670838465659185 -0.0018693594383944623 0 -0.01220793593194581 -0.0017701041319965771 0 -0.011810176639992913 -0.0019163314499360666 0 -0.011347944673927591 -0.0021049799294241239 0 -0.011810176639992913 -0.0019163314499360666 0 -0.011524797506133038 -0.0019457173792869372 0 -0.011347944673927591 -0.0021049799294241239 0 -0.011524797506133038 -0.0019457173792869372 0 -0.011314114195060197 -0.0019204087662879807 0 -0.011524797506133038 -0.0019457173792869372 0 -0.011428263669459785 -0.0018198417122760266 0 -0.011314114195060197 -0.0019204087662879807 0 -0.011581664468513801 -0.0018674086610740068 0 -0.011428263669459785 -0.0018198417122760266 0 -0.011472467219430188 -0.0017607839661915414 0 -0.011428263669459785 -0.0018198417122760266 0 -0.011472467219430188 -0.0017607839661915414 0 -0.011378400594427537 -0.0017159274943443462 0 -0.011428263669459785 -0.0018198417122760266 0 -0.011268357539431893 -0.0017370707133623976 0 -0.011378400594427537 -0.0017159274943443462 0 -0.011268357539431893 -0.0017370707133623976 0 -0.011108433075603349 -0.0018575515624252325 0 -0.011129925907028637 -0.00159120740290397 0 -0.011268357539431893 -0.0017370707133623976 0 -0.011314114195060197 -0.0019204087662879807 0 -0.011108433075603349 -0.0018575515624252325 0 -0.011428263669459785 -0.0018198417122760266 0 -0.011268357539431893 -0.0017370707133623976 0 -0.011314114195060197 -0.0019204087662879807 0 -0.011314114195060197 -0.0019204087662879807 0 -0.011188117873151158 -0.0020255933815801529 0 -0.011108433075603349 -0.0018575515624252325 0 -0.011347944673927591 -0.0021049799294241239 0 -0.011314114195060197 -0.0019204087662879807 0 -0.011188117873151158 -0.0020255933815801529 0 -0.011076173150327384 -0.0021587956504346851 0 -0.011188117873151158 -0.0020255933815801529 0 -0.011108433075603349 -0.0018575515624252325 0 -0.011898001716027944 -0.00076810197762455172 0 -0.010242568887890413 -0.00084542695399617202 0 -0.0091939171662176258 0.0015106645764234267 0 -0.0094125715073839333 0.00096142489295965392 0 -0.0090209106922043182 0.00043711295506833445 0 -0.0094125715073839333 0.00096142489295965392 0 -0.0090209106922043182 0.00043711295506833445 0 -0.0095180016744063206 0.00032498967927515845 0 -0.0090209106922043182 0.00043711295506833445 0 -0.0088384156927443745 -0.00061075177001258048 0 -0.0095180016744063206 0.00032498967927515845 0 -0.010242568887890413 -0.00084542695399617202 0 -0.0066384927861319496 6.1815770214307091e-05 0 -0.0018830707808411245 0.0035172649673268544 0 -0.0022496594630307897 0.0041137958899712373 0 -0.0023482586211547667 0.0034242340899656195 0 -0.0066384927861319496 6.1815770214307091e-05 0 -0.0057181960426846423 0.0024781127317071881 0 -0.0066384927861319496 6.1815770214307091e-05 0 -0.0033584316678685572 -0.00074180797092511692 0 -0.0033584316678685572 -0.00074180797092511692 0 0.00093912771070635683 0.00066463812434473259 0 0.0020310837976237838 -0.0014283639068897415 0 0.00099300287119258963 -0.0023046933318826911 0 0.0030409088403224429 -0.0022842678464529416 0 -0.0018830707808411245 0.0035172649673268544 0 -0.0018686948607190379 0.0033958973898449525 0 -0.0023482586211547667 0.0034242340899656195 0 0.0020310837976237838 -0.0014283639068897415 0 0.00099300287119258963 -0.0023046933318826911 0 0.00081507998782759741 -0.00081789988705209798 0 -0.0062331885710828015 -0.0015798325524558454 0 -0.0082226762263315333 -0.0012427323492729858 0 -0.005950134897142959 -0.00049176059510952421 0 -0.0033584316678685572 -0.00074180797092511692 0 -0.0020946307777749656 -0.00095070658513010079 0 -0.0067803183270914238 -0.00085434646866806136 0 -0.0099474946315113843 -0.0017902663885531502 0 -0.005786178113604927 -0.0018823837747415856 0 -0.0060256460605282057 -0.0018821013743524036 0 -0.0062331885710828015 -0.0015798325524558454 0 -0.005786178113604927 -0.0018823837747415856 0 -0.0062331885710828015 -0.0015798325524558454 0 -0.005950134897142959 -0.00049176059510952421 0 -0.0062576750719937971 3.1340568287372843e-05 0 -0.0060022534339583796 -0.0020204903372624903 0 -0.0048916670688675295 -0.0020211011963202018 0 -0.0060288412770704994 -0.0018861906304743713 0 -0.0062331885710828015 -0.0015798325524558454 0 -0.0078275639253244742 -0.0018882599277407189 0 -0.0097652249071672297 -0.0013235542019186179 0 -0.0020946307777749656 -0.00095070658513010079 0 -0.0033584316678685572 -0.00074180797092511692 0 -0.0067803183270914238 -0.00085434646866806136 0 -0.0067803183270914238 -0.00085434646866806136 0 -0.0065017351996200417 -0.0012566818593325491 0 -0.011162024768755349 -0.0015426694001425254 0 -0.011289819039833834 -0.0016168334306453859 0 -0.011235339776748425 -0.0016275132209816222 0 -0.011162024768755349 -0.0015426694001425254 0 -0.011289819039833834 -0.0016168334306453859 0 -0.011377050160150734 -0.0015945123241501789 0 -0.011289819039833834 -0.0016168334306453859 0 -0.011235339776748425 -0.0016275132209816222 0 -0.011307133588955255 -0.0016654795871451249 0 -0.011129925907028637 -0.00159120740290397 0 -0.011162024768755349 -0.0015426694001425254 0 -0.011235339776748425 -0.0016275132209816222 0 -0.0066384927861319496 6.1815770214307091e-05 0 -0.0067803183270914238 -0.00085434646866806136 0 -0.011268357539431893 -0.0017370707133623976 0 -0.011129925907028637 -0.00159120740290397 0 -0.011235339776748425 -0.0016275132209816222 0 -0.011268357539431893 -0.0017370707133623976 0 -0.011307133588955255 -0.0016654795871451249 0 -0.011378400594427537 -0.0017159274943443462 0 -0.011268357539431893 -0.0017370707133623976 0 -0.011235339776748425 -0.0016275132209816222 0 -0.011307133588955255 -0.0016654795871451249 0 -0.011378400594427537 -0.0017159274943443462 0 -0.011406369005889965 -0.0016647318896701531 0 -0.011357379257899746 -0.0016467144136985889 0 -0.011307133588955255 -0.0016654795871451249 0 -0.011378400594427537 -0.0017159274943443462 0 -0.011357379257899746 -0.0016467144136985889 0 -0.011472467219430188 -0.0017607839661915414 0 -0.011406369005889965 -0.0016647318896701531 0 -0.011450321211915193 -0.0017017264231293204 0 -0.011472467219430188 -0.0017607839661915414 0 -0.011378400594427537 -0.0017159274943443462 0 -0.011406369005889965 -0.0016647318896701531 0 -0.011406369005889965 -0.0016647318896701531 0 -0.011377050160150734 -0.0015945123241501789 0 -0.011406968847979577 -0.0016407290388787577 0 -0.011406369005889965 -0.0016647318896701531 0 -0.011357379257899746 -0.0016467144136985889 0 -0.011377050160150734 -0.0015945123241501789 0 -0.011289819039833834 -0.0016168334306453859 0 -0.011357379257899746 -0.0016467144136985889 0 -0.011377050160150734 -0.0015945123241501789 0 -0.011289819039833834 -0.0016168334306453859 0 -0.011307133588955255 -0.0016654795871451249 0 -0.011357379257899746 -0.0016467144136985889 0 -0.0078275639253244742 -0.0018882599277407189 0 -0.0082226762263315333 -0.0012427323492729858 0 -0.0094414600902824782 -0.0018336636371844466 0 -0.0062331885710828015 -0.0015798325524558454 0 -0.0078275639253244742 -0.0018882599277407189 0 -0.0082226762263315333 -0.0012427323492729858 0 -0.0099474946315113843 -0.0017902663885531502 0 -0.010299613875361392 -0.0015161851110127437 0 -0.010131292214452296 -0.00046166317862349942 0 -0.010039789682576128 -0.0012519759720321729 0 -0.0090346062514039486 8.2055399441563931e-05 0 -0.0082226762263315333 -0.0012427323492729858 0 -0.0094414600902824782 -0.0018336636371844466 0 -0.0085375302989277851 -0.00011734635223192391 0 -0.010299613875361392 -0.0015161851110127437 0 -0.0087126751577395623 1.019145288009766e-05 0 -0.010409722705403659 -0.00090976913795032699 0 -0.010131292214452296 -0.00046166317862349942 0 -0.010039789682576128 -0.0012519759720321729 0 -0.010585404156679239 -0.0013649326900330749 0 -0.010299613875361392 -0.0015161851110127437 0 -0.011377050160150734 -0.0015945123241501789 0 -0.011386227073144673 -0.0016522638993963534 0 -0.011406968847979577 -0.0016407290388787577 0 -0.011386227073144673 -0.0016522638993963534 0 -0.011373124770670984 -0.0016167486173241507 0 -0.011406968847979577 -0.0016407290388787577 0 -0.011157823286577167 -0.0016040106418469919 0 -0.010299613875361392 -0.0015161851110127437 0 -0.011200950927090851 -0.0015977420379004413 0 -0.011386227073144673 -0.0016522638993963534 0 -0.011373124770670984 -0.0016167486173241507 0 -0.011373124770670984 -0.0016167486173241507 0 -0.011406968847979577 -0.0016407290388787577 0 -0.011450321211915193 -0.0017017264231293204 0 -0.011520324580926517 -0.0017835057841095478 0 -0.011373124770670984 -0.0016167486173241507 0 -0.011450321211915193 -0.0017017264231293204 0 -0.011406369005889965 -0.0016647318896701531 0 -0.011406968847979577 -0.0016407290388787577 0 -0.011450321211915193 -0.0017017264231293204 0 -0.0029589418554296113 0.0042258057090248744 0 -0.0033426720190737531 0.0039732582523251151 0 -0.003020967541567744 0.0037900848737615097 0 -0.0029589418554296113 0.0042258057090248744 0 -0.0033426720190737531 0.0039732582523251151 0 -0.003323835067107424 0.0045084215230357088 0 -0.0034535973693773413 0.0052590430952299261 0 -0.0031839888375354533 0.0047947434497440499 0 -0.0028684922928510896 0.0054394025827402409 0 -0.0029859916286370915 0.005540190188993481 0 -0.002848670244799934 0.0056451405965112465 0 -0.0028684922928510896 0.0054394025827402409 0 -0.0029859916286370915 0.005540190188993481 0 -0.0030933223321010753 0.0053109985045605547 0 -0.0028684922928510896 0.0054394025827402409 0 -0.0029703693390442853 0.0051743446611366246 0 -0.0030933223321010753 0.0053109985045605547 0 -0.0030112783809504327 0.0046663533221669978 0 -0.0029589418554296113 0.0042258057090248744 0 -0.003323835067107424 0.0045084215230357088 0 -0.0026671457387393836 0.0046361510679097991 0 -0.0027966553075865776 0.0045009780187335183 0 -0.0026688944123431655 0.0042555964428357771 0 -0.0026915419471120871 0.0047015400885718692 0 -0.0030112783809504327 0.0046663533221669978 0 -0.0027966553075865776 0.0045009780187335183 0 -0.0030112783809504327 0.0046663533221669978 0 -0.0029589418554296113 0.0042258057090248744 0 -0.0027966553075865776 0.0045009780187335183 0 -0.0026915419471120871 0.0047015400885718692 0 -0.0026671457387393836 0.0046361510679097991 0 -0.0027966553075865776 0.0045009780187335183 0 -0.0029589418554296113 0.0042258057090248744 0 -0.0027966553075865776 0.0045009780187335183 0 -0.0026688944123431655 0.0042555964428357771 0 -0.0094125715073839333 0.00096142489295965392 0 -0.0096857148987249935 0.0010965457133164447 0 -0.0095180016744063206 0.00032498967927515845 0 -0.0026777012561845512 0.0047058299939396397 0 -0.0026671457387393836 0.0046361510679097991 0 -0.0022496594630307897 0.0041137958899712373 0 -0.010207880978249036 0.0012893758065477701 0 -0.0096857148987249935 0.0010965457133164447 0 -0.0095180016744063206 0.00032498967927515845 0 -0.0066704621598172682 0.0027162126673572003 0 -0.0057181960426846423 0.0024781127317071881 0 -0.0026671457387393836 0.0046361510679097991 0 -0.0026688944123431655 0.0042555964428357771 0 -0.0022496594630307897 0.0041137958899712373 0 -0.0095654701169615493 0.0013713848338989091 0 -0.0094125715073839333 0.00096142489295965392 0 -0.0096857148987249935 0.0010965457133164447 0 -0.0026688944123431655 0.0042555964428357771 0 -0.0022496594630307897 0.0041137958899712373 0 -0.0026646229661256536 0.0038651837923451668 0 -0.0029589418554296113 0.0042258057090248744 0 -0.0026646229661256536 0.0038651837923451668 0 -0.003020967541567744 0.0037900848737615097 0 -0.0029589418554296113 0.0042258057090248744 0 -0.0026688944123431655 0.0042555964428357771 0 -0.0026646229661256536 0.0038651837923451668 0 -0.0026646229661256536 0.0038651837923451668 0 -0.0023482586211547667 0.0034242340899656195 0 -0.0028287651003703861 0.0034478700228568917 0 -0.0026646229661256536 0.0038651837923451668 0 -0.0028287651003703861 0.0034478700228568917 0 -0.003020967541567744 0.0037900848737615097 0 -0.0022496594630307897 0.0041137958899712373 0 -0.0026646229661256536 0.0038651837923451668 0 -0.0023482586211547667 0.0034242340899656195 0 0.0020310837976237838 -0.0014283639068897415 0 0.0030409088403224429 -0.0022842678464529416 0 0.0038910814254618318 -0.0011512045768747134 0 0.00093912771070635683 0.00066463812434473259 0 0.00092443791759153017 0.00052442835664136137 0 0.0030409088403224429 -0.0022842678464529416 0 0.0038910814254618318 -0.0011512045768747134 0 0.0049870684197801957 -0.0022151060785135968 0 0.0038910814254618318 -0.0011512045768747134 0 0.0049870684197801957 -0.0022151060785135968 0 0.0053662415402312503 -0.0010587545868332943 0 0.0053662415402312503 -0.0010587545868332943 0 0.0067632818782316735 -0.0021355062694429182 0 0.0060354852743453478 -0.00042619372149935701 0 0.00092443791759153017 0.00052442835664136137 0 0.0018868931298838679 0.001932274919141995 0 0.0049870684197801957 -0.0022151060785135968 0 0.0053662415402312503 -0.0010587545868332943 0 0.0067632818782316735 -0.0021355062694429182 0 -0.0028287651003703861 0.0034478700228568917 0 -0.003020967541567744 0.0037900848737615097 0 -0.0033150176857819516 0.0034502709531009307 0 -0.0033426720190737531 0.0039732582523251151 0 -0.003020967541567744 0.0037900848737615097 0 -0.0033150176857819516 0.0034502709531009307 0 -0.0034535973693773413 0.0052590430952299261 0 0.0018868931298838679 0.001932274919141995 0 -0.002742066264071941 0.0057212045117150234 0 -0.002848670244799934 0.0056451405965112465 0 -0.0029026687442136054 0.0057120375007792433 0 -0.0029859916286370915 0.005540190188993481 0 -0.002848670244799934 0.0056451405965112465 0 -0.0029026687442136054 0.0057120375007792433 0 0.0067049831055079048 0.0014597309317620634 0 0.0068095764557376207 0.0014401121037145076 0 0.0068039027387821237 0.0013750741329331599 0 0.0025796622461069655 0.0039610255227709532 0 0.0018868931298838679 0.001932274919141995 0 0.0018868931298838679 0.001932274919141995 0 0.0075586895539626756 0.00023228566648034294 0 0.0068095764557376207 0.0014401121037145076 0 0.0068039027387821237 0.0013750741329331599 0 0.0068412293225740394 0.0013094570007500916 0 0.0068039027387821237 0.0013750741329331599 0 0.0068412293225740394 0.0013094570007500916 0 0.0068283623338203196 0.0013200208427299031 0 0.0075586895539626756 0.00023228566648034294 0 0.0067246121937705929 0.0018655940933315488 0 0.0068412293225740394 0.0013094570007500916 0 0.0069911827388539731 0.0014692432344404819 0 0.0068283623338203196 0.0013200208427299031 0 0.0074624108865713979 0.0019141988376613999 0 0.0082584918170496274 0.0017990021253961371 0 0.0064625703735908136 0.00053364562435877824 0 0.0056052478077044925 0.00012887284536394685 0 0.0059186464834887955 0.00082104782289448247 0 0.0068394178661289407 0.00022904324174976654 0 0.0064625703735908136 0.00053364562435877824 0 0.0064650530087989244 0.0011715473754364144 0 0.0063863875486950966 0.00052855808295596202 0 0.0049625228167480698 0.00012392276233698805 0 0.0064625703735908136 0.00053364562435877824 0 0.0059186464834887955 0.00082104782289448247 0 0.0064650530087989244 0.0011715473754364144 0 0.0067632818782316735 -0.0021355062694429182 0 0.0068394178661289407 0.00022904324174976654 0 0.0060354852743453478 -0.00042619372149935701 0 0.0053662415402312503 -0.0010587545868332943 0 0.0060354852743453478 -0.00042619372149935701 0 0.0046362585437692049 0.00023085662371549281 0 0.0064625703735908136 0.00053364562435877824 0 0.0060354852743453478 -0.00042619372149935701 0 0.0046362585437692049 0.00023085662371549281 0 0.0068394178661289407 0.00022904324174976654 0 0.0064625703735908136 0.00053364562435877824 0 0.0060354852743453478 -0.00042619372149935701 0 0.0038910814254618318 -0.0011512045768747134 0 0.0053662415402312503 -0.0010587545868332943 0 0.0046362585437692049 0.00023085662371549281 0 0.0038910814254618318 -0.0011512045768747134 0 0.0046362585437692049 0.00023085662371549281 0 0.0027531402019095453 -0.00025024731914496647 0 0.0056052478077044925 0.00012887284536394685 0 0.004498061448273292 -0.00033463238446164553 0 0.0047130599991303647 0.00048503723699559135 0 0.0049625228167480698 0.00012392276233698805 0 0.0043897684837644353 -0.00011953421758631852 0 0.0020310837976237838 -0.0014283639068897415 0 0.0038910814254618318 -0.0011512045768747134 0 0.0027531402019095453 -0.00025024731914496647 0 0.0047130599991303647 0.00048503723699559135 0 0.005267967517183841 0.00086200648702652286 0 0.0046070843422914053 0.0014313645069685889 0 0.0056052478077044925 0.00012887284536394685 0 0.0047130599991303647 0.00048503723699559135 0 0.005267967517183841 0.00086200648702652286 0 0.0056052478077044925 0.00012887284536394685 0 0.005267967517183841 0.00086200648702652286 0 0.0059186464834887955 0.00082104782289448247 0 0.005267967517183841 0.00086200648702652286 0 0.0059186464834887955 0.00082104782289448247 0 0.0057389987340501309 0.0014310785076166669 0 0.005267967517183841 0.00086200648702652286 0 0.0057389987340501309 0.0014310785076166669 0 0.0046070843422914053 0.0014313645069685889 0 0.0045759184047722348 0.0014884294129751707 0 0.0057064740685533874 0.0026266555959963624 0 0.0045927705428144752 0.0015994087217483001 0 0.0057661079910500471 0.0029234103820699455 0 0.0044521784650553937 0.0032063890308276235 0 0.0057389987340501309 0.0014310785076166669 0 0.0046070843422914053 0.0014313645069685889 0 0.0055990548878002387 0.0022977742106243437 0 0.0057389987340501309 0.0014310785076166669 0 0.0055990548878002387 0.0022977742106243437 0 0.0064888218381124437 0.0020754154485014991 0 0.0064888218381124437 0.0020754154485014991 0 0.0071811981313827334 0.0020801153540414004 0 0.0069896052876660588 0.0026260191226007553 0 0.0064888218381124437 0.0020754154485014991 0 0.0071811981313827334 0.0020801153540414004 0 0.0069358900761420303 0.0016718128924058356 0 0.0072555678808919897 0.0020816963794819923 0 0.0074624108865713979 0.0019141988376613999 0 0.0071811981313827334 0.0020801153540414004 0 0.0069358900761420303 0.0016718128924058356 0 0.0069911827388539731 0.0014692432344404819 0 0.0071811981313827334 0.0020801153540414004 0 0.0081199362725722889 0.0020183658738102735 0 0.0078111121766511558 0.0019833206407647618 0 0.0068412293225740394 0.0013094570007500916 0 0.0069358900761420303 0.0016718128924058356 0 0.0069911827388539731 0.0014692432344404819 0 0.0068394178661289407 0.00022904324174976654 0 0.0069358900761420303 0.0016718128924058356 0 0.0064650530087989244 0.0011715473754364144 0 0.0059186464834887955 0.00082104782289448247 0 0.0057389987340501309 0.0014310785076166669 0 0.0064650530087989244 0.0011715473754364144 0 0.0064888218381124437 0.0020754154485014991 0 0.0069358900761420303 0.0016718128924058356 0 0.0064650530087989244 0.0011715473754364144 0 0.0057389987340501309 0.0014310785076166669 0 0.0064888218381124437 0.0020754154485014991 0 0.0064650530087989244 0.0011715473754364144 0 -0.0097257614540808071 0.00078100095267566254 0 -0.0090346062514039486 8.2055399441563931e-05 0 -0.0080539883403748496 0.001483742981088314 0 -0.0097257614540808071 0.00078100095267566254 0 -0.0080539883403748496 0.001483742981088314 0 -0.0090009341128269651 0.0019271725537151204 0 -0.0097257614540808071 0.00078100095267566254 0 -0.0099063123456032704 8.2839936334375307e-05 0 -0.0090346062514039486 8.2055399441563931e-05 0 -0.010131292214452296 -0.00046166317862349942 0 -0.0099063123456032704 8.2839936334375307e-05 0 -0.0090346062514039486 8.2055399441563931e-05 0 -0.0085375302989277851 -0.00011734635223192391 0 -0.007629192809074343 -0.00041533539757157258 0 -0.0073728031734324158 0.00032560268648107254 0 -0.0082226762263315333 -0.0012427323492729858 0 -0.007629192809074343 -0.00041533539757157258 0 -0.006384905447054271 -0.00063405199923070518 0 -0.0082226762263315333 -0.0012427323492729858 0 -0.0085375302989277851 -0.00011734635223192391 0 -0.007629192809074343 -0.00041533539757157258 0 -0.0085375302989277851 -0.00011734635223192391 0 -0.0073728031734324158 0.00032560268648107254 0 -0.007745847191555349 0.0014572453640205286 0 -0.0087126751577395623 1.019145288009766e-05 0 -0.0079042449789456775 0.0014975476320274977 0 -0.0073728031734324158 0.00032560268648107254 0 -0.006384905447054271 -0.00063405199923070518 0 -0.0067198056401916338 0.0014075671055248471 0 -0.0073728031734324158 0.00032560268648107254 0 -0.0067198056401916338 0.0014075671055248471 0 -0.007745847191555349 0.0014572453640205286 0 -0.0020946307777749656 -0.00095070658513010079 0 -0.001797265568259962 0.0012826512343747658 0 0.0032387456689669113 -0.00076295107001984864 0 0.0034713904149715502 0.00032842240603253147 0 0.0030251473442532654 0.0010428309936203815 0 -0.007629192809074343 -0.00041533539757157258 0 -0.0073728031734324158 0.00032560268648107254 0 -0.006384905447054271 -0.00063405199923070518 0 0.0020310837976237838 -0.0014283639068897415 0 0.0027531402019095453 -0.00025024731914496647 0 0.00081507998782759741 -0.00081789988705209798 0 0.0043897684837644353 -0.00011953421758631852 0 -0.0020946307777749656 -0.00095070658513010079 0 0.004498061448273292 -0.00033463238446164553 0 0.0032387456689669113 -0.00076295107001984864 0 0.0034713904149715502 0.00032842240603253147 0 0.004498061448273292 -0.00033463238446164553 0 0.0047130599991303647 0.00048503723699559135 0 0.0034713904149715502 0.00032842240603253147 0 0.0045927705428144752 0.0015994087217483001 0 0.0034713904149715502 0.00032842240603253147 0 0.0030251473442532654 0.0010428309936203815 0 0.0045759184047722348 0.0014884294129751707 0 0.0035406586168334657 0.00038435603267482029 0 0.0047130599991303647 0.00048503723699559135 0 0.0046070843422914053 0.0014313645069685889 0 0.0034713904149715502 0.00032842240603253147 0 0.0045927705428144752 0.0015994087217483001 0 0.0037057821403028231 0.0021846939154843933 0 0.0030251473442532654 0.0010428309936203815 0 0.0045927705428144752 0.0015994087217483001 0 0.0037057821403028231 0.0021846939154843933 0 0.0044521784650553937 0.0032063890308276235 0 0.0037057821403028231 0.0021846939154843933 0 0.0027620648664855702 0.002911063253515422 0 0.0044521784650553937 0.0032063890308276235 0 0.0037057821403028231 0.0021846939154843933 0 0.0027620648664855702 0.002911063253515422 0 0.0030251473442532654 0.0010428309936203815 0 -0.007136157709461223 0.0033450653024511921 0 -0.007129784123894427 0.0029694591240815704 0 -0.0067198056401916338 0.0014075671055248471 0 -0.007136157709461223 0.0033450653024511921 0 -0.007129784123894427 0.0029694591240815704 0 -0.0079097418185161781 0.0032073197680436731 0 -0.0071685989990476163 0.0028982280790676575 0 -0.0079042449789456775 0.0014975476320274977 0 -0.007129784123894427 0.0029694591240815704 0 -0.0067198056401916338 0.0014075671055248471 0 -0.007745847191555349 0.0014572453640205286 0 -0.0020687152117292024 0.0030624931844493047 0 -0.001797265568259962 0.0012826512343747658 0 -0.007129784123894427 0.0029694591240815704 0 -0.0080539883403748496 0.001483742981088314 0 -0.0080383893533525069 0.0024302246168986358 0 -0.0080383893533525069 0.0024302246168986358 0 -0.0085664495663017176 0.0026778373180240218 0 -0.0090009341128269651 0.0019271725537151204 0 -0.0080539883403748496 0.001483742981088314 0 -0.0080383893533525069 0.0024302246168986358 0 -0.0090009341128269651 0.0019271725537151204 0 -0.007129784123894427 0.0029694591240815704 0 -0.0080383893533525069 0.0024302246168986358 0 -0.0079097418185161781 0.0032073197680436731 0 -0.0079097418185161781 0.0032073197680436731 0 -0.0085664495663017176 0.0026778373180240218 0 -0.0086943500591072607 0.0032829481190440706 0 -0.0080383893533525069 0.0024302246168986358 0 -0.0079097418185161781 0.0032073197680436731 0 -0.0085664495663017176 0.0026778373180240218 0 -0.0085664495663017176 0.0026778373180240218 0 -0.0086943500591072607 0.0032829481190440706 0 -0.0093765835195780429 0.0026673978125470641 0 -0.0086943500591072607 0.0032829481190440706 0 -0.0093765835195780429 0.0026673978125470641 0 -0.009527732513138305 0.0034938898533837964 0 -0.010097968348046259 0.0016771851360286394 0 -0.0097257614540808071 0.00078100095267566254 0 -0.0090009341128269651 0.0019271725537151204 0 -0.010097968348046259 0.0016771851360286394 0 -0.0093765835195780429 0.0026673978125470641 0 -0.0090009341128269651 0.0019271725537151204 0 -0.0085664495663017176 0.0026778373180240218 0 -0.0093765835195780429 0.0026673978125470641 0 -0.0090009341128269651 0.0019271725537151204 0 -0.009130063782351705 0.0045681429784855711 0 -0.0082650567187949314 0.0040436985687915261 0 -0.0083687996579219388 0.0050654832431954082 0 -0.0096388535696639091 0.0050150862027675078 0 -0.009130063782351705 0.0045681429784855711 0 -0.0089299683121579678 0.0054752920194858891 0 -0.009130063782351705 0.0045681429784855711 0 -0.0083687996579219388 0.0050654832431954082 0 -0.0089299683121579678 0.0054752920194858891 0 -0.0086943500591072607 0.0032829481190440706 0 -0.009527732513138305 0.0034938898533837964 0 -0.0082650567187949314 0.0040436985687915261 0 -0.009130063782351705 0.0045681429784855711 0 -0.009527732513138305 0.0034938898533837964 0 -0.0082650567187949314 0.0040436985687915261 0 -0.007136157709461223 0.0033450653024511921 0 -0.0082650567187949314 0.0040436985687915261 0 -0.0073292856676009785 0.0050657369118268149 0 -0.007136157709461223 0.0033450653024511921 0 -0.0079097418185161781 0.0032073197680436731 0 -0.0082650567187949314 0.0040436985687915261 0 -0.0079097418185161781 0.0032073197680436731 0 -0.0086943500591072607 0.0032829481190440706 0 -0.0082650567187949314 0.0040436985687915261 0 -0.0082650567187949314 0.0040436985687915261 0 -0.0083687996579219388 0.0050654832431954082 0 -0.0073292856676009785 0.0050657369118268149 0 -0.0020687152117292024 0.0030624931844493047 0 -0.003209603591826773 0.0051384491443100819 0 0.0027620648664855702 0.002911063253515422 0 0.0025224541920296673 0.0048340139386825326 0 0.0037397567567946004 0.0041667686902968444 0 0.0027620648664855702 0.002911063253515422 0 0.0037397567567946004 0.0041667686902968444 0 0.0044521784650553937 0.0032063890308276235 0 0.0037397567567946004 0.0041667686902968444 0 0.0044521784650553937 0.0032063890308276235 0 0.0047375421162905683 0.0045969347587941252 0 0.0037397567567946004 0.0041667686902968444 0 0.0038817581046944492 0.0052752355305317388 0 0.0047375421162905683 0.0045969347587941252 0 0.0025224541920296673 0.0048340139386825326 0 0.0037397567567946004 0.0041667686902968444 0 0.0038817581046944492 0.0052752355305317388 0 0.0038817581046944492 0.0052752355305317388 0 0.0042533315872255667 0.0063915627537125281 0 0.0048587594481200791 0.0055117035043221376 0 0.0038817581046944492 0.0052752355305317388 0 0.0042533315872255667 0.0063915627537125281 0 0.0032400988484110314 0.0058172355783175922 0 0.010123112941437477 0.0054849278574601286 0 0.0099869233447961395 0.0057054093512582853 0 0.0094394731661810709 0.0056130258306239097 0 0.010196882861077398 0.0058646347014630722 0 0.0099869233447961395 0.0057054093512582853 0 0.01025810869765922 0.0056234254376511259 0 0.010123112941437477 0.0054849278574601286 0 0.0099869233447961395 0.0057054093512582853 0 0.01025810869765922 0.0056234254376511259 0 0.0077689494313580099 0.0058833914412003852 0 0.0030030547573120705 0.0062119219247645735 0 0.0042533315872255667 0.0063915627537125281 0 0.0032400988484110314 0.0058172355783175922 0 0.0023036028305601633 0.0067687949946487261 0 -0.003209603591826773 0.0051384491443100819 0 0.0030030547573120705 0.0062119219247645735 0 0.0025224541920296673 0.0048340139386825326 0 0.0032400988484110314 0.0058172355783175922 0 0.0023036028305601633 0.0067687949946487261 0 0.0025224541920296673 0.0048340139386825326 0 0.0038817581046944492 0.0052752355305317388 0 0.0032400988484110314 0.0058172355783175922 0 -0.0083687996579219388 0.0050654832431954082 0 -0.0073292856676009785 0.0050657369118268149 0 -0.0083095011784717655 0.0059790892460103431 0 -0.0073292856676009785 0.0050657369118268149 0 -0.0083095011784717655 0.0059790892460103431 0 -0.0074173753629765736 0.006719778471431838 0 -0.0083095011784717655 0.0059790892460103431 0 -0.0074173753629765736 0.006719778471431838 0 -0.0085868582955442932 0.0069528672282717736 0 0.0030030547573120705 0.0062119219247645735 0 0.0018903634309664415 0.0041561447989471754 0 -0.0095269778560121629 0.0061648836484699378 0 -0.0083095011784717655 0.0059790892460103431 0 -0.0085868582955442932 0.0069528672282717736 0 -0.0044098415047153748 0.0055748860073177604 0 0.0018903634309664415 0.0041561447989471754 0 -0.0095269778560121629 0.0061648836484699378 0 -0.0083095011784717655 0.0059790892460103431 0 -0.0089299683121579678 0.0054752920194858891 0 -0.0083687996579219388 0.0050654832431954082 0 -0.0083095011784717655 0.0059790892460103431 0 -0.0089299683121579678 0.0054752920194858891 0 0.0069400001197928701 0.0042696888984886886 0 0.0057561150751734005 0.004222754026417223 0 0.0066943084885220253 0.0051460296949323208 0 0.0069400001197928701 0.0042696888984886886 0 0.0066943084885220253 0.0051460296949323208 0 0.0080989271039912138 0.0056217299963060002 0 0.0064545539086003443 0.0030038641147552047 0 0.0071880101894585156 0.0030836817779295546 0 0.0069896052876660588 0.0026260191226007553 0 0.0064545539086003443 0.0030038641147552047 0 0.0071880101894585156 0.0030836817779295546 0 0.0070506812647894964 0.0035992094045088404 0 0.0065445613388057308 0.0035627043378748794 0 0.0083813738824946044 0.0047798081460706443 0 0.0071880101894585156 0.0030836817779295546 0 0.0069896052876660588 0.0026260191226007553 0 0.0073921990644688932 0.0027394048076620219 0 0.0069896052876660588 0.0026260191226007553 0 0.0073926920362391638 0.0023824056367140784 0 0.0073921990644688932 0.0027394048076620219 0 0.0071811981313827334 0.0020801153540414004 0 0.0069896052876660588 0.0026260191226007553 0 0.0073926920362391638 0.0023824056367140784 0 0.0064888218381124437 0.0020754154485014991 0 0.0064545539086003443 0.0030038641147552047 0 0.0069896052876660588 0.0026260191226007553 0 0.0055990548878002387 0.0022977742106243437 0 0.0064888218381124437 0.0020754154485014991 0 0.0064545539086003443 0.0030038641147552047 0 0.0057661079910500471 0.0029234103820699455 0 0.0069400001197928701 0.0042696888984886886 0 0.0057561150751734005 0.004222754026417223 0 0.0057064740685533874 0.0026266555959963624 0 0.0065445613388057308 0.0035627043378748794 0 0.0044521784650553937 0.0032063890308276235 0 0.0047375421162905683 0.0045969347587941252 0 0.0057561150751734005 0.004222754026417223 0 0.0057661079910500471 0.0029234103820699455 0 0.0044521784650553937 0.0032063890308276235 0 0.0057561150751734005 0.004222754026417223 0 0.0047375421162905683 0.0045969347587941252 0 0.0057561150751734005 0.004222754026417223 0 0.0056685825423029544 0.0051901771419536041 0 0.0057561150751734005 0.004222754026417223 0 0.0056685825423029544 0.0051901771419536041 0 0.0066943084885220253 0.0051460296949323208 0 0.0056685825423029544 0.0051901771419536041 0 0.0061814833831206617 0.0060073710369544569 0 0.0048587594481200791 0.0055117035043221376 0 0.0056685825423029544 0.0051901771419536041 0 0.0061814833831206617 0.0060073710369544569 0 0.0066943084885220253 0.0051460296949323208 0 0.0042533315872255667 0.0063915627537125281 0 0.0061814833831206617 0.0060073710369544569 0 0.0048587594481200791 0.0055117035043221376 0 0.0038817581046944492 0.0052752355305317388 0 0.0047375421162905683 0.0045969347587941252 0 0.0048587594481200791 0.0055117035043221376 0 0.0047375421162905683 0.0045969347587941252 0 0.0056685825423029544 0.0051901771419536041 0 0.0048587594481200791 0.0055117035043221376 0 0.010481219522108004 0.0057479254668011499 0 0.010378816412272653 0.0056850641083821636 0 0.0077689494313580099 0.0058833914412003852 0 0.0086595236923313612 0.0057561323580441123 0 0.010123112941437477 0.0054849278574601286 0 0.010507245639059403 0.0055889994516250688 0 0.01025810869765922 0.0056234254376511259 0 0.010632474288514477 0.0058741367903048566 0 0.010507245639059403 0.0055889994516250688 0 0.01025810869765922 0.0056234254376511259 0 0.010123112941437477 0.0054849278574601286 0 0.010754587073566385 0.0053464955909180243 0 0.010507245639059403 0.0055889994516250688 0 0.010754587073566385 0.0053464955909180243 0 0.010507245639059403 0.0055889994516250688 0 0.010859775575819065 0.0056299306192345517 0 0.010632474288514477 0.0058741367903048566 0 0.010507245639059403 0.0055889994516250688 0 0.010859775575819065 0.0056299306192345517 0 0.010754587073566385 0.0053464955909180243 0 0.010859775575819065 0.0056299306192345517 0 0.011284824803831429 0.0053412996458269179 0 0.010915900560647713 0.0058458246265494663 0 0.010859775575819065 0.0056299306192345517 0 0.011169015184152224 0.005743637483405898 0 0.011207341951384165 0.0058543419327992717 0 0.011268929715144333 0.0054015323994495764 0 0.010859775575819065 0.0056299306192345517 0 0.011169015184152224 0.005743637483405898 0 0.011284824803831429 0.0053412996458269179 0 0.0061814833831206617 0.0060073710369544569 0 0.0066943084885220253 0.0051460296949323208 0 0.0080989271039912138 0.0056217299963060002 0 0.0086595236923313612 0.0057561323580441123 0 0.0083813738824946044 0.0047798081460706443 0 0.010754587073566385 0.0053464955909180243 0 0.011284824803831429 0.0053412996458269179 0 0.011650044911403177 0.0051345778257731994 0 0.0071880101894585156 0.0030836817779295546 0 0.0070506812647894964 0.0035992094045088404 0 0.0074686502904396422 0.0035053091066905213 0 0.011284824803831429 0.0053412996458269179 0 0.011650044911403177 0.0051345778257731994 0 0.01168328190402906 0.0056773672398610503 0 0.011650044911403177 0.0051345778257731994 0 0.01168328190402906 0.0056773672398610503 0 0.012324174608285552 0.0058150950998155596 0 0.011158292345425017 0.0059280182723964441 0 0.011284824803831429 0.0053412996458269179 0 0.01168328190402906 0.0056773672398610503 0 0.011571865764646886 0.0060210222855460512 0 0.011158292345425017 0.0059280182723964441 0 0.01168328190402906 0.0056773672398610503 0 0.011571865764646886 0.0060210222855460512 0 0.011951980642891434 0.006159323337097497 0 0.01168328190402906 0.0056773672398610503 0 0.0083813738824946044 0.0047798081460706443 0 0.0094892379975232647 0.0057776958205256008 0 0.0065126182855891283 0.0056770001805709902 0 0.0074075593118689085 0.0047409947031603825 0 0.0064915510714190459 0.0038586355755702985 0 0.011951980642891434 0.006159323337097497 0 0.01168328190402906 0.0056773672398610503 0 0.012324174608285552 0.0058150950998155596 0 0.0087040992468502675 0.0062059538004474611 0 0.007683197321584693 0.0058917464432962571 0 0.0081972058413436692 0.0053018277102754941 0 0.0065126182855891283 0.0056770001805709902 0 0.007683197321584693 0.0058917464432962571 0 0.0074075593118689085 0.0047409947031603825 0 0.0074075593118689085 0.0047409947031603825 0 0.0081972058413436692 0.0053018277102754941 0 0.0084393894101721188 0.0042732729732330018 0 0.007683197321584693 0.0058917464432962571 0 0.0074075593118689085 0.0047409947031603825 0 0.0081972058413436692 0.0053018277102754941 0 0.0074075593118689085 0.0047409947031603825 0 0.0078496995404553505 0.0035605586592140784 0 0.0084393894101721188 0.0042732729732330018 0 0.0074075593118689085 0.0047409947031603825 0 0.0078496995404553505 0.0035605586592140784 0 0.0064915510714190459 0.0038586355755702985 0 0.0078311108536423379 0.0035503240559973592 0 0.006711139946642527 0.0037974475725091623 0 0.0052571373219285778 0.0041151809857538878 0 0.0065126182855891283 0.0056770001805709902 0 0.0064915510714190459 0.0038586355755702985 0 0.0083813738824946044 0.0047798081460706443 0 0.006711139946642527 0.0037974475725091623 0 0.0071880101894585156 0.0030836817779295546 0 0.0074686502904396422 0.0035053091066905213 0 0.0076615710713898687 0.0029786463448290049 0 0.0071880101894585156 0.0030836817779295546 0 0.0076615710713898687 0.0029786463448290049 0 0.0073921990644688932 0.0027394048076620219 0 0.0078496995404553505 0.0035605586592140784 0 0.0076615710713898687 0.0029786463448290049 0 0.0081798996511018747 0.0026703292721185685 0 0.0078496995404553505 0.0035605586592140784 0 0.0081798996511018747 0.0026703292721185685 0 0.0086687208974852992 0.003234800121556405 0 0.0078496995404553505 0.0035605586592140784 0 0.0074686502904396422 0.0035053091066905213 0 0.0076615710713898687 0.0029786463448290049 0 0.0076615710713898687 0.0029786463448290049 0 0.0081798996511018747 0.0026703292721185685 0 0.0078680546343045422 0.0025474317298991508 0 0.0076615710713898687 0.0029786463448290049 0 0.0078680546343045422 0.0025474317298991508 0 0.0076731219976799089 0.0024533288190340323 0 0.0081798996511018747 0.0026703292721185685 0 0.0078680546343045422 0.0025474317298991508 0 0.0079686009618045381 0.0021304186697406404 0 0.0078680546343045422 0.0025474317298991508 0 0.0079686009618045381 0.0021304186697406404 0 0.0076731219976799089 0.0024533288190340323 0 0.0079686009618045381 0.0021304186697406404 0 0.0076731219976799089 0.0024533288190340323 0 0.0077266981827563835 0.0020918485103864431 0 0.0073926920362391638 0.0023824056367140784 0 0.0076731219976799089 0.0024533288190340323 0 0.0077266981827563835 0.0020918485103864431 0 0.0073926920362391638 0.0023824056367140784 0 0.0073921990644688932 0.0027394048076620219 0 0.0076731219976799089 0.0024533288190340323 0 0.0076615710713898687 0.0029786463448290049 0 0.0073921990644688932 0.0027394048076620219 0 0.0076731219976799089 0.0024533288190340323 0 0.009523127811749181 0.001967176365995207 0 0.0090910131979380845 0.0026940534165969688 0 0.01036458199075819 0.0027444659915564274 0 0.009523127811749181 0.001967176365995207 0 0.0084625039907888569 0.0019809051953775182 0 0.0090910131979380845 0.0026940534165969688 0 0.009523127811749181 0.001967176365995207 0 0.0084625039907888569 0.0019809051953775182 0 0.0084181379077756264 0.0012237371429597917 0 0.0081798996511018747 0.0026703292721185685 0 0.0084625039907888569 0.0019809051953775182 0 0.0090910131979380845 0.0026940534165969688 0 0.0081798996511018747 0.0026703292721185685 0 0.0079686009618045381 0.0021304186697406404 0 0.0084625039907888569 0.0019809051953775182 0 0.0081798996511018747 0.0026703292721185685 0 0.0090910131979380845 0.0026940534165969688 0 0.0086687208974852992 0.003234800121556405 0 0.0090910131979380845 0.0026940534165969688 0 0.0086687208974852992 0.003234800121556405 0 0.0098141222129219975 0.0035006420615426924 0 0.0090910131979380845 0.0026940534165969688 0 0.0098141222129219975 0.0035006420615426924 0 0.01036458199075819 0.0027444659915564274 0 0.0098141222129219975 0.0035006420615426924 0 0.01036458199075819 0.0027444659915564274 0 0.010854636336011086 0.00349490482803825 0 0.010470067726933241 0.004351846098163482 0 0.0091511521745365511 0.0039478720072745211 0 0.0094280777091445556 0.0050493639832267651 0 0.0098141222129219975 0.0035006420615426924 0 0.010470067726933241 0.004351846098163482 0 0.0091511521745365511 0.0039478720072745211 0 0.0098141222129219975 0.0035006420615426924 0 0.010470067726933241 0.004351846098163482 0 0.010854636336011086 0.00349490482803825 0 0.0086687208974852992 0.003234800121556405 0 0.0091511521745365511 0.0039478720072745211 0 0.0084393894101721188 0.0042732729732330018 0 0.0078496995404553505 0.0035605586592140784 0 0.0086687208974852992 0.003234800121556405 0 0.0084393894101721188 0.0042732729732330018 0 0.0086687208974852992 0.003234800121556405 0 0.0098141222129219975 0.0035006420615426924 0 0.0091511521745365511 0.0039478720072745211 0 0.0091511521745365511 0.0039478720072745211 0 0.0084393894101721188 0.0042732729732330018 0 0.0094280777091445556 0.0050493639832267651 0 0.0087040992468502675 0.0062059538004474611 0 0.0081972058413436692 0.0053018277102754941 0 0.0094280777091445556 0.0050493639832267651 0 0.0081972058413436692 0.0053018277102754941 0 0.0084393894101721188 0.0042732729732330018 0 0.0094280777091445556 0.0050493639832267651 0 0.0097860346331824118 0.0062888744360515524 0 0.0087040992468502675 0.0062059538004474611 0 0.0094280777091445556 0.0050493639832267651 0 0.010470067726933241 0.004351846098163482 0 0.010401291084534688 0.0052714824149731297 0 0.011340968069528773 0.0050736159862749177 0 0.010470067726933241 0.004351846098163482 0 0.0094280777091445556 0.0050493639832267651 0 0.010401291084534688 0.0052714824149731297 0 0.0097860346331824118 0.0062888744360515524 0 0.0094280777091445556 0.0050493639832267651 0 0.010401291084534688 0.0052714824149731297 0 0.0097860346331824118 0.0062888744360515524 0 0.010401291084534688 0.0052714824149731297 0 0.010963873836237845 0.0060492159149040121 0 0.010963873836237845 0.0060492159149040121 0 0.011340968069528773 0.0050736159862749177 0 0.011724950847260282 0.0058638442327726857 0 0.010401291084534688 0.0052714824149731297 0 0.010963873836237845 0.0060492159149040121 0 0.011340968069528773 0.0050736159862749177 0 0.011340968069528773 0.0050736159862749177 0 0.012454461451229346 0.0053340940468361766 0 0.011916110209560992 0.0041361122240375714 0 0.012200271267707834 0.0066091502676260275 0 0.012454461451229346 0.0053340940468361766 0 0.011724950847260282 0.0058638442327726857 0 0.011340968069528773 0.0050736159862749177 0 0.012454461451229346 0.0053340940468361766 0 0.011724950847260282 0.0058638442327726857 0 0.013712230185742301 0.0061390547415048902 0 0.012200271267707834 0.0066091502676260275 0 0.012454461451229346 0.0053340940468361766 0 0.013712230185742301 0.0061390547415048902 0 0.012454461451229346 0.0053340940468361766 0 0.013148258145457972 0.0047271567035796977 0 0.013712230185742301 0.0061390547415048902 0 0.013148258145457972 0.0047271567035796977 0 0.014699664546009315 0.0050622213570749456 0 0.012454461451229346 0.0053340940468361766 0 0.013148258145457972 0.0047271567035796977 0 0.011916110209560992 0.0041361122240375714 0 0.013250851137865711 0.0035158955911341752 0 0.011916110209560992 0.0041361122240375714 0 0.011823311856611111 0.0027841078392819895 0 0.013148258145457972 0.0047271567035796977 0 0.013250851137865711 0.0035158955911341752 0 0.011916110209560992 0.0041361122240375714 0 0.013148258145457972 0.0047271567035796977 0 0.013250851137865711 0.0035158955911341752 0 0.014699664546009315 0.0050622213570749456 0 0.010470067726933241 0.004351846098163482 0 0.011340968069528773 0.0050736159862749177 0 0.011916110209560992 0.0041361122240375714 0 0.010470067726933241 0.004351846098163482 0 0.010854636336011086 0.00349490482803825 0 0.011916110209560992 0.0041361122240375714 0 0.010854636336011086 0.00349490482803825 0 0.011916110209560992 0.0041361122240375714 0 0.011823311856611111 0.0027841078392819895 0 0.015641654541927699 0.006960760531556854 0 0.016682758711923366 0.0057093240564241726 0 0.014699664546009315 0.0050622213570749456 0 0.016682758711923366 0.0057093240564241726 0 0.014699664546009315 0.0050622213570749456 0 0.015416942384717735 0.0039424427450669638 0 0.013250851137865711 0.0035158955911341752 0 0.014699664546009315 0.0050622213570749456 0 0.015416942384717735 0.0039424427450669638 0 0.013250851137865711 0.0035158955911341752 0 0.015416942384717735 0.0039424427450669638 0 0.013976122418898281 0.0026064751491125492 0 0.01780382887197824 0.0042676672561462164 0 0.015416942384717735 0.0039424427450669638 0 0.015564197416979614 0.0021601190604989 0 0.012708311228242954 0.002200658083939364 0 0.011749889457793252 0.00013404270804197687 0 0.01780382887197824 0.0042676672561462164 0 0.016682758711923366 0.0057093240564241726 0 0.015416942384717735 0.0039424427450669638 0 0.015416942384717735 0.0039424427450669638 0 0.015564197416979614 0.0021601190604989 0 0.013976122418898281 0.0026064751491125492 0 0.015564197416979614 0.0021601190604989 0 0.013976122418898281 0.0026064751491125492 0 0.013285818679035281 0.0017608040673606929 0 0.013250851137865711 0.0035158955911341752 0 0.013976122418898281 0.0026064751491125492 0 0.012834278737031 0.0021090478089584937 0 0.013976122418898281 0.0026064751491125492 0 0.013285818679035281 0.0017608040673606929 0 0.012834278737031 0.0021090478089584937 0 0.015564197416979614 0.0021601190604989 0 0.013285818679035281 0.0017608040673606929 0 0.012121194892277356 0.0010853001784685498 0 0.013285818679035281 0.0017608040673606929 0 0.012834278737031 0.0021090478089584937 0 0.012639640778112988 0.0013247598663417846 0 0.013285818679035281 0.0017608040673606929 0 0.012639640778112988 0.0013247598663417846 0 0.012121194892277356 0.0010853001784685498 0 0.011749889457793252 0.00013404270804197687 0 0.01222937963924263 0.001115871419154673 0 0.0077747128797564513 -0.0024702378004346952 0 0.0081053862797407263 -0.00048532040830444724 0 0.012121194892277356 0.0010853001784685498 0 0.01036458199075819 0.0027444659915564274 0 0.011823311856611111 0.0027841078392819895 0 0.011198972561642616 0.0017977872242049791 0 0.01036458199075819 0.0027444659915564274 0 0.010854636336011086 0.00349490482803825 0 0.011823311856611111 0.0027841078392819895 0 0.013250851137865711 0.0035158955911341752 0 0.011823311856611111 0.0027841078392819895 0 0.012834278737031 0.0021090478089584937 0 0.011823311856611111 0.0027841078392819895 0 0.012834278737031 0.0021090478089584937 0 0.012261616591594032 0.0017169204335248276 0 0.012261616591594032 0.0017169204335248276 0 0.011198972561642616 0.0017977872242049791 0 0.012901728104127801 0.0010470727317165322 0 0.012261616591594032 0.0017169204335248276 0 0.012639640778112988 0.0013247598663417846 0 0.012901728104127801 0.0010470727317165322 0 0.012834278737031 0.0021090478089584937 0 0.012261616591594032 0.0017169204335248276 0 0.012639640778112988 0.0013247598663417846 0 0.011886530435882364 0.0012350753444876615 0 0.0091724397157788139 0.0014943954207750812 0 0.011823311856611111 0.0027841078392819895 0 0.012261616591594032 0.0017169204335248276 0 0.011198972561642616 0.0017977872242049791 0 0.009523127811749181 0.001967176365995207 0 0.01036458199075819 0.0027444659915564274 0 0.011198972561642616 0.0017977872242049791 0 0.009523127811749181 0.001967176365995207 0 0.011198972561642616 0.0017977872242049791 0 0.010552385347994403 0.00074744410503096797 0 0.0069308633121150506 0.001085531472876199 0 0.0061028840162578269 0.001104781914648856 0 0.0064592848591180996 0.0021080118035000533 0 0.011198972561642616 0.0017977872242049791 0 0.010552385347994403 0.00074744410503096797 0 0.01174130544367083 0.00076575651660908736 0 0.0087020752161319544 0.00099563930636714605 0 0.0091724397157788139 0.0014943954207750812 0 0.012639640778112988 0.0013247598663417846 0 0.012901728104127801 0.0010470727317165322 0 0.012121194892277356 0.0010853001784685498 0 0.0091724397157788139 0.0014943954207750812 0 0.0053383347824932622 0.0029629829476344001 0 0.0061028840162578269 0.001104781914648856 0 0.0064592848591180996 0.0021080118035000533 0 0.0055372755611241987 0.0019472514119713087 0 0.0064592848591180996 0.0021080118035000533 0 0.007131549221704528 0.0023554512470848089 0 0.0073452143721678348 0.0018301316402922268 0 0.0069308633121150506 0.001085531472876199 0 0.0064592848591180996 0.0021080118035000533 0 0.0073452143721678348 0.0018301316402922268 0 0.0027727091002437568 0.0027600184079014231 0 0.0029862795490603528 0.0020883101134275511 0 0.0034701297997425393 0.002372790991762725 0 0.0029862795490603528 0.0020883101134275511 0 0.0081053862797407263 -0.00048532040830444724 0 0.01100130098706672 0.0018804912889039168 0 0.0031488876069417438 0.0020842583784062246 0 0.0072072897606967334 0.0021075557466338521 0 0.0081053862797407263 -0.00048532040830444724 0 0.01100130098706672 0.0018804912889039168 0 0.012121194892277356 0.0010853001784685498 0 0.0027727091002437568 0.0027600184079014231 0 0.0034701297997425393 0.002372790991762725 0 0.0033498014532631062 0.0030097775257010143 0 0.0034701297997425393 0.002372790991762725 0 0.0033498014532631062 0.0030097775257010143 0 0.0040998107030026428 0.003241086562968423 0 0.0063077290102600573 0.0022473251276362892 0 0.0034701297997425393 0.002372790991762725 0 0.0040998107030026428 0.003241086562968423 0 0.0091724397157788139 0.0014943954207750812 0 0.0072072897606967334 0.0021075557466338521 0 0.012901728104127801 0.0010470727317165322 0 0.01100130098706672 0.0018804912889039168 0 0.012121194892277356 0.0010853001784685498 0 0.0063077290102600573 0.0022473251276362892 0 0.0051515915383875434 0.0038610629896273256 0 0.0040998107030026428 0.003241086562968423 0 0.0051515915383875434 0.0038610629896273256 0 0.003199811989072739 0.0037807308551926922 0 0.004130960925698134 0.0056551275810279682 0 0.0051515915383875434 0.0038610629896273256 0 0.0040998107030026428 0.003241086562968423 0 0.003199811989072739 0.0037807308551926922 0 0.00073964676779401993 0.0045526692487692071 0 0.0027727091002437568 0.0027600184079014231 0 0.003199811989072739 0.0037807308551926922 0 0.00073964676779401993 0.0045526692487692071 0 0.003199811989072739 0.0037807308551926922 0 0.004130960925698134 0.0056551275810279682 0 0.0033498014532631062 0.0030097775257010143 0 0.0040998107030026428 0.003241086562968423 0 0.003199811989072739 0.0037807308551926922 0 0.0027727091002437568 0.0027600184079014231 0 0.0033498014532631062 0.0030097775257010143 0 0.003199811989072739 0.0037807308551926922 0 0.00061451721258157092 0.004965529016768248 0 0.0014390687230287872 0.0039331532872005498 0 0.00073964676779401993 0.0045526692487692071 0 -0.00073969371488137093 0.0045883295976674029 0 -0.0018106816393224053 0.0048933430912722663 0 -0.00073969371488137093 0.0045883295976674029 0 -0.0018106816393224053 0.0048933430912722663 0 -0.0016211844813823495 0.0042965584438922283 0 0.0055372755611241987 0.0019472514119713087 0 0.0050024432226837331 0.0026448202264080871 0 0.0058942736366048567 0.0029531193424345127 0 0.0014390687230287872 0.0039331532872005498 0 0.0027539311456311554 0.0027958777950887709 0 0.0053383347824932622 0.0029629829476344001 0 0.0014390687230287872 0.0039331532872005498 0 -0.0016956111475407848 0.0031822253698033341 0 -0.0016463431518855664 0.0040572153441452543 0 -0.00052416027949114179 0.0027858015674995873 0 -0.0016956111475407848 0.0031822253698033341 0 -0.0016463431518855664 0.0040572153441452543 0 -0.0016211844813823495 0.0042965584438922283 0 0.0014390687230287872 0.0039331532872005498 0 -0.0022376918501392207 0.0046376150496192361 0 0.0064592848591180996 0.0021080118035000533 0 0.0065633720082315817 0.0026916016069808897 0 0.007131549221704528 0.0023554512470848089 0 0.0064592848591180996 0.0021080118035000533 0 0.0065633720082315817 0.0026916016069808897 0 0.0058942736366048567 0.0029531193424345127 0 0.0064592848591180996 0.0021080118035000533 0 0.0055372755611241987 0.0019472514119713087 0 0.0058942736366048567 0.0029531193424345127 0 -0.001269165606568898 0.0053277829684569749 0 -0.0016463431518855664 0.0040572153441452543 0 -0.00052416027949114179 0.0027858015674995873 0 -0.001269165606568898 0.0053277829684569749 0 -0.00052416027949114179 0.0027858015674995873 0 0.0022363276256314782 0.0027390957588780051 0 0.0065633720082315817 0.0026916016069808897 0 0.0058942736366048567 0.0029531193424345127 0 0.0065350620725144991 0.0030804543000514124 0 0.0027539311456311554 0.0027958777950887709 0 0.0044645744497825192 0.0030124888788147521 0 0.0065633720082315817 0.0026916016069808897 0 0.0065350620725144991 0.0030804543000514124 0 0.0067476620990507786 0.0028434567154608692 0 0.0061288237019528824 0.0035190916581837725 0 0.0044645744497825192 0.0030124888788147521 0 0.0062125647214277095 0.0035370354719056183 0 0.0065350620725144991 0.0030804543000514124 0 0.0067476620990507786 0.0028434567154608692 0 0.0062125647214277095 0.0035370354719056183 0 0.0067476620990507786 0.0028434567154608692 0 0.0071958853282453692 0.0026609508944758662 0 0.0065633720082315817 0.0026916016069808897 0 0.0067476620990507786 0.0028434567154608692 0 0.007131549221704528 0.0023554512470848089 0 0.007131549221704528 0.0023554512470848089 0 0.0071958853282453692 0.0026609508944758662 0 0.0077875702960791358 0.0019787837237533758 0 0.0067476620990507786 0.0028434567154608692 0 0.007131549221704528 0.0023554512470848089 0 0.0071958853282453692 0.0026609508944758662 0 0.0071958853282453692 0.0026609508944758662 0 0.0078421827101458862 0.0026008187875007521 0 0.007774189955996956 0.0022120592507782013 0 0.0071958853282453692 0.0026609508944758662 0 0.007774189955996956 0.0022120592507782013 0 0.0077875702960791358 0.0019787837237533758 0 0.0062125647214277095 0.0035370354719056183 0 0.0071958853282453692 0.0026609508944758662 0 0.0074827200239445616 0.0032555414648307557 0 0.0071958853282453692 0.0026609508944758662 0 0.0074827200239445616 0.0032555414648307557 0 0.0078421827101458862 0.0026008187875007521 0 0.0079803751335618747 0.0037121770116318306 0 0.0074827200239445616 0.0032555414648307557 0 0.0079587476176068081 0.0031696800423221634 0 0.0079803751335618747 0.0037121770116318306 0 0.0079587476176068081 0.0031696800423221634 0 0.0082841651292073319 0.0033944118326748487 0 0.0079587476176068081 0.0031696800423221634 0 0.0081757799835131505 0.0028540363671383405 0 0.0078421827101458862 0.0026008187875007521 0 0.0074827200239445616 0.0032555414648307557 0 0.0079587476176068081 0.0031696800423221634 0 0.0078421827101458862 0.0026008187875007521 0 0.0079587476176068081 0.0031696800423221634 0 0.0082841651292073319 0.0033944118326748487 0 0.0081757799835131505 0.0028540363671383405 0 0.0082841651292073319 0.0033944118326748487 0 0.0081757799835131505 0.0028540363671383405 0 0.0086246357787524899 0.0029273134867114823 0 0.0081757799835131505 0.0028540363671383405 0 0.0086246357787524899 0.0029273134867114823 0 0.0081365683539805812 0.0023718590131597689 0 0.0081199362725722889 0.0020183658738102735 0 0.0086246357787524899 0.0029273134867114823 0 0.0081365683539805812 0.0023718590131597689 0 0.0081365683539805812 0.0023718590131597689 0 0.0079507480416952502 0.0021255004200409653 0 0.0079913102987550725 0.002044683523100309 0 0.0081757799835131505 0.0028540363671383405 0 0.0081365683539805812 0.0023718590131597689 0 0.0078421827101458862 0.0026008187875007521 0 0.0081365683539805812 0.0023718590131597689 0 0.0078421827101458862 0.0026008187875007521 0 0.0079507480416952502 0.0021255004200409653 0 0.0078421827101458862 0.0026008187875007521 0 0.007774189955996956 0.0022120592507782013 0 0.0079507480416952502 0.0021255004200409653 0 0.007774189955996956 0.0022120592507782013 0 0.0079507480416952502 0.0021255004200409653 0 0.0079465853501974621 0.0019412380241345124 0 0.0079465853501974621 0.0019412380241345124 0 0.0079246832004522937 0.0019542127479513713 0 0.0079550396052941851 0.0019182071461765326 0 0.0079507480416952502 0.0021255004200409653 0 0.0079465853501974621 0.0019412380241345124 0 0.0079246832004522937 0.0019542127479513713 0 0.0081199362725722889 0.0020183658738102735 0 0.0079913102987550725 0.002044683523100309 0 0.0078111121766511558 0.0019833206407647618 0 0.0081199362725722889 0.0020183658738102735 0 0.0081365683539805812 0.0023718590131597689 0 0.0079913102987550725 0.002044683523100309 0 0.0079507480416952502 0.0021255004200409653 0 0.0079913102987550725 0.002044683523100309 0 0.0079246832004522937 0.0019542127479513713 0 0.0079913102987550725 0.002044683523100309 0 0.0079246832004522937 0.0019542127479513713 0 0.0078111121766511558 0.0019833206407647618 0 0.0071811981313827334 0.0020801153540414004 0 0.0073926920362391638 0.0023824056367140784 0 0.0077266981827563835 0.0020918485103864431 0 0.0071811981313827334 0.0020801153540414004 0 0.0078111121766511558 0.0019833206407647618 0 0.0077266981827563835 0.0020918485103864431 0 0.0079246832004522937 0.0019542127479513713 0 0.0077266981827563835 0.0020918485103864431 0 0.0079550396052941851 0.0019182071461765326 0 0.0079246832004522937 0.0019542127479513713 0 0.0078111121766511558 0.0019833206407647618 0 0.0077266981827563835 0.0020918485103864431 0 0.0079465853501974621 0.0019412380241345124 0 0.0079550396052941851 0.0019182071461765326 0 0.008114847170065196 0.0017206900030746681 0 0.0079686009618045381 0.0021304186697406404 0 0.0077266981827563835 0.0020918485103864431 0 0.0079550396052941851 0.0019182071461765326 0 0.0079686009618045381 0.0021304186697406404 0 0.0079550396052941851 0.0019182071461765326 0 0.008114847170065196 0.0017206900030746681 0 0.0079686009618045381 0.0021304186697406404 0 0.0084625039907888569 0.0019809051953775182 0 0.008114847170065196 0.0017206900030746681 0 0.0084625039907888569 0.0019809051953775182 0 0.008114847170065196 0.0017206900030746681 0 0.0084181379077756264 0.0012237371429597917 0 0.008114847170065196 0.0017206900030746681 0 0.0084181379077756264 0.0012237371429597917 0 0.0077875702960791358 0.0019787837237533758 0 0.009523127811749181 0.001967176365995207 0 0.010552385347994403 0.00074744410503096797 0 0.0084181379077756264 0.0012237371429597917 0 0.0087020752161319544 0.00099563930636714605 0 0.0085211806014538812 0.0011111251375783354 0 0.0069308633121150506 0.001085531472876199 0 0.0084181379077756264 0.0012237371429597917 0 0.0073452143721678348 0.0018301316402922268 0 0.007131549221704528 0.0023554512470848089 0 0.0073452143721678348 0.0018301316402922268 0 0.0077875702960791358 0.0019787837237533758 0 0.0084181379077756264 0.0012237371429597917 0 0.0073452143721678348 0.0018301316402922268 0 0.0077875702960791358 0.0019787837237533758 0 0.007774189955996956 0.0022120592507782013 0 0.0079465853501974621 0.0019412380241345124 0 0.0077875702960791358 0.0019787837237533758 0 0.0079465853501974621 0.0019412380241345124 0 0.008114847170065196 0.0017206900030746681 0 0.0077875702960791358 0.0019787837237533758 0 
</DataArray>
</PointData>
<CellData Scalars="region_id,cross_section_updated," Vectors="" Tensors="stress,">
<DataArray type="Float64" Name="region_id" format="ascii">
5 5 5 5 5 5 5 6 5 6 5 5 5 5 5 5 5 5 5 6 5 5 5 5 5 5 5 5 5 5 5 6 5 5 6 5 5 6 5 5 5 5 5 5 5 5 5 5 5 6 5 5 5 5 5 5 5 5 5 5 5 5 5 6 5 5 5 5 5 5 5 5 5 5 5 5 5 5 5 6 5 5 5 6 5 5 5 5 5 6 5 5 5 5 5 5 5 5 5 5 5 5 5 5 5 5 5 5 5 5 5 6 5 6 5 5 5 5 5 5 5 5 5 5 5 5 5 6 5 6 5 6 5 5 5 6 5 5 5 5 5 5 5 6 5 5 5 5 5 5 5 5 5 5 5 5 5 5 5 5 5 5 5 5 5 5 5 5 5 5 5 5 5 5 5 5 5 6 5 6 5 6 5 5 6 5 5 5 5 5 5 5 6 5 5 5 5 5 5 5 6 5 5 5 5 5 5 5 5 5 5 5 6 5 5 6 5 5 5 5 5 5 5 5 5 5 5 5 5 5 5 5 5 5 5 5 5 5 5 5 5 5 5 5 5 5 5 5 5 5 5 6 5 5 5 5 5 6 5 5 5 5 5 5 5 5 5 5 5 5 5 5 5 5 6 5 5 5 5 5 5 5 5 6 5 5 5 5 5 6 5 5 5 5 5 5 5 5 5 5 5 5 6 5 5 5 5 6 5 5 5 6 5 5 5 5 5 5 5 5 5 5 5 5 5 5 5 5 5 5 5 5 5 5 5 5 5 5 5 5 5 5 5 5 5 5 5 6 5 6 5 5 5 5 5 5 5 5 5 5 5 5 5 5 5 5 5 5 6 5 5 5 5 5 5 5 5 5 5 5 5 5 5 5 5 5 5 5 6 6 5 5 6 5 5 5 5 5 5 6 5 5 5 5 5 5 6 5 5 6 5 6 5 5 5 5 5 5 6 5 5 6 5 5 5 5 5 5 5 5 5 5 5 5 5 5 5 5 5 5 5 5 5 5 6 5 5 5 5 5 6 5 5 5 5 5 5 5 5 5 5 5 5 5 5 5 5 5 5 5 5 5 5 6 5 5 5 6 5 5 5 5 5 5 5 5 5 6 5 6 5 5 6 5 5 5 6 5 6 5 5 5 5 5 6 5 5 5 5 6 5 6 6 5 5 5 5 5 5 5 5 5 6 5 5 6 5 5 5 5 5 6 5 5 5 5 6 5 5 5 6 5 6 5 6 5 5 5 5 5 5 5 5 5 5 5 5 6 5 5 5 6 5 5 5 5 5 5 5 5 5 5 5 5 6 5 5 5 5 5 6 5 5 6 5 5 6 5 5 5 5 5 5 5 5 5 5 5 5 5 5 5 5 5 6 5 6 5 6 5 6 5 5 5 5 6 5 5 5 5 6 5 5 5 5 6 5 5 5 5 5 6 5 5 6 5 6 6 6 5 5 5 5 5 5 5 5 5 5 5 5 5 5 5 5 5 5 6 5 5 5 5 5 5 5 5 5 6 5 5 5 5 5 6 5 5 5 5 5 5 5 6 5 5 6 6 5 5 5 5 5 6 5 6 5 5 5 5 5 5 5 6 5 5 6 5 5 5 5 5 5 6 5 6 5 5 6 5 5 5 5 5 5 5 5 5 5 5 5 5 5 5 5 5 5 5 5 5 5 6 5 5 5 5 5 5 5 6 5 5 5 6 5 6 5 5 5 6 5 5 5 6 5 5 5 5 5 5 5 5 5 6 5 5 5 5 5 5 5 5 6 5 6 6 6 5 5 6 5 6 5 5 5 5 5 5 5 5 5 5 5 5 5 5 5 5 5 5 5 5 5 5 5 5 5 6 6 6 5 5 5 5 5 5 5 5 5 5 5 5 5 5 5 5 5 5 5 5 5 5 5 5 5 5 5 5 5 6 5 5 5 5 5 6 5 5 5 6 5 5 6 6 5 6 5 5 5 5 5 5 6 5 5 5 5 5 6 5 6 5 5 5 6 5 6 5 6 5 5 5 5 5 6 5 5 5 6 5 5 5 5 5 5 5 5 6 5 5 5 5 5 5 6 5 5 5 5 5 5 5 5 6 5 5 6 5 5 5 5 5 5 6 5 6 5 6 5 5 5 5 5 5 5 5 5 5 5 6 6 6 5 5 6 5 5 5 5 5 6 6 5 5 6 6 6 5 5 5 5 5 5 5 5 5 5 5 5 5 5 5 5 5 5 5 5 5 5 5 5 5 5 5 5 5 5 5 5 5 6 5 5 5 5 5 5 5 6 5 5 5 5 5 5 6 5 5 5 5 5 5 5 5 5 5 5 5 5 5 5 5 5 5 5 5 5 5 5 5 5 5 5 5 5 5 5 5 5 5 5 5 5 5 5 5 5 5 5 5 5 5 5 5 5 5 5 5 5 5 6 5 5 5 6 5 5 6 5 5 5 5 5 5 6 5 5 5 5 5 5 5 5 5 5 6 5 5 5 5 6 5 5 5 5 5 5 5 5 5 5 5 5 5 5 5 5 5 5 5 5 5 5 5 5 6 5 5 5 5 6 5 5 5 5 5 5 5 5 5 5 5 5 5 5 5 5 5 5 5 5 5 5 5 5 5 5 5 5 5 5 5 5 5 5 5 5 5 5 6 5 5 5 5 5 6 5 5 5 6 6 5 5 5 5 5 5 5 5 5 6 5 5 5 6 5 5 5 5 5 5 6 5 5 5 5 5 5 5 5 5 5 6 6 5 5 5 5 5 5 5 5 5 6 5 5 6 5 5 5 6 6 5 5 6 5 5 6 6 5 5 5 6 5 5 5 5 5 6 5 5 5 5 5 5 5 5 5 6 5 5 5 5 5 5 5 5 5 5 5 5 5 5 5 6 5 5 5 5 5 5 6 5 5 5 5 5 5 5 5 5 5 5 5 5 5 5 5 6 6 5 5 5 5 5 5 5 5 5 5 5 5 5 5 5 5 5 5 5 5 5 5 5 5 5 5 5 5 5 5 5 5 5 5 5 5 5 5 5 5 5 5 5 5 6 5 6 5 5 5 6 5 5 5 5 5 5 5 5 5 6 5 5 6 5 5 5 5 5 6 5 5 5 5 5 5 5 6 5 5 6 5 5 5 5 5 5 6 5 5 5 5 5 5 5 5 5 5 5 5 6 5 5 5 5 5 5 5 5 5 5 5 5 5 5 5 5 5 5 5 5 5 5 5 5 5 5 5 5 5 5 5 5 5 5 5 5 5 5 5 5 5 5 5 5 5 5 5 5 5 5 5 5 5 5 5 5 5 5 5 5 5 5 5 5 5 5 5 5 5 5 5 5 5 5 5 5 5 5 5 5 5 5 5 5 5 5 5 5 5 6 5 5 5 5 5 5 5 5 5 5 5 6 5 5 5 6 5 5 5 5 5 5 5 5 5 5 5 5 5 5 5 5 5 5 5 5 5 5 5 5 5 5 5 5 5 5 5 5 5 5 5 5 5 5 5 5 5 5 5 5 5 5 5 5 5 5 5 5 5 5 5 5 5 5 5 5 5 5 5 5 5 5 5 5 5 5 5 5 5 5 5 5 5 5 5 5 5 5 5 5 5 5 5 5 5 5 5 5 5 5 5 5 5 5 5 5 5 5 5 5 5 5 5 5 5 5 5 5 6 5 5 5 5 5 5 5 5 5 5 6 5 5 5 5 6 5 5 5 6 6 5 5 5 5 5 5 5 5 5 5 5 5 5 5 5 5 5 5 5 6 6 5 5 6 5 5 5 5 5 5 6 5 5 5 5 5 6 5 5 5 5 5 5 6 5 5 5 5 5 5 6 5 6 5 5 5 5 5 5 5 5 5 5 5 5 5 5 5 5 5 6 5 5 5 5 5 5 5 6 5 5 5 5 5 6 5 5 5 5 5 5 5 6 5 5 5 6 5 5 6 5 5 5 5 5 5 5 5 5 5 5 5 5 5 6 5 5 5 5 5 5 5 5 6 5 5 5 5 5 5 6 5 5 5 5 5 6 5 5 5 5 5 5 5 5 5 5 5 5 5 5 5 5 5 5 5 6 5 5 5 6 5 6 5 5 5 5 5 5 5 5 5 5 5 5 5 5 5 5 5 5 5 5 5 5 5 5 5 6 5 5 6 5 5 5 5 5 5 5 5 6 5 5 5 5 5 5 5 5 5 5 5 6 5 5 5 5 5 5 5 5 5 5 5 5 5 5 5 5 5 6 5 5 5 5 5 5 5 5 5 5 6 5 5 5 5 5 5 5 5 6 5 5 5 5 5 5 6 5 5 5 5 5 5 5 5 5 5 5 5 5 5 5 5 5 5 5 5 5 5 5 5 5 5 5 5 5 6 5 6 5 5 5 5 5 5 5 6 5 6 5 5 5 5 5 5 5 5 5 5 5 5 5 5 6 5 6 5 5 5 5 5 5 6 5 5 5 5 5 5 5 5 5 6 5 6 5 5 5 5 5 5 5 5 6 5 5 6 5 5 5 5 5 6 5 5 5 5 6 6 5 6 6 5 5 5 5 6 5 5 5 5 5 5 5 5 5 5 5 5 5 5 5 5 5 5 5 5 5 6 6 5 5 5 5 5 6 5 5 5 6 5 5 5 5 5 5 5 6 5 5 5 5 5 6 5 5 5 6 5 5 5 5 5 5 5 5 5 6 5 5 5 5 5 5 6 6 5 5 5 5 5 5 6 5 5 5 5 5 5 5 5 5 5 5 5 5 6 5 5 5 5 5 6 5 5 6 5 5 5 5 5 5 5 6 5 5 5 5 6 5 5 5 5 5 5 5 5 5 5 5 5 5 5 5 5 5 5 5 5 5 5 5 5 5 5 5 5 5 5 5 6 5 5 5 6 5 5 6 5 5 5 5 5 5 6 6 5 5 5 5 6 5 5 5 5 5 5 5 6 5 5 5 5 5 5 5 6 5 5 5 5 5 5 5 5 5 5 5 5 5 5 5 6 5 5 6 5 5 5 5 5 5 5 5 5 6 5 6 5 5 6 5 5 5 5 5 5 5 5 5 5 5 5 5 5 5 5 6 5 5 5 5 5 6 5 5 5 5 5 5 5 5 5 5 5 6 5 5 5 5 5 5 5 6 5 5 5 5 6 5 5 5 5 5 6 5 5 6 5 5 5 5 5 5 6 5 6 6 5 6 5 5 6 6 5 6 5 6 5 5 5 5 5 5 5 6 5 5 5 5 5 5 5 5 5 5 5 5 5 5 5 5 5 5 5 5 5 5 5 6 5 5 5 5 5 5 5 5 5 5 5 5 5 5 6 5 6 5 5 5 5 5 5 5 5 5 5 5 5 5 5 5 5 5 5 5 5 5 5 5 5 5 5 5 5 5 5 5 5 5 5 5 5 5 5 5 6 5 5 5 5 5 5 5 5 5 5 5 6 5 5 5 5 5 5 5 5 5 5 5 5 5 5 5 5 5 5 5 5 5 5 5 5 5 5 5 6 5 5 5 5 5 5 5 5 5 6 5 5 5 5 6 5 5 5 5 5 5 5 5 5 5 5 5 5 5 6 5 5 5 5 6 5 5 5 5 5 5 5 5 5 5 5 5 6 5 5 5 5 5 5 6 5 5 5 5 5 5 5 5 5 5 6 5 5 5 5 5 5 5 5 5 5 5 5 5 5 5 5 5 5 5 5 5 5 5 5 5 5 5 5 5 5 5 5 5 5 6 5 5 5 5 6 6 5 5 6 5 5 5 5 6 5 5 5 5 5 5 5 5 5 5 5 5 5 5 5 5 6 5 5 5 6 5 5 5 5 5 6 5 5 6 5 5 5 5 5 5 5 5 5 5 5 5 5 5 5 5 5 6 5 5 5 5 5 5 5 5 5 5 5 6 5 5 5 6 5 5 5 5 6 6 5 5 5 5 5 5 5 5 5 5 5 5 5 5 5 6 5 5 5 5 5 5 5 5 5 5 5 6 5 5 5 5 5 6 5 5 5 5 5 5 5 5 5 6 5 5 5 5 5 5 5 5 5 5 5 5 5 5 5 5 5 5 5 5 5 5 5 5 5 6 5 5 5 5 5 5 6 5 5 5 5 5 5 5 5 5 5 5 5 5 5 5 5 5 5 5 5 5 5 5 5 5 5 5 5 5 5 5 5 5 5 5 5 5 5 5 5 5 5 5 5 5 5 5 5 5 5 5 5 5 5 5 5 5 5 5 6 5 5 5 5 5 5 5 6 5 5 5 6 5 6 5 5 5 5 5 6 6 5 5 5 5 5 5 5 5 6 5 5 5 5 5 5 5 6 5 6 5 5 6 6 5 5 5 6 5 5 5 5 5 5 5 5 6 5 5 5 5 6 5 5 5 5 5 5 5 5 5 5 5 5 5 5 5 6 5 5 5 5 6 6 5 5 5 5 6 5 5 5 5 5 6 5 5 5 5 5 5 5 5 5 5 5 5 6 5 5 5 5 5 5 5 5 6 5 6 5 5 5 5 5 5 5 5 5 5 5 5 5 5 5 5 6 5 5 5 5 5 5 5 6 5 6 5 5 5 6 5 5 5 5 5 5 5 5 5 5 5 5 5 5 5 5 5 5 5 5 5 5 5 5 5 5 5 5 5 5 5 6 5 5 5 5 5 5 5 6 5 5 5 6 5 5 5 5 5 6 5 5 5 5 5 6 5 5 5 5 6 5 5 5 6 5 5 6 5 5 5 5 6 5 5 6 5 5 5 6 5 5 5 5 5 6 5 5 5 5 5 5 5 6 5 5 5 5 5 5 5 5 5 5 5 5 6 5 5 5 6 5 5 6 5 5 6 5 5 5 6 5 5 6 6 5 5 5 5 6 5 5 5 5 5 5 5 5 6 5 5 5 5 5 6 6 5 5 5 5 6 5 5 5 5 5 5 5 6 5 5 5 5 5 5 5 5 5 6 5 5 6 5 5 5 5 6 6 5 6 5 5 5 5 5 6 5 5 6 5 5 6 5 6 5 5 5 5 5 5 6 5 5 5 5 5 5 5 5 5 5 5 5 5 5 6 5 5 5 5 5 5 5 5 6 5 5 5 5 5 5 5 5 5 5 5 5 5 6 5 5 5 5 5 5 5 5 5 5 6 5 5 5 6 5 6 5 5 5 5 6 5 5 5 5 5 6 5 5 5 5 5 5 5 5 5 5 5 5 5 5 5 5 5 5 5 5 5 6 5 5 5 5 5 5 5 5 5 5 5 5 5 5 6 5 6 5 5 6 5 5 6 5 6 5 5 5 5 5 6 5 6 5 5 6 5 6 5 5 5 5 6 6 5 5 5 5 5 5 5 5 6 5 5 5 5 6 5 6 5 5 5 5 5 5 5 5 5 5 6 5 5 6 6 5 5 5 5 6 5 5 5 5 5 5 5 5 5 5 5 5 5 6 5 6 5 5 5 6 5 5 5 6 5 5 5 5 5 5 6 5 5 5 5 5 5 5 6 5 5 5 6 5 5 5 5 5 5 5 5 5 5 5 5 5 5 5 5 5 5 5 6 5 5 6 5 5 5 5 5 5 5 5 5 5 5 5 5 5 5 5 5 5 5 5 5 5 5 5 6 5 6 6 5 5 5 6 5 6 5 5 6 5 5 5 5 5 6 5 5 5 5 5 6 5 6 5 5 5 5 5 6 5 5 5 5 5 5 5 5 5 6 5 5 6 5 5 6 5 5 6 5 6 5 5 5 5 5 5 6 6 5 5 5 6 6 6 6 5 5 5 6 5 5 5 5 5 5 5 6 5 5 5 5 5 5 5 5 5 6 5 5 5 6 5 5 5 5 5 5 5 5 5 6 5 5 6 5 5 6 5 5 5 5 5 5 5 5 5 5 5 5 5 5 5 5 5 5 5 5 5 5 5 5 5 5 5 5 5 5 5 5 5 5 5 5 5 5 5 5 5 6 5 6 5 5 5 5 5 5 5 6 6 5 5 5 5 5 5 6 5 5 5 5 5 5 5 5 5 5 5 5 5 5 5 5 5 5 6 5 6 6 5 5 5 5 5 6 5 5 5 5 6 5 5 5 5 5 5 5 5 5 5 6 5 5 6 5 6 5 5 6 6 5 5 6 5 5 5 5 5 5 5 5 6 5 5 6 5 6 5 6 5 5 5 6 5 5 6 5 6 5 5 5 5 5 5 5 5 5 5 5 5 6 6 5 6 5 5 5 5 5 5 5 5 5 5 5 5 5 5 5 5 5 5 5 5 5 6 5 5 5 5 5 5 5 5 5 6 5 5 5 5 6 5 5 5 5 5 5 5 5 5 5 5 5 5 5 5 5 5 5 5 5 5 5 5 5 5 5 5 5 5 5 5 6 5 5 5 6 5 6 5 5 5 5 6 5 6 5 5 6 6 6 6 5 5 5 6 6 5 5 5 5 5 5 5 6 5 5 5 5 5 5 5 5 5 5 6 5 5 5 5 5 5 5 5 5 5 5 5 5 5 5 5 5 5 5 5 5 5 5 6 5 6 5 5 5 5 5 5 6 5 5 5 5 5 5 5 6 5 6 6 5 5 5 6 5 6 6 5 6 5 5 5 5 5 5 5 5 5 5 5 5 5 5 5 5 5 5 5 5 5 5 5 5 5 5 5 5 5 5 5 5 5 5 5 5 5 6 5 6 5 6 5 5 5 5 6 5 5 5 6 5 6 6 6 5 5 6 5 5 5 5 6 5 5 6 5 6 6 5 5 5 5 5 5 5 5 5 5 5 5 5 5 5 6 5 5 5 5 6 5 5 5 6 5 5 6 5 6 5 6 6 5 6 5 6 5 5 5 5 6 6 5 6 6 5 5 5 5 5 6 5 5 5 5 6 5 5 6 5 6 5 5 6 5 5 5 6 5 6 6 6 5 6 5 5 6 5 5 5 5 5 5 5 5 5 6 5 5 5 5 5 5 5 5 5 5 5 6 5 5 5 6 5 5 5 6 6 5 6 5 6 5 6 5 5 6 5 6 5 5 6 5 5 5 6 5 6 5 5 5 5 5 5 5 5 5 5 6 6 6 6 5 5 6 5 5 5 5 5 5 5 5 5 5 5 5 5 6 5 5 5 5 5 6 5 5 5 5 5 5 5 5 5 6 6 5 5 5 5 5 6 5 5 5 5 6 5 6 5 5 5 6 6 5 5 5 5 5 5 5 5 5 5 5 5 5 5 5 5 5 5 5 5 5 5 5 5 5 5 5 5 5 6 6 5 5 5 5 5 5 5 5 5 5 6 5 5 6 5 5 6 5 5 6 5 5 5 5 6 6 5 5 5 5 5 6 5 5 5 5 5 5 5 5 5 5 6 5 5 5 6 5 5 5 5 5 5 6 6 5 5 5 5 5 5 5 5 5 5 5 5 5 5 5 5 5 5 5 5 5 5 5 5 5 5 5 5 5 5 5 5 5 5 5 6 5 5 5 5 5 5 5 5 5 5 5 5 5 5 5 5 5 5 5 5 5 5 5 6 5 5 5 5 5 5 5 5 6 5 5 5 5 5 5 5 6 6 5 6 5 5 5 6 5 5 5 6 5 5 5 5 5 5 5 6 5 5 5 5 5 5 5 5 5 5 5 5 5 5 5 5 5 5 5 5 5 5 5 5 5 5 5 5 5 5 6 5 5 5 5 6 5 5 5 6 5 5 5 5 5 5 5 6 5 6 5 5 5 5 5 5 5 5 5 6 5 5 5 5 5 5 5 5 5 5 5 5 5 5 5 5 5 6 5 5 5 5 5 6 5 5 6 5 6 5 5 5 6 5 5 5 6 5 5 5 5 6 5 5 5 6 5 5 5 5 6 5 5 5 5 5 5 5 5 6 5 6 5 5 5 5 5 5 5 5 5 5 5 5 5 5 5 5 5 5 5 5 5 5 5 5 5 5 5 5 5 5 5 5 5 5 5 5 5 5 6 5 5 6 5 5 5 6 6 5 5 5 5 5 5 5 6 5 5 5 5 6 5 5 5 5 5 5 5 5 5 5 5 5 5 5 5 5 5 5 5 5 5 5 5 5 5 5 5 5 5 5 5 5 5 5 5 5 6 5 5 6 5 5 5 5 5 5 5 5 5 5 5 5 5 6 5 5 5 5 5 5 5 6 5 6 5 5 5 5 5 5 5 5 5 5 5 5 5 5 5 5 5 5 5 5 5 5 5 5 5 5 5 5 5 5 5 5 5 5 5 5 5 5 5 5 5 5 5 5 5 5 5 5 5 5 5 5 5 5 5 5 5 5 5 5 5 5 5 5 5 5 5 5 5 5 5 5 5 5 5 5 5 5 5 6 6 5 5 5 5 5 5 5 5 5 5 5 5 5 5 5 6 5 6 5 5 6 5 5 5 5 5 6 5 5 5 5 5 5 5 5 5 5 5 5 5 5 5 5 5 5 5 5 5 5 5 5 5 5 5 5 5 5 5 5 5 5 5 5 5 5 5 5 5 5 5 5 5 5 5 5 6 5 5 5 5 6 6 5 5 5 5 5 5 5 5 6 5 5 5 5 5 5 6 5 5 5 5 5 5 5 5 5 5 5 5 5 5 5 5 5 5 5 5 5 5 5 6 5 5 5 5 5 5 5 5 5 5 5 5 5 6 6 5 5 5 5 5 5 6 5 6 5 5 5 5 5 5 5 5 5 5 5 5 5 5 5 5 5 5 5 5 5 5 5 5 5 5 5 5 6 5 6 5 5 5 5 5 5 5 5 5 5 5 5 6 5 5 5 5 5 5 5 5 5 5 5 5 5 5 5 5 5 5 5 5 5 5 5 5 5 5 5 5 5 5 5 5 5 5 5 5 5 5 5 5 5 5 5 5 5 5 5 5 5 5 5 5 5 5 5 5 5 6 5 6 5 5 5 5 5 5 5 5 5 5 6 5 5 5 5 5 5 5 5 5 5 5 5 5 5 5 5 5 5 5 5 5 5 5 5 5 5 5 5 5 5 5 5 5 5 5 5 5 5 5 5 5 6 5 5 5 6 5 5 5 5 5 5 5 5 5 5 5 5 5 5 5 5 5 5 5 5 5 5 5 5 5 5 5 5 5 5 5 5 5 5 5 5 5 5 5 6 5 5 5 5 5 6 6 5 5 5 5 5 5 5 5 5 5 5 5 6 5 5 5 6 5 5 5 5 5 5 5 5 5 5 5 5 5 5 5 5 5 5 5 5 5 5 5 5 5 5 5 5 5 5 5 5 5 5 5 5 5 5 5 5 5 5 5 5 5 5 5 5 5 5 5 5 5 5 5 5 5 5 5 5 5 5 5 5 5 5 5 5 5 5 5 5 5 5 5 6 5 5 5 5 5 6 5 5 5 5 5 5 5 5 5 5 5 5 5 5 6 5 5 6 5 5 6 6 5 5 6 6 5 5 5 5 5 5 5 5 6 5 5 5 5 5 5 5 5 5 5 5 5 5 5 5 5 5 5 5 5 5 5 5 5 5 5 5 5 5 5 5 5 5 5 5 5 5 5 5 5 5 5 5 5 5 5 5 5 5 6 5 5 5 6 5 5 5 5 5 5 5 6 5 5 6 5 5 5 6 5 5 5 5 5 5 5 6 5 6 5 6 5 5 5 5 5 5 5 5 5 5 5 6 5 5 5 6 5 6 5 5 5 6 5 5 5 5 5 5 5 5 5 6 5 5 5 5 5 5 6 5 5 5 5 6 5 5 5 5 5 5 5 5 6 5 5 5 5 5 5 5 5 5 5 5 5 6 5 5 5 5 5 5 5 5 5 5 5 5 5 5 5 5 5 5 5 5 5 5 5 6 5 5 5 5 5 5 5 5 5 5 5 5 5 5 5 5 5 5 5 5 5 5 5 5 5 5 5 5 5 5 5 5 5 5 5 5 5 5 5 5 5 5 5 5 5 5 5 5 5 5 5 5 5 5 5 6 5 5 5 5 5 5 5 6 5 5 5 5 5 5 5 5 6 6 5 5 6 5 5 6 5 5 5 6 5 6 5 6 5 5 6 5 5 5 5 5 5 5 5 5 5 5 5 5 5 5 5 6 5 5 5 5 5 5 5 6 5 5 5 5 5 5 5 5 6 5 6 5 5 6 6 5 6 5 5 5 5 5 5 5 5 5 6 6 5 5 5 5 5 5 5 5 5 5 5 5 5 6 5 6 5 5 5 6 5 5 5 5 6 5 6 5 6 5 5 5 5 6 5 5 5 5 5 5 6 5 5 5 5 5 6 5 5 5 6 5 5 5 5 5 5 5 5 5 5 5 6 5 5 5 5 5 5 6 5 5 5 5 5 5 5 5 5 6 6 5 5 5 6 6 5 5 5 5 5 5 5 5 5 5 5 5 5 5 5 5 5 5 5 5 5 5 5 5 5 5 5 5 5 5 5 5 5 5 5 5 5 5 5 5 5 5 6 5 5 5 5 6 5 5 5 5 5 5 5 5 5 6 5 5 6 5 6 5 5 5 5 5 5 5 5 5 5 5 5 5 5 5 5 5 6 5 5 5 5 5 5 5 5 5 5 5 6 5 6 6 5 5 6 5 5 6 5 5 6 5 5 5 5 5 5 5 5 5 5 5 5 5 5 6 5 5 5 5 5 5 5 5 5 6 5 5 6 5 5 5 5 5 5 5 5 5 6 6 5 5 5 5 5 6 5 5 5 5 5 6 6 5 5 5 5 5 5 5 5 5 5 5 5 5 5 5 5 5 5 5 5 5 5 5 5 5 5 5 5 5 6 5 5 6 5 5 6 5 6 5 5 6 5 6 5 5 5 5 5 5 5 5 5 5 5 5 5 5 5 5 5 5 5 5 5 5 5 5 5 5 5 5 5 5 6 5 5 5 5 5 5 5 5 5 5 5 5 5 5 6 5 5 6 5 5 5 5 5 5 5 5 5 5 5 5 5 5 5 5 5 5 5 5 5 5 5 5 5 6 5 6 5 5 5 5 5 5 5 6 5 5 6 5 5 5 6 5 5 5 5 5 5 5 5 5 5 5 5 5 5 5 6 5 5 5 5 5 5 5 5 6 5 5 6 5 5 5 5 6 5 5 6 5 5 5 5 6 5 5 5 6 5 5 6 5 6 5 5 5 5 5 5 5 5 5 5 5 5 5 5 5 5 5 5 6 5 5 5 5 5 5 5 5 5 6 5 5 6 5 5 5 5 5 6 5 5 6 5 5 5 5 5 5 5 5 6 5 5 6 5 6 5 5 6 5 5 5 5 5 5 5 6 5 5 6 5 5 6 6 6 5 5 5 6 5 5 6 5 5 5 6 5 6 5 5 6 6 6 5 6 5 6 5 5 5 5 5 5 5 5 6 6 5 5 5 5 5 5 5 6 5 5 6 5 5 6 5 5 5 5 6 5 5 5 5 5 5 5 5 5 5 5 5 5 5 5 6 5 5 6 5 5 6 5 5 5 6 5 5 6 5 6 5 5 5 5 5 5 5 5 5 5 5 6 5 5 5 5 5 6 5 5 5 6 5 5 5 6 5 5 6 5 6 5 5 5 5 5 5 5 5 5 5 6 5 5 5 6 5 6 5 5 6 6 5 6 5 5 5 6 5 5 5 6 5 5 6 5 5 5 6 5 6 5 5 5 5 5 5 5 5 5 6 5 5 6 5 5 6 5 5 5 5 5 6 5 5 5 5 5 5 6 5 5 5 5 5 5 5 5 6 5 5 6 5 5 5 5 5 5 5 5 6 5 6 6 5 5 5 6 5 5 5 5 5 5 5 5 5 5 5 5 5 6 5 5 6 5 5 6 5 5 5 6 6 5 5 5 5 6 6 5 5 5 5 5 5 6 5 6 5 5 5 5 5 5 5 5 6 5 5 5 5 5 5 5 5 5 5 5 5 5 5 5 5 5 5 5 5 5 5 5 5 5 5 5 5 5 5 5 5 5 5 5 5 5 5 5 5 6 6 5 5 5 5 6 5 5 5 5 5 5 5 5 5 5 6 5 5 5 5 5 5 5 5 6 5 5 5 5 5 5 5 5 5 5 5 5 5 5 5 6 5 5 5 5 5 5 5 5 5 5 6 5 5 5 5 6 5 5 5 6 5 5 6 5 5 6 5 6 6 5 6 5 5 5 5 6 6 5 5 5 5 5 5 5 5 5 5 5 5 5 5 5 5 5 5 5 5 5 5 5 5 5 5 5 5 5 5 5 5 6 5 5 5 5 5 5 5 5 5 5 5 5 5 5 5 5 5 5 5 5 5 5 6 6 5 5 5 5 5 5 5 5 6 5 5 5 5 5 5 5 6 5 5 5 5 5 6 5 5 5 5 5 5 5 5 5 5 5 5 5 5 5 5 5 5 5 5 5 5 5 5 5 5 5 5 5 5 5 6 5 5 5 5 5 5 6 5 5 6 5 5 5 5 5 5 5 5 5 5 6 5 5 5 5 5 5 6 5 5 5 6 5 5 5 5 5 5 5 6 5 5 5 6 6 5 5 5 5 5 5 6 5 5 5 5 5 6 5 5 5 6 5 5 5 5 6 5 5 5 6 5 5 5 5 5 5 5 5 5 5 5 5 5 5 5 6 5 6 5 5 5 5 5 5 5 5 6 5 5 5 6 6 5 5 5 5 5 5 6 6 5 5 5 5 5 5 5 5 6 5 5 5 5 5 5 5 5 5 5 6 5 5 6 5 5 6 6 5 5 5 5 5 5 5 6 5 5 5 6 6 6 5 5 5 5 5 5 5 5 5 6 5 5 5 5 5 6 5 5 5 5 5 5 5 6 5 5 5 6 5 5 5 5 5 5 5 5 5 5 5 5 5 5 6 5 5 5 5 5 5 5 5 6 5 5 6 5 5 6 5 5 5 5 5 5 6 5 5 6 5 5 5 5 5 5 5 5 5 5 5 5 6 5 5 6 5 5 5 5 5 6 6 5 5 5 6 5 5 5 5 6 5 5 6 5 5 5 5 5 5 5 5 5 5 5 5 6 5 5 5 5 5 5 6 5 5 6 5 6 6 5 5 5 5 5 5 5 5 5 5 5 5 5 5 5 6 5 6 5 5 5 5 5 6 5 5 5 5 6 5 6 5 5 5 5 5 5 5 5 5 5 5 5 5 5 5 5 6 5 5 6 5 5 5 5 5 5 5 5 5 5 5 5 6 5 5 5 5 5 5 6 5 5 5 5 6 5 5 5 5 5 6 5 5 6 5 5 5 5 5 5 5 5 6 5 5 6 5 5 5 5 5 5 5 5 5 5 5 5 5 5 5 5 6 5 5 5 5 5 5 5 5 5 6 5 6 5 5 5 5 5 5 5 6 5 6 5 5 5 6 6 5 5 5 5 5 5 6 5 5 5 6 6 5 5 5 5 5 5 5 5 5 5 5 5 5 5 5 6 5 5 5 5 6 5 5 6 5 5 5 5 5 5 5 5 6 5 5 5 5 5 6 5 5 6 5 5 5 5 5 6 5 5 5 5 5 5 5 5 5 5 5 5 5 6 5 5 5 5 6 5 5 6 6 5 5 5 5 5 6 5 5 6 5 5 6 5 5 6 5 5 5 5 5 5 5 5 5 5 5 5 5 5 5 6 5 5 5 5 5 5 6 5 5 5 5 5 6 5 5 5 5 5 5 5 6 5 6 5 5 5 6 5 5 5 5 6 5 5 5 5 5 5 5 5 6 5 5 5 5 6 5 5 5 5 5 5 5 6 5 5 5 5 5 5 5 5 5 5 5 5 5 5 6 5 5 5 5 5 5 6 5 5 5 5 5 5 5 6 5 5 5 5 5 5 6 5 5 5 6 5 5 6 5 5 5 5 6 5 5 5 5 6 5 5 5 5 5 5 5 6 6 5 5 5 5 5 6 5 5 5 5 5 5 5 5 6 5 5 5 5 5 5 5 5 6 5 5 5 5 5 5 5 5 5 5 5 5 5 5 5 5 5 5 5 5 5 5 5 6 5 6 5 5 5 5 6 6 5 5 5 5 5 5 5 5 5 5 6 5 5 6 5 6 5 6 5 5 6 5 5 6 5 6 5 6 6 5 6 6 5 6 5 5 5 5 6 5 5 6 5 5 6 5 6 5 5 5 6 5 5 5 6 5 5 5 5 5 5 5 5 5 5 5 5 5 5 5 5 5 5 5 5 5 5 5 5 5 5 5 5 5 5 5 5 5 5 5 5 5 5 5 5 5 5 6 5 5 5 5 6 5 5 5 5 5 5 5 5 5 6 5 5 5 5 5 5 5 5 5 5 5 5 5 5 5 5 5 5 5 5 5 5 5 5 5 5 5 5 5 5 5 5 5 5 5 5 5 5 5 5 5 5 5 5 5 5 5 5 5 5 5 5 6 5 5 5 5 5 5 5 5 5 5 5 6 5 5 5 5 5 6 6 5 5 5 6 5 6 5 5 6 5 5 5 5 5 5 5 5 5 5 5 6 5 6 5 5 5 5 5 5 6 5 5 5 5 5 5 5 5 5 5 5 5 6 5 5 5 5 6 5 5 5 5 5 5 5 5 5 6 5 5 6 5 5 5 6 5 5 5 5 5 6 5 5 5 5 5 5 5 5 5 5 5 5 6 5 5 5 5 5 5 5 5 5 5 5 5 6 5 5 5 5 5 5 5 5 5 5 5 5 5 5 5 5 5 5 6 5 5 5 6 5 5 5 5 5 5 5 5 5 5 5 6 5 5 6 5 5 5 5 5 5 5 5 5 5 5 5 5 5 5 5 5 5 5 5 5 5 5 5 5 5 5 5 5 5 5 5 5 5 5 6 5 5 5 5 5 6 5 6 5 5 5 5 5 5 5 6 6 5 5 5 5 5 5 6 5 6 5 5 5 5 5 5 5 5 5 5 5 5 5 5 5 6 5 5 6 5 5 5 6 5 5 5 5 6 6 5 5 5 5 5 5 6 5 5 5 5 6 5 5 5 5 5 5 5 5 5 5 5 5 5 5 5 5 5 5 5 5 5 5 5 5 5 5 5 6 5 5 5 5 6 5 6 5 5 5 5 5 5 5 5 5 5 5 5 5 6 5 5 6 5 5 5 5 5 5 5 5 5 5 5 5 5 6 5 5 5 6 5 6 5 5 5 5 5 5 6 5 6 5 5 5 5 5 5 5 6 5 5 5 5 5 6 5 5 5 5 5 5 5 5 5 6 5 5 5 6 5 6 5 5 5 5 6 5 5 5 5 6 6 5 5 5 5 6 5 5 6 5 5 5 5 5 5 5 6 5 5 5 6 5 5 5 5 5 5 5 5 5 6 5 5 6 5 5 6 5 5 5 6 5 6 6 5 5 6 6 5 5 5 6 5 5 5 6 5 6 6 6 5 5 5 5 5 5 5 6 5 5 5 6 5 5 5 5 6 5 5 5 5 6 5 5 5 6 6 5 5 5 5 6 5 5 5 5 5 5 5 5 5 5 5 5 5 6 5 5 5 5 6 5 5 6 5 5 5 5 5 5 5 6 5 6 5 5 5 5 5 5 5 6 5 5 6 5 5 5 5 6 6 6 5 5 5 5 5 5 5 5 5 5 5 6 5 5 5 5 6 5 5 5 5 5 5 5 5 5 5 5 5 5 5 5 5 5 5 5 5 5 5 5 5 5 5 5 5 5 5 5 5 5 5 5 5 5 6 6 5 6 5 5 5 5 5 5 5 5 6 6 5 5 5 5 5 5 5 5 5 5 5 6 6 6 5 6 5 5 5 6 6 5 5 6 6 5 5 5 5 6 5 5 5 5 6 5 5 5 5 5 6 5 5 5 6 5 6 5 5 5 5 6 5 5 5 5 5 6 5 6 5 5 5 5 5 6 5 6 5 5 5 5 5 5 5 6 5 6 5 5 5 5 5 5 5 5 5 5 5 5 5 5 5 5 5 5 5 5 5 5 5 5 6 5 5 5 5 5 6 6 5 5 5 5 5 6 5 5 5 5 5 5 6 5 5 5 5 5 5 5 5 5 5 5 5 5 5 5 5 5 5 5 5 5 5 5 6 5 5 5 6 5 6 5 5 5 5 6 6 5 6 5 6 5 5 5 5 5 5 5 5 5 5 5 5 5 5 5 5 5 5 5 5 5 5 6 5 5 5 5 6 5 5 5 5 5 5 5 5 5 6 5 5 5 5 5 5 5 5 5 5 5 5 5 5 5 5 5 5 5 5 5 5 6 5 5 5 5 5 6 5 5 5 5 6 5 5 5 6 5 5 6 5 5 5 5 5 6 5 6 6 5 5 5 5 5 5 6 5 5 6 5 6 5 5 6 5 5 5 6 5 5 5 5 5 6 5 5 6 5 5 6 5 5 5 5 5 6 5 5 5 5 5 5 5 5 5 5 5 6 6 5 6 5 5 6 5 5 5 6 5 6 5 5 6 5 5 5 6 5 5 5 5 6 6 5 5 5 5 5 5 5 6 5 5 5 5 5 5 6 5 5 5 5 5 5 5 5 5 5 5 5 5 5 5 5 5 5 5 5 5 5 5 5 5 5 5 5 5 5 5 6 6 5 5 5 5 5 5 5 5 5 5 5 5 5 5 5 5 5 5 5 5 5 5 5 5 5 5 5 5 5 5 5 5 5 5 5 5 5 5 5 5 5 5 5 5 5 6 5 5 5 5 5 5 5 5 5 5 5 5 5 5 5 6 5 5 5 5 5 5 6 6 5 5 5 5 5 5 6 6 6 5 5 5 6 5 6 5 5 5 5 5 5 5 5 5 5 5 5 5 5 6 5 5 5 5 5 6 5 6 5 6 5 5 5 5 5 5 5 5 5 5 5 5 5 5 6 5 5 6 5 5 5 5 5 5 5 5 5 5 5 6 5 5 6 5 5 6 5 5 5 5 5 5 5 5 5 5 5 5 5 5 5 5 5 5 5 5 5 5 6 5 5 6 6 5 6 5 6 5 5 5 6 6 5 5 6 5 6 5 5 6 6 5 5 5 5 5 5 6 5 5 5 5 5 5 6 5 5 6 5 6 5 5 5 5 5 5 5 5 6 5 5 5 6 5 5 5 5 6 5 5 5 5 5 5 5 5 5 5 6 5 5 5 5 6 5 5 6 5 5 6 5 5 6 5 5 5 5 5 5 5 5 6 5 5 6 5 5 5 5 5 5 5 5 5 5 6 5 6 5 5 5 5 6 5 5 5 5 5 5 5 5 5 5 5 5 5 5 5 5 5 5 5 5 6 5 6 5 5 5 5 5 5 5 5 5 5 5 6 5 6 6 5 5 5 5 5 5 5 5 5 5 5 6 5 5 5 5 5 5 6 5 6 5 6 5 5 5 6 6 5 6 5 6 5 5 6 5 5 5 6 5 5 5 5 6 5 5 5 5 6 6 5 5 5 5 5 6 5 5 5 5 5 5 5 5 5 5 5 5 6 5 5 5 5 5 5 5 5 5 5 5 6 5 5 5 5 5 6 5 5 5 5 5 6 5 5 5 5 5 6 5 5 6 5 5 5 6 5 6 5 6 5 5 5 6 5 5 6 6 5 5 5 5 5 5 6 5 5 5 5 6 5 5 5 5 5 5 5 5 5 5 5 5 5 5 5 5 6 5 5 6 5 5 5 5 5 6 5 5 5 5 6 5 6 5 5 5 5 5 5 5 5 5 5 6 6 6 5 6 5 5 5 5 5 5 5 5 5 5 5 5 5 6 5 5 5 5 5 5 5 5 5 5 5 5 6 6 5 5 5 6 5 6 5 5 5 5 5 5 5 5 5 5 5 5 5 6 5 6 5 5 5 5 5 5 5 6 5 5 5 5 5 5 5 6 5 5 5 5 5 5 5 5 5 5 5 5 5 5 5 5 5 5 5 5 5 5 5 5 5 6 6 5 5 5 5 5 5 5 5 5 5 5 5 5 5 6 5 5 6 5 5 5 5 5 5 5 5 5 5 5 5 5 5 5 5 5 5 5 5 5 5 5 6 5 6 5 5 5 5 5 6 5 5 5 5 5 5 5 5 5 5 5 5 5 5 5 5 5 5 5 5 5 5 5 6 5 5 5 5 5 5 6 5 5 5 5 5 5 5 6 5 5 5 6 5 5 5 5 5 5 6 5 5 5 5 5 6 5 5 5 5 5 5 5 5 5 6 5 5 5 6 5 5 5 5 5 5 6 5 5 5 6 5 5 5 5 5 5 5 5 5 5 5 6 5 6 5 5 5 6 5 5 6 6 5 5 5 5 5 5 5 6 5 5 5 6 5 5 6 6 5 6 5 5 5 6 5 5 5 5 5 5 5 5 6 6 5 5 5 5 6 5 5 5 5 5 5 5 5 5 5 5 5 5 5 5 5 5 5 5 5 5 5 5 5 5 5 5 5 5 5 5 5 6 5 5 5 5 5 5 6 5 5 5 5 5 5 5 5 5 6 5 5 5 5 5 5 5 5 5 5 5 5 5 5 5 5 5 5 5 5 5 5 5 5 5 6 5 5 5 5 5 5 5 5 5 5 5 5 6 5 5 5 6 5 5 5 5 5 5 5 5 5 5 5 5 5 5 5 5 5 5 5 5 5 5 6 5 5 6 5 6 5 5 5 5 5 5 6 5 5 5 5 5 5 5 5 5 5 5 5 5 5 5 5 5 5 5 5 6 5 5 5 6 5 5 5 5 5 6 5 5 5 5 6 5 5 6 5 5 5 5 5 5 5 5 5 5 5 5 5 5 5 5 5 6 6 5 5 5 5 5 5 5 5 5 5 5 5 5 6 5 6 5 5 5 5 5 5 5 5 5 5 5 5 5 5 5 5 5 5 5 5 5 5 5 5 5 5 5 6 5 5 5 5 5 5 6 5 5 5 5 5 5 5 5 5 6 5 5 5 5 6 5 5 5 5 5 5 5 5 5 5 5 5 5 5 5 5 5 5 5 5 5 5 5 5 6 5 5 6 6 5 5 5 5 5 5 5 5 5 6 5 5 5 5 6 5 5 5 5 5 6 5 5 5 6 5 5 6 6 6 5 5 5 5 6 5 5 6 6 5 6 5 5 5 6 5 5 6 6 5 5 5 5 5 5 5 5 5 5 5 5 5 6 5 5 5 5 5 5 5 6 5 5 5 5 5 5 5 5 6 5 5 5 5 5 5 5 5 5 5 5 5 5 5 5 5 5 5 5 5 5 5 5 5 5 5 6 5 5 5 5 5 5 5 5 5 5 5 5 6 5 5 5 5 5 5 5 5 5 5 5 5 6 5 5 5 5 5 5 5 5 5 5 5 5 5 5 5 5 5 5 5 5 5 5 5 5 5 5 5 5 5 5 5 5 5 5 5 5 6 5 5 5 5 5 6 5 6 5 6 6 5 5 5 5 5 5 5 6 5 5 5 5 5 5 5 5 5 5 5 5 5 5 5 5 5 5 5 5 6 5 5 5 5 6 5 6 5 5 5 5 5 5 5 5 5 6 5 5 5 5 5 5 6 5 5 6 5 5 5 5 5 5 6 5 5 5 5 5 5 5 5 5 5 5 5 5 5 5 5 5 5 5 5 5 5 5 5 5 5 5 5 5 5 5 5 5 5 5 5 6 5 5 5 5 6 5 5 5 5 5 6 5 6 5 5 5 5 5 5 5 5 5 5 5 5 5 5 5 5 5 5 5 5 5 5 5 5 5 5 5 5 6 6 5 5 5 5 5 5 5 5 5 5 5 5 6 5 5 5 5 5 5 5 5 5 5 5 5 5 5 6 5 5 6 5 5 5 5 5 5 6 5 5 5 5 5 6 5 5 5 5 6 5 6 5 5 5 5 5 5 5 5 5 5 6 5 6 6 5 5 5 5 6 5 5 6 5 5 5 6 5 5 5 5 5 5 5 5 5 6 5 6 5 5 5 5 5 5 6 5 6 5 5 5 6 5 5 5 5 5 5 5 5 6 5 5 5 5 5 6 6 5 5 5 5 6 6 6 5 5 6 5 5 5 5 5 5 5 5 5 6 5 5 5 5 6 6 6 5 5 5 5 5 5 6 5 5 6 5 5 5 5 5 5 5 5 5 6 5 6 5 6 5 5 5 5 5 5 6 5 5 5 6 6 5 5 5 5 5 5 5 5 5 5 5 5 5 5 5 5 5 5 5 5 6 5 5 5 5 5 5 5 5 6 5 6 5 6 5 5 5 6 5 5 5 5 5 5 6 5 5 5 6 5 5 5 5 5 6 5 5 5 5 6 5 5 5 6 5 5 6 5 5 6 5 5 5 5 5 6 5 6 5 5 5 5 5 5 5 5 5 5 5 5 5 5 6 5 5 6 6 5 5 5 5 5 5 5 5 5 5 5 5 5 5 5 6 5 5 5 5 5 5 5 5 5 5 5 5 5 5 5 5 5 5 5 5 5 5 5 5 5 5 5 5 5 6 5 5 5 5 5 5 5 6 5 5 5 5 5 6 5 5 5 5 5 6 5 5 5 5 5 5 5 5 5 5 6 5 6 5 5 5 5 5 5 5 5 5 5 5 5 5 6 5 5 5 5 5 5 6 5 5 5 5 5 5 5 5 5 5 5 5 5 5 5 5 5 5 5 5 5 5 5 5 6 6 5 5 6 5 5 6 5 5 5 5 5 5 6 5 5 5 5 5 5 5 6 6 5 5 5 5 5 5 5 5 5 5 5 5 5 5 5 5 5 5 5 5 5 5 5 5 5 5 5 5 5 5 5 5 5 5 5 5 5 5 5 5 5 5 5 5 6 5 5 5 5 5 5 5 5 5 5 5 6 5 5 5 5 5 5 5 5 5 5 5 5 5 5 5 5 5 5 5 5 5 5 5 5 5 5 5 5 5 5 5 5 5 5 5 6 5 6 5 5 5 5 5 5 5 6 5 6 5 5 5 5 6 5 5 5 5 5 5 5 5 5 5 5 5 5 5 5 5 5 5 5 5 5 5 5 5 6 5 5 5 5 5 5 5 5 5 5 5 5 5 5 5 5 5 5 5 5 5 5 5 5 5 5 5 5 5 5 5 5 5 5 5 5 5 5 5 5 5 5 5 5 5 5 5 5 5 5 5 5 5 6 5 5 5 5 5 5 5 5 5 5 5 6 6 5 5 5 5 5 5 5 5 5 5 5 5 5 5 5 5 5 5 5 5 6 5 5 5 6 5 6 6 5 5 5 5 5 5 5 5 5 5 6 5 5 5 5 5 5 5 5 5 5 5 5 5 5 5 5 5 5 5 5 5 5 5 5 5 5 5 5 5 5 5 5 5 5 5 5 5 5 5 5 5 5 5 6 5 5 5 5 5 6 5 5 6 5 5 5 5 5 5 5 5 5 5 5 5 5 6 5 5 5 5 5 5 5 5 5 5 5 5 6 5 5 5 5 5 5 5 5 5 6 5 6 5 5 5 6 5 5 6 5 5 5 5 5 5 5 5 5 5 5 5 5 5 5 5 5 5 5 5 5 5 5 5 5 5 5 5 5 5 5 5 5 5 5 5 6 5 6 5 5 5 5 6 5 6 5 5 5 5 6 5 5 5 5 6 5 5 5 6 5 5 5 5 6 5 5 5 5 5 5 6 5 5 6 5 6 6 5 5 6 5 5 6 5 5 6 5 6 5 5 5 5 5 6 6 6 5 5 5 6 5 5 5 5 6 6 5 5 5 5 5 5 5 5 5 5 5 5 5 5 5 6 5 6 5 6 5 6 6 5 6 5 5 5 5 6 5 5 5 5 6 6 5 5 5 5 5 5 5 5 5 5 5 5 5 5 5 5 5 5 5 5 5 5 6 6 5 5 5 5 5 6 5 5 5 5 5 6 5 5 5 5 5 5 5 5 5 5 5 5 5 5 6 5 5 5 6 5 6 6 6 5 5 5 5 6 6 5 5 5 5 6 6 6 5 5 5 5 6 5 5 5 5 5 5 5 5 5 5 5 5 5 6 5 5 6 5 6 5 5 6 5 5 5 5 5 5 6 5 5 5 5 5 5 5 5 5 5 5 5 6 5 5 5 5 5 5 5 5 5 6 5 5 5 6 5 5 5 6 5 5 5 6 6 5 5 6 5 6 5 5 6 5 5 5 5 5 5 5 5 6 5 5 5 5 5 5 6 5 5 5 5 5 6 5 5 5 5 5 5 5 5 5 5 5 5 5 5 5 6 5 5 6 5 5 5 6 5 5 5 6 5 5 5 5 5 5 5 6 5 6 5 5 5 5 5 5 5 5 5 5 5 5 5 5 5 5 5 5 5 5 6 5 5 5 5 5 5 5 5 5 5 6 5 6 5 5 5 5 5 6 5 6 5 5 5 5 5 5 6 5 5 5 5 5 5 6 5 5 5 5 5 5 5 5 5 6 6 5 5 5 5 5 5 5 6 5 5 6 5 5 5 5 5 5 5 6 5 5 5 5 5 5 5 5 6 5 6 5 5 5 5 5 5 5 5 5 5 5 5 5 5 5 5 5 5 5 5 5 5 5 5 5 5 5 5 5 5 5 5 5 5 5 5 5 5 5 5 5 5 5 5 5 5 5 5 5 5 5 5 5 5 5 5 6 5 5 5 5 5 5 5 5 6 5 5 5 5 5 5 5 5 6 5 5 5 5 5 6 5 6 5 5 5 5 5 6 5 5 5 5 6 5 5 5 5 5 5 5 5 6 5 5 5 6 6 5 5 6 5 5 5 5 5 5 6 5 6 5 5 5 5 5 5 5 5 5 5 5 5 5 5 5 5 5 5 5 5 5 5 5 5 5 5 5 5 5 5 5 5 5 5 5 5 5 5 5 6 5 5 5 5 5 
</DataArray>
<DataArray type="Float64" Name="stress" NumberOfComponents="9" format="ascii">
1547.8872778847654 -81.624185348469368 0 -81.624185348469368 -0.24756363569972184 0 0 0 0 3604.6287603918936 -165.59647508306614 0 -165.59647508306614 -224.71468835874293 0 0 0 0 3496.9295603709579 -337.36325058167967 0 -337.36325058167967 10.571476511184613 0 0 0 0 3476.2956777007712 -391.8599464059514 0 -391.8599464059514 532.5142324571782 0 0 0 0 4119.548239531061 -255.45753447265702 0 -255.45753447265702 -361.5158819619619 0 0 0 0 332.57022499221057 -260.54853039968975 0 -260.54853039968975 -260.53157579769959 0 0 0 0 1166.063598577457 -80.073729929802028 0 -80.073729929802028 47.466854879583252 0 0 0 0 30.66119639427535 -17.567247150438305 0 -17.567247150438305 3.264300409574775 0 0 0 0 2856.5462469851627 1775.6107296159707 0 1775.6107296159707 473.99559425222202 0 0 0 0 13.303280727941029 -5.5557758992248267 0 -5.5557758992248267 3.8063792484735162 0 0 0 0 -235.64468757442955 -234.3791278263717 0 -234.3791278263717 477.7212280834168 0 0 0 0 857.03025584523857 -892.02567534703144 0 -892.02567534703144 425.07803507610254 0 0 0 0 -67.227134994929656 -203.40819526094273 0 -203.40819526094273 264.93965488452602 0 0 0 0 349.39678489382095 223.45450035901123 0 223.45450035901123 99.923644973945756 0 0 0 0 360.18003179910011 -40.338698043267641 0 -40.338698043267641 -27.161225078223509 0 0 0 0 274.22420685563702 132.48413149176255 0 132.48413149176255 -345.93083997920326 0 0 0 0 292.75650434050476 75.207569037400845 0 75.207569037400845 -178.59864363654316 0 0 0 0 417.52047353265516 -99.325051991918599 0 -99.325051991918599 -43.99292378970253 0 0 0 0 434.60254336803337 -164.17360674790146 0 -164.17360674790146 -0.95182079994819446 0 0 0 0 0.82093186313070987 -0.067099841462635368 0 -0.067099841462635368 -1.0490641357156552 0 0 0 0 329.06229855948186 -120.81050336253162 0 -120.81050336253162 25.82599901459934 0 0 0 0 372.56247842580706 -83.784402110632811 0 -83.784402110632811 -38.02676116879914 0 0 0 0 371.3463911996223 -85.558030299099471 0 -85.558030299099471 -5.5259442303939466 0 0 0 0 384.82333721697069 -65.847887017791265 0 -65.847887017791265 -64.388859648108649 0 0 0 0 398.9960982007251 -88.871650122370994 0 -88.871650122370994 -37.217220128440687 0 0 0 0 352.17829869297566 -59.620524274679084 0 -59.620524274679084 -33.550651000893566 0 0 0 0 448.37672803658643 -86.452939202902371 0 -86.452939202902371 -58.790975937004873 0 0 0 0 330.30679431618773 22.19246062614458 0 22.19246062614458 -48.949112859105355 0 0 0 0 408.80048105459718 -114.41584840821248 0 -114.41584840821248 -51.841419444026599 0 0 0 0 -276.20626408804674 91.205960030878941 0 91.205960030878941 102.69088653259212 0 0 0 0 200.52485331947537 -21.858490307732588 0 -21.858490307732588 -5.5632283410654964 0 0 0 0 -0.01951335036434898 -0.38847358116731812 0 -0.38847358116731812 -4.3287869068772116 0 0 0 0 226.60800322201976 -64.824619580111943 0 -64.824619580111943 -19.204237368214891 0 0 0 0 148.93847364744579 297.63430100431424 0 297.63430100431424 -121.61225558494471 0 0 0 0 9.5171684664472878 -8.5864332887485375 0 -8.5864332887485375 -7.3980786792802151 0 0 0 0 47.971238071433618 20.408244910169884 0 20.408244910169884 33.169670256933841 0 0 0 0 132.92759427383135 -178.29286022660108 0 -178.29286022660108 -700.76379874808208 0 0 0 0 33.3959247249486 -23.364183918864939 0 -23.364183918864939 10.315439920535551 0 0 0 0 92.9742928878768 146.15665296681337 0 146.15665296681337 87.123233587185609 0 0 0 0 55.031188269029371 -68.925410853667245 0 -68.925410853667245 10.888855776772601 0 0 0 0 -182.80388594485703 -837.57503466108426 0 -837.57503466108426 582.05780054618708 0 0 0 0 -129.08822489286831 164.05041625532476 0 164.05041625532476 -232.67231794648114 0 0 0 0 238.80203699722188 89.63376924872523 0 89.63376924872523 -324.16873091353409 0 0 0 0 107.98419413811644 -7.5109928621668587 0 -7.5109928621668587 -333.35671493960848 0 0 0 0 229.76257679089758 107.64162840469044 0 107.64162840469044 -496.90990709687776 0 0 0 0 323.1549571348005 51.079701797938469 0 51.079701797938469 -719.5198465782878 0 0 0 0 593.60710368454602 -164.53462218640558 0 -164.53462218640558 -42.461691116342081 0 0 0 0 493.62216874936712 -62.999962628658011 0 -62.999962628658011 -57.966321595525073 0 0 0 0 554.36821809704998 -2.870683035372906 0 -2.870683035372906 -50.535544099675867 0 0 0 0 12.062440707144447 -9.1856963896339039 0 -9.1856963896339039 7.6003603783539209 0 0 0 0 551.68084788775013 251.8686230180171 0 251.8686230180171 72.096163860975253 0 0 0 0 980.50104644600651 -201.69684431185226 0 -201.69684431185226 -18.712485071673768 0 0 0 0 -78.544082374573918 -862.4355406008292 0 -862.4355406008292 232.14441677334253 0 0 0 0 1131.1564717725851 169.92622977385975 0 169.92622977385975 83.543893970405946 0 0 0 0 621.47943580462015 -194.29025451672976 0 -194.29025451672976 92.371433911063832 0 0 0 0 1492.2222392476106 -667.89507189982737 0 -667.89507189982737 339.55469439037211 0 0 0 0 578.6744945919836 -543.07812386789703 0 -543.07812386789703 535.21728990001111 0 0 0 0 354.61050252818677 367.0603785491918 0 367.0603785491918 -876.89624437439011 0 0 0 0 -76.389309714431874 45.910338746167852 0 45.910338746167852 365.67392671088714 0 0 0 0 388.96396971640934 -712.39637829713593 0 -712.39637829713593 1391.2424695703603 0 0 0 0 -289.26187384413788 618.94299921808158 0 618.94299921808158 778.37677835944169 0 0 0 0 -95.671000171278138 -346.21446797686292 0 -346.21446797686292 -591.88574728252922 0 0 0 0 1045.0440634135884 -1251.9078931355152 0 -1251.9078931355152 67.444702796352942 0 0 0 0 79.330119340216811 -16.339386196437488 0 -16.339386196437488 0.28132579223405463 0 0 0 0 103.6037773861899 78.234653971844409 0 78.234653971844409 -108.30670573146836 0 0 0 0 93.674133011649246 20.435836990004191 0 20.435836990004191 -145.84565802780662 0 0 0 0 33.161001962595037 49.455939192619553 0 49.455939192619553 4.6316477711789048 0 0 0 0 424.38874862025841 -57.723316203658214 0 -57.723316203658214 -158.79565012062767 0 0 0 0 134.82072630166704 -146.12631759444267 0 -146.12631759444267 -183.97560958386885 0 0 0 0 177.96873624630098 162.40290068008926 0 162.40290068008926 -14.255937806715338 0 0 0 0 473.27850215297076 -333.63924940185939 0 -333.63924940185939 174.34432475181416 0 0 0 0 225.7287779260223 -417.51389345035977 0 -417.51389345035977 692.9094529693341 0 0 0 0 572.28441150329309 -613.86348030969725 0 -613.86348030969725 399.16977720414002 0 0 0 0 322.46859240905815 -273.33414682456572 0 -273.33414682456572 212.93307408443661 0 0 0 0 489.02143008791609 -329.81999560665076 0 -329.81999560665076 482.18934263683434 0 0 0 0 291.16765521184061 -415.41233880901791 0 -415.41233880901791 448.23397417656679 0 0 0 0 1111.2729326990084 -1415.6167359931744 0 -1415.6167359931744 836.99758756136578 0 0 0 0 299.40130298704025 -621.82711073711346 0 -621.82711073711346 800.32943743961732 0 0 0 0 1682.6242857626639 -1034.8048349590993 0 -1034.8048349590993 521.22673175630575 0 0 0 0 18.222497164957247 -4.2461357461390747 0 -4.2461357461390747 -4.413634301276308 0 0 0 0 1489.9314738517278 -1397.4801759837214 0 -1397.4801759837214 800.5438759361391 0 0 0 0 1653.4882423289855 -978.53617500830273 0 -978.53617500830273 872.83958004865735 0 0 0 0 1525.607479064056 -1616.4178386902242 0 -1616.4178386902242 1905.5907446379417 0 0 0 0 2.4344842141769618 6.5296513955866189 0 6.5296513955866189 -1.6184947435831958 0 0 0 0 674.50878330206615 -455.60406101308331 0 -455.60406101308331 886.90860291652609 0 0 0 0 497.53129136518692 -737.82100233240021 0 -737.82100233240021 1012.9617250515928 0 0 0 0 451.02571859007003 -635.34790759574844 0 -635.34790759574844 742.39927586613373 0 0 0 0 557.25131318272906 -671.28955766121942 0 -671.28955766121942 615.46392707266068 0 0 0 0 692.14153871117742 -896.70785093540098 0 -896.70785093540098 746.50360045195418 0 0 0 0 38.813272952980412 13.387732409034257 0 13.387732409034257 -13.523299849729984 0 0 0 0 49.926871920873964 6.6676034912782143 0 6.6676034912782143 -18.597166730628487 0 0 0 0 58.265242034307448 24.834909181434796 0 24.834909181434796 -44.258696532840077 0 0 0 0 27.466023327200674 34.84869309430087 0 34.84869309430087 -18.324953588651624 0 0 0 0 770.20063001196831 -779.14225174278874 0 -779.14225174278874 575.26973889733483 0 0 0 0 376.68683604657417 -601.66494128310433 0 -601.66494128310433 633.90628580723524 0 0 0 0 559.47811749111861 -591.95500456944944 0 -591.95500456944944 585.38276688551582 0 0 0 0 787.60640097710711 -558.42807205663996 0 -558.42807205663996 373.02428755497158 0 0 0 0 3500.9190962204048 -565.0745574993573 0 -565.0745574993573 -297.70132142441457 0 0 0 0 1068.4427464783003 -836.25588810886472 0 -836.25588810886472 594.95717743625471 0 0 0 0 578.10830719713704 -426.36664701533277 0 -426.36664701533277 138.0069729071763 0 0 0 0 441.94019638692407 -317.46218438507208 0 -317.46218438507208 283.47788741305487 0 0 0 0 1117.399406841665 268.76567256443565 0 268.76567256443565 -889.42537471546302 0 0 0 0 361.37219022352838 105.3428329554033 0 105.3428329554033 -547.45309896273739 0 0 0 0 1679.4405481630129 -413.27625724208519 0 -413.27625724208519 -190.85262218403312 0 0 0 0 1575.9338114108359 -338.47372556131756 0 -338.47372556131756 -174.38908107171267 0 0 0 0 3029.6734442646703 -248.93603404714236 0 -248.93603404714236 -500.00463287870622 0 0 0 0 3037.2660973465026 -144.25049484693932 0 -144.25049484693932 -829.51210795070119 0 0 0 0 3536.3252515519325 -495.83018161177938 0 -495.83018161177938 -682.07334739543876 0 0 0 0 3242.3178921929102 130.90575115919904 0 130.90575115919904 -531.67817910211056 0 0 0 0 801.63344859749486 143.14688204363927 0 143.14688204363927 135.15605266029388 0 0 0 0 -46.854494832969067 54.908010369454701 0 54.908010369454701 -492.23323717028416 0 0 0 0 15.455471751135747 -8.1331760924177416 0 -8.1331760924177416 -13.694963778392877 0 0 0 0 -278.47779284699936 1045.2281937777673 0 1045.2281937777673 -858.91554460304746 0 0 0 0 3.3294103212314212 0.57011509690461537 0 0.57011509690461537 -6.1074343884409608 0 0 0 0 -28.253462435677648 135.49832334180746 0 135.49832334180746 -376.93703028374193 0 0 0 0 2520.2317621744405 -474.2026346822048 0 -474.2026346822048 -193.37649464361948 0 0 0 0 2489.4266404641457 -285.49089332531992 0 -285.49089332531992 -468.64830681889686 0 0 0 0 690.69021309703385 -89.572880222800293 0 -89.572880222800293 -1.0196268487742373 0 0 0 0 332.53526437866094 -48.39941057298563 0 -48.39941057298563 59.550705610309592 0 0 0 0 293.06091564384406 -34.658738925442051 0 -34.658738925442051 40.822590166938085 0 0 0 0 510.48014941639849 10.337088220892127 0 10.337088220892127 -18.464953299667002 0 0 0 0 510.20215944738425 -6.6232898340518878 0 -6.6232898340518878 76.989419960943451 0 0 0 0 493.2717404644136 13.76158967835006 0 13.76158967835006 64.54086113210694 0 0 0 0 454.68916612953035 78.729806291961381 0 78.729806291961381 -16.506712207032109 0 0 0 0 120.84526398949674 -41.650880048850787 0 -41.650880048850787 0.081932114113951682 0 0 0 0 287.85181598860072 -77.48708491402661 0 -77.48708491402661 -37.334439174633147 0 0 0 0 299.10120110198909 -47.537561601720938 0 -47.537561601720938 1.4376805058149387 0 0 0 0 10.801560530586951 -1.420870737703666 0 -1.420870737703666 0.13848954507919742 0 0 0 0 91.805025094938173 -22.784839231223 0 -22.784839231223 -0.39988969149787579 0 0 0 0 12.348051547202971 -3.1260691651565367 0 -3.1260691651565367 0.16983691596083894 0 0 0 0 56.161620353108447 19.664436361970644 0 19.664436361970644 32.686287370714808 0 0 0 0 7.0944146085267992 -45.861413554731627 0 -45.861413554731627 11.293345301482299 0 0 0 0 378.33209907280343 -50.757011462750029 0 -50.757011462750029 2.7825949880862026 0 0 0 0 -28.68081322668877 -22.147794466125561 0 -22.147794466125561 66.505360204266026 0 0 0 0 139.65122091428202 -68.926904052097882 0 -68.926904052097882 -7.6493332858549081 0 0 0 0 38.062616427954623 36.988062783814101 0 36.988062783814101 -11.987945840575593 0 0 0 0 238.3615694448672 41.703989740091146 0 41.703989740091146 21.888406890373517 0 0 0 0 130.17362631129799 -42.259456737193773 0 -42.259456737193773 44.834763799498177 0 0 0 0 314.60745014936401 5.2563481024068324 0 5.2563481024068324 -25.787713862545729 0 0 0 0 30.475067857274553 -96.843090970053709 0 -96.843090970053709 -25.634725064040971 0 0 0 0 112.16097072797129 12.830895945869713 0 12.830895945869713 -20.600275247120635 0 0 0 0 320.08710954943672 -66.311786619539902 0 -66.311786619539902 0.20809329754464212 0 0 0 0 291.51082902464987 -46.981963003483315 0 -46.981963003483315 39.422157284930563 0 0 0 0 28.429443630021552 39.653646872312237 0 39.653646872312237 -12.039687088036963 0 0 0 0 186.8530583504762 -31.411818459995061 0 -31.411818459995061 2.0704339557186131 0 0 0 0 123.91118091740645 -25.469438987563393 0 -25.469438987563393 36.468515075487261 0 0 0 0 191.1808643546683 -84.794376738454133 0 -84.794376738454133 43.632816381977733 0 0 0 0 215.17502576247352 -80.12338841995971 0 -80.12338841995971 19.421382681338002 0 0 0 0 246.88919320134664 -96.58092663724301 0 -96.58092663724301 24.011233309396914 0 0 0 0 228.65965820624842 -61.341794103749251 0 -61.341794103749251 12.726947428641182 0 0 0 0 195.0339770441642 -30.595996191427744 0 -30.595996191427744 19.28003813968769 0 0 0 0 238.05284845546703 -52.995912289809127 0 -52.995912289809127 9.2387276420611499 0 0 0 0 206.45026599350967 -51.558419928016235 0 -51.558419928016235 17.994809792202688 0 0 0 0 216.67335625598207 -29.264913237953579 0 -29.264913237953579 5.4547823404931819 0 0 0 0 273.69532980053191 -77.24005373391293 0 -77.24005373391293 0.20872454526907802 0 0 0 0 264.3188596132386 -32.230611848406568 0 -32.230611848406568 4.5392111769609755 0 0 0 0 248.69513960969198 -69.985285800710116 0 -69.985285800710116 16.422475196503427 0 0 0 0 278.93234790427232 -61.420639898344362 0 -61.420639898344362 -0.045222808148196791 0 0 0 0 279.54171964234411 -65.102501891914201 0 -65.102501891914201 13.104117211315724 0 0 0 0 295.70180951354268 -84.518390648386102 0 -84.518390648386102 2.6095355163521674 0 0 0 0 318.78097653401346 -107.24092303870535 0 -107.24092303870535 -11.067012274020527 0 0 0 0 357.7435312858579 -78.817231670110246 0 -78.817231670110246 -23.411514530021542 0 0 0 0 360.01188622748305 -114.39910907626572 0 -114.39910907626572 -33.252408246328514 0 0 0 0 360.71319267152285 -120.59869344149079 0 -120.59869344149079 -6.861578176304505 0 0 0 0 268.81572556496394 -125.28214627504462 0 -125.28214627504462 30.697490674655967 0 0 0 0 269.49727293288015 -124.25294033108173 0 -124.25294033108173 20.953953422143513 0 0 0 0 423.08327186978568 -134.65927112823957 0 -134.65927112823957 -27.781026137239621 0 0 0 0 348.90995234814181 -185.20252210321814 0 -185.20252210321814 50.2835396214127 0 0 0 0 245.78119288674498 -144.50073073761075 0 -144.50073073761075 54.229790385174724 0 0 0 0 391.28485675944103 -292.50180876133038 0 -292.50180876133038 170.20741046901554 0 0 0 0 159.06728166712855 -97.575675717620356 0 -97.575675717620356 62.331565387490997 0 0 0 0 239.23712500478723 -146.02352734227043 0 -146.02352734227043 81.655196930312513 0 0 0 0 71.984005211321346 -38.457703452965006 0 -38.457703452965006 122.99227026919453 0 0 0 0 185.11590254228213 -151.71213052200153 0 -151.71213052200153 174.08703247716844 0 0 0 0 183.98383763391757 -149.21137948094298 0 -149.21137948094298 188.91454901671676 0 0 0 0 63.834186164996936 -53.104631227382399 0 -53.104631227382399 10.079292868433953 0 0 0 0 -36.361115636711475 64.259646844513298 0 64.259646844513298 130.58098532770003 0 0 0 0 92.767911109300087 -18.652454449378961 0 -18.652454449378961 2.9577795442018604 0 0 0 0 32.608337868427043 -105.16400105190451 0 -105.16400105190451 -67.253624495959343 0 0 0 0 95.289813530849955 -11.491320445433852 0 -11.491320445433852 -1.4849829719728407 0 0 0 0 90.909712056534772 90.916012641480989 0 90.916012641480989 -148.49859200421403 0 0 0 0 39.025762387047905 35.630458251188401 0 35.630458251188401 -13.409617930591789 0 0 0 0 106.39856895549019 96.444619701271222 0 96.444619701271222 48.791009302377461 0 0 0 0 77.191370954940794 57.43384109065898 0 57.43384109065898 11.196333526695058 0 0 0 0 5.6434550903732656 7.4968683097368896 0 7.4968683097368896 -0.20711578520518525 0 0 0 0 365.94553773212829 210.58327673498934 0 210.58327673498934 90.934804409560456 0 0 0 0 359.09956041644909 15.513963474814091 0 15.513963474814091 303.70502886654776 0 0 0 0 304.3066377624491 -175.97087861793489 0 -175.97087861793489 96.007977181427123 0 0 0 0 591.81643320942385 -34.643795459041485 0 -34.643795459041485 -139.90007235084886 0 0 0 0 359.3980885118508 -61.778375615275991 0 -61.778375615275991 -119.0882813846456 0 0 0 0 369.22613108613587 -80.872743623001725 0 -80.872743623001725 -82.658806461059612 0 0 0 0 358.49490564430016 -55.436741244463974 0 -55.436741244463974 -59.468050259060874 0 0 0 0 28.505827726301945 40.188113192508169 0 40.188113192508169 -12.894206260722402 0 0 0 0 258.0234794345597 -0.062937777577417364 0 -0.062937777577417364 -45.61713920595588 0 0 0 0 278.28582974370875 -60.053409135544143 0 -60.053409135544143 62.178068672404152 0 0 0 0 114.94175392304896 -17.866246725575849 0 -17.866246725575849 8.1920323104071358 0 0 0 0 69.919162156875245 21.764682271064629 0 21.764682271064629 33.147611610036222 0 0 0 0 164.08837374042196 -49.03585141363169 0 -49.03585141363169 25.41819309211904 0 0 0 0 153.33736546231376 -57.003919099862827 0 -57.003919099862827 21.814282575422226 0 0 0 0 360.90176553685887 -31.683369404348468 0 -31.683369404348468 -17.086063031240428 0 0 0 0 -2.0940321470309229 -46.365941358288723 0 -46.365941358288723 7.4465615129411979 0 0 0 0 -97.546859351481544 -44.324821383982453 0 -44.324821383982453 66.085021956477703 0 0 0 0 -36.101505438098684 8.256476863746002 0 8.256476863746002 38.21253150684106 0 0 0 0 262.34659763278614 -68.612350193480438 0 -68.612350193480438 9.7748688287204004 0 0 0 0 149.5512297762034 -9.7585227286106146 0 -9.7585227286106146 -19.175889633499537 0 0 0 0 148.88986013425165 -3.551639503779036 0 -3.551639503779036 59.65064420243948 0 0 0 0 97.937505967944162 -3.5508290473295574 0 -3.5508290473295574 52.272437927553256 0 0 0 0 201.00503699734691 -68.924962056620643 0 -68.924962056620643 -4.4017398162418431 0 0 0 0 91.359194723729161 -6.9143253434722283 0 -6.9143253434722283 27.064705568330282 0 0 0 0 6.9477281566651072 -107.0877398102275 0 -107.0877398102275 -11.905082802826314 0 0 0 0 96.22553489506754 -16.635436448825686 0 -16.635436448825686 -45.585047687230599 0 0 0 0 -128.83762704284163 -47.105681910719341 0 -47.105681910719341 62.509233629020855 0 0 0 0 -1.0344563888508906 -48.249730942240433 0 -48.249730942240433 2.5031661285713724 0 0 0 0 22.288548154887394 13.612166357601836 0 13.612166357601836 -24.750788524480413 0 0 0 0 -102.33704158541514 -60.649357849082662 0 -60.649357849082662 45.201942252938352 0 0 0 0 -1.1445578062111963 -49.60410438335299 0 -49.60410438335299 -5.2737384660015021 0 0 0 0 36.308783205866348 -116.70948714832366 0 -116.70948714832366 -30.885447334321725 0 0 0 0 90.24775686886278 -25.973857412782763 0 -25.973857412782763 17.553515173045469 0 0 0 0 213.16292297733889 -110.16542564343467 0 -110.16542564343467 13.389948223944884 0 0 0 0 185.69404493889306 6.0331929681906331 0 6.0331929681906331 24.432751576771807 0 0 0 0 86.771239256566332 -86.128916864376947 0 -86.128916864376947 14.924299896577395 0 0 0 0 446.74908827948093 26.56675900551636 0 26.56675900551636 28.948384279492359 0 0 0 0 295.43609440439468 -99.52426242105139 0 -99.52426242105139 19.241991665654041 0 0 0 0 233.10430710274522 -69.00873075814502 0 -69.00873075814502 66.336124984938579 0 0 0 0 434.2337761822273 -79.38147244437323 0 -79.38147244437323 -15.853541552005026 0 0 0 0 458.24157808235123 27.108001482932593 0 27.108001482932593 58.310308691528462 0 0 0 0 483.39337735221488 -83.804997193000105 0 -83.804997193000105 112.06403449416621 0 0 0 0 672.62844263444276 67.151803831254142 0 67.151803831254142 25.509787222878458 0 0 0 0 378.05643103945476 42.330882412732194 0 42.330882412732194 4.6890667557883035 0 0 0 0 222.85640387816238 -13.829503825017582 0 -13.829503825017582 85.895651284090491 0 0 0 0 447.7384013567389 -58.569309712156041 0 -58.569309712156041 50.293263778278288 0 0 0 0 538.12972369034105 61.181448775921353 0 61.181448775921353 7.7487776688835766 0 0 0 0 226.34811962771346 -75.054440987358248 0 -75.054440987358248 61.883040250804697 0 0 0 0 312.07492473990715 -71.231415423591898 0 -71.231415423591898 -10.0785657705419 0 0 0 0 227.21721202405752 -115.12134559172591 0 -115.12134559172591 -21.680862990724563 0 0 0 0 287.47090610334635 -69.052330820061229 0 -69.052330820061229 -15.121316238999498 0 0 0 0 177.2144144106278 -100.39211893361335 0 -100.39211893361335 37.295995668912838 0 0 0 0 391.0908311130479 -2.0366477727770871 0 -2.0366477727770871 22.3496611655587 0 0 0 0 393.83867187397846 16.588400218276547 0 16.588400218276547 25.07018595048612 0 0 0 0 286.14968351797143 -60.701650438869365 0 -60.701650438869365 23.449192489058987 0 0 0 0 483.7475903091763 -40.936207115390516 0 -40.936207115390516 -5.3768288386368113 0 0 0 0 217.610359398328 -72.284390873915072 0 -72.284390873915072 21.199109168236191 0 0 0 0 333.99978096282575 -89.15840384403873 0 -89.15840384403873 -22.842019724121201 0 0 0 0 194.71012911824801 -72.339273258688081 0 -72.339273258688081 32.781789126500371 0 0 0 0 192.8730541744153 -84.544404383960682 0 -84.544404383960682 -28.599714071639937 0 0 0 0 87.643321658411878 -94.000988864693682 0 -94.000988864693682 12.440540342089662 0 0 0 0 213.42450019335593 -52.837695162593036 0 -52.837695162593036 -20.627730649688601 0 0 0 0 80.464649845962413 -105.2644371759452 0 -105.2644371759452 21.858692129856877 0 0 0 0 35.88496290418334 -10.730232996696941 0 -10.730232996696941 -36.149444206366752 0 0 0 0 -30.038854967955558 -75.972159415556689 0 -75.972159415556689 23.127787752093354 0 0 0 0 847.03628909365216 72.15758431012182 0 72.15758431012182 315.07204557422665 0 0 0 0 -0.73200644133932613 -51.569892852933521 0 -51.569892852933521 -17.2489378521507 0 0 0 0 87.522711792265 -96.63357135052334 0 -96.63357135052334 -44.98823902298318 0 0 0 0 93.381777235597838 -48.524628754629703 0 -48.524628754629703 -39.977303164201658 0 0 0 0 176.41172811351134 -110.4771695317304 0 -110.4771695317304 -33.431444246364663 0 0 0 0 96.26702626189217 -93.409302536244041 0 -93.409302536244041 29.33268959275847 0 0 0 0 107.8257227109134 -88.574443150233492 0 -88.574443150233492 -5.6357483406318352 0 0 0 0 -0.79528101697303688 -53.724049802896317 0 -53.724049802896317 -32.44170949376587 0 0 0 0 84.421969910079497 -110.64096262679323 0 -110.64096262679323 -16.311142857625782 0 0 0 0 676.94561364543188 -103.58399609499111 0 -103.58399609499111 -112.23927721008999 0 0 0 0 523.73245753835363 -7.3561270502295883 0 -7.3561270502295883 -64.095403794909771 0 0 0 0 576.20532052057388 -73.448148443074388 0 -73.448148443074388 -12.36033463825953 0 0 0 0 82.057678383824168 113.03902928822666 0 113.03902928822666 -105.33246229033625 0 0 0 0 30.355901251401519 -85.205958856253119 0 -85.205958856253119 121.95393505662014 0 0 0 0 136.49257633136585 -56.260175199839978 0 -56.260175199839978 -12.786625206655117 0 0 0 0 150.44960653632734 -240.90802379886475 0 -240.90802379886475 119.44041941491287 0 0 0 0 274.32793671589025 -254.20303577605466 0 -254.20303577605466 -165.1594142846925 0 0 0 0 201.89711753565643 -89.425927927101839 0 -89.425927927101839 -29.767697844681607 0 0 0 0 144.00120707727183 43.380402741791272 0 43.380402741791272 -136.83002724082689 0 0 0 0 -150.39243702545355 -90.035893275797662 0 -90.035893275797662 509.49527323738403 0 0 0 0 -121.15587829740252 126.66020286967978 0 126.66020286967978 120.38967615724141 0 0 0 0 899.44505986272088 -256.33351239670446 0 -256.33351239670446 -164.2560608312815 0 0 0 0 116.90364747060812 287.03227038858813 0 287.03227038858813 -97.904120811781468 0 0 0 0 651.05945119567332 -377.34976876038627 0 -377.34976876038627 112.27876312636545 0 0 0 0 4.3406349410649341 0.89357651716132125 0 0.89357651716132125 -0.6490246831099924 0 0 0 0 590.71849026184645 -141.14658840370475 0 -141.14658840370475 -51.403159453624539 0 0 0 0 469.26461481716251 216.08111666457808 0 216.08111666457808 -111.41489322148266 0 0 0 0 244.03809351392556 40.722523492155005 0 40.722523492155005 -75.095364308046555 0 0 0 0 360.96186174202012 85.767866001404627 0 85.767866001404627 -67.959723484731512 0 0 0 0 857.88573289557826 106.10444854200591 0 106.10444854200591 -232.28926982291159 0 0 0 0 536.17427156031772 -58.71255693814237 0 -58.71255693814237 -175.9358235500431 0 0 0 0 490.22233672250877 2.1072017943347419 0 2.1072017943347419 -204.02022197477709 0 0 0 0 233.74915047592731 -59.526433864763021 0 -59.526433864763021 -25.365454137403503 0 0 0 0 14.207513599061997 -1.0236159608810169 0 -1.0236159608810169 0.3250612608437482 0 0 0 0 53.314201127752312 13.915656111899125 0 13.915656111899125 6.4171088530370071 0 0 0 0 38.247651813333505 -19.561785959389908 0 -19.561785959389908 -10.865892115596125 0 0 0 0 191.95694574477966 -48.199536849794299 0 -48.199536849794299 -85.70574103378749 0 0 0 0 221.94168284829357 32.266834244876009 0 32.266834244876009 2.0376245101515451 0 0 0 0 28.963665211835178 89.688666803733668 0 89.688666803733668 84.782691724835331 0 0 0 0 -0.55376527248961338 0.55656241013247154 0 0.55656241013247154 0.37719621600221487 0 0 0 0 -47.592938040754234 93.825989003687368 0 93.825989003687368 -35.544907919142133 0 0 0 0 182.93004870701407 88.337562627576972 0 88.337562627576972 -35.640081406792433 0 0 0 0 -24.02516659120738 230.29000414455095 0 230.29000414455095 -84.396532542182285 0 0 0 0 15.106112668949208 -17.723183606461589 0 -17.723183606461589 41.800361183165478 0 0 0 0 -14.062640713324072 -11.029563847470399 0 -11.029563847470399 46.174582496041694 0 0 0 0 -8.6927463586325757 54.728130520125205 0 54.728130520125205 296.7480421224609 0 0 0 0 24.455485535740081 -128.47989237515333 0 -128.47989237515333 202.3693477828042 0 0 0 0 75.363502662221435 185.04977115441534 0 185.04977115441534 174.01542431636699 0 0 0 0 58.584185424886527 93.341578307404916 0 93.341578307404916 -20.48407439503535 0 0 0 0 -162.49763231395627 21.566195010214415 0 21.566195010214415 -24.796560946573578 0 0 0 0 177.72294796963251 -96.316694670778702 0 -96.316694670778702 -368.24750741773505 0 0 0 0 -37.556303632735762 1.9564574630960152 0 1.9564574630960152 5.741187346804054 0 0 0 0 3.688015247819294 -1.1874626112989679 0 -1.1874626112989679 -0.13647755766651448 0 0 0 0 108.94636590089067 -210.55530525893073 0 -210.55530525893073 -48.876839920900068 0 0 0 0 184.17553156072972 120.29325050445459 0 120.29325050445459 -196.47408901477968 0 0 0 0 -12.42704633824178 -152.20234185331469 0 -152.20234185331469 -66.031833200363508 0 0 0 0 202.7651677666945 -105.48471816424319 0 -105.48471816424319 -57.560134293645206 0 0 0 0 6.5956752142865014 1.3123871005144565 0 1.3123871005144565 -1.6015988835159689 0 0 0 0 179.44693640490004 -154.60811770241457 0 -154.60811770241457 -148.14892645045302 0 0 0 0 65.058029472165799 17.537593917808294 0 17.537593917808294 6.2690878359630915 0 0 0 0 -26.584696688024451 165.30140535824586 0 165.30140535824586 -220.86552196658954 0 0 0 0 2.6360011023732568 0.20189757269945119 0 0.20189757269945119 -1.0660377101855358 0 0 0 0 123.89698358637543 -242.13825307126808 0 -242.13825307126808 171.59037710955022 0 0 0 0 18.349415736309311 -73.238256652710788 0 -73.238256652710788 -85.421765422471722 0 0 0 0 65.512776993877196 16.067131269903598 0 16.067131269903598 -150.63687919890776 0 0 0 0 182.11780256351631 -108.69426453603006 0 -108.69426453603006 -91.597288485804256 0 0 0 0 66.295748262426059 28.036663955788981 0 28.036663955788981 -203.39079434254029 0 0 0 0 83.073020801177336 15.843901063007024 0 15.843901063007024 -196.71277207860942 0 0 0 0 88.917057405422383 -51.001734154931782 0 -51.001734154931782 -299.96057207018771 0 0 0 0 92.633946581459895 -29.228668943290415 0 -29.228668943290415 -173.96180629461151 0 0 0 0 197.3912424568116 -102.91335460053824 0 -102.91335460053824 -241.87816722841671 0 0 0 0 -94.196128142488305 -92.832961698115923 0 -92.832961698115923 -197.95890406124522 0 0 0 0 90.109457024826042 -58.508932427650805 0 -58.508932427650805 -239.15470792204769 0 0 0 0 94.365811178126023 -93.710592714419121 0 -93.710592714419121 -160.33176736745327 0 0 0 0 70.719352349071414 -68.726936893854372 0 -68.726936893854372 -94.77497531556719 0 0 0 0 217.85862825019285 -107.62723178872272 0 -107.62723178872272 -188.55100403618007 0 0 0 0 52.85341079243517 -138.49066262445399 0 -138.49066262445399 -169.29177961572191 0 0 0 0 297.42942388752999 -156.46458268370486 0 -156.46458268370486 -172.05650547163521 0 0 0 0 211.26626375167325 -123.17197629691529 0 -123.17197629691529 -120.00811517052171 0 0 0 0 189.20238793161843 -109.97007812862711 0 -109.97007812862711 -128.48775042887155 0 0 0 0 165.13054516220291 -86.398818737553484 0 -86.398818737553484 -141.82014652716111 0 0 0 0 227.3971330292552 -71.737458901049195 0 -71.737458901049195 -182.02406456799508 0 0 0 0 337.31678328139969 -117.33185699992293 0 -117.33185699992293 -125.68340264499079 0 0 0 0 258.787988520824 -151.54384806852147 0 -151.54384806852147 -106.69459389955426 0 0 0 0 302.33456856429984 -187.5958058610662 0 -187.5958058610662 -98.76384389856986 0 0 0 0 314.18424281910848 -170.79661179066625 0 -170.79661179066625 -74.982494737374736 0 0 0 0 278.45574883322843 -160.62915321286732 0 -160.62915321286732 -78.460057178142279 0 0 0 0 302.70928693711176 -121.46140177557459 0 -121.46140177557459 -70.548993879332215 0 0 0 0 461.41845830240345 -128.6562658523244 0 -128.6562658523244 -109.52446993742933 0 0 0 0 358.83082374925471 -169.43807909067803 0 -169.43807909067803 -57.667238732847864 0 0 0 0 576.41524110038881 -91.048855156985098 0 -91.048855156985098 -109.44071721678699 0 0 0 0 327.57810249259342 -73.54821365347901 0 -73.54821365347901 -27.67062796397795 0 0 0 0 327.77427722903667 -75.881105523565225 0 -75.881105523565225 -140.33457916521962 0 0 0 0 233.48539987465483 11.129401557564506 0 11.129401557564506 -117.91958192298011 0 0 0 0 287.7727366716972 -116.27314574685749 0 -116.27314574685749 -2.8440037554642004 0 0 0 0 165.91785263738711 -111.08524335601305 0 -111.08524335601305 -43.378983501665061 0 0 0 0 188.75014279780589 -111.64546143162897 0 -111.64546143162897 -70.395861903847617 0 0 0 0 -0.65521161390249816 -55.434784023298022 0 -55.434784023298022 -47.904398812728239 0 0 0 0 195.82949655484845 -100.71357462140077 0 -100.71357462140077 -57.049105758148471 0 0 0 0 -2.2710691072532745 -56.844662179986571 0 -56.844662179986571 -60.82159621809712 0 0 0 0 273.64026526857742 -69.358877586600045 0 -69.358877586600045 -106.03725250109346 0 0 0 0 183.81497485435102 -57.991574364505141 0 -57.991574364505141 -41.09440662405359 0 0 0 0 181.26196599352988 -12.870351915042193 0 -12.870351915042193 -146.88433917525799 0 0 0 0 165.33920970410691 -61.238546841117568 0 -61.238546841117568 -78.198816405130856 0 0 0 0 208.18443450042832 -43.274979986038488 0 -43.274979986038488 -83.24319997800194 0 0 0 0 173.43092754145619 -97.519849458592944 0 -97.519849458592944 -119.54783870357096 0 0 0 0 155.9293014162904 -11.969648484767617 0 -11.969648484767617 -196.08306431073652 0 0 0 0 99.293725976182031 -15.588773148607288 0 -15.588773148607288 -161.10083746119358 0 0 0 0 88.450711100200806 85.30455531679911 0 85.30455531679911 -310.69701763987723 0 0 0 0 -69.063800054693274 199.26496902409554 0 199.26496902409554 -257.33463508053137 0 0 0 0 143.00803425133017 17.168974130557899 0 17.168974130557899 -253.36454963272263 0 0 0 0 219.38653125672863 -141.6492433037065 0 -141.6492433037065 -149.72279110810996 0 0 0 0 176.79542308704185 -87.363134078298117 0 -87.363134078298117 -106.5817576911686 0 0 0 0 164.66514092890793 -110.26608272957242 0 -110.26608272957242 -6.6905815345980955 0 0 0 0 193.12148236138455 -146.2268797157667 0 -146.2268797157667 -65.777294495972455 0 0 0 0 169.85878700790454 -81.245413685301969 0 -81.245413685301969 1.6453716991600231 0 0 0 0 1284.3701954282806 1082.226396338757 0 1082.226396338757 542.96717817492276 0 0 0 0 -281.33859729414326 476.60585335282383 0 476.60585335282383 -493.71677900628083 0 0 0 0 -3.4502021994596817 -2.763384444929585 0 -2.763384444929585 -2.606325859551061 0 0 0 0 1284.803172710439 613.26958703932905 0 613.26958703932905 396.7606197887057 0 0 0 0 -69.106484601667034 -214.7885049220863 0 -214.7885049220863 155.55240626345119 0 0 0 0 -63.598366366728442 184.84159426092174 0 184.84159426092174 -294.60137950508209 0 0 0 0 49.173752067617897 -23.238190785784241 0 -23.238190785784241 -188.1197370074251 0 0 0 0 136.91839785248158 39.722759437192735 0 39.722759437192735 -303.1604801470429 0 0 0 0 234.8735361742074 -251.28878961413426 0 -251.28878961413426 -104.68377786016003 0 0 0 0 634.10674574121367 204.05879944642061 0 204.05879944642061 -570.95531058405061 0 0 0 0 1161.1066549479219 -224.21634580405265 0 -224.21634580405265 -357.69071515350151 0 0 0 0 3500.8746876566438 -485.35416682657439 0 -485.35416682657439 -657.38673097294429 0 0 0 0 2100.0594028047053 628.07505454263855 0 628.07505454263855 -769.40407500539186 0 0 0 0 3772.5740904034174 -1505.2228988736813 0 -1505.2228988736813 839.09654270033923 0 0 0 0 4289.1325604248123 734.52936673026659 0 734.52936673026659 -701.71872027792529 0 0 0 0 1892.1587662632373 -371.9641569240448 0 -371.9641569240448 -786.7502050118045 0 0 0 0 2477.5918325940111 -2351.752769435449 0 -2351.752769435449 2369.8685110550741 0 0 0 0 4404.7798918327753 106.25385295239221 0 106.25385295239221 1345.7032059579651 0 0 0 0 2981.9339955732648 -765.26830891114275 0 -765.26830891114275 830.71564346163359 0 0 0 0 1065.7360654387303 -1155.9228570774974 0 -1155.9228570774974 1073.6807681283954 0 0 0 0 3084.534717775874 -973.24942526664131 0 -973.24942526664131 43.539541677322347 0 0 0 0 612.2324135118688 -702.06795355775455 0 -702.06795355775455 1014.0707470878203 0 0 0 0 22.514658436008943 1.1052433398290376 0 1.1052433398290376 1.7637835297801352 0 0 0 0 57.396917827028005 7.3427760453445678 0 7.3427760453445678 -7.9750735348203428 0 0 0 0 802.68409862642875 -605.97370347612866 0 -605.97370347612866 605.64788808507092 0 0 0 0 16.891012015192246 -152.25606487819391 0 -152.25606487819391 -196.4000680038298 0 0 0 0 5.7523524060683826 -12.401694902242781 0 -12.401694902242781 -15.362701733801007 0 0 0 0 414.11392160521063 -637.61578008938352 0 -637.61578008938352 818.78732097331886 0 0 0 0 625.83521348997601 -596.90902671311392 0 -596.90902671311392 706.90524654843978 0 0 0 0 932.24635349251002 -638.45764496417735 0 -638.45764496417735 647.67306664192188 0 0 0 0 652.96675684990259 -510.62722527839514 0 -510.62722527839514 517.30337934096087 0 0 0 0 31.609974870872975 1.8206557158628129 0 1.8206557158628129 -47.129687001103775 0 0 0 0 364.11763745013195 -336.36664159166929 0 -336.36664159166929 653.04762428755816 0 0 0 0 35.945087403277796 5.5365489944498592 0 5.5365489944498592 -21.514034191530062 0 0 0 0 24.00547900510719 17.895634301825339 0 17.895634301825339 -4.894145062446114 0 0 0 0 27.525154695300444 35.105851086204211 0 35.105851086204211 -36.449396447225809 0 0 0 0 28.935357851849403 32.501258197370134 0 32.501258197370134 -15.22448727282972 0 0 0 0 26.119517422717763 23.960218438044194 0 23.960218438044194 -25.958631040008186 0 0 0 0 12.603274601919111 30.767863554343421 0 30.767863554343421 -14.178186056748928 0 0 0 0 275.3502553076687 -149.38261465913411 0 -149.38261465913411 -154.34016223338597 0 0 0 0 13.766721169547537 1.3143299966275279 0 1.3143299966275279 0.22837701906541419 0 0 0 0 17.043995948748488 131.44325943631293 0 131.44325943631293 -45.707334658235141 0 0 0 0 65.030832169213681 100.17563895188914 0 100.17563895188914 -244.02556582928241 0 0 0 0 19.312198847073972 6.3728096459157442 0 6.3728096459157442 -5.2410571598058837 0 0 0 0 -38.322764446478686 47.016556591245688 0 47.016556591245688 -134.11530275233781 0 0 0 0 4.8237571588002481 0.1360551176522975 0 0.1360551176522975 0.057921733216002025 0 0 0 0 76.568643360995338 135.32039633975251 0 135.32039633975251 134.88996833757574 0 0 0 0 21.116714696836425 45.158140679307962 0 45.158140679307962 2.6241620684107261 0 0 0 0 16.208852667696192 29.216237341234773 0 29.216237341234773 -11.985476078814372 0 0 0 0 88.314485493865504 -230.5135358644842 0 -230.5135358644842 -10.068123461642244 0 0 0 0 318.08888374741218 81.955759696562154 0 81.955759696562154 -208.1742256221255 0 0 0 0 32.064709177255281 -256.63868949625476 0 -256.63868949625476 265.60410720794039 0 0 0 0 7.2310965461067269 -1.9389894161616152 0 -1.9389894161616152 -0.40391469622078191 0 0 0 0 -65.730849507570383 64.974784252454356 0 64.974784252454356 -98.749935804175038 0 0 0 0 106.68548134498269 -37.595162222949284 0 -37.595162222949284 -284.73444863204497 0 0 0 0 3.4473496197575741 -1.6397469546262147 0 -1.6397469546262147 -0.098471286254030344 0 0 0 0 181.42172364561702 30.706520343515422 0 30.706520343515422 -239.85603432640733 0 0 0 0 66.103875726562137 -20.346140179051233 0 -20.346140179051233 -52.563213998664878 0 0 0 0 34.318719597256859 -44.416312529465927 0 -44.416312529465927 -61.690619083034733 0 0 0 0 51.362310692078609 -94.346227727108982 0 -94.346227727108982 46.328930932682852 0 0 0 0 74.535126026923535 -5.2814738837323603 0 -5.2814738837323603 -231.13451089558748 0 0 0 0 295.57178684883547 -41.175423755790689 0 -41.175423755790689 -207.76119267759123 0 0 0 0 252.03025021166832 -188.67404186285444 0 -188.67404186285444 -157.01895970715213 0 0 0 0 66.781910407047235 -28.96827906870957 0 -28.96827906870957 -136.74451173430271 0 0 0 0 97.92217524597072 -72.710053380304998 0 -72.710053380304998 -95.317084964469132 0 0 0 0 115.13133416799246 -158.72607926673936 0 -158.72607926673936 -72.256448685726809 0 0 0 0 167.7909867104463 -129.25958121628844 0 -129.25958121628844 -276.12116348178802 0 0 0 0 166.25596309559478 -176.69280125781245 0 -176.69280125781245 -146.5687365458017 0 0 0 0 106.75008370414434 -225.43745618119851 0 -225.43745618119851 -11.171513495414047 0 0 0 0 23.974065771056758 -64.922470763763826 0 -64.922470763763826 -73.054392991614804 0 0 0 0 17.605176694763941 -142.71835200480643 0 -142.71835200480643 -74.587293709559191 0 0 0 0 -137.82654035599262 -40.775452841180652 0 -40.775452841180652 -25.895280524638906 0 0 0 0 140.40668933673942 23.209365582354597 0 23.209365582354597 -52.30883576898168 0 0 0 0 53.76557703234721 -67.290029424043041 0 -67.290029424043041 -80.360126367324597 0 0 0 0 -48.340468819915259 -146.20886747533427 0 -146.20886747533427 -121.025683567573 0 0 0 0 -75.656265703233657 -47.519434936613038 0 -47.519434936613038 -37.075053681445375 0 0 0 0 78.273465942075745 -59.776661621560059 0 -59.776661621560059 -370.37898246128486 0 0 0 0 -140.03542506191297 -235.06285771801839 0 -235.06285771801839 -278.49027181812505 0 0 0 0 -1.0875135415574562 1.1348493173302074 0 1.1348493173302074 -1.9094345344282055 0 0 0 0 48.744984755401674 -24.515754445675498 0 -24.515754445675498 -246.9514451026505 0 0 0 0 58.170063459201629 42.005245839382319 0 42.005245839382319 -69.457711587316112 0 0 0 0 59.84177483070016 55.046296245676039 0 55.046296245676039 3.8238898672296955 0 0 0 0 -82.381861026166007 -133.12656219228882 0 -133.12656219228882 -183.00759180053183 0 0 0 0 -180.54841143833983 85.586391701594962 0 85.586391701594962 84.308076737301178 0 0 0 0 -0.59655437142876622 1.7104585659487128 0 1.7104585659487128 -3.0110399982691618 0 0 0 0 -27.372089939446596 -98.63154256557516 0 -98.63154256557516 -206.52774717894479 0 0 0 0 58.292592048164806 -73.955257749964261 0 -73.955257749964261 -273.86350854774616 0 0 0 0 57.449510582191579 -59.370073170800097 0 -59.370073170800097 -252.91108823771654 0 0 0 0 8.8705502073098614 -4.9801564535378731 0 -4.9801564535378731 -16.131938333261928 0 0 0 0 247.59682816948043 -125.41572381582955 0 -125.41572381582955 320.03248006898616 0 0 0 0 227.4502467035054 17.613090411582789 0 17.613090411582789 -55.625230383899179 0 0 0 0 634.03853729517868 -118.68936407193335 0 -118.68936407193335 60.987668266783743 0 0 0 0 276.65122313688335 -374.36141133105343 0 -374.36141133105343 -233.00776014107942 0 0 0 0 467.02912201973595 -103.81240118555331 0 -103.81240118555331 0.89490476800426677 0 0 0 0 930.30816216174571 -601.09067514015101 0 -601.09067514015101 220.67561379589893 0 0 0 0 1028.9917247429621 -60.237423898975521 0 -60.237423898975521 -281.42724098589588 0 0 0 0 194.11024594395349 -150.97105365894993 0 -150.97105365894993 -75.660551344873056 0 0 0 0 608.14591324640787 -430.1756011295123 0 -430.1756011295123 -10.894388612434604 0 0 0 0 3127.2459500691348 -809.09150524420545 0 -809.09150524420545 -780.30823436738558 0 0 0 0 1950.8010459774232 -391.60074556791074 0 -391.60074556791074 -352.11345145674085 0 0 0 0 1881.1991029317287 -757.80291250855271 0 -757.80291250855271 -517.4458451700192 0 0 0 0 3492.5618796396448 -1527.162048604454 0 -1527.162048604454 -184.92899280784189 0 0 0 0 1107.6460405620528 -493.28446647811086 0 -493.28446647811086 172.03261631621672 0 0 0 0 245.12241614094819 -154.83724890632857 0 -154.83724890632857 569.44130893309625 0 0 0 0 631.34066806177907 -1494.4532127637067 0 -1494.4532127637067 1532.8485210181207 0 0 0 0 3501.7422935604868 702.01766639496566 0 702.01766639496566 178.28593871651199 0 0 0 0 -668.61524176047533 -391.04103950716535 0 -391.04103950716535 1054.8682801041289 0 0 0 0 6.1962508125448537 -6.7505103228673136 0 -6.7505103228673136 11.420200961465502 0 0 0 0 295.69589372128758 9.8869071786182303 0 9.8869071786182303 -108.94526400321411 0 0 0 0 188.22926397502124 -45.877645595569902 0 -45.877645595569902 -81.926428955202937 0 0 0 0 -55.566887464192405 -307.31210494782408 0 -307.31210494782408 -194.26238298266992 0 0 0 0 11.07518535915672 -20.774579527161521 0 -20.774579527161521 28.661698643969135 0 0 0 0 1934.6131501670825 437.20322359002199 0 437.20322359002199 134.47025039455838 0 0 0 0 161.72247012043954 -11.187724808176426 0 -11.187724808176426 -25.543814833675242 0 0 0 0 418.15384490823089 21.860845287326697 0 21.860845287326697 -36.270597591363639 0 0 0 0 153.66213381652051 10.727891155013367 0 10.727891155013367 -41.636271623060111 0 0 0 0 181.39200886930485 -3.0314375920358998 0 -3.0314375920358998 -56.204491455033349 0 0 0 0 170.86548452318675 20.33532863694154 0 20.33532863694154 -78.662563998913811 0 0 0 0 89.98865893673792 2.1347150856799999 0 2.1347150856799999 -79.962099047304946 0 0 0 0 88.308554532128255 10.273593807293992 0 10.273593807293992 -85.969422969210427 0 0 0 0 110.86778250043062 -33.379933046471933 0 -33.379933046471933 -34.682856750423525 0 0 0 0 69.12354899633479 -3.9057850974200754 0 -3.9057850974200754 -10.375186252793132 0 0 0 0 86.592787436264189 6.685162116698848 0 6.685162116698848 -30.379139776468037 0 0 0 0 70.691164456937571 1.3329795237765438 0 1.3329795237765438 -13.012803245904863 0 0 0 0 3492.8289570748057 -640.32567722442241 0 -640.32567722442241 -216.94067626442444 0 0 0 0 14.195361431719903 -12.443489102370251 0 -12.443489102370251 33.168755376450463 0 0 0 0 20.531836572353697 -26.21065396039603 0 -26.21065396039603 36.908723880582762 0 0 0 0 73.610361918828858 -84.500817007400656 0 -84.500817007400656 -90.722555239745361 0 0 0 0 17.827113086303143 14.284289510243298 0 14.284289510243298 166.18195220930798 0 0 0 0 3495.8303948621315 -5.5351874659396652 0 -5.5351874659396652 13.078906098292078 0 0 0 0 9.4689047746844182 -3.8823646844654718 0 -3.8823646844654718 6.1874112772491188 0 0 0 0 3495.8483426764797 -5.5625736550014722 0 -5.5625736550014722 13.111639765947851 0 0 0 0 8.3846799627082191 -1.6714413281892568 0 -1.6714413281892568 6.8163953041108281 0 0 0 0 1132.3151726900251 1415.2558752430589 0 1415.2558752430589 1004.7271128630912 0 0 0 0 3487.7669935684935 791.89198263814501 0 791.89198263814501 -500.44149193710251 0 0 0 0 345.99643877476046 -215.51420891305699 0 -215.51420891305699 247.57299882027161 0 0 0 0 1343.5235707250395 835.67233182542054 0 835.67233182542054 -20.690271956640014 0 0 0 0 1994.9414917315007 163.73804719561082 0 163.73804719561082 183.00282149614284 0 0 0 0 12.652143268692292 -3.2067548640989401 0 -3.2067548640989401 13.963047057854775 0 0 0 0 66.388142350970156 21.093835596388772 0 21.093835596388772 21.699670701461628 0 0 0 0 62.19943586896261 6.7569821045681238 0 6.7569821045681238 11.330192758813155 0 0 0 0 66.941154730142443 3.1380307470626576 0 3.1380307470626576 13.742098948441708 0 0 0 0 73.304032166564866 7.3277829368328185 0 7.3277829368328185 -7.0004471003148865 0 0 0 0 12.895255082360386 -10.146842163503401 0 -10.146842163503401 13.298611139050116 0 0 0 0 61.783417031685531 1.1508546954237318 0 1.1508546954237318 15.723368624467184 0 0 0 0 16.983885249041109 -2.5465429694967554 0 -2.5465429694967554 1.3329316159563902 0 0 0 0 31.628745348574057 -5.38369762141431 0 -5.38369762141431 16.297009323479642 0 0 0 0 65.50677568717947 -1.204559019235603 0 -1.204559019235603 17.17092072907235 0 0 0 0 71.967557310046686 20.619834947509389 0 20.619834947509389 -19.615173071346817 0 0 0 0 82.200196626588877 3.8552666498962935 0 3.8552666498962935 -6.4419130546528436 0 0 0 0 64.865000817047076 2.2310086172145134 0 2.2310086172145134 -6.5086036201155366 0 0 0 0 96.336290844621544 19.764277668136401 0 19.764277668136401 9.6633293679415146 0 0 0 0 74.604277134687436 9.1528152313139799 0 9.1528152313139799 22.610396887694151 0 0 0 0 82.724020221307001 12.572818165649551 0 12.572818165649551 15.13939428392996 0 0 0 0 69.160382347967243 17.187714962030896 0 17.187714962030896 13.942816191783095 0 0 0 0 -19.468317582429336 54.32248396032719 0 54.32248396032719 40.773340746387476 0 0 0 0 15.301962281305691 2.2957617935594783 0 2.2957617935594783 0.016854427169331387 0 0 0 0 87.36569227450309 17.676965074690997 0 17.676965074690997 -2.5665507083467674 0 0 0 0 78.818660453815028 142.87000551986512 0 142.87000551986512 -48.240855406050969 0 0 0 0 76.641917099364164 18.837058173321545 0 18.837058173321545 7.3835719607605546 0 0 0 0 56.635328434334042 116.54665520634308 0 116.54665520634308 -79.069639877748159 0 0 0 0 150.59217665308643 118.26928527527207 0 118.26928527527207 -42.494057141277779 0 0 0 0 14.934815142680236 219.19552944745465 0 219.19552944745465 68.493780627080014 0 0 0 0 -46.859634961914708 17.548297205506742 0 17.548297205506742 29.077128968962143 0 0 0 0 -89.280322900402098 105.16313035835469 0 105.16313035835469 10.430017089205194 0 0 0 0 4.8023949782077366 2.5921797963123012 0 2.5921797963123012 12.314085397407686 0 0 0 0 748.86779221143661 803.85934146063312 0 803.85934146063312 381.70221476689511 0 0 0 0 1617.8065179802215 1291.8169935839996 0 1291.8169935839996 -105.71467721408905 0 0 0 0 3499.9897209809878 1364.7616625906396 0 1364.7616625906396 518.32359855830759 0 0 0 0 504.46733241048969 222.69055811636136 0 222.69055811636136 1734.0407506024364 0 0 0 0 8.0635476351351727 -3.2558155355152323 0 -3.2558155355152323 0.85123738195318954 0 0 0 0 1506.5423444162298 768.60624607952502 0 768.60624607952502 188.87008369402261 0 0 0 0 -21.450493111227843 -22.286869834121831 0 -22.286869834121831 293.70414325053082 0 0 0 0 66.489938298596826 18.468554050766897 0 18.468554050766897 19.855054846928397 0 0 0 0 14.71844641184903 -4.9152294889503807 0 -4.9152294889503807 13.237374746130497 0 0 0 0 1478.8897463365938 20.857228658327514 0 20.857228658327514 -168.1208140990276 0 0 0 0 49.741584045600376 9.3433024010725347 0 9.3433024010725347 20.128590534564999 0 0 0 0 755.3463248156695 1024.5434732164738 0 1024.5434732164738 1738.0551087231001 0 0 0 0 8.3559180734348928 3.5514583652943212 0 3.5514583652943212 8.2161679988287872 0 0 0 0 -325.78523543994561 -264.90949711558642 0 -264.90949711558642 243.46167416759272 0 0 0 0 -144.62987043967951 -48.731696504903653 0 -48.731696504903653 33.354154665613351 0 0 0 0 -103.68422026133658 -60.470141968285887 0 -60.470141968285887 102.66184507835897 0 0 0 0 -107.72031733677431 -147.20774635860562 0 -147.20774635860562 -57.738298118450984 0 0 0 0 -90.841966599866282 -23.775360708784319 0 -23.775360708784319 -32.396769914348738 0 0 0 0 63.169068014060031 0.56342152503293619 0 0.56342152503293619 2.8820805869299875 0 0 0 0 -67.736140678083757 -59.945965530296689 0 -59.945965530296689 17.318399374251385 0 0 0 0 122.82590584545687 -112.34273649297984 0 -112.34273649297984 49.919091219859723 0 0 0 0 525.00507573880168 18.85963849250561 0 18.85963849250561 5.1763688627570446 0 0 0 0 325.79028964060126 -307.67738338063828 0 -307.67738338063828 101.82654040737248 0 0 0 0 89.065060809006809 -34.475015104477833 0 -34.475015104477833 233.96691085373095 0 0 0 0 -220.18855798755976 -316.89301806845242 0 -316.89301806845242 10.901234502885643 0 0 0 0 53.643170267838457 -93.497340270552996 0 -93.497340270552996 -11.097684637078832 0 0 0 0 -289.98346742919239 -159.29044238153938 0 -159.29044238153938 83.427215284386875 0 0 0 0 80.228741246202844 -147.30382672712494 0 -147.30382672712494 0.62053562125311146 0 0 0 0 -106.12224835718371 -26.331811019437737 0 -26.331811019437737 -17.503576762323974 0 0 0 0 -38.223637585287619 -10.269179958531458 0 -10.269179958531458 3.2729884782662495 0 0 0 0 348.19981383750019 -156.68465142404011 0 -156.68465142404011 -81.109364863632322 0 0 0 0 336.57798337369331 -37.147814044431016 0 -37.147814044431016 -91.876914240668839 0 0 0 0 347.60243604785029 -122.74098774585732 0 -122.74098774585732 -53.609485282258902 0 0 0 0 501.98945187641311 -68.185074443793383 0 -68.185074443793383 -88.611397521422077 0 0 0 0 445.81586399144908 -189.23856701836121 0 -189.23856701836121 -8.9152164977458597 0 0 0 0 286.6541244461896 205.85275100342585 0 205.85275100342585 -152.97973324142959 0 0 0 0 511.41057678143625 -54.909130585317143 0 -54.909130585317143 -124.28305798489851 0 0 0 0 351.95553572271677 -45.574577656199537 0 -45.574577656199537 -108.53501623365173 0 0 0 0 228.64661326193891 -17.618154630403296 0 -17.618154630403296 -156.58528077140454 0 0 0 0 147.85978300888928 -19.447364411365015 0 -19.447364411365015 -87.362033096012965 0 0 0 0 190.59624452756543 24.483918264941167 0 24.483918264941167 -49.649318581948137 0 0 0 0 159.84212293678502 -48.067177946041738 0 -48.067177946041738 -145.68082468802186 0 0 0 0 51.678131743069606 -85.513021701314216 0 -85.513021701314216 -29.463950503445915 0 0 0 0 445.85346779150132 67.54567955883067 0 67.54567955883067 -247.0798240963868 0 0 0 0 302.0840557772899 24.636705980602528 0 24.636705980602528 -132.43221783297849 0 0 0 0 269.82330292034749 -13.376851206507126 0 -13.376851206507126 111.21170448227258 0 0 0 0 269.05781202803155 29.683561436025684 0 29.683561436025684 -182.79510225522063 0 0 0 0 98.733744115445006 -4.5489979764888631 0 -4.5489979764888631 -14.537299984076981 0 0 0 0 121.529845446987 17.06257915823165 0 17.06257915823165 -2.9285992959289819 0 0 0 0 99.568009927439562 -4.5684849769397715 0 -4.5684849769397715 -14.691816183844367 0 0 0 0 106.75504467865539 -18.027722804638984 0 -18.027722804638984 -32.47782251602348 0 0 0 0 25.882490630090007 -16.063883406955853 0 -16.063883406955853 -18.012515857410833 0 0 0 0 58.169193734174769 -25.383168728467354 0 -25.383168728467354 -16.077592026113962 0 0 0 0 84.227432581290486 -12.713228204746713 0 -12.713228204746713 -23.68940499519249 0 0 0 0 12.821477123475518 -24.033237569374936 0 -24.033237569374936 -8.9566461681152205 0 0 0 0 87.391066908079665 -32.582438285818967 0 -32.582438285818967 -23.028234458505722 0 0 0 0 -53.6393082151626 -64.661370439651819 0 -64.661370439651819 -18.863296429948605 0 0 0 0 31.309127883768724 -4.2680879701180743 0 -4.2680879701180743 -5.0241793543591484 0 0 0 0 402.85744402703858 -193.1466668921143 0 -193.1466668921143 -3.4186706965232361 0 0 0 0 29.91851396059792 -32.439102373833066 0 -32.439102373833066 45.133030016755605 0 0 0 0 -30.707597926644667 -101.9390296653072 0 -101.9390296653072 2.9627440770004796 0 0 0 0 62.66013823432877 -48.339596061942302 0 -48.339596061942302 -33.694033799979024 0 0 0 0 -28.985769307288137 -15.08053928804037 0 -15.08053928804037 -23.003073975522511 0 0 0 0 9.9548520569896937 -31.547029592032686 0 -31.547029592032686 -24.037663864155093 0 0 0 0 -6.3246272394608241 -59.688165417055671 0 -59.688165417055671 -23.710132301711837 0 0 0 0 46.796793258583421 -32.488891707575931 0 -32.488891707575931 -23.342636767963313 0 0 0 0 48.849291283440834 -35.165378471282565 0 -35.165378471282565 -29.744306141655215 0 0 0 0 41.034312310999667 -25.723094315485923 0 -25.723094315485923 -25.268820494879492 0 0 0 0 41.056096555053955 -25.138125805016443 0 -25.138125805016443 -11.294017575190537 0 0 0 0 7.8204910375498002 -40.555931423201855 0 -40.555931423201855 -18.422233461764336 0 0 0 0 111.53621946828935 -6.5987612297292344 0 -6.5987612297292344 -22.409655839721154 0 0 0 0 85.823062701396566 -5.9462206309390311 0 -5.9462206309390311 -13.520745801763951 0 0 0 0 17.988412491732731 -19.226761894881875 0 -19.226761894881875 -21.280066615654714 0 0 0 0 64.029348745476454 -27.062182957023651 0 -27.062182957023651 -28.128682144476443 0 0 0 0 30.300475566272354 -9.0366088719047752 0 -9.0366088719047752 -16.155204330724423 0 0 0 0 80.694436045833754 60.185886901098002 0 60.185886901098002 -76.439629480192707 0 0 0 0 76.643685993245072 1.7309321243542293 0 1.7309321243542293 -19.394289456246536 0 0 0 0 15.640007779773441 41.785142092010119 0 41.785142092010119 -40.277083807493 0 0 0 0 13.016011929279543 2.87737716041471 0 2.87737716041471 -19.622399652139062 0 0 0 0 51.252583719689937 -1.7881432856873971 0 -1.7881432856873971 -11.096925103956437 0 0 0 0 31.595646396694065 -19.102936284309976 0 -19.102936284309976 -6.5445184714461675 0 0 0 0 6.5922328476954135 -6.9371225289384029 0 -6.9371225289384029 -11.668710404464719 0 0 0 0 27.967422117413662 7.4425119736459919 0 7.4425119736459919 -18.932810480647049 0 0 0 0 -2.6148258457130211 4.8428576461219421 0 4.8428576461219421 -9.63199132448716 0 0 0 0 -86.567879031776101 62.43221551505485 0 62.43221551505485 61.786275331815432 0 0 0 0 125.85089291923578 89.282324614510003 0 89.282324614510003 -24.911108924210566 0 0 0 0 28.235098542063497 -25.644848239797284 0 -25.644848239797284 11.442246530714328 0 0 0 0 36.923846291978407 -4.9645342703364008 0 -4.9645342703364008 -16.579907833821153 0 0 0 0 22.207275877438917 -10.196149509799767 0 -10.196149509799767 -10.581037525029656 0 0 0 0 1.1505263959406875 -25.896367651565015 0 -25.896367651565015 12.246299733108117 0 0 0 0 29.70191677686671 -14.946196720363901 0 -14.946196720363901 -14.707319240049401 0 0 0 0 18.642184148149681 -34.267297777377394 0 -34.267297777377394 -32.022731069154702 0 0 0 0 36.930405695493391 -13.949730836787808 0 -13.949730836787808 -14.578768898750013 0 0 0 0 2.6476390014718305 1.4139803740546455 0 1.4139803740546455 -7.5282883927959396 0 0 0 0 46.782355000454118 -20.581858028652618 0 -20.581858028652618 -36.620485453422418 0 0 0 0 22.255752553806815 7.0808235699423108 0 7.0808235699423108 -30.962174133775136 0 0 0 0 19.219925119541585 1.6725505418696685 0 1.6725505418696685 1.7432364682717889 0 0 0 0 59.552164255779644 -1.6298861468426935 0 -1.6298861468426935 -23.314832741558348 0 0 0 0 -84.990674584383669 -85.787236285406493 0 -85.787236285406493 -10.670579377448803 0 0 0 0 1.9176394400466066 -0.27236652154590502 0 -0.27236652154590502 -1.6026123286280818 0 0 0 0 299.46572834475955 -36.864352780287163 0 -36.864352780287163 -107.31746905254317 0 0 0 0 23.953694854055357 51.090934350610382 0 51.090934350610382 -22.210386939795171 0 0 0 0 2.3112891749400148 -0.72587567295952482 0 -0.72587567295952482 -0.29172096992577101 0 0 0 0 -15.442507150728488 -43.954429486801473 0 -43.954429486801473 71.601489075393715 0 0 0 0 12.048769184737921 -5.6187653319232425 0 -5.6187653319232425 -5.5651659387070715 0 0 0 0 8.1815062755342467 -14.437391009148456 0 -14.437391009148456 7.8483470403444002 0 0 0 0 8.8798666395691725 -8.5644329331950644 0 -8.5644329331950644 0.94509556943637651 0 0 0 0 10.510306612530258 -6.85723930416043 0 -6.85723930416043 -4.8367000462403666 0 0 0 0 318.83474147177185 -157.60360666265683 0 -157.60360666265683 104.64767731102643 0 0 0 0 368.39723160032736 -56.49320166920414 0 -56.49320166920414 -14.155316149969167 0 0 0 0 347.32007317144598 -70.948414566006591 0 -70.948414566006591 2.0571536007803388 0 0 0 0 403.77954031766785 -127.1764275828719 0 -127.1764275828719 -10.477954274229205 0 0 0 0 473.58250835805666 -187.64858715347691 0 -187.64858715347691 -31.283156046153636 0 0 0 0 498.02373752616404 -72.445631164798215 0 -72.445631164798215 -36.604381244765364 0 0 0 0 374.42269595891048 -101.45876087833604 0 -101.45876087833604 -26.034425767234552 0 0 0 0 400.63511344415019 -121.9774813297995 0 -121.9774813297995 -16.151658181477387 0 0 0 0 345.26717149939213 -143.07190027116621 0 -143.07190027116621 -12.143990422721117 0 0 0 0 280.90844662888412 -179.70544349511846 0 -179.70544349511846 34.52371762199482 0 0 0 0 345.90481865158654 -195.63804070840234 0 -195.63804070840234 -102.88294791713724 0 0 0 0 304.33659714719397 -192.43778928693121 0 -192.43778928693121 -48.519274509375578 0 0 0 0 314.57884024908708 -178.37556528061793 0 -178.37556528061793 -75.675988305163855 0 0 0 0 188.88864100646606 -143.76940596691583 0 -143.76940596691583 -14.138269610231418 0 0 0 0 254.83292413027812 -192.51482742840255 0 -192.51482742840255 6.5641646645335641 0 0 0 0 269.33665503798693 -171.40057056039257 0 -171.40057056039257 -12.869505226851288 0 0 0 0 166.96569394521066 -6.5007041469691558 0 -6.5007041469691558 -148.11345113103107 0 0 0 0 0.0075264121830400654 -13.34271878981793 0 -13.34271878981793 -19.639258028290595 0 0 0 0 267.31659261776076 -165.08482493242241 0 -165.08482493242241 5.446334607044264 0 0 0 0 266.17143313931228 -156.76904930045822 0 -156.76904930045822 -2.8390911892167878 0 0 0 0 297.49140768186044 -204.14617858076298 0 -204.14617858076298 2.5837846774184072 0 0 0 0 358.39304295694456 -170.36290612137157 0 -170.36290612137157 -21.597701064243097 0 0 0 0 124.0495738749305 -59.051180497411224 0 -59.051180497411224 -42.315634456000225 0 0 0 0 225.23718964507862 -197.38784380088515 0 -197.38784380088515 40.628225479840467 0 0 0 0 78.083472768623324 -87.851074967828026 0 -87.851074967828026 10.744022861490521 0 0 0 0 110.65820402657846 -71.27706875274589 0 -71.27706875274589 -46.94588809582433 0 0 0 0 3.0577860236880952 -18.320065831167767 0 -18.320065831167767 -23.62546470851612 0 0 0 0 0.023094561940562475 -2.0679893667074367 0 -2.0679893667074367 -66.122576650063436 0 0 0 0 32.68256985390326 14.442433820629901 0 14.442433820629901 -67.67064874904645 0 0 0 0 6.9591024975234177 3.9442098163245873 0 3.9442098163245873 -61.123048681217369 0 0 0 0 349.52408800074772 -246.76060126408242 0 -246.76060126408242 -11.924352229212317 0 0 0 0 112.781887735895 -81.873953346942699 0 -81.873953346942699 -18.778007297166823 0 0 0 0 -22.163823354538181 4.4957408972238682 0 4.4957408972238682 -66.927047832705739 0 0 0 0 -1.3730414431898055 0.49920284531150116 0 0.49920284531150116 0.36789397917147015 0 0 0 0 -26.052371184079675 -205.24697181580922 0 -205.24697181580922 -13.874579217548522 0 0 0 0 510.86570431165455 -94.864138841098367 0 -94.864138841098367 -43.221339350961671 0 0 0 0 882.3614161216683 -432.96944992863359 0 -432.96944992863359 67.464330686531355 0 0 0 0 537.85600664131925 26.948023079078212 0 26.948023079078212 220.37651218382908 0 0 0 0 881.7145549811612 -198.72650142648325 0 -198.72650142648325 44.009814520339305 0 0 0 0 -5.4352013509051176 -40.962870561799491 0 -40.962870561799491 16.335080723135775 0 0 0 0 1260.962341268998 66.166882865239586 0 66.166882865239586 -109.56472659997189 0 0 0 0 2.3862146585273365 -2.4633339419930422 0 -2.4633339419930422 5.5966879809387287 0 0 0 0 16.469279434477357 -0.69682305698756863 0 -0.69682305698756863 -8.4773617304908839 0 0 0 0 -6.0328930135437986 -35.337174013437334 0 -35.337174013437334 0.29754614355124431 0 0 0 0 1.2480913706901617 -1.2657553174477982 0 -1.2657553174477982 2.4962613227124573 0 0 0 0 1.0475429763171036 -3.4160223098687936 0 -3.4160223098687936 8.0885390454370842 0 0 0 0 371.14002387316577 -36.231874970186936 0 -36.231874970186936 -15.497261950836219 0 0 0 0 673.92726930827484 62.821124750568515 0 62.821124750568515 13.893880277005792 0 0 0 0 359.39079823154316 -183.19775413104708 0 -183.19775413104708 3.1801534478886424 0 0 0 0 426.87850715251989 -134.08043965281422 0 -134.08043965281422 62.657757938469786 0 0 0 0 592.23268499947153 -293.77972208029746 0 -293.77972208029746 24.12044946409469 0 0 0 0 35.154233041951386 10.418112109945724 0 10.418112109945724 8.0231753233657983 0 0 0 0 64.207067062990973 91.827910800384416 0 91.827910800384416 -238.59445766307624 0 0 0 0 42.506810868557238 0.47015990517154904 0 0.47015990517154904 1.8090089761980259 0 0 0 0 21.073020572830501 -25.120136196930162 0 -25.120136196930162 7.1149828996640281 0 0 0 0 43.762611863436177 56.911090133021389 0 56.911090133021389 -124.9165694201547 0 0 0 0 64.444171924493276 65.125698968153301 0 65.125698968153301 -125.32132657823331 0 0 0 0 62.202542074701341 55.811733720425536 0 55.811733720425536 -100.61348391463252 0 0 0 0 93.656785837025382 63.192721613322647 0 63.192721613322647 -170.86690791963019 0 0 0 0 127.94597951827745 27.192337307364141 0 27.192337307364141 -137.31908929019846 0 0 0 0 34.692212985984952 42.37344690405962 0 42.37344690405962 -151.8578060941727 0 0 0 0 21.82662959483082 -8.4578845951730841 0 -8.4578845951730841 -7.1414861599025485 0 0 0 0 23.047911532878061 68.35550253119618 0 68.35550253119618 -121.20618943314548 0 0 0 0 100.78151830853312 28.558091153769055 0 28.558091153769055 -87.111751105188887 0 0 0 0 91.202270689447289 4.2318456559187538 0 4.2318456559187538 0.88879485745176723 0 0 0 0 151.93943267108989 -34.135944584540994 0 -34.135944584540994 -86.305208069523701 0 0 0 0 79.276689577611251 -12.979871355268187 0 -12.979871355268187 -78.345069777373283 0 0 0 0 78.515829433308681 -9.9979757412784238 0 -9.9979757412784238 -84.40854642654449 0 0 0 0 125.91286800056696 32.05015835758968 0 32.05015835758968 -113.05540358311555 0 0 0 0 120.26078867256365 12.883512816111761 0 12.883512816111761 -90.601261933021306 0 0 0 0 214.57902616666252 -9.7623330320820969 0 -9.7623330320820969 -114.79535040293376 0 0 0 0 9.5159997196537311 -55.715286518624453 0 -55.715286518624453 -71.819713167585249 0 0 0 0 152.00801659059653 -35.895418468715434 0 -35.895418468715434 -98.21901072329274 0 0 0 0 103.07956221712453 -7.7215221233074587 0 -7.7215221233074587 -22.811142195513767 0 0 0 0 98.208700954870437 -5.4359428051720897 0 -5.4359428051720897 -103.80889009974987 0 0 0 0 111.17435685308533 -17.05747942852858 0 -17.05747942852858 -93.46281378466665 0 0 0 0 13.938949993776914 -1.8070388752875317 0 -1.8070388752875317 -70.918488747008027 0 0 0 0 91.369979507930111 -17.710037762521097 0 -17.710037762521097 -73.340745390480151 0 0 0 0 109.49239159861463 9.3715505615273287 0 9.3715505615273287 -68.637309616162383 0 0 0 0 103.34841492716077 17.124514061438276 0 17.124514061438276 -78.200915152448943 0 0 0 0 128.09177890684259 41.540929642629465 0 41.540929642629465 -80.476881937764119 0 0 0 0 129.77276128597441 -6.3972542063456785 0 -6.3972542063456785 -85.718486787651273 0 0 0 0 68.851222578072338 -13.166961280413489 0 -13.166961280413489 -54.277751822668506 0 0 0 0 82.979775395797333 -10.599044069564115 0 -10.599044069564115 -81.071869301856168 0 0 0 0 64.136592668965022 -7.757387008281512 0 -7.757387008281512 -82.663850003198604 0 0 0 0 82.857195391494315 -6.2163557554595172 0 -6.2163557554595172 -94.844755456698294 0 0 0 0 46.207231286069145 23.549892645363798 0 23.549892645363798 -81.859034083069673 0 0 0 0 104.69320284635614 1.1649533249701562 0 1.1649533249701562 -99.386366214464942 0 0 0 0 56.500412279847296 27.803738807429454 0 27.803738807429454 -109.93417483722442 0 0 0 0 84.103606425633188 -15.956696161487343 0 -15.956696161487343 -89.743708112077002 0 0 0 0 87.818449770456937 -11.008052583323661 0 -11.008052583323661 -84.517470412851253 0 0 0 0 82.529315626539756 -17.852863287920627 0 -17.852863287920627 -80.408107283197751 0 0 0 0 50.995212993337191 69.248610844373616 0 69.248610844373616 -123.90846878485354 0 0 0 0 19.93377974730538 61.076823483851513 0 61.076823483851513 -64.685235591357923 0 0 0 0 8.8369319118210115 51.17858797228655 0 51.17858797228655 -108.29384262907138 0 0 0 0 30.252932695977506 14.96799776894477 0 14.96799776894477 -104.07803467043414 0 0 0 0 -35.774853753166099 44.860815508729502 0 44.860815508729502 -66.859717076284142 0 0 0 0 88.629768203732965 135.47823640710976 0 135.47823640710976 -145.75812311793379 0 0 0 0 -87.186909325213492 167.60640133373681 0 167.60640133373681 -134.70994995682122 0 0 0 0 8.3202828134170943 0.82137915908620585 0 0.82137915908620585 -2.092263216882607 0 0 0 0 366.6901108729362 68.635362616938437 0 68.635362616938437 -143.42102809281459 0 0 0 0 21.593803297204431 95.693729222028196 0 95.693729222028196 -126.55111937681795 0 0 0 0 17.184436101466417 135.18074903933848 0 135.18074903933848 -120.61690477656157 0 0 0 0 18.481249092932558 66.197416112471274 0 66.197416112471274 -76.674606538996159 0 0 0 0 -659.27671505277976 984.21250039506776 0 984.21250039506776 -2261.2244488220649 0 0 0 0 313.27602120504525 -55.125926418839299 0 -55.125926418839299 -60.339348840465391 0 0 0 0 -129.75788223647396 2453.0346386046149 0 2453.0346386046149 -1762.0500030540588 0 0 0 0 86.361451058941753 26.674650803147337 0 26.674650803147337 1.9194176363494933 0 0 0 0 233.11525711226568 -118.33570227004839 0 -118.33570227004839 59.788859142587171 0 0 0 0 700.36374064144184 -872.25905052808412 0 -872.25905052808412 999.59178622651234 0 0 0 0 463.71483046249341 -1234.6555510108105 0 -1234.6555510108105 1169.3165367584952 0 0 0 0 18.882137061079391 7.1935298294271917 0 7.1935298294271917 0.95747525612026152 0 0 0 0 11.818814516125713 29.673822493721218 0 29.673822493721218 -162.50473377862727 0 0 0 0 14.700888855188339 3.2023476199628504 0 3.2023476199628504 -2.1934501052342839 0 0 0 0 -18.156816514427192 116.08704258598664 0 116.08704258598664 -154.02733734511185 0 0 0 0 1346.3174103837955 -229.81085560853535 0 -229.81085560853535 518.24335841754873 0 0 0 0 -141.56137467085756 -1754.0045393540606 0 -1754.0045393540606 491.18241385068541 0 0 0 0 107.89817743882756 29.953328883826003 0 29.953328883826003 -0.1093071495176936 0 0 0 0 202.56700977947912 35.73353037484776 0 35.73353037484776 -960.12622416966951 0 0 0 0 166.94291140622227 -148.3995196962187 0 -148.3995196962187 -88.424981663309154 0 0 0 0 43.267575473335455 49.053606760100593 0 49.053606760100593 -91.303322071900766 0 0 0 0 23.231995566446528 3.9680029390014511 0 3.9680029390014511 -11.207143578230642 0 0 0 0 17.54329999347101 17.324352883919346 0 17.324352883919346 -101.4210130468955 0 0 0 0 48.109089622448664 46.774890392016459 0 46.774890392016459 -83.447896273573861 0 0 0 0 22.706501954875421 67.556459495859599 0 67.556459495859599 -108.11606396438765 0 0 0 0 -59.960176096799842 53.871298975734135 0 53.871298975734135 -78.028441081420169 0 0 0 0 33.726206318860932 9.1819158503203653 0 9.1819158503203653 -95.349587538570631 0 0 0 0 49.013064297341771 12.586214248418855 0 12.586214248418855 -110.16016367328848 0 0 0 0 50.574968117580283 25.197631816143257 0 25.197631816143257 -66.013649093223648 0 0 0 0 126.74728105259419 30.613709706614827 0 30.613709706614827 -86.502154535177397 0 0 0 0 135.17793572248956 -55.95864592454609 0 -55.95864592454609 -31.829672820822452 0 0 0 0 6.4632026645490157 2.7372430716959997 0 2.7372430716959997 -17.212485771219526 0 0 0 0 96.605378981439571 12.587929952979721 0 12.587929952979721 -94.370508841346236 0 0 0 0 76.87127950044669 -2.2345817632822218 0 -2.2345817632822218 -75.357280224357964 0 0 0 0 67.933964017691324 30.330633558272893 0 30.330633558272893 -97.458155280633946 0 0 0 0 34.428511393343797 48.617386881456696 0 48.617386881456696 -69.654978670152559 0 0 0 0 50.888365815990255 15.576903576519726 0 15.576903576519726 -61.03575455104874 0 0 0 0 27.815550717004953 35.054524619908534 0 35.054524619908534 -52.975690812636458 0 0 0 0 86.485329505732807 47.21332800316668 0 47.21332800316668 -26.542329108040576 0 0 0 0 44.407741826216807 2.6492850081945107 0 2.6492850081945107 -31.033871350578011 0 0 0 0 24.652934428474936 -2.2248804334118688 0 -2.2248804334118688 -35.237218260836642 0 0 0 0 37.061045059890603 14.164353231592486 0 14.164353231592486 -35.88114095810397 0 0 0 0 58.974241547988981 24.516251491130049 0 24.516251491130049 -19.119148813535997 0 0 0 0 104.94234547322836 52.628777993379359 0 52.628777993379359 -20.622525577926176 0 0 0 0 32.524033582710246 7.7244002926169202 0 7.7244002926169202 -30.898812499394882 0 0 0 0 42.91973731140024 12.582512780551497 0 12.582512780551497 -37.633730857998671 0 0 0 0 32.749591316125588 11.664410898258211 0 11.664410898258211 -37.675643090302401 0 0 0 0 35.279822969388988 4.8920059882178606 0 4.8920059882178606 -23.674513735945006 0 0 0 0 33.266539090778679 11.028911682784383 0 11.028911682784383 -37.372243316636741 0 0 0 0 52.308851118916436 11.202934929264494 0 11.202934929264494 -19.321433165739577 0 0 0 0 54.92399273814226 57.710650284909207 0 57.710650284909207 -110.04495616376153 0 0 0 0 11.919034119666321 108.05368422112588 0 108.05368422112588 -128.33938024713279 0 0 0 0 57.965206710658094 76.557168793595338 0 76.557168793595338 -146.81674881048821 0 0 0 0 46.781164179257757 87.12889238614116 0 87.12889238614116 -78.605779809851811 0 0 0 0 35.137385922731482 54.742962083128077 0 54.742962083128077 -73.899667113498708 0 0 0 0 36.446912885818165 65.639263417135226 0 65.639263417135226 -51.402402808060287 0 0 0 0 0.75687067132093944 95.821632649181993 0 95.821632649181993 -60.004522531075054 0 0 0 0 5.4723852456954774 105.8992393430708 0 105.8992393430708 -52.995768957662222 0 0 0 0 35.870606785079872 114.24346957700436 0 114.24346957700436 -135.86384136067136 0 0 0 0 73.281957025654265 50.955080155141331 0 50.955080155141331 -162.64487071955955 0 0 0 0 74.715596506455313 75.164208362308727 0 75.164208362308727 -316.76760018378263 0 0 0 0 80.337053198207286 132.51853078510976 0 132.51853078510976 -230.33400557008645 0 0 0 0 -69.579064935044244 29.239612270464988 0 29.239612270464988 -100.97848210586744 0 0 0 0 -60.797702847266919 172.4168563338535 0 172.4168563338535 -142.76904113961064 0 0 0 0 -11.394159579191182 43.104953392708921 0 43.104953392708921 5.9047127349731454 0 0 0 0 61.088691002121777 95.714318520522284 0 95.714318520522284 -67.274853381519279 0 0 0 0 168.26733097731631 98.097479711015694 0 98.097479711015694 -4.66211401394321 0 0 0 0 64.88271082555184 49.433938170453075 0 49.433938170453075 -25.500623818094027 0 0 0 0 168.19200131959224 94.330875235622443 0 94.330875235622443 -120.23807521504386 0 0 0 0 82.253811489213604 102.18458225629649 0 102.18458225629649 -92.25674549042742 0 0 0 0 3.3636726597851521 128.59052683004802 0 128.59052683004802 -107.0510156860546 0 0 0 0 145.67054480397201 128.16764369659541 0 128.16764369659541 -137.22619433440377 0 0 0 0 9.0537253944712575 143.63004473597903 0 143.63004473597903 -96.378837706035938 0 0 0 0 -107.70665432573151 181.80853041587216 0 181.80853041587216 -103.81884594884468 0 0 0 0 20.385105244145961 23.015329973594817 0 23.015329973594817 -42.267834790101915 0 0 0 0 58.254316012578897 10.596429230566244 0 10.596429230566244 -5.9643282225824379 0 0 0 0 22.384038344112952 6.057978457444829 0 6.057978457444829 -8.6092992498279841 0 0 0 0 54.406976291786009 23.939064823715228 0 23.939064823715228 -4.0214501152967301 0 0 0 0 107.439239251049 75.188453422244493 0 75.188453422244493 -154.77905244576141 0 0 0 0 141.04255089636717 147.48850494731596 0 147.48850494731596 -195.55565773665512 0 0 0 0 78.468965647189179 102.85674484414722 0 102.85674484414722 -91.528697990343062 0 0 0 0 340.53405651625508 20.740684414982752 0 20.740684414982752 -130.30318089467801 0 0 0 0 213.88482139217376 4.9005644308526826 0 4.9005644308526826 -71.38062146174434 0 0 0 0 161.71076952228032 115.54000588157487 0 115.54000588157487 -125.54857657798857 0 0 0 0 135.10578954622906 54.011854020585815 0 54.011854020585815 -85.180789968133467 0 0 0 0 267.76994919950084 77.83990675109635 0 77.83990675109635 -114.95945978461168 0 0 0 0 165.14067066242569 79.864095144074781 0 79.864095144074781 -23.095268639553979 0 0 0 0 234.13525070619653 28.62019947781846 0 28.62019947781846 -39.561412600589847 0 0 0 0 454.18506537232315 56.63647323094483 0 56.63647323094483 -89.197220166715852 0 0 0 0 275.0567562413562 83.807860415785399 0 83.807860415785399 25.714184708689572 0 0 0 0 256.71062008494846 19.844934485020758 0 19.844934485020758 -49.671311565401993 0 0 0 0 498.32159022508131 -1.2017018929127516 0 -1.2017018929127516 -106.85023945070679 0 0 0 0 437.77177832251618 -44.225856322107688 0 -44.225856322107688 -70.369351748315239 0 0 0 0 658.39997392748774 38.363688794341215 0 38.363688794341215 -83.139453025311013 0 0 0 0 712.56995581421234 -188.90537728050867 0 -188.90537728050867 -94.362952919531381 0 0 0 0 621.95304741045038 -115.39160013642231 0 -115.39160013642231 -118.51792092628057 0 0 0 0 430.86297116502828 -117.7609072808882 0 -117.7609072808882 -94.895355660317364 0 0 0 0 587.14264805854327 -151.56617177513363 0 -151.56617177513363 -125.84289683245879 0 0 0 0 333.63107812315411 -59.880703383425271 0 -59.880703383425271 -73.128613598324591 0 0 0 0 448.90446745694499 -81.96646943493397 0 -81.96646943493397 -142.46920825937559 0 0 0 0 416.88506885770767 -59.954767905481276 0 -59.954767905481276 -142.13048925787007 0 0 0 0 211.73304371408449 -98.099322236414082 0 -98.099322236414082 -33.572174933542556 0 0 0 0 404.66109602162032 -91.815843760528878 0 -91.815843760528878 -114.3205961918793 0 0 0 0 517.99933797919584 -214.79912765684912 0 -214.79912765684912 -84.576559292901948 0 0 0 0 151.91972692926356 -68.584977400857269 0 -68.584977400857269 103.19020410430613 0 0 0 0 438.41351722554828 -159.64689107625304 0 -159.64689107625304 16.95882104305656 0 0 0 0 -134.727086310304 -57.752868281557312 0 -57.752868281557312 28.203855330904275 0 0 0 0 0.062475988689747908 0.58611814724416433 0 0.58611814724416433 2.5172305865855904 0 0 0 0 914.27479982519071 -151.9653694152978 0 -151.9653694152978 -96.6316680642812 0 0 0 0 562.43808105775679 -217.35515706932151 0 -217.35515706932151 75.402262085333746 0 0 0 0 230.67772143516777 129.76522868351586 0 129.76522868351586 -3.1148006706508795 0 0 0 0 -17.702245703687367 -78.056588079300809 0 -78.056588079300809 6.8213141562096098 0 0 0 0 3.2900190051586833 -37.660834039030306 0 -37.660834039030306 -97.824285848186435 0 0 0 0 1.1462000614677379 3.4209559961855689 0 3.4209559961855689 -3.2633315031132053 0 0 0 0 27.51222570000391 2.0764412838425415 0 2.0764412838425415 -82.742811939085641 0 0 0 0 22.762536237976747 -19.023259533420628 0 -19.023259533420628 -106.11188778921928 0 0 0 0 4.4282700297189876 -17.98419297877615 0 -17.98419297877615 -76.603398628567533 0 0 0 0 8.2944285537738551 0.41947156392750173 0 0.41947156392750173 -35.018294268734117 0 0 0 0 18.462944285791309 6.341166084242559 0 6.341166084242559 -32.161032058238561 0 0 0 0 11.168941883996013 39.687323081719455 0 39.687323081719455 -50.630697704956219 0 0 0 0 4.9961083596209486 0.67567824652444131 0 0.67567824652444131 -41.279685678302187 0 0 0 0 7.5326463373325794 5.0717596803985145 0 5.0717596803985145 -34.355323354179326 0 0 0 0 15.442262030195707 27.613618187387601 0 27.613618187387601 -51.224519468221843 0 0 0 0 14.027472390360856 8.4267887823169119 0 8.4267887823169119 -0.20650555687045014 0 0 0 0 208.11878018605057 54.745989343473866 0 54.745989343473866 6.4787268248518819 0 0 0 0 12.232155782126938 38.573493698214406 0 38.573493698214406 -71.992972139952144 0 0 0 0 -10.715367552715179 14.920846670064975 0 14.920846670064975 -61.915062417740501 0 0 0 0 11.127234421146568 32.97721745071658 0 32.97721745071658 -48.267386928742781 0 0 0 0 53.842931944833254 33.995850775659164 0 33.995850775659164 -61.014602367726184 0 0 0 0 40.991647416289197 21.981895554657058 0 21.981895554657058 -56.041699213457832 0 0 0 0 20.827592360178635 10.832086690229985 0 10.832086690229985 -40.728461682960379 0 0 0 0 32.679336191853508 39.914198100496833 0 39.914198100496833 -63.20783471734012 0 0 0 0 17.596611495682737 30.267336605842502 0 30.267336605842502 -55.179469374563269 0 0 0 0 44.769684767361468 40.945617404489326 0 40.945617404489326 -59.42342848412045 0 0 0 0 55.125066217646236 21.106127563964037 0 21.106127563964037 -51.234761089897802 0 0 0 0 43.643412291334243 32.780123381682643 0 32.780123381682643 -53.377606695536087 0 0 0 0 58.056551212570582 15.97509893090006 0 15.97509893090006 -37.705925602746703 0 0 0 0 69.507174927392043 21.028176834504848 0 21.028176834504848 -59.714748130547378 0 0 0 0 20.790904210102497 20.196619171890944 0 20.196619171890944 -2.4532776994850973 0 0 0 0 14.520973109079932 43.297894088328576 0 43.297894088328576 -59.252006858981076 0 0 0 0 -3.9307211239283788 92.564187925425358 0 92.564187925425358 -168.6509799696978 0 0 0 0 37.07153363370162 1.1969504898177661 0 1.1969504898177661 -17.152767138479987 0 0 0 0 12.686274231467504 -8.5442991651201652 0 -8.5442991651201652 0.16482370693687898 0 0 0 0 60.761928407824598 26.639989297949796 0 26.639989297949796 -59.900961851675675 0 0 0 0 44.231009334513857 21.087590977996371 0 21.087590977996371 -44.71629984518637 0 0 0 0 84.453993914102284 32.587584224954526 0 32.587584224954526 -59.010001105463743 0 0 0 0 82.314871900551211 -7.1061269854261155 0 -7.1061269854261155 -13.953565226002212 0 0 0 0 35.00003301273955 0.11117455129496534 0 0.11117455129496534 -15.514208075655915 0 0 0 0 59.427002515993081 27.976672802826215 0 27.976672802826215 -54.321181178667757 0 0 0 0 61.487954676529625 26.982309155373514 0 26.982309155373514 -55.952440805922379 0 0 0 0 63.839453591412166 29.587692416602295 0 29.587692416602295 -54.350437226625218 0 0 0 0 59.512496078919867 26.417254581528482 0 26.417254581528482 -54.425476894524763 0 0 0 0 56.810741653554771 -12.614908017531633 0 -12.614908017531633 -25.115968267472219 0 0 0 0 51.752203464508057 33.769657882333377 0 33.769657882333377 -58.647760602376366 0 0 0 0 99.018892444495577 5.0149742439498368 0 5.0149742439498368 -112.51876761773747 0 0 0 0 52.581326862091373 49.350969094350148 0 49.350969094350148 -86.439671149019887 0 0 0 0 53.91743701675054 8.2287754600295386 0 8.2287754600295386 -34.245620153600321 0 0 0 0 46.919052127537725 41.644299610061353 0 41.644299610061353 -85.192315066360607 0 0 0 0 -15.674685673604472 35.504948614845432 0 35.504948614845432 -26.229696859231808 0 0 0 0 -14.1376880560274 32.520903800732412 0 32.520903800732412 -48.10002334962445 0 0 0 0 -72.185402319082641 50.658632021688845 0 50.658632021688845 48.980772579736367 0 0 0 0 -54.624161640866078 87.235281457553356 0 87.235281457553356 -69.305998474972967 0 0 0 0 -2.6943365193292266 101.13160581180517 0 101.13160581180517 -54.905020675438209 0 0 0 0 -34.098843500498333 17.834776498287738 0 17.834776498287738 -37.662115897423519 0 0 0 0 655.74954879939469 -304.76239377517322 0 -304.76239377517322 29.19952076228725 0 0 0 0 6.2923574700728864 2.1091742237985542 0 2.1091742237985542 0.79263417983162476 0 0 0 0 251.32324611998047 112.34197540549667 0 112.34197540549667 -54.579254658226773 0 0 0 0 636.59545519248059 66.685826384490611 0 66.685826384490611 -144.60298327416149 0 0 0 0 743.27159915034645 -86.345564242793671 0 -86.345564242793671 -163.17530376811465 0 0 0 0 571.08211386661424 -41.180753131591246 0 -41.180753131591246 -149.32443359585795 0 0 0 0 522.78926758800299 -90.450112546738637 0 -90.450112546738637 -92.217750393295319 0 0 0 0 -97.057889780553523 220.86403855368735 0 220.86403855368735 167.87482383706811 0 0 0 0 5.3784368214018343 3.0839462192305263 0 3.0839462192305263 1.6401479982654763 0 0 0 0 196.89312610970228 -76.052887491748606 0 -76.052887491748606 -76.319805939303478 0 0 0 0 -69.309760491363704 440.71919733078539 0 440.71919733078539 212.68046685416721 0 0 0 0 47.234964181549003 6.9032312963259699 0 6.9032312963259699 -6.001323971393731 0 0 0 0 797.41782168710779 318.42594535876947 0 318.42594535876947 -136.62501139207234 0 0 0 0 510.37981321700863 -217.69689800825995 0 -217.69689800825995 -272.16613723786941 0 0 0 0 426.98483466854668 171.41430513746855 0 171.41430513746855 -817.71981272324592 0 0 0 0 -93.091101462690858 -135.36401902650869 0 -135.36401902650869 -365.74173233707188 0 0 0 0 -222.48676374973729 380.55245001725234 0 380.55245001725234 193.25184834461106 0 0 0 0 54.57162108249549 23.194406293430958 0 23.194406293430958 -23.702581603164049 0 0 0 0 59.475007587287109 209.6972567832463 0 209.6972567832463 -363.26551158296388 0 0 0 0 130.60008640922024 79.658480891832141 0 79.658480891832141 -184.37033508475542 0 0 0 0 63.947046950419775 6.2144991339650275 0 6.2144991339650275 -15.334088307020787 0 0 0 0 76.678966268285876 13.823897277769447 0 13.823897277769447 -25.299533423385128 0 0 0 0 74.770091826831049 22.02495677918273 0 22.02495677918273 -23.311260309400211 0 0 0 0 90.551318054756848 -9.9458668092609059 0 -9.9458668092609059 -12.884753299860336 0 0 0 0 -44.774292969872477 376.84758670064184 0 376.84758670064184 -118.40699602337372 0 0 0 0 -92.020050824765349 40.73490845021206 0 40.73490845021206 -232.82574484805627 0 0 0 0 79.833996543893591 92.693155573948388 0 92.693155573948388 -294.88051198247649 0 0 0 0 16.446387172693619 7.7148176068525558 0 7.7148176068525558 4.1385805169823904 0 0 0 0 31.774077035704977 -1.7525490468760836 0 -1.7525490468760836 -1.0261997158058875 0 0 0 0 39.63852745193477 4.5133186989119807 0 4.5133186989119807 -19.255746641362066 0 0 0 0 -19.789586708444403 113.01597301932179 0 113.01597301932179 -164.82093805075704 0 0 0 0 48.988538271772939 7.5322369125352679 0 7.5322369125352679 -21.172609613060796 0 0 0 0 70.936185930331703 2.2509606271346456 0 2.2509606271346456 -20.369375507542827 0 0 0 0 45.975115712732077 35.715505579075398 0 35.715505579075398 -26.704742143727344 0 0 0 0 38.182210993709305 40.528434384133107 0 40.528434384133107 -44.140381584915303 0 0 0 0 35.067710069277382 43.486217791039053 0 43.486217791039053 -16.523505063030825 0 0 0 0 46.465639977061073 33.394419175288931 0 33.394419175288931 -60.027458669341286 0 0 0 0 46.692090145334078 34.834812005718049 0 34.834812005718049 -27.673786232855491 0 0 0 0 47.648258385386725 21.645376181207212 0 21.645376181207212 -4.3779991791270731 0 0 0 0 41.736523179028154 1.8469003693339801 0 1.8469003693339801 -6.4083466821693946 0 0 0 0 41.669480882448227 -4.3488655080140184 0 -4.3488655080140184 43.515661121931771 0 0 0 0 54.131950348932151 27.225255340288641 0 27.225255340288641 0.20086029726644483 0 0 0 0 23.938078448587476 12.099593271810363 0 12.099593271810363 3.2842091072679978 0 0 0 0 40.489652992613571 13.277259825822739 0 13.277259825822739 -15.270202782430001 0 0 0 0 32.400910800721647 10.173884883962074 0 10.173884883962074 2.3862226794410208 0 0 0 0 37.213493643392304 -2.9351756634305044 0 -2.9351756634305044 0.21271423708851778 0 0 0 0 66.152062418242167 -5.3699636343676502 0 -5.3699636343676502 13.60706392881184 0 0 0 0 91.829394842175361 -86.929005004715918 0 -86.929005004715918 -103.16908615229113 0 0 0 0 17.445144118860739 -7.3662526253106364 0 -7.3662526253106364 -2.6169384079174343 0 0 0 0 41.932789953510152 192.12469573248634 0 192.12469573248634 -297.64372645041158 0 0 0 0 486.17119782392183 -134.44050475898132 0 -134.44050475898132 -299.99551462378446 0 0 0 0 92.018093501610565 -33.588280474792555 0 -33.588280474792555 23.573144710321685 0 0 0 0 71.850797959605188 -16.11754813215066 0 -16.11754813215066 26.936546419521846 0 0 0 0 61.975225881533333 -56.310825393689356 0 -56.310825393689356 -0.29897776551661082 0 0 0 0 5.8868171607640569 -0.19835191312062594 0 -0.19835191312062594 -2.0084083828704813 0 0 0 0 30.356466572958052 -22.394104071987798 0 -22.394104071987798 2.7190194771839522 0 0 0 0 76.835130784947069 -1.9945137707437652 0 -1.9945137707437652 -6.6173933449872493 0 0 0 0 64.624323433005884 1.3194667521051997 0 1.3194667521051997 -2.3572332114158598 0 0 0 0 56.168736415967103 2.7700692821621065 0 2.7700692821621065 -5.598117813723511 0 0 0 0 63.18236512272096 -9.5426072222302807 0 -9.5426072222302807 -9.6084640830832537 0 0 0 0 35.791673980792567 14.142005552466763 0 14.142005552466763 -6.0039131823679313 0 0 0 0 68.347747581450676 331.89551331495477 0 331.89551331495477 501.65999634226318 0 0 0 0 1213.4865341164368 349.84628279846333 0 349.84628279846333 70.941357393377984 0 0 0 0 1411.7612310028398 -186.19981172755274 0 -186.19981172755274 -35.908137624219307 0 0 0 0 940.12741245916095 -191.56354821662433 0 -191.56354821662433 -72.82095770750675 0 0 0 0 533.81673229569424 -2.0360760766270687 0 -2.0360760766270687 -48.035132163754497 0 0 0 0 492.62804859886091 249.06066983880555 0 249.06066983880555 87.012788026142516 0 0 0 0 984.34289101317836 159.86094363362827 0 159.86094363362827 -55.787091130670888 0 0 0 0 359.98831741909817 83.892238596115931 0 83.892238596115931 90.929480268621603 0 0 0 0 452.93076160530291 169.15591163731324 0 169.15591163731324 94.963576754214955 0 0 0 0 227.63417863872019 126.74667594937046 0 126.74667594937046 84.697706714490778 0 0 0 0 292.31315696459205 31.930785210941394 0 31.930785210941394 13.238660079158535 0 0 0 0 239.40755560808611 156.01721741441497 0 156.01721741441497 213.12238718997105 0 0 0 0 28.829111041191936 -167.2409013972233 0 -167.2409013972233 67.108863064687739 0 0 0 0 5.8789432880657841 18.591076914348378 0 18.591076914348378 294.29967171412682 0 0 0 0 -8.4248917914519552 -11.851119477393695 0 -11.851119477393695 34.557369914663013 0 0 0 0 -7.3802257495626691 -6.2067162646881116 0 -6.2067162646881116 154.60481838587748 0 0 0 0 19.015143639342568 -69.732432410768524 0 -69.732432410768524 74.322116476660995 0 0 0 0 52.415249677214888 48.322748688254251 0 48.322748688254251 161.1229944296374 0 0 0 0 59.307554128989068 38.144145804864593 0 38.144145804864593 85.901803640426806 0 0 0 0 79.898984023500816 43.983707910911107 0 43.983707910911107 41.545238960397 0 0 0 0 71.264771907462091 81.827587125407945 0 81.827587125407945 24.044173783109727 0 0 0 0 4.5093421067722375 31.480187185590694 0 31.480187185590694 90.56725431533232 0 0 0 0 14.501181824765808 3.5963856818852946 0 3.5963856818852946 79.117735151779925 0 0 0 0 6.5763684403696061 57.55311124306661 0 57.55311124306661 22.04121862140164 0 0 0 0 11.536792700004298 51.361037761822445 0 51.361037761822445 13.339969241727886 0 0 0 0 21.918200998210523 33.574226926177289 0 33.574226926177289 10.420755898399875 0 0 0 0 15.883248749246377 71.963573279756019 0 71.963573279756019 -41.456049162010459 0 0 0 0 16.318326786742546 25.374417784905745 0 25.374417784905745 3.7627893006374507 0 0 0 0 -9.0617168380194926 -55.968694749542465 0 -55.968694749542465 59.94758426681642 0 0 0 0 68.171993038748042 -13.666732097528438 0 -13.666732097528438 26.881690132488984 0 0 0 0 23.131329474279482 -37.926606463582175 0 -37.926606463582175 65.505653417176291 0 0 0 0 -7.8541073401204358 -18.731830505458959 0 -18.731830505458959 60.764585749762773 0 0 0 0 151.20096326917337 -21.730213781921975 0 -21.730213781921975 -265.72506920507567 0 0 0 0 60.421154958734803 -9.423152696820523 0 -9.423152696820523 1.1937092730751468 0 0 0 0 87.980435874229443 -42.702610683318881 0 -42.702610683318881 -41.273985410055957 0 0 0 0 59.415586449929833 74.394007370639429 0 74.394007370639429 -127.74128118529097 0 0 0 0 24.351056160119697 -2.6565674235471306 0 -2.6565674235471306 109.62383943609075 0 0 0 0 -56.731701354017787 -15.67682503979313 0 -15.67682503979313 217.78143943807129 0 0 0 0 78.776386826591988 -195.28448496212243 0 -195.28448496212243 196.20568688670423 0 0 0 0 114.39340487391382 -90.539702103396166 0 -90.539702103396166 -189.22635219274844 0 0 0 0 241.78393781725754 -125.32542949229742 0 -125.32542949229742 -200.13566302300296 0 0 0 0 48.772799003533024 -9.6337970507663613 0 -9.6337970507663613 1.1714570673362434 0 0 0 0 213.89354642682883 -363.6018444161291 0 -363.6018444161291 507.56441038110711 0 0 0 0 186.27945240185363 132.84367171369229 0 132.84367171369229 291.98342982888948 0 0 0 0 2553.371677221694 -1671.4617676903722 0 -1671.4617676903722 1183.9905767568716 0 0 0 0 1644.5357249063709 -1143.6628927316062 0 -1143.6628927316062 731.60612138046577 0 0 0 0 268.47536217751576 -625.81791952157585 0 -625.81791952157585 860.64429487428743 0 0 0 0 1742.1043665376164 834.91610748643666 0 834.91610748643666 267.27101593828456 0 0 0 0 20.497469096509079 -6.0503442896869339 0 -6.0503442896869339 1.8218193457858611 0 0 0 0 1380.6387151596009 -330.974759017937 0 -330.974759017937 152.52611611560405 0 0 0 0 1856.2877940072867 -360.70946519790141 0 -360.70946519790141 87.499901835291894 0 0 0 0 1274.4389018498314 -763.63109376068871 0 -763.63109376068871 431.02915875701956 0 0 0 0 1935.5895772751755 -610.34721299240846 0 -610.34721299240846 10.36983960992211 0 0 0 0 1587.9801471896099 -392.11083395087803 0 -392.11083395087803 111.62041180557696 0 0 0 0 2829.2761468565877 -752.78080202861815 0 -752.78080202861815 24.93396873663275 0 0 0 0 484.57926375551324 -595.13156680467807 0 -595.13156680467807 570.35393450654306 0 0 0 0 574.19296734760928 -253.67907303368062 0 -253.67907303368062 486.98251178760972 0 0 0 0 309.95879150823384 -356.93982615515426 0 -356.93982615515426 533.45876198566452 0 0 0 0 793.88309259763719 -270.7694940911905 0 -270.7694940911905 342.46926842776293 0 0 0 0 1289.378047812057 -190.79212791557484 0 -190.79212791557484 171.17589708151809 0 0 0 0 773.86848840008315 -362.65117192974867 0 -362.65117192974867 361.57210816423856 0 0 0 0 459.62994676834205 -59.833960018731432 0 -59.833960018731432 282.83998354899086 0 0 0 0 265.04289690924634 -207.65973931456438 0 -207.65973931456438 443.64966610159581 0 0 0 0 29.956341030347176 -97.65653080158836 0 -97.65653080158836 474.24497507158821 0 0 0 0 86.237733299418323 -86.854802901329421 0 -86.854802901329421 505.77428869753749 0 0 0 0 333.91455620753118 -207.57822357629232 0 -207.57822357629232 446.6341903930637 0 0 0 0 1.7600017053791817 -167.1316774240521 0 -167.1316774240521 533.39761591910678 0 0 0 0 73.430759954550922 -190.51865695625543 0 -190.51865695625543 110.6692342237084 0 0 0 0 18.479864799784991 -153.11769307403938 0 -153.11769307403938 540.6163260140786 0 0 0 0 -178.52779904466297 -99.574291231976986 0 -99.574291231976986 537.72710744296091 0 0 0 0 118.43876785277644 -24.246198942587853 0 -24.246198942587853 309.4076582844973 0 0 0 0 -251.63674724914654 16.948482519006348 0 16.948482519006348 378.56144395346473 0 0 0 0 -282.86818538426724 -108.02992975351799 0 -108.02992975351799 391.44860403771418 0 0 0 0 -122.82208615963646 75.319410324659657 0 75.319410324659657 188.09311124553278 0 0 0 0 -35.779350880631682 -61.680807605208429 0 -61.680807605208429 354.09736612354936 0 0 0 0 120.59498440423704 -53.189624574823029 0 -53.189624574823029 -9.9747761503977017 0 0 0 0 -186.95788239897774 -142.83538200241628 0 -142.83538200241628 -54.730243687292386 0 0 0 0 -315.92818016891761 -230.80903816247155 0 -230.80903816247155 -103.63596570443224 0 0 0 0 -11.681625558936503 -267.54411391376379 0 -267.54411391376379 -10.229072715419989 0 0 0 0 203.96913829634832 -106.65678533849314 0 -106.65678533849314 -62.896813041639689 0 0 0 0 163.87279937132553 -119.2245654403514 0 -119.2245654403514 -53.815172133238775 0 0 0 0 -181.73530241780782 -173.58050577121912 0 -173.58050577121912 114.51248648175533 0 0 0 0 490.4220824895292 -259.56857561339439 0 -259.56857561339439 121.87542297002619 0 0 0 0 164.96528834514015 -105.3884769261615 0 -105.3884769261615 117.92337929617133 0 0 0 0 547.60438133755451 -119.41801901720373 0 -119.41801901720373 -35.503769800587179 0 0 0 0 360.25775708906804 -282.07492809332325 0 -282.07492809332325 14.684647326450431 0 0 0 0 674.10599809582709 -320.24791128050674 0 -320.24791128050674 152.25109568414427 0 0 0 0 722.22878739925545 -94.69651184942586 0 -94.69651184942586 62.592391169855546 0 0 0 0 205.24525612466823 -191.4539918121684 0 -191.4539918121684 160.78631356329061 0 0 0 0 323.15989616205479 -33.775453988203935 0 -33.775453988203935 193.61051900445182 0 0 0 0 621.15112418779972 -263.33988663619721 0 -263.33988663619721 274.85616792526798 0 0 0 0 1056.3694581539985 -301.28128724072531 0 -301.28128724072531 227.95964034868666 0 0 0 0 844.90360782945936 -84.542208706400743 0 -84.542208706400743 167.78487599359141 0 0 0 0 964.678077964767 -313.78545936060982 0 -313.78545936060982 161.78999255034552 0 0 0 0 1035.2778663933877 -199.9243466515768 0 -199.9243466515768 261.29649846431857 0 0 0 0 1410.2878631367821 -311.96688070790151 0 -311.96688070790151 94.607766581318174 0 0 0 0 1397.0067061122863 -389.12740970273535 0 -389.12740970273535 370.35857811622463 0 0 0 0 1804.50844269347 -198.02087324422337 0 -198.02087324422337 210.97619872858922 0 0 0 0 1454.8936584810319 -272.44175671869664 0 -272.44175671869664 285.11323230950438 0 0 0 0 1459.7026558877005 -215.81058937590933 0 -215.81058937590933 107.17570031683135 0 0 0 0 1808.749034067001 -148.88152991752031 0 -148.88152991752031 125.96302977282721 0 0 0 0 151.57435437101492 -193.68435983534729 0 -193.68435983534729 -110.55138685859168 0 0 0 0 -228.69193182802178 378.6475197300158 0 378.6475197300158 -198.20909731590859 0 0 0 0 19.292157892839075 11.979934465625385 0 11.979934465625385 4.8541106751502756 0 0 0 0 110.47522001966263 -98.083871458856493 0 -98.083871458856493 76.334839364918935 0 0 0 0 -392.72494502412167 46.001192560404746 0 46.001192560404746 256.49061127393867 0 0 0 0 81.014678369380817 -9.1137409005864356 0 -9.1137409005864356 51.541233104635467 0 0 0 0 10.270989301670667 -1.7509498910007366 0 -1.7509498910007366 -2.9081009993923956 0 0 0 0 72.58400196686739 -16.223998341004233 0 -16.223998341004233 45.724497050891841 0 0 0 0 90.305519568619275 -14.345789928443992 0 -14.345789928443992 44.137330033117905 0 0 0 0 24.490472385698801 15.786323900482842 0 15.786323900482842 4.7983206198284565 0 0 0 0 99.887809321926397 -39.915786743979652 0 -39.915786743979652 20.530287156383793 0 0 0 0 -119.9502535562724 559.65061837353983 0 559.65061837353983 -150.2459538242864 0 0 0 0 -108.64704521769295 -105.89167107971002 0 -105.89167107971002 161.11210815510373 0 0 0 0 383.04219319589356 217.48731339910898 0 217.48731339910898 373.15272428753246 0 0 0 0 755.28052665945506 -673.08627432631874 0 -673.08627432631874 531.26772601254493 0 0 0 0 44.203125198214593 -181.05994078360251 0 -181.05994078360251 232.84793752791518 0 0 0 0 0.012360915002348705 -0.94374754859911114 0 -0.94374754859911114 8.8586627937419937 0 0 0 0 -755.93154607347515 18.821861085912587 0 18.821861085912587 596.78554382600578 0 0 0 0 -476.01113382667791 -301.90574919184428 0 -301.90574919184428 944.10853146070622 0 0 0 0 1179.8268462608899 -754.66268084037108 0 -754.66268084037108 282.37538793245994 0 0 0 0 164.71660903229485 -29.225471615665469 0 -29.225471615665469 327.39812791221539 0 0 0 0 600.58743311937997 -684.25441223321172 0 -684.25441223321172 921.60340093939294 0 0 0 0 -5.8359392200959519 20.320325429093373 0 20.320325429093373 197.61270148285149 0 0 0 0 1012.9610782034472 -447.15266508805234 0 -447.15266508805234 312.39440079624649 0 0 0 0 956.19718217479362 -628.71798138515783 0 -628.71798138515783 230.05927757365453 0 0 0 0 -325.93685886007097 74.400706478222673 0 74.400706478222673 -232.49944564027101 0 0 0 0 -580.06145786855996 -367.35205624707669 0 -367.35205624707669 42.124698188441471 0 0 0 0 0.11717280775380967 -4.3732192362963742 0 -4.3732192362963742 19.433864952388138 0 0 0 0 -824.37571039036993 -268.23083553646211 0 -268.23083553646211 170.96612172718233 0 0 0 0 -10.616162571750465 -9.2912075061278756 0 -9.2912075061278756 17.50163031102602 0 0 0 0 -578.11238270827744 -24.271781647937132 0 -24.271781647937132 26.54696118211541 0 0 0 0 844.71497964309856 -46.629071424898029 0 -46.629071424898029 -88.710226842593329 0 0 0 0 2.6513654156362847 -3.2852549024325097 0 -3.2852549024325097 5.104744499165359 0 0 0 0 950.51216777934656 -431.62611445746904 0 -431.62611445746904 -33.812764724579665 0 0 0 0 185.1972648068031 122.11507575413248 0 122.11507575413248 -131.27727653494389 0 0 0 0 449.83706851528893 -255.24950917591013 0 -255.24950917591013 -85.200213093135062 0 0 0 0 406.95868368716236 -389.91886695419907 0 -389.91886695419907 71.319526053445998 0 0 0 0 411.29241708728142 -364.53889400604089 0 -364.53889400604089 150.50357931860617 0 0 0 0 469.60256619048482 -435.54889836262441 0 -435.54889836262441 101.32987404629853 0 0 0 0 619.13021698826651 -704.11565705809949 0 -704.11565705809949 385.88577616626117 0 0 0 0 296.73124210509923 -495.24511508799469 0 -495.24511508799469 358.07955462263999 0 0 0 0 193.55761149596734 -165.01608215595169 0 -165.01608215595169 220.94919592775341 0 0 0 0 231.17372481395319 -335.06201113952829 0 -335.06201113952829 613.81719559685553 0 0 0 0 49.709616159221298 -82.520641979782681 0 -82.520641979782681 -301.50926118681036 0 0 0 0 -122.87112727047008 -70.638418133450614 0 -70.638418133450614 174.33609429061585 0 0 0 0 146.0329783052473 -242.76798674836414 0 -242.76798674836414 97.871198716827735 0 0 0 0 187.4797756948565 -261.49523782091296 0 -261.49523782091296 82.789783145809679 0 0 0 0 -33.751710581957525 -164.68646395135113 0 -164.68646395135113 198.70824253643036 0 0 0 0 142.74741187937946 -297.17043432776427 0 -297.17043432776427 180.94356085934714 0 0 0 0 276.83476268779566 -267.14718783649698 0 -267.14718783649698 95.415826433890516 0 0 0 0 385.88298327872189 -104.12549839796429 0 -104.12549839796429 206.83326874825741 0 0 0 0 189.11540820658234 3.1001462434032874 0 3.1001462434032874 251.72428059244794 0 0 0 0 222.82196266397773 1.5785558358883236 0 1.5785558358883236 220.75453267702017 0 0 0 0 128.9530398631033 47.841979126272008 0 47.841979126272008 202.28348474912286 0 0 0 0 1218.6835823990832 299.06698710917851 0 299.06698710917851 111.74839936747446 0 0 0 0 435.59213933443232 499.92209863822916 0 499.92209863822916 242.16402712504816 0 0 0 0 1032.866049398566 -123.28654941632013 0 -123.28654941632013 -10.430613889002075 0 0 0 0 7.8264208408522791 4.3678081205336792 0 4.3678081205336792 2.1039580797689545 0 0 0 0 1741.1150817073826 80.176091080622768 0 80.176091080622768 41.916356304287774 0 0 0 0 1082.5255346124613 -543.47578652516586 0 -543.47578652516586 54.92337124306971 0 0 0 0 -241.32636557817443 -150.4426206245804 0 -150.4426206245804 97.057643007178285 0 0 0 0 -98.343107099012457 378.23314622482997 0 378.23314622482997 215.182968956411 0 0 0 0 0.20226506118104215 1.4303021960668616 0 1.4303021960668616 -3.1850859611214704 0 0 0 0 155.78006662963116 -149.28913400171905 0 -149.28913400171905 286.12130992593558 0 0 0 0 142.81969330257652 -44.652336121074313 0 -44.652336121074313 22.623928518737557 0 0 0 0 863.06463912450613 2.0736431150901069 0 2.0736431150901069 -86.678846594838205 0 0 0 0 857.42011909523205 -45.819249253567172 0 -45.819249253567172 -91.391383987368499 0 0 0 0 860.06293498685136 4.6099228874619484 0 4.6099228874619484 -76.111005085774195 0 0 0 0 739.92684853155333 -5.2617154017450503 0 -5.2617154017450503 -68.51611988321747 0 0 0 0 780.78633831113802 -74.329725691798672 0 -74.329725691798672 -68.359286207180503 0 0 0 0 798.11314076216013 107.45491528307758 0 107.45491528307758 -152.5154357426859 0 0 0 0 814.95509087277878 168.55177732352877 0 168.55177732352877 -94.910531702103526 0 0 0 0 497.84974447358218 214.23127704596027 0 214.23127704596027 -78.509761656830506 0 0 0 0 575.67997793847962 74.349243513398051 0 74.349243513398051 117.27641019597741 0 0 0 0 345.61465916844463 -144.90997509077351 0 -144.90997509077351 -62.513904640567858 0 0 0 0 71.451047765660405 -29.863033269231892 0 -29.863033269231892 22.207362684537657 0 0 0 0 872.2641329860287 176.44462731598662 0 176.44462731598662 -380.63965264404374 0 0 0 0 908.63772414209984 254.44015847657442 0 254.44015847657442 -231.77885200070307 0 0 0 0 861.39031379846801 277.33977111572813 0 277.33977111572813 -228.502136952971 0 0 0 0 812.45408407521916 40.631651966406771 0 40.631651966406771 -82.526743169222797 0 0 0 0 1012.0068860841911 202.87039669713192 0 202.87039669713192 -294.86268963498037 0 0 0 0 995.19889338236135 30.135861619161631 0 30.135861619161631 -126.52076248687683 0 0 0 0 632.66249353687112 415.43838460585334 0 415.43838460585334 -491.34542930315263 0 0 0 0 845.33562587462768 88.636725028866479 0 88.636725028866479 -530.89464223940331 0 0 0 0 772.30521824913535 -22.72972440316147 0 -22.72972440316147 225.71999059742703 0 0 0 0 1108.4900770643846 281.44067361625764 0 281.44067361625764 95.217640782703342 0 0 0 0 982.06991504550615 -80.597240178476568 0 -80.597240178476568 541.42221653071419 0 0 0 0 948.13831264599071 274.5559185938954 0 274.5559185938954 710.83102768770812 0 0 0 0 569.52219770848092 57.162409458495716 0 57.162409458495716 554.43398950572066 0 0 0 0 626.49712900847862 151.74204315902591 0 151.74204315902591 435.17878972223343 0 0 0 0 1941.0237592091148 435.34398751863932 0 435.34398751863932 257.21819843005915 0 0 0 0 154.51905301944117 591.66352058540701 0 591.66352058540701 347.04305798419682 0 0 0 0 1459.871065671831 1189.7429634487476 0 1189.7429634487476 -4.9205522817277512 0 0 0 0 240.99886618293837 -215.95496339286322 0 -215.95496339286322 138.15857925166557 0 0 0 0 1914.0226959572844 161.64139826150543 0 161.64139826150543 -385.79318340608387 0 0 0 0 1392.352763058615 922.33108049262466 0 922.33108049262466 -24.982086599104662 0 0 0 0 3305.6967827876442 429.68241912963003 0 429.68241912963003 -408.23921115946439 0 0 0 0 3499.8948751651078 563.57798989464766 0 563.57798989464766 -447.85506001755107 0 0 0 0 3696.5996686663184 -133.82897385761862 0 -133.82897385761862 284.8872283325112 0 0 0 0 3660.9901481419988 1144.3613889338492 0 1144.3613889338492 -466.21270539043172 0 0 0 0 3400.8561081739444 -600.21412327369558 0 -600.21412327369558 116.82948188376743 0 0 0 0 18.39047295405901 11.456884163582874 0 11.456884163582874 -0.57402609843727781 0 0 0 0 721.77041439937716 993.99447665774164 0 993.99447665774164 463.99953645032929 0 0 0 0 3499.6676786220587 450.50620585383541 0 450.50620585383541 1042.5860694549294 0 0 0 0 3809.5301969126172 605.09775398141312 0 605.09775398141312 -155.1885918794128 0 0 0 0 -10.461164559799499 -446.69018173417385 0 -446.69018173417385 -669.37472308138433 0 0 0 0 -226.99833054882899 34.705700101928983 0 34.705700101928983 -7.5499429431943099 0 0 0 0 12.024738103503363 10.370875570871789 0 10.370875570871789 -9.678391533231629 0 0 0 0 -73.468844908467076 316.09249043541058 0 316.09249043541058 -175.79567466724711 0 0 0 0 41.933316805547747 -82.97779494895758 0 -82.97779494895758 47.486934263019066 0 0 0 0 144.81552951545538 135.16615912544648 0 135.16615912544648 -3.7965513803883368 0 0 0 0 46.853252466652876 39.618020751928697 0 39.618020751928697 20.142207538869023 0 0 0 0 26.015347450157698 0.76471458887450439 0 0.76471458887450439 -44.797236260663666 0 0 0 0 114.22199067840302 97.909878459156062 0 97.909878459156062 -68.739390407113206 0 0 0 0 221.05310124808602 -109.0998367156285 0 -109.0998367156285 37.559121306181169 0 0 0 0 -50.255537405159771 495.50608472641136 0 495.50608472641136 1106.1730191697879 0 0 0 0 3074.1211587803373 273.20114676426726 0 273.20114676426726 -226.63595199657524 0 0 0 0 1138.1698511229624 -537.92202860809925 0 -537.92202860809925 225.82801183690424 0 0 0 0 2588.1437020489357 669.66606463732376 0 669.66606463732376 -164.6987661978219 0 0 0 0 2758.8530162380557 437.7333795025599 0 437.7333795025599 -328.89101467017048 0 0 0 0 3500.0994974651012 466.72912578077086 0 466.72912578077086 -524.0568315143305 0 0 0 0 2912.3755870408913 737.44113948342715 0 737.44113948342715 -124.10632687656403 0 0 0 0 15.156268088018045 -12.53104440148109 0 -12.53104440148109 -24.259485942474257 0 0 0 0 -132.27124887419268 -104.99552092452041 0 -104.99552092452041 403.66546769089382 0 0 0 0 462.93918127346842 107.45392737044494 0 107.45392737044494 -130.67179868803257 0 0 0 0 688.10980376772204 700.9393720246419 0 700.9393720246419 517.9595730080116 0 0 0 0 13.90688222897559 -9.9699245305914417 0 -9.9699245305914417 -6.1700768209317927 0 0 0 0 3158.8848207889096 1103.5078750608357 0 1103.5078750608357 318.70256042977769 0 0 0 0 3499.1253225559517 1092.7696191973675 0 1092.7696191973675 82.196032076948285 0 0 0 0 -269.10473443235014 579.208622328518 0 579.208622328518 535.83604922344648 0 0 0 0 410.70744758824003 669.50639813661383 0 669.50639813661383 747.08686332619664 0 0 0 0 1526.0512086553827 1150.2152669633754 0 1150.2152669633754 279.23412317017477 0 0 0 0 1107.2646642982181 391.84305296332491 0 391.84305296332491 -36.561057244693188 0 0 0 0 1.3014158535461924 -1.1943665894623621 0 -1.1943665894623621 0.92061068542718161 0 0 0 0 -582.73361313962414 -112.9377223437171 0 -112.9377223437171 139.95210424023958 0 0 0 0 604.87138152448188 1.8197831126312849 0 1.8197831126312849 -206.86435358267227 0 0 0 0 747.33349522660865 167.90972069399231 0 167.90972069399231 -157.71519337389714 0 0 0 0 830.7116576005983 1178.7400703394887 0 1178.7400703394887 810.99583027042945 0 0 0 0 2103.8976300507511 179.35386754606225 0 179.35386754606225 -212.65288267275312 0 0 0 0 1108.6960736166138 -1154.679748690583 0 -1154.679748690583 356.26796703771834 0 0 0 0 -270.83597197620475 -276.44735499418243 0 -276.44735499418243 217.30967550253763 0 0 0 0 141.15361780296371 -496.26252931973477 0 -496.26252931973477 245.15106368507745 0 0 0 0 823.10902441196595 -204.01171182708987 0 -204.01171182708987 -158.41806150832099 0 0 0 0 393.76869604492776 -142.68505914968716 0 -142.68505914968716 -162.93630444572204 0 0 0 0 25.040885168342712 -62.067793159189328 0 -62.067793159189328 6.6531222465837665 0 0 0 0 33.768790299585596 -43.923189908916164 0 -43.923189908916164 4.2549245551467916 0 0 0 0 -29.880578545373282 -69.291756328627798 0 -69.291756328627798 6.7833309287470911 0 0 0 0 15.889250104241 -193.29315773021284 0 -193.29315773021284 77.142671306922523 0 0 0 0 69.70552891410486 -118.7386498914839 0 -118.7386498914839 -45.326593793152028 0 0 0 0 -114.37243561121068 -11.587026082639113 0 -11.587026082639113 66.902788190112915 0 0 0 0 270.83799011276278 -75.774537437919207 0 -75.774537437919207 -258.45953064737296 0 0 0 0 279.58018728847674 7.9851983225698859 0 7.9851983225698859 253.28039811143753 0 0 0 0 81.398034801648464 -420.22201033888314 0 -420.22201033888314 -49.091352988311655 0 0 0 0 74.124584893841529 -156.49004252797886 0 -156.49004252797886 -148.33852228682917 0 0 0 0 34.746741238017421 -68.367984175074866 0 -68.367984175074866 4.7080330381336353 0 0 0 0 81.284248490358166 -54.873865975271947 0 -54.873865975271947 6.2574497562892688 0 0 0 0 156.56950460231747 -239.09062543137225 0 -239.09062543137225 -122.79340014828449 0 0 0 0 639.85660786819062 -676.45303707770245 0 -676.45303707770245 226.21317269241626 0 0 0 0 62.029739376967186 -42.477858235221333 0 -42.477858235221333 9.8550144750126893 0 0 0 0 227.34567867148144 -60.075169106783505 0 -60.075169106783505 -354.31439831704847 0 0 0 0 -153.75506017622422 -35.58145696661677 0 -35.58145696661677 108.49967635820394 0 0 0 0 41.60765207374061 -50.587252043883609 0 -50.587252043883609 2.5240326170931837 0 0 0 0 24.769750508622057 -45.58323915120166 0 -45.58323915120166 18.421900654723878 0 0 0 0 -8.9238208117021429 -6.9438743102602611 0 -6.9438743102602611 7.7565024806928573 0 0 0 0 -248.49956739496875 54.143442408847335 0 54.143442408847335 23.532822378624587 0 0 0 0 -151.94426943861799 -195.25443184364349 0 -195.25443184364349 -119.37715109020655 0 0 0 0 7.9584668426076739 -3.4990387885295124 0 -3.4990387885295124 0.097428665946559079 0 0 0 0 -147.32086588102402 -66.710066636568627 0 -66.710066636568627 201.76129364627377 0 0 0 0 118.8386351830045 -86.0227585536486 0 -86.0227585536486 -60.193032649614452 0 0 0 0 68.415782420527051 -32.4380174464061 0 -32.4380174464061 0.030257062449677186 0 0 0 0 114.92090643851822 -27.292386284601214 0 -27.292386284601214 -9.2697184166003463 0 0 0 0 75.656939023892846 -18.752862846006977 0 -18.752862846006977 -17.338521895779763 0 0 0 0 160.16135604631563 -45.799801216428477 0 -45.799801216428477 -26.207885139764414 0 0 0 0 156.015898693483 22.869275537676458 0 22.869275537676458 142.16209786721629 0 0 0 0 13.120660461556575 -2.3818586217608662 0 -2.3818586217608662 -8.5366107028895275 0 0 0 0 93.672241418159501 -34.704223116189951 0 -34.704223116189951 5.1895740577588185 0 0 0 0 162.09856154913177 -45.620679090350222 0 -45.620679090350222 319.39388061449972 0 0 0 0 285.05154057779328 8.3671275742067337 0 8.3671275742067337 -44.34023489852791 0 0 0 0 322.22008170401386 -43.424072253695385 0 -43.424072253695385 27.825638580712621 0 0 0 0 341.88916660041559 277.03624429330011 0 277.03624429330011 37.30863199703208 0 0 0 0 -0.21478805288812053 1.4603931158852808 0 1.4603931158852808 1.5341747542356181 0 0 0 0 92.321800697563958 140.00449872811134 0 140.00449872811134 115.55980136663857 0 0 0 0 889.47975967064303 369.759183392061 0 369.759183392061 -212.99220747156272 0 0 0 0 765.8475501382386 438.57644785529669 0 438.57644785529669 30.303115506771064 0 0 0 0 928.5040262069374 427.24635580107656 0 427.24635580107656 -148.40069967318777 0 0 0 0 273.6029862720527 406.50436433441871 0 406.50436433441871 100.47667922708297 0 0 0 0 1114.8175785316726 419.74914812349016 0 419.74914812349016 -157.6118323020155 0 0 0 0 1039.8269829113729 366.53162222017136 0 366.53162222017136 -319.40902378125372 0 0 0 0 851.83271983467012 30.992307439972137 0 30.992307439972137 -147.18901192748194 0 0 0 0 1884.9880908565174 -384.51379246346914 0 -384.51379246346914 95.261549143430102 0 0 0 0 15.017805308790171 12.999004141139277 0 12.999004141139277 14.063046806258733 0 0 0 0 2431.0303799040535 939.97865317784897 0 939.97865317784897 -75.470928505001211 0 0 0 0 498.26811673712291 1365.3851667500285 0 1365.3851667500285 1425.8053134239153 0 0 0 0 -468.73191507113097 266.95157134071087 0 266.95157134071087 644.36883867183587 0 0 0 0 854.04035390234822 939.24239580395033 0 939.24239580395033 465.46254368913378 0 0 0 0 149.76835924023908 128.40629881152813 0 128.40629881152813 68.581484173706485 0 0 0 0 144.53654108492628 53.728546334257317 0 53.728546334257317 88.392467163959736 0 0 0 0 126.03961775878088 125.43603381547712 0 125.43603381547712 61.080625960099496 0 0 0 0 38.03688746431726 99.005088354810425 0 99.005088354810425 53.199206384415731 0 0 0 0 72.584977412072476 174.61710917936614 0 174.61710917936614 -35.113186428924564 0 0 0 0 73.812589716762886 94.361740616272968 0 94.361740616272968 55.748365504736512 0 0 0 0 89.893156875219574 142.74264512176796 0 142.74264512176796 -64.224763622002911 0 0 0 0 223.70942858732451 125.35375331810224 0 125.35375331810224 10.917497567851115 0 0 0 0 175.70048390282318 79.829694211378239 0 79.829694211378239 -10.997279656927105 0 0 0 0 181.34928904987464 93.569393015660125 0 93.569393015660125 28.350918960847935 0 0 0 0 281.1907762701012 -13.637403630615722 0 -13.637403630615722 60.902247371431883 0 0 0 0 0.61743601413478899 0.29280708154817603 0 0.29280708154817603 7.3496716072298272 0 0 0 0 365.5485326745511 -41.229812091727581 0 -41.229812091727581 110.89552748436472 0 0 0 0 415.82674655477604 10.80430336280358 0 10.80430336280358 3.8890030032737286 0 0 0 0 460.08764200740552 227.17983202156393 0 227.17983202156393 230.19289945046057 0 0 0 0 374.15260569941165 18.166034011705051 0 18.166034011705051 4.5273985656178866 0 0 0 0 400.17851005910416 245.98927001973493 0 245.98927001973493 753.61834597787674 0 0 0 0 1103.7674251989811 -442.24043044833911 0 -442.24043044833911 644.69968481556862 0 0 0 0 0.79322704370395059 0.55416786120096617 0 0.55416786120096617 4.7747912860540147 0 0 0 0 243.32107244274812 -252.45107831530822 0 -252.45107831530822 1215.1801160054274 0 0 0 0 318.0625553495629 -223.42185294471892 0 -223.42185294471892 536.84772020708351 0 0 0 0 368.77006819244707 -76.400560938935996 0 -76.400560938935996 674.8287695017334 0 0 0 0 343.22414662136271 125.58717064458108 0 125.58717064458108 294.67405107036029 0 0 0 0 239.07832191382477 40.408027112915761 0 40.408027112915761 235.21582929768692 0 0 0 0 316.51574478699786 184.49243790839785 0 184.49243790839785 183.91304143632624 0 0 0 0 -5.2391017727568396 24.263541510785672 0 24.263541510785672 225.17268549331311 0 0 0 0 19.093585454633285 141.6667158241064 0 141.6667158241064 364.94543561257615 0 0 0 0 -19.443952826637542 61.036614152994389 0 61.036614152994389 195.17056697615305 0 0 0 0 37.19480877238675 30.120175847077917 0 30.120175847077917 204.80886534867773 0 0 0 0 -11.526851915667066 58.402881013259503 0 58.402881013259503 223.30741172954868 0 0 0 0 -17.923163758056035 32.05144893199045 0 32.05144893199045 157.41404528347903 0 0 0 0 -34.764778677970753 92.867313390716276 0 92.867313390716276 120.66135330085427 0 0 0 0 -4.7164573100963025 86.248698305262963 0 86.248698305262963 137.86414714396506 0 0 0 0 1.0605244992912048 30.793261377874614 0 30.793261377874614 231.60721845754279 0 0 0 0 16.455242133932188 109.86538429562825 0 109.86538429562825 206.58656517790325 0 0 0 0 -5.1332202336071191 -3.9625529620819009 0 -3.9625529620819009 -0.59740905220055396 0 0 0 0 16.812020326519047 -1.2846332296382528 0 -1.2846332296382528 -4.7445087270178128 0 0 0 0 28.842533254035516 -136.23839515419058 0 -136.23839515419058 -556.06221976616962 0 0 0 0 53.191817666971474 126.67408092020833 0 126.67408092020833 195.82321036551326 0 0 0 0 -45.710438482848986 -53.912088172215931 0 -53.912088172215931 -0.09773044488792948 0 0 0 0 -47.322634321739315 -174.94221054269747 0 -174.94221054269747 -468.24848979613307 0 0 0 0 74.755585394159425 117.83012071604207 0 117.83012071604207 175.45886827595541 0 0 0 0 84.653455853178457 96.442037845387404 0 96.442037845387404 169.59949611652701 0 0 0 0 40.202104169555241 115.63419333131969 0 115.63419333131969 181.90148369814688 0 0 0 0 44.430775075772544 84.83885611239748 0 84.83885611239748 167.1449423795616 0 0 0 0 54.223844222608022 52.035841702247126 0 52.035841702247126 185.20424961555909 0 0 0 0 1.7353644937247736 61.426363534672419 0 61.426363534672419 184.66390991710892 0 0 0 0 28.082476409770607 106.87237001940912 0 106.87237001940912 139.80554123558431 0 0 0 0 1.8951322254433762 59.599885241813809 0 59.599885241813809 109.96733682739978 0 0 0 0 10.155575876242438 116.47636872557689 0 116.47636872557689 59.935736567528693 0 0 0 0 34.341039595674374 77.384012563891702 0 77.384012563891702 111.52137065084844 0 0 0 0 115.69882760869223 100.85967086383903 0 100.85967086383903 90.376086816112547 0 0 0 0 54.762523606594186 82.085354116633425 0 82.085354116633425 195.97511937318561 0 0 0 0 56.956857865399797 92.04754071678326 0 92.04754071678326 133.83446036747182 0 0 0 0 26.968240359483389 113.5096620314593 0 113.5096620314593 119.52612417072214 0 0 0 0 82.713291681197006 97.960590494229564 0 97.960590494229564 31.402161439721112 0 0 0 0 66.824530587407935 125.97533461505179 0 125.97533461505179 78.661126647751189 0 0 0 0 82.144306962640258 120.55970134372569 0 120.55970134372569 -67.013279478747791 0 0 0 0 88.072071776070516 76.048381765666136 0 76.048381765666136 27.259929705666536 0 0 0 0 61.819706543916254 95.156675986587061 0 95.156675986587061 35.069832533725389 0 0 0 0 42.501146262839029 145.27931134198445 0 145.27931134198445 -82.940552003799894 0 0 0 0 4.8655711730971234 89.195436169207937 0 89.195436169207937 59.346975309611679 0 0 0 0 5.7834319735557074 111.50152422689223 0 111.50152422689223 -34.859051179281778 0 0 0 0 -128.40788046389207 162.04620070804765 0 162.04620070804765 -53.68613067710794 0 0 0 0 164.01551381369063 82.689168877918775 0 82.689168877918775 -310.18497055490241 0 0 0 0 27.090470958726655 210.27905749455624 0 210.27905749455624 -252.86460399583882 0 0 0 0 95.131889931653859 101.3633074466897 0 101.3633074466897 -82.759308638092705 0 0 0 0 111.71872731848271 94.701949656264844 0 94.701949656264844 -178.20573744065712 0 0 0 0 167.77912537541124 22.408264577233098 0 22.408264577233098 -187.10161222802421 0 0 0 0 102.75491077004699 65.369007069319423 0 65.369007069319423 -83.164319895703557 0 0 0 0 -0.84571456607955042 57.006668924685243 0 57.006668924685243 48.614704209740012 0 0 0 0 46.360293588062632 128.76950057794977 0 128.76950057794977 -39.729775449121632 0 0 0 0 -11.197395498340484 77.175161698537238 0 77.175161698537238 -28.312320833012791 0 0 0 0 -42.753394371960894 92.864609098166511 0 92.864609098166511 91.746671847597668 0 0 0 0 -99.687589250655947 43.732105949710856 0 43.732105949710856 -35.110702336034137 0 0 0 0 16.962833547120681 121.1425519628508 0 121.1425519628508 -328.82199777791823 0 0 0 0 77.997225375205744 186.05177172662218 0 186.05177172662218 -249.41360177124068 0 0 0 0 13.443487085328343 103.0111359878515 0 103.0111359878515 -59.046621534311839 0 0 0 0 47.347555943153566 252.13768337680267 0 252.13768337680267 -187.55096301823983 0 0 0 0 102.73258101024476 224.46074462761973 0 224.46074462761973 -179.08044632587416 0 0 0 0 26.440595514119195 126.06443673323633 0 126.06443673323633 -144.09683042374809 0 0 0 0 0.4842146632505262 0.10114794118366888 0 0.10114794118366888 -2.5634939011704283 0 0 0 0 -268.47046034056984 330.92556454534758 0 330.92556454534758 -238.50487233599381 0 0 0 0 20.999007906867149 -0.76264446387951068 0 -0.76264446387951068 -8.7913282491027953 0 0 0 0 23.894199754591682 149.45771354983947 0 149.45771354983947 -128.7917132463881 0 0 0 0 197.10566004891007 9.8550651758212098 0 9.8550651758212098 -98.429219244005196 0 0 0 0 292.90277836474706 97.601895358933689 0 97.601895358933689 95.711822080683305 0 0 0 0 -3.9965583188228493 19.282452369087579 0 19.282452369087579 2.1520877868237251 0 0 0 0 130.01052792074915 155.05409676803538 0 155.05409676803538 21.70687505434762 0 0 0 0 133.09702300979916 228.3230795873701 0 228.3230795873701 -268.58775780140422 0 0 0 0 154.81683211724157 160.78108582910409 0 160.78108582910409 -82.111513268669114 0 0 0 0 156.63432890546392 234.49244636902677 0 234.49244636902677 -79.239211661264108 0 0 0 0 187.42531799791323 224.29802867176636 0 224.29802867176636 -189.42127755560978 0 0 0 0 235.20210488604062 123.47624138172735 0 123.47624138172735 -45.171265015109554 0 0 0 0 108.48550593323353 3.2296239075971283 0 3.2296239075971283 -34.968275383932621 0 0 0 0 108.13650106319255 7.4607562835718682 0 7.4607562835718682 -36.593275099035736 0 0 0 0 176.68937191190707 -88.824428208304013 0 -88.824428208304013 -95.751464189151989 0 0 0 0 111.58678080418571 9.9565174405932133 0 9.9565174405932133 -4.323542118061571 0 0 0 0 201.22646707476088 127.09565317771128 0 127.09565317771128 -174.37727311476411 0 0 0 0 130.84413750046406 7.2944126214656819 0 7.2944126214656819 -44.400104363767241 0 0 0 0 122.13582928130238 1.7581249826159198 0 1.7581249826159198 -3.8584012742085756 0 0 0 0 494.11614106541674 -6.8223826952828475 0 -6.8223826952828475 -86.626467292440239 0 0 0 0 111.95557404111514 -56.421838966455155 0 -56.421838966455155 -91.231513267607127 0 0 0 0 113.02922687793762 40.352741175096924 0 40.352741175096924 -48.698895542264466 0 0 0 0 226.56403091551329 -91.056792813819129 0 -91.056792813819129 169.58199226851951 0 0 0 0 163.26525050435885 150.1641266880066 0 150.1641266880066 127.14880324351475 0 0 0 0 3.5086917254649705 -1.4695228437238512 0 -1.4695228437238512 0.59235237084247672 0 0 0 0 262.60611768576928 1.8808668700521594 0 1.8808668700521594 -68.746632828331713 0 0 0 0 262.85544053760532 -0.68760986152665282 0 -0.68760986152665282 -107.19367133732976 0 0 0 0 181.98690961404645 -40.485623347713954 0 -40.485623347713954 -91.679930737998802 0 0 0 0 207.4367719171114 -13.535525256141398 0 -13.535525256141398 -78.429542038868021 0 0 0 0 200.88035224261876 38.806313929120734 0 38.806313929120734 -148.99911408784283 0 0 0 0 252.37956221401691 -0.29764281715142715 0 -0.29764281715142715 -122.08359471414678 0 0 0 0 30.787574352505544 119.18006983133841 0 119.18006983133841 0.037508285285980492 0 0 0 0 40.389262355836621 44.804664487224073 0 44.804664487224073 -18.000626667426364 0 0 0 0 101.10279981049098 0.67831482460405823 0 0.67831482460405823 -33.934259551729554 0 0 0 0 207.67654996332567 11.5976153916763 0 11.5976153916763 9.7283572842479771 0 0 0 0 0.65722722593127614 2.2751760484619155 0 2.2751760484619155 0.81693922878927694 0 0 0 0 68.998518630876788 -93.162304824845705 0 -93.162304824845705 53.651231698396032 0 0 0 0 55.756967556328163 26.987831565672877 0 26.987831565672877 -31.953095989527355 0 0 0 0 307.52436564945674 3.9626267977564567 0 3.9626267977564567 -31.674464142151919 0 0 0 0 64.366023268332356 -66.52265160128718 0 -66.52265160128718 28.226868907135213 0 0 0 0 -288.3053126244431 299.06049642180704 0 299.06049642180704 -113.61506315041152 0 0 0 0 -91.473620501128607 -93.082071372720065 0 -93.082071372720065 -123.02971378684833 0 0 0 0 -0.57088725597867196 3.0798942249422225 0 3.0798942249422225 -6.5206226172932134 0 0 0 0 103.47944339821697 -46.269828023714467 0 -46.269828023714467 -465.74317248732768 0 0 0 0 170.70456446932258 12.964801683073347 0 12.964801683073347 -138.51843136959724 0 0 0 0 109.01415460862336 16.150909979853623 0 16.150909979853623 -124.14003464262078 0 0 0 0 173.95043020469893 -12.135752355926343 0 -12.135752355926343 -238.7227832395547 0 0 0 0 85.153755894752976 233.21620576459964 0 233.21620576459964 -168.71379517911919 0 0 0 0 15.655417983914958 393.32775899084527 0 393.32775899084527 -536.04813361440222 0 0 0 0 -358.54368883404095 234.93699059084224 0 234.93699059084224 -54.107450898451589 0 0 0 0 1.8363195804558927 151.96775998144153 0 151.96775998144153 6.1287741930406128 0 0 0 0 163.31938879606605 58.577059562447062 0 58.577059562447062 -21.387518110973815 0 0 0 0 37.12241822820215 267.2107410689232 0 267.2107410689232 -173.91463658198109 0 0 0 0 96.174337468378326 262.02247038840994 0 262.02247038840994 -195.5020349855954 0 0 0 0 224.83208057021329 -54.376293745073525 0 -54.376293745073525 16.387709565732166 0 0 0 0 -0.015039106202742403 1.7542872303222623 0 1.7542872303222623 3.2268751975391621 0 0 0 0 637.35491474928131 -41.119537462181825 0 -41.119537462181825 -156.97121474509458 0 0 0 0 -27.943071951205638 -148.20347307910276 0 -148.20347307910276 -101.87211594803694 0 0 0 0 405.13790376106044 149.43732238654502 0 149.43732238654502 -524.24943403382076 0 0 0 0 422.74263237879495 43.418372649127377 0 43.418372649127377 -51.178156723562324 0 0 0 0 412.36532135523339 -57.541363801700349 0 -57.541363801700349 -179.60702983682859 0 0 0 0 288.84702512573858 132.5504134429948 0 132.5504134429948 -260.3551301604748 0 0 0 0 406.08668816648424 131.21803730424881 0 131.21803730424881 -291.46249771273506 0 0 0 0 157.05276519531617 372.59258845549084 0 372.59258845549084 -442.38038296673926 0 0 0 0 117.20716931458446 77.818853007021971 0 77.818853007021971 -211.62114274836495 0 0 0 0 81.835212929960107 94.839403103074801 0 94.839403103074801 -52.838876865680959 0 0 0 0 342.51366322452668 151.94329823404678 0 151.94329823404678 -286.4614452406322 0 0 0 0 229.37894436382339 118.80590626858975 0 118.80590626858975 -296.07390494569881 0 0 0 0 360.97483310243115 31.698184511034015 0 31.698184511034015 -466.05630416678832 0 0 0 0 440.89624486671528 133.61626767669895 0 133.61626767669895 -343.03630264396998 0 0 0 0 293.71415376376535 172.14640207206321 0 172.14640207206321 -286.0416510224386 0 0 0 0 438.66475610212547 135.84151568667926 0 135.84151568667926 -301.28881119551806 0 0 0 0 423.89863299008721 109.48127297098245 0 109.48127297098245 -312.42608110990113 0 0 0 0 352.05222775368293 53.853955093743934 0 53.853955093743934 -315.38621231196885 0 0 0 0 415.84701963254338 52.554457799302327 0 52.554457799302327 -105.62671546366983 0 0 0 0 401.6249296007154 121.69514371281275 0 121.69514371281275 -227.59230149699033 0 0 0 0 455.09014008854865 10.73105276871047 0 10.73105276871047 -227.99825401929445 0 0 0 0 389.86996087546868 -80.901917870090529 0 -80.901917870090529 5.1250273482346529 0 0 0 0 501.79288530729536 -38.24392327140913 0 -38.24392327140913 -143.06006735621952 0 0 0 0 339.22354884394736 60.425209579317197 0 60.425209579317197 -145.13181604752731 0 0 0 0 410.24145304469857 36.639367162090821 0 36.639367162090821 -264.55671364060436 0 0 0 0 334.36517784520402 88.018927385632196 0 88.018927385632196 -373.63658549591491 0 0 0 0 167.71414405720861 35.184181429525779 0 35.184181429525779 -263.9783452347184 0 0 0 0 292.59038456924463 -92.034985672506991 0 -92.034985672506991 -152.37617941043254 0 0 0 0 229.82870540321164 -19.649310089765095 0 -19.649310089765095 -559.46837758418042 0 0 0 0 -210.59800049502519 138.60436085378387 0 138.60436085378387 -387.24824578918924 0 0 0 0 40.043945823628746 -127.65398278791963 0 -127.65398278791963 -155.62467835871576 0 0 0 0 181.9237336276783 -584.73993710116656 0 -584.73993710116656 195.70878750815064 0 0 0 0 304.24310894301743 -81.881452111292674 0 -81.881452111292674 -195.89207283838368 0 0 0 0 -75.960113187644311 -563.01552647399694 0 -563.01552647399694 -683.37649738434993 0 0 0 0 528.64957236476766 -481.90483502473217 0 -481.90483502473217 151.64829641937649 0 0 0 0 716.87720539735528 -728.31759867301298 0 -728.31759867301298 300.36046174012063 0 0 0 0 189.2015270449956 -91.726079432036386 0 -91.726079432036386 13.603023478841351 0 0 0 0 426.6400353600402 -323.3524010471674 0 -323.3524010471674 132.56176546063125 0 0 0 0 587.93754015974264 -269.74912117536178 0 -269.74912117536178 29.065794759409982 0 0 0 0 904.98715506685403 -531.15642269107366 0 -531.15642269107366 156.73213937909532 0 0 0 0 644.80250844693728 -348.44125119811372 0 -348.44125119811372 128.66011104132349 0 0 0 0 1162.0322741618256 -799.79123528169839 0 -799.79123528169839 109.46471370601284 0 0 0 0 871.98003922800854 -577.85324938642327 0 -577.85324938642327 92.122325444776379 0 0 0 0 1182.3476995845558 -727.53980676463152 0 -727.53980676463152 130.09512601551859 0 0 0 0 1304.9008400627063 -663.00223809043257 0 -663.00223809043257 58.675339515379846 0 0 0 0 1086.5359188849689 -418.14013498723324 0 -418.14013498723324 23.02349360439473 0 0 0 0 730.44168561427796 -229.20406971777862 0 -229.20406971777862 23.773558390725313 0 0 0 0 514.58626941764669 -91.7151095373506 0 -91.7151095373506 -81.018335984013902 0 0 0 0 742.71909433140172 -249.89734552020718 0 -249.89734552020718 1.9009511795393337 0 0 0 0 542.88618206689716 -46.813269249131281 0 -46.813269249131281 -13.92912847311527 0 0 0 0 2143.0657448041857 -50.155818870291114 0 -50.155818870291114 237.73380753142374 0 0 0 0 1847.5497992136443 -248.39151928733372 0 -248.39151928733372 125.75276760845463 0 0 0 0 2176.9107519725731 -299.99340440383912 0 -299.99340440383912 380.53892090139107 0 0 0 0 1781.3622588682288 -264.18552324349616 0 -264.18552324349616 475.76890397082752 0 0 0 0 2190.1852307555273 -173.94432581013461 0 -173.94432581013461 1577.0631479456406 0 0 0 0 3434.0061221792275 137.04862289012817 0 137.04862289012817 348.33927251853675 0 0 0 0 2294.9773297021129 -343.34308669680968 0 -343.34308669680968 220.36984199030667 0 0 0 0 2331.2282569707095 -360.6861446364851 0 -360.6861446364851 95.667817201590879 0 0 0 0 1933.7240064880607 -1276.9524725125921 0 -1276.9524725125921 72.526249887439917 0 0 0 0 2801.7949366919929 -537.74309750812972 0 -537.74309750812972 -50.86377378594716 0 0 0 0 3750.0184511085026 -1238.200652648635 0 -1238.200652648635 -56.427863450562654 0 0 0 0 1104.2018355281107 -1927.260482018024 0 -1927.260482018024 1377.8482630639701 0 0 0 0 153.49355334033316 -300.49367204729606 0 -300.49367204729606 357.36814248099881 0 0 0 0 404.42819001537282 -372.66282122663506 0 -372.66282122663506 -632.65341039728446 0 0 0 0 835.72080405886663 -1275.4053388857642 0 -1275.4053388857642 626.88696466389069 0 0 0 0 1666.9094760264052 -956.40097256304398 0 -956.40097256304398 121.97746998439743 0 0 0 0 1442.4966075319171 -1071.2043632794782 0 -1071.2043632794782 137.88336659329411 0 0 0 0 1134.5283442079381 -850.06364118026818 0 -850.06364118026818 191.61342508606231 0 0 0 0 1480.9749979725893 -868.83343307802886 0 -868.83343307802886 46.869431714637926 0 0 0 0 1367.5849514832153 -868.43864585933784 0 -868.43864585933784 91.461455158347349 0 0 0 0 1497.0244186346335 -907.02706072718695 0 -907.02706072718695 47.880866275500921 0 0 0 0 1670.8255523230109 -756.36517911763508 0 -756.36517911763508 112.79502488194669 0 0 0 0 1640.7516965961113 -702.84249929449174 0 -702.84249929449174 29.564687114042783 0 0 0 0 1904.8627551845748 -904.93197035095955 0 -904.93197035095955 -0.22083772468567986 0 0 0 0 2210.8398858264954 -691.65011617760683 0 -691.65011617760683 -90.908851791578627 0 0 0 0 1847.4295269300687 -660.91233306357753 0 -660.91233306357753 36.069350685338577 0 0 0 0 2130.8567393965714 -252.89716175080684 0 -252.89716175080684 46.372963933970823 0 0 0 0 2050.7957974898673 -308.52703939055141 0 -308.52703939055141 13.449857788655208 0 0 0 0 1832.1647940806761 -348.59460403175046 0 -348.59460403175046 166.04312505091218 0 0 0 0 1166.1250488657388 -438.30107210512529 0 -438.30107210512529 157.58773389314501 0 0 0 0 1837.8316326833046 -290.54883636535169 0 -290.54883636535169 13.311634007219254 0 0 0 0 1928.1964592790391 -31.544262825500027 0 -31.544262825500027 -33.095130593944475 0 0 0 0 2619.6523477251976 -133.30652743049086 0 -133.30652743049086 -28.065431032942541 0 0 0 0 2227.2465124820446 -249.72925059353895 0 -249.72925059353895 -49.078314648951164 0 0 0 0 1821.7810917726747 -239.10442967484687 0 -239.10442967484687 -27.439696753280259 0 0 0 0 1978.3278137874022 -134.71917593210094 0 -134.71917593210094 36.758233778750764 0 0 0 0 2601.4353578080227 -2163.0951987724861 0 -2163.0951987724861 918.81424200497531 0 0 0 0 3282.0880109067366 -510.49810428894307 0 -510.49810428894307 2146.0308001869871 0 0 0 0 3793.6227223111709 -599.02936039160249 0 -599.02936039160249 -194.2706300198563 0 0 0 0 14.098519782814932 1.5864677585820388 0 1.5864677585820388 -4.1030240454565572 0 0 0 0 773.58960482902694 258.67300649142499 0 258.67300649142499 89.571849714635846 0 0 0 0 1862.3067355733328 152.71614469294093 0 152.71614469294093 76.535584396031709 0 0 0 0 681.66403257002366 -691.43182543389457 0 -691.43182543389457 298.321656296328 0 0 0 0 1494.2529400503518 -650.10437201361458 0 -650.10437201361458 190.85909149046847 0 0 0 0 1399.6857312593384 -763.33473227637705 0 -763.33473227637705 262.70052875226384 0 0 0 0 1345.7449890756652 -922.78138002550759 0 -922.78138002550759 289.39835220247005 0 0 0 0 1381.4638544663612 -815.38554789629165 0 -815.38554789629165 103.64442680530641 0 0 0 0 1511.0589160202944 -936.33666462132453 0 -936.33666462132453 195.20172906526432 0 0 0 0 1583.4286183648874 -868.82729140392814 0 -868.82729140392814 47.302269311424197 0 0 0 0 2258.2292502443161 -1439.7355539321507 0 -1439.7355539321507 900.6198055046134 0 0 0 0 1490.1121012830699 -955.28107029327248 0 -955.28107029327248 660.53982461826763 0 0 0 0 11.480261585468782 -0.37191711790227089 0 -0.37191711790227089 -4.8095425955205364 0 0 0 0 2772.6819711922653 -1687.0228768400848 0 -1687.0228768400848 765.68762917530285 0 0 0 0 1203.8740632646404 9.9445761439792477 0 9.9445761439792477 -154.78273534981417 0 0 0 0 976.24522588215405 -910.28858147011897 0 -910.28858147011897 237.36775554639462 0 0 0 0 20.482754875365728 2.6513298719424938 0 2.6513298719424938 -6.031124578183789 0 0 0 0 908.29955552995671 -1435.1242666426961 0 -1435.1242666426961 631.83502313675126 0 0 0 0 827.40812971492051 -943.25718119916519 0 -943.25718119916519 467.95998698358835 0 0 0 0 938.46824408368047 -782.31477951983652 0 -782.31477951983652 281.38958346710751 0 0 0 0 790.29248415625625 -828.12432472284399 0 -828.12432472284399 449.38240317455814 0 0 0 0 896.83225903394487 -474.06386974092311 0 -474.06386974092311 -21.908592815110751 0 0 0 0 1233.5529505561281 -650.58843018528933 0 -650.58843018528933 59.91626815456948 0 0 0 0 877.77677223717183 -125.32627712099566 0 -125.32627712099566 -114.31053845061706 0 0 0 0 1337.6087342574465 -87.235366689694274 0 -87.235366689694274 -104.65026049393055 0 0 0 0 2130.1263709978739 -785.08351029699952 0 -785.08351029699952 -80.891149251097886 0 0 0 0 1651.2227585533619 -203.60964008823976 0 -203.60964008823976 -263.0843771251632 0 0 0 0 1263.0392800878253 -231.02296111917542 0 -231.02296111917542 -22.770117832537153 0 0 0 0 1194.8397644065408 -426.45896989190669 0 -426.45896989190669 231.46597251539151 0 0 0 0 498.87778846824222 98.279474507170676 0 98.279474507170676 -5.8672241378022818 0 0 0 0 838.17292666346475 -39.690935001480852 0 -39.690935001480852 -60.477240219525072 0 0 0 0 794.91003648645437 -235.49015458491436 0 -235.49015458491436 108.66129898774989 0 0 0 0 959.78003019496828 -137.91262504465158 0 -137.91262504465158 -9.7322083205697254 0 0 0 0 1427.7183297634692 -492.14180156988778 0 -492.14180156988778 22.661631990959677 0 0 0 0 987.7832174240325 -446.01549581763931 0 -446.01549581763931 123.2258836374391 0 0 0 0 1547.7034451436411 -743.97699189079867 0 -743.97699189079867 44.042290767921543 0 0 0 0 1484.4505936601236 -777.63167999245854 0 -777.63167999245854 122.10016716044856 0 0 0 0 1863.0543840100363 -808.49287324492525 0 -808.49287324492525 114.61503494386488 0 0 0 0 1700.3394813324485 -483.52134025900023 0 -483.52134025900023 214.84650174070521 0 0 0 0 1349.9433682368399 -567.76790639113779 0 -567.76790639113779 212.45002636736444 0 0 0 0 1186.9839308472529 -446.43184930537365 0 -446.43184930537365 261.89723223520105 0 0 0 0 1796.4240625320672 -622.11984962770748 0 -622.11984962770748 416.2698822122602 0 0 0 0 1547.8696383917268 -448.13045844942735 0 -448.13045844942735 207.54941450961269 0 0 0 0 1488.3187217599334 -607.61363734956956 0 -607.61363734956956 438.0874528356444 0 0 0 0 1530.6375153882109 -456.295869147242 0 -456.295869147242 489.16707725138258 0 0 0 0 1686.9058370455969 -607.7593111987162 0 -607.7593111987162 694.61267741245319 0 0 0 0 1937.7123738555019 -621.99892463872857 0 -621.99892463872857 639.48742107553699 0 0 0 0 2759.1272297178948 -834.27986049340143 0 -834.27986049340143 549.88181477616808 0 0 0 0 1930.5575275924057 -587.06931580441233 0 -587.06931580441233 570.21555888669718 0 0 0 0 1493.8058601036282 -494.89844269127502 0 -494.89844269127502 663.15270992481055 0 0 0 0 1661.3253313168243 -661.95783079707871 0 -661.95783079707871 703.61442517909381 0 0 0 0 1527.2431668717836 -477.26955094386676 0 -477.26955094386676 649.69190052120757 0 0 0 0 1340.4832386948983 -446.26997710450269 0 -446.26997710450269 722.28817875648838 0 0 0 0 1328.4972899690329 -438.24619116280519 0 -438.24619116280519 717.50902300067901 0 0 0 0 1401.9877575719947 -557.43614796052407 0 -557.43614796052407 622.50233006631061 0 0 0 0 1276.7757384279757 -569.79706427103793 0 -569.79706427103793 539.91074923444285 0 0 0 0 1367.3911744073685 -373.29952330948794 0 -373.29952330948794 225.95762620882306 0 0 0 0 1334.0065289345875 -516.09174883324249 0 -516.09174883324249 474.74734563146376 0 0 0 0 1043.7136262599161 67.324824955568147 0 67.324824955568147 -131.96287424091588 0 0 0 0 1443.4024550118484 -428.39938237976185 0 -428.39938237976185 26.128669138554869 0 0 0 0 1223.7342668470883 -396.2152033052206 0 -396.2152033052206 605.39065564586417 0 0 0 0 1413.7064338617784 -604.2288568326112 0 -604.2288568326112 676.98920594927677 0 0 0 0 1247.6874490251066 -365.04720278651803 0 -365.04720278651803 974.73885520766999 0 0 0 0 1260.5385633642582 -367.8479787741112 0 -367.8479787741112 909.94494923395177 0 0 0 0 1778.1427715874161 167.04233550335448 0 167.04233550335448 1006.2663778223614 0 0 0 0 1203.7649133439045 -399.09747462192036 0 -399.09747462192036 1492.0441072816029 0 0 0 0 1345.4978048538323 -643.25135937593404 0 -643.25135937593404 1082.8946459157414 0 0 0 0 1342.4348408777441 -2.3124233528415061 0 -2.3124233528415061 1227.22429487103 0 0 0 0 1463.1248275425896 82.088549340317513 0 82.088549340317513 762.24703687828878 0 0 0 0 1390.0224062161578 -195.26173972518882 0 -195.26173972518882 920.34733126679578 0 0 0 0 1346.1215904262062 -82.125857023039316 0 -82.125857023039316 698.29649348230669 0 0 0 0 1539.6677771941177 -73.655995270658423 0 -73.655995270658423 339.10571594365683 0 0 0 0 1521.8207430375041 -218.33544992319003 0 -218.33544992319003 359.08396912294256 0 0 0 0 1539.9613038553507 -175.63708914649578 0 -175.63708914649578 420.81390777683919 0 0 0 0 1506.0212986402767 -110.25221947659884 0 -110.25221947659884 702.37838807837397 0 0 0 0 1485.1484198663675 -131.05886670347309 0 -131.05886670347309 207.05271106718283 0 0 0 0 1540.4179259905686 -150.2057359612711 0 -150.2057359612711 398.45261107551778 0 0 0 0 1593.3878852156304 -193.88415113943438 0 -193.88415113943438 142.90963115865088 0 0 0 0 1274.5067609626713 -224.93936963638589 0 -224.93936963638589 108.41822320601204 0 0 0 0 1497.9487094034703 -367.03911401033838 0 -367.03911401033838 110.53061288848312 0 0 0 0 1708.5093641589847 -340.22257730843194 0 -340.22257730843194 375.86916857353026 0 0 0 0 1711.1789637162146 -294.90306897342634 0 -294.90306897342634 198.7283341980301 0 0 0 0 1920.2116452000482 -366.34971348469116 0 -366.34971348469116 63.870931497593119 0 0 0 0 1651.2726535396796 -289.10947510358528 0 -289.10947510358528 332.49386099369804 0 0 0 0 1713.6121613090581 -433.05210052250277 0 -433.05210052250277 577.21275203409823 0 0 0 0 1576.9467389943602 -264.9604381104491 0 -264.9604381104491 635.91863402087256 0 0 0 0 1405.2402045781346 -256.98519395244239 0 -256.98519395244239 638.04099909408251 0 0 0 0 1516.7196788667097 -372.44607447439239 0 -372.44607447439239 574.36720185494414 0 0 0 0 1501.9106203588162 -373.63135414245517 0 -373.63135414245517 753.17000050913521 0 0 0 0 1669.4521484984434 -550.31286682213977 0 -550.31286682213977 678.04767789961625 0 0 0 0 1730.0186412745134 -489.15336626047838 0 -489.15336626047838 569.99266611520943 0 0 0 0 1925.3468734326889 -594.45559875847357 0 -594.45559875847357 563.16612111466054 0 0 0 0 2308.0425521236757 -679.29683483977351 0 -679.29683483977351 490.65353797769785 0 0 0 0 2246.1856853894569 -653.46135701228559 0 -653.46135701228559 118.9293688091293 0 0 0 0 2396.1648292804457 -833.2347436683749 0 -833.2347436683749 332.84518985567775 0 0 0 0 2079.7802431570908 -651.13850357743149 0 -651.13850357743149 551.45603027480865 0 0 0 0 1768.6182375660428 -413.23028494893697 0 -413.23028494893697 387.35905405926678 0 0 0 0 2056.2040124416126 -574.71381081554046 0 -574.71381081554046 361.50219359190669 0 0 0 0 2040.3192035899265 -620.62005173963371 0 -620.62005173963371 405.93101587481397 0 0 0 0 1939.1500118865806 -451.34685092926702 0 -451.34685092926702 198.56183619417243 0 0 0 0 2022.0472047071526 -545.29395924218625 0 -545.29395924218625 292.10994815392405 0 0 0 0 2213.2264361202615 -562.14476956871931 0 -562.14476956871931 84.725041614768998 0 0 0 0 2221.060688234913 -571.78114008612556 0 -571.78114008612556 -32.245391642289178 0 0 0 0 2291.9746407512866 -676.84032779825066 0 -676.84032779825066 123.22568527916519 0 0 0 0 2302.1511823272158 -737.73424327918565 0 -737.73424327918565 -38.3033944217932 0 0 0 0 2393.0195189660444 -699.57574835935384 0 -699.57574835935384 -83.594792367519403 0 0 0 0 1941.8970641483102 -720.63214369749767 0 -720.63214369749767 -5.754066203833645 0 0 0 0 2846.7657959483768 -535.5776917344192 0 -535.5776917344192 -133.89725948866908 0 0 0 0 2276.421819787407 -502.71720815086428 0 -502.71720815086428 -135.28529223349688 0 0 0 0 2414.7477729627863 -620.70246795801177 0 -620.70246795801177 -43.902379061107922 0 0 0 0 1881.052203821826 -247.65015171633058 0 -247.65015171633058 85.450103181221493 0 0 0 0 2325.1540954378652 -425.76226486197629 0 -425.76226486197629 -15.058400150941452 0 0 0 0 1820.2801810054152 -368.74811790702915 0 -368.74811790702915 65.006236772039983 0 0 0 0 1421.234418286971 48.459529739560821 0 48.459529739560821 345.71470742129895 0 0 0 0 1457.4375506596589 -381.78041477308443 0 -381.78041477308443 63.298430747669045 0 0 0 0 1460.1938502560624 -357.74365484345208 0 -357.74365484345208 170.02872587343882 0 0 0 0 1809.7725225316826 -213.81828301966834 0 -213.81828301966834 30.142424140426556 0 0 0 0 2016.0009528865921 -399.58561346387978 0 -399.58561346387978 -8.017152285654447 0 0 0 0 1881.5609144726222 -435.37230490436446 0 -435.37230490436446 135.65127153646972 0 0 0 0 658.10976422780368 -284.77488444289247 0 -284.77488444289247 -143.55186839633097 0 0 0 0 606.22817688983196 -241.61144328418595 0 -241.61144328418595 -172.19406065693147 0 0 0 0 747.47079177632259 -247.06351685873778 0 -247.06351685873778 -173.97906762602179 0 0 0 0 955.36020665377782 -441.43536063641602 0 -441.43536063641602 -10.133796605210591 0 0 0 0 661.98405433221706 -275.0368923936885 0 -275.0368923936885 -76.48896810698534 0 0 0 0 684.32269841954621 -283.37057611481123 0 -283.37057611481123 -188.49051673738359 0 0 0 0 358.95725287223468 -423.21869961567609 0 -423.21869961567609 113.74865504518357 0 0 0 0 618.57858080160804 -366.0364719491572 0 -366.0364719491572 -200.71496603071705 0 0 0 0 289.67696456039357 -264.2500744508248 0 -264.2500744508248 -93.775323228805064 0 0 0 0 -1154.6196947652934 -302.84113344960861 0 -302.84113344960861 249.84600524488269 0 0 0 0 2.1789225928054057 -3.4558038201988097 0 -3.4558038201988097 6.0129864389914616 0 0 0 0 308.37550455924793 -43.214833534633726 0 -43.214833534633726 -337.29118467095032 0 0 0 0 444.50784175744502 -955.31011722522192 0 -955.31011722522192 410.59398260080889 0 0 0 0 2344.6932988429689 -913.16238101060117 0 -913.16238101060117 467.48984071378527 0 0 0 0 3678.5769493884291 -856.97137599317466 0 -856.97137599317466 120.95274605350187 0 0 0 0 2608.581625386716 -406.59960547520245 0 -406.59960547520245 135.76917605460221 0 0 0 0 2076.3071408036685 -441.72172616086368 0 -441.72172616086368 133.65252347274691 0 0 0 0 2103.6702624949176 -476.32862178455161 0 -476.32862178455161 4.3388186365186812 0 0 0 0 1954.0151046467945 -568.28631157604286 0 -568.28631157604286 1.6536753351138032 0 0 0 0 1370.5105220592959 -88.697370514588329 0 -88.697370514588329 -161.80085440327548 0 0 0 0 1803.8785475207042 -36.116951531812447 0 -36.116951531812447 -975.93220585417657 0 0 0 0 0.51190701701684205 -14.133699822470021 0 -14.133699822470021 13.546431298471802 0 0 0 0 -746.88597680502039 -94.850021334529004 0 -94.850021334529004 281.17958104891659 0 0 0 0 496.94610086348985 -257.76812584904656 0 -257.76812584904656 -337.02927986637883 0 0 0 0 542.61561741279002 -342.79494158641319 0 -342.79494158641319 168.79271080526087 0 0 0 0 518.5428670467445 -487.32453615299164 0 -487.32453615299164 -102.12484735221227 0 0 0 0 15.641756983136361 4.9944470516107131 0 4.9944470516107131 1.4096231992010217 0 0 0 0 711.54817847773666 -351.79422649632397 0 -351.79422649632397 158.19206099422627 0 0 0 0 -767.54850191096193 662.8263654684215 0 662.8263654684215 -1089.1259061112214 0 0 0 0 792.48912463672787 -1358.8132427955593 0 -1358.8132427955593 1326.5946601906871 0 0 0 0 57.032642522446054 21.946136698662528 0 21.946136698662528 3.9871631515506856 0 0 0 0 50.625514246315873 15.622950163975197 0 15.622950163975197 1.3813837006906233 0 0 0 0 -594.95496549985546 1181.5448714892518 0 1181.5448714892518 -1661.1789178134932 0 0 0 0 -394.24174516130734 989.34157565620626 0 989.34157565620626 -1643.0706418971702 0 0 0 0 384.19309160549892 -330.06670679600575 0 -330.06670679600575 354.65805990284571 0 0 0 0 550.52225004541106 -587.37603048147321 0 -587.37603048147321 427.48611248716406 0 0 0 0 637.09545424866883 -452.98346338943156 0 -452.98346338943156 -18.696918526849913 0 0 0 0 554.08377475959423 -287.10145021372773 0 -287.10145021372773 -110.11706674186644 0 0 0 0 548.45644795593398 -269.13414698450288 0 -269.13414698450288 -40.683709421708045 0 0 0 0 336.18524859794707 -92.232402261464813 0 -92.232402261464813 -185.10828232489439 0 0 0 0 641.63263393922534 -343.16479678873839 0 -343.16479678873839 -69.273201744200378 0 0 0 0 294.56223140673683 -470.16253246463657 0 -470.16253246463657 526.15140078119657 0 0 0 0 1039.593603622845 -419.18131472935875 0 -419.18131472935875 339.72570337564684 0 0 0 0 299.7743915515166 -172.42599254443667 0 -172.42599254443667 -148.60819072198501 0 0 0 0 776.52039961534319 -541.86618409067523 0 -541.86618409067523 62.830276686199795 0 0 0 0 247.38269023178145 -341.78825959002279 0 -341.78825959002279 193.30738587714586 0 0 0 0 147.59030171674385 -324.52219487687762 0 -324.52219487687762 194.56078087734443 0 0 0 0 235.34482297832437 -488.25674814162994 0 -488.25674814162994 472.92259223408837 0 0 0 0 1132.3526215497404 -1108.7185634646448 0 -1108.7185634646448 -353.40362963117695 0 0 0 0 708.88728026696481 -113.31544312322512 0 -113.31544312322512 -986.4723231806729 0 0 0 0 -110.43037590642598 362.1433360715522 0 362.1433360715522 -222.6390588400609 0 0 0 0 30.181190421970314 5.6296259111556424 0 5.6296259111556424 -3.3178001410876305 0 0 0 0 90.434312527845975 34.742482663236245 0 34.742482663236245 6.3081961318211555 0 0 0 0 -928.24334492858907 -678.05311104409157 0 -678.05311104409157 1012.4819088575405 0 0 0 0 904.51530873277807 630.23342511546616 0 630.23342511546616 -1298.8038204868444 0 0 0 0 21.675494537241846 -17.015099174463217 0 -17.015099174463217 3.6421676644053704 0 0 0 0 604.85670574784399 -323.01116311445162 0 -323.01116311445162 423.85132296477968 0 0 0 0 324.27230269799475 -111.04620121236803 0 -111.04620121236803 -24.727261386549799 0 0 0 0 900.93251334624074 -565.99795104333134 0 -565.99795104333134 248.5122990231539 0 0 0 0 1027.8215056806948 -563.15231529728771 0 -563.15231529728771 168.28240570842536 0 0 0 0 994.04540142938276 -380.51299719556755 0 -380.51299719556755 204.28651318202537 0 0 0 0 1286.8402811838023 -419.80468426558582 0 -419.80468426558582 146.76916527752473 0 0 0 0 60.666577024727729 19.965855612033906 0 19.965855612033906 6.0124813072139318 0 0 0 0 1120.6875587025279 -293.47975026627864 0 -293.47975026627864 104.75859570784633 0 0 0 0 633.57734994133352 416.81601469522138 0 416.81601469522138 -872.47465923763684 0 0 0 0 72.485270460524589 217.47080213401529 0 217.47080213401529 -928.19114745047045 0 0 0 0 229.39182950361283 -248.03068843361871 0 -248.03068843361871 334.15007111208615 0 0 0 0 498.38968228966405 174.59844012282701 0 174.59844012282701 901.08946039788862 0 0 0 0 3.304067937994752 3.634668788572867 0 3.634668788572867 1.346208617132433 0 0 0 0 3132.4742615743235 679.41826066547492 0 679.41826066547492 147.06033200233605 0 0 0 0 1036.4444910619495 416.26693689141212 0 416.26693689141212 414.61862517525606 0 0 0 0 1018.2042623300949 -420.01851098803672 0 -420.01851098803672 251.05556695147243 0 0 0 0 791.06984527826717 -523.21262603882633 0 -523.21262603882633 679.59725453102146 0 0 0 0 130.7784009869647 415.28777918465858 0 415.28777918465858 751.28229032838863 0 0 0 0 644.86113681198913 64.845275047373434 0 64.845275047373434 -378.36200402100781 0 0 0 0 11.054708580373358 -1.4520184480010343 0 -1.4520184480010343 0.42766908568293616 0 0 0 0 255.30931889601197 -1010.8667035231128 0 -1010.8667035231128 1144.5061928971663 0 0 0 0 -151.02914722614514 -131.9908055386195 0 -131.9908055386195 254.19093497666108 0 0 0 0 -72.898099448240828 102.95826097038571 0 102.95826097038571 228.02455144997271 0 0 0 0 360.44771557154309 -149.36278475262043 0 -149.36278475262043 205.30907597940859 0 0 0 0 12.983512671056815 -8.5136116475691779 0 -8.5136116475691779 52.831524590950721 0 0 0 0 -79.747828359380946 47.122231379034019 0 47.122231379034019 33.483115403889769 0 0 0 0 22.543472913303503 16.324595592082929 0 16.324595592082929 8.4905086014819418 0 0 0 0 232.25651927637955 -162.50239503162538 0 -162.50239503162538 -232.43808477652783 0 0 0 0 29.261474937774551 -4.2414797725341984 0 -4.2414797725341984 -0.13054768152170482 0 0 0 0 -46.928722032389487 -119.16012605246215 0 -119.16012605246215 -108.67579339893064 0 0 0 0 3304.3132267520705 48.875939255922276 0 48.875939255922276 299.59361818029174 0 0 0 0 2285.8605925678585 -65.707872858582732 0 -65.707872858582732 329.81635542799268 0 0 0 0 2123.0935495302692 364.95541489147763 0 364.95541489147763 380.44575335794434 0 0 0 0 940.61528413950873 402.92696870501277 0 402.92696870501277 611.78159007469549 0 0 0 0 1049.0655835216603 -79.281604175552275 0 -79.281604175552275 383.08274253463969 0 0 0 0 2207.5092993781727 -169.00675972285535 0 -169.00675972285535 10.638863328635125 0 0 0 0 3046.227780117275 -64.383683762589499 0 -64.383683762589499 19.29435653372866 0 0 0 0 2461.8089634949138 -629.13177177073976 0 -629.13177177073976 9.102051250736622 0 0 0 0 2713.2843318554224 -770.9739267474306 0 -770.9739267474306 78.242732525228348 0 0 0 0 2546.7605375581261 -836.56631322583235 0 -836.56631322583235 -43.143637268387465 0 0 0 0 1573.7869361832309 -973.20707536249301 0 -973.20707536249301 485.65092223290776 0 0 0 0 3169.7438454765797 -2157.2115663678887 0 -2157.2115663678887 1238.9028962023876 0 0 0 0 895.67083175979133 -590.62490859236368 0 -590.62490859236368 518.637259041363 0 0 0 0 4350.6574879545005 -371.06103766226897 0 -371.06103766226897 169.82682726659095 0 0 0 0 3369.4238151411628 370.26955752009053 0 370.26955752009053 1470.197858097632 0 0 0 0 2661.9573051556072 -184.49339419216449 0 -184.49339419216449 2293.3193697199195 0 0 0 0 22.292983355118821 8.9437337658996512 0 8.9437337658996512 5.0832991171954944 0 0 0 0 -95.821537850501954 1022.4991512357242 0 1022.4991512357242 880.6368715517674 0 0 0 0 -333.72060564610729 636.79660710880216 0 636.79660710880216 489.27460706498641 0 0 0 0 3198.0256335518861 1445.6527942385137 0 1445.6527942385137 238.23449038523358 0 0 0 0 2324.1290376101715 -773.15990450110758 0 -773.15990450110758 2129.7517294697846 0 0 0 0 2836.5611892198067 97.336803991168381 0 97.336803991168381 160.12439659872507 0 0 0 0 2599.4316975405909 -564.21714708024138 0 -564.21714708024138 1413.5348355163806 0 0 0 0 2486.3860156200462 -0.81758357459239051 0 -0.81758357459239051 338.48871934556018 0 0 0 0 21.681128170480378 -0.68832104000797756 0 -0.68832104000797756 -0.0021710492240067936 0 0 0 0 617.06432748546649 770.64424476632303 0 770.64424476632303 79.653784201334474 0 0 0 0 1011.5705382120359 759.62817574088513 0 759.62817574088513 72.923265170666127 0 0 0 0 717.35321837668016 -1633.8669597926073 0 -1633.8669597926073 2263.6769354780845 0 0 0 0 2469.0756093735472 -1872.53812524163 0 -1872.53812524163 953.06530850638046 0 0 0 0 -0.48469068395570503 -88.466549850408683 0 -88.466549850408683 1421.0690797418429 0 0 0 0 45.627336523114622 1.2600448608079375 0 1.2600448608079375 -2.5118235241772453 0 0 0 0 310.02860262882314 -280.21855852438148 0 -280.21855852438148 -433.71358136286108 0 0 0 0 806.00930406886619 -210.87424077301876 0 -210.87424077301876 -13.828502375490643 0 0 0 0 9.8667650559436879 -68.569045122434545 0 -68.569045122434545 453.9162660159709 0 0 0 0 474.15840455908619 -506.94159190159371 0 -506.94159190159371 353.67568154125274 0 0 0 0 720.02610996660405 -190.35769643281265 0 -190.35769643281265 512.10348047013395 0 0 0 0 -502.49879695674463 -31.524437887904242 0 -31.524437887904242 491.69696281529832 0 0 0 0 213.33561343443216 -259.70928025873445 0 -259.70928025873445 313.09276792883247 0 0 0 0 43.639644040231587 1.8006123384795103 0 1.8006123384795103 -2.2757552420437293 0 0 0 0 32.307855086333802 -336.4493880959094 0 -336.4493880959094 789.80831666733138 0 0 0 0 84.774846913584042 -604.60678724848822 0 -604.60678724848822 944.31421941201006 0 0 0 0 -94.261312438138702 -266.6387961023247 0 -266.6387961023247 720.37135311352358 0 0 0 0 2.7402539159328683 -2.076504594947238 0 -2.076504594947238 -0.29497072905482469 0 0 0 0 255.66483196539775 -139.23805607780741 0 -139.23805607780741 221.13829142807299 0 0 0 0 204.59318906689077 -342.35598924440819 0 -342.35598924440819 394.19289330719585 0 0 0 0 2.2698287907149108 0.93721640873697254 0 0.93721640873697254 1.7646021491895922 0 0 0 0 387.4327737260428 -570.53124075638243 0 -570.53124075638243 587.70934092038988 0 0 0 0 575.05400688714144 -95.824395761749656 0 -95.824395761749656 703.84001185950319 0 0 0 0 406.45201572289807 -11.6930207079713 0 -11.6930207079713 801.96067013243737 0 0 0 0 874.69176194740066 -10.589470505568443 0 -10.589470505568443 668.90983853151192 0 0 0 0 146.3842808004265 -368.58064262578318 0 -368.58064262578318 614.84451649085531 0 0 0 0 274.18487091700808 -302.51619946250503 0 -302.51619946250503 349.95579334516697 0 0 0 0 294.00448265906743 -368.7037840508433 0 -368.7037840508433 553.09064354002294 0 0 0 0 560.62545976204274 -14.242607427628172 0 -14.242607427628172 729.10310459971606 0 0 0 0 789.65596794142766 -364.70583598158646 0 -364.70583598158646 267.81471089299703 0 0 0 0 399.06815966051363 -419.49608607985692 0 -419.49608607985692 367.63768926201374 0 0 0 0 1068.2918859873316 -126.02601765030522 0 -126.02601765030522 224.46368584114384 0 0 0 0 365.17816578550992 5.5523224202866004 0 5.5523224202866004 148.31407912708096 0 0 0 0 257.221222620341 -387.05974286806122 0 -387.05974286806122 279.02589858866486 0 0 0 0 681.60995448316316 -80.732647251163826 0 -80.732647251163826 427.34175862750999 0 0 0 0 4.5738769999197189 3.8383547003157332 0 3.8383547003157332 5.4575472128876434 0 0 0 0 180.80101244083926 -131.08377451775596 0 -131.08377451775596 421.09917323704678 0 0 0 0 199.33130708845056 -264.25822933129325 0 -264.25822933129325 290.73020808604269 0 0 0 0 347.40309972556861 -439.2189406286036 0 -439.2189406286036 273.52200871200603 0 0 0 0 263.14976454699354 -291.58686143767773 0 -291.58686143767773 251.50607243954755 0 0 0 0 591.91203982706065 -461.18886431701048 0 -461.18886431701048 144.63261469668305 0 0 0 0 -94.031209436601785 -23.801116368682415 0 -23.801116368682415 25.603942662912232 0 0 0 0 204.7335985767204 -370.99287625761031 0 -370.99287625761031 147.92483175787493 0 0 0 0 367.0022029137981 94.632481130486667 0 94.632481130486667 162.66981568099118 0 0 0 0 4.3898361320348158 -2.8308771585321484 0 -2.8308771585321484 1.1386915916242417 0 0 0 0 228.29523200340191 -439.41415372032361 0 -439.41415372032361 356.28748180392904 0 0 0 0 566.20614220808784 -440.67118488061647 0 -440.67118488061647 721.75503246917833 0 0 0 0 670.73045455147803 -204.26908146214009 0 -204.26908146214009 382.11807560638772 0 0 0 0 328.57058567811328 -592.76993016913366 0 -592.76993016913366 625.41361887068342 0 0 0 0 794.74903367923253 -70.331164925015401 0 -70.331164925015401 949.02672605750467 0 0 0 0 294.41230500910024 -484.55624634665674 0 -484.55624634665674 956.18421218757794 0 0 0 0 6.3202006438584419 3.5288113755286616 0 3.5288113755286616 2.8012990733096359 0 0 0 0 254.030918334327 -251.39402100768802 0 -251.39402100768802 899.99525186188475 0 0 0 0 1468.8987003559062 -91.417673765688122 0 -91.417673765688122 239.52689095037385 0 0 0 0 283.00855741080886 -534.19541871086403 0 -534.19541871086403 820.74087491251385 0 0 0 0 1373.492320914107 -416.17217576285975 0 -416.17217576285975 -19.704513982858771 0 0 0 0 1036.9088239215198 -603.25673575478913 0 -603.25673575478913 64.148028112213069 0 0 0 0 7.9885235091978757 6.5501952776475179 0 6.5501952776475179 6.7061987921826614 0 0 0 0 649.93254567619988 -220.72232014733436 0 -220.72232014733436 145.44267556557497 0 0 0 0 -20.151934183217236 -124.20641192268295 0 -124.20641192268295 39.814112491696505 0 0 0 0 -47.682572175792302 -60.888440128064758 0 -60.888440128064758 -159.45929784274244 0 0 0 0 93.79341519420268 -63.125320233713865 0 -63.125320233713865 -159.61940453299871 0 0 0 0 24.542039923151606 24.357238479746684 0 24.357238479746684 -14.38562743946386 0 0 0 0 68.115971846033062 -27.972905561066909 0 -27.972905561066909 -170.98296249312079 0 0 0 0 31.78365350409149 -54.526026196309886 0 -54.526026196309886 -366.88605215222015 0 0 0 0 -23.16863008699147 -22.506388953149326 0 -22.506388953149326 -169.77842154884092 0 0 0 0 8.6376396004343405 -61.142559120273745 0 -61.142559120273745 -331.32645260091886 0 0 0 0 -50.686432928428985 -51.33720269458172 0 -51.33720269458172 -328.25927676753417 0 0 0 0 -108.69454352986213 -133.26947778954582 0 -133.26947778954582 -381.66508717873876 0 0 0 0 -20.644308883216581 -100.77923760112162 0 -100.77923760112162 -364.65567652088248 0 0 0 0 17.067386338108918 -92.123543317456551 0 -92.123543317456551 -453.8438910606128 0 0 0 0 -45.80156260800868 -178.38331173361257 0 -178.38331173361257 -660.88056031115229 0 0 0 0 -12.479941098630661 -53.221390551479999 0 -53.221390551479999 -474.23409500960588 0 0 0 0 -71.39654258087262 -99.411665599319406 0 -99.411665599319406 -272.12071731005926 0 0 0 0 25.205921808897983 -91.680230294033208 0 -91.680230294033208 -327.90004921118452 0 0 0 0 -21.747003826683795 -164.28131248032491 0 -164.28131248032491 -244.57243670588468 0 0 0 0 -68.974899289169116 -5.1964262313795189 0 -5.1964262313795189 -376.84189355924991 0 0 0 0 0.9295913151986781 0.86799084861597464 0 0.86799084861597464 -0.78967923344193025 0 0 0 0 -58.933946053308318 -51.371943237923006 0 -51.371943237923006 -190.34546720450999 0 0 0 0 15.305707465304295 -11.6442597460873 0 -11.6442597460873 -476.59567289452843 0 0 0 0 58.757634550769581 -99.517419468403205 0 -99.517419468403205 -474.83270773371089 0 0 0 0 14.092988545457786 -3.2104972929233462 0 -3.2104972929233462 -1.1760697328894296 0 0 0 0 112.59264875706867 -184.41305340278541 0 -184.41305340278541 -319.0384883006368 0 0 0 0 11.518240409685347 -3.1503751416854264 0 -3.1503751416854264 0.86763825257110305 0 0 0 0 -8.0376915317610838 26.276730185692713 0 26.276730185692713 224.60584218245913 0 0 0 0 -20.403518812156108 -146.78580628414102 0 -146.78580628414102 115.5777805803209 0 0 0 0 35.156829993480642 -53.668976050135825 0 -53.668976050135825 -139.65038877597726 0 0 0 0 66.530155234329868 -236.7532752361758 0 -236.7532752361758 -88.902057644510933 0 0 0 0 41.156558539536491 -191.71146644808005 0 -191.71146644808005 231.20316400625052 0 0 0 0 165.61595966621826 -333.64243781102596 0 -333.64243781102596 196.9170753952335 0 0 0 0 243.51588897299371 -304.21609802588409 0 -304.21609802588409 281.02933996833917 0 0 0 0 251.2135271680454 -90.248563087610819 0 -90.248563087610819 212.06190522135557 0 0 0 0 167.33569429484487 -114.42654880773625 0 -114.42654880773625 39.908764171590519 0 0 0 0 105.34039459568157 -143.92533414347099 0 -143.92533414347099 192.90866775536779 0 0 0 0 60.333317496057134 -39.418506793508641 0 -39.418506793508641 44.302655233519545 0 0 0 0 194.98682021869172 37.56789635071982 0 37.56789635071982 84.411731632262672 0 0 0 0 195.02192941694375 -15.307518424047885 0 -15.307518424047885 187.51049098471231 0 0 0 0 332.66607007040693 33.09283258825235 0 33.09283258825235 204.02959362019465 0 0 0 0 467.23711136843485 -97.858648169430126 0 -97.858648169430126 325.6476199163817 0 0 0 0 284.03474797991021 -174.09283812873605 0 -174.09283812873605 333.48708191547848 0 0 0 0 523.0325387631965 -145.60476538280636 0 -145.60476538280636 335.79156962545949 0 0 0 0 380.68869051026559 -83.210885037253774 0 -83.210885037253774 436.11045772547914 0 0 0 0 176.64325510674098 -332.47475697317623 0 -332.47475697317623 337.79139728191149 0 0 0 0 122.90375682036392 -208.22577802656542 0 -208.22577802656542 417.23738745144419 0 0 0 0 207.02163922047475 -240.93127292850477 0 -240.93127292850477 406.61938512633606 0 0 0 0 240.0091788150894 -287.34509187166987 0 -287.34509187166987 430.41238510006133 0 0 0 0 360.03195119585871 -449.36988448538432 0 -449.36988448538432 639.33600248602306 0 0 0 0 193.17906032055907 -372.19973134437259 0 -372.19973134437259 694.06219077977107 0 0 0 0 194.1651473294005 -385.72800640327341 0 -385.72800640327341 690.41283954729988 0 0 0 0 5.7011701627732805 -3.3045559489342367 0 -3.3045559489342367 -1.1305874845638115 0 0 0 0 357.68438722326391 -278.81485886582504 0 -278.81485886582504 517.53414713234179 0 0 0 0 188.14911321624822 -359.6196455342124 0 -359.6196455342124 674.35632520793479 0 0 0 0 3.7130885785663281 -2.4357254475418273 0 -2.4357254475418273 -0.48378521569507882 0 0 0 0 271.36702778965264 -119.48950787958711 0 -119.48950787958711 323.21144579781048 0 0 0 0 166.27563060974353 -326.29210397907082 0 -326.29210397907082 528.22629580862622 0 0 0 0 139.00271750903812 -365.97874484265049 0 -365.97874484265049 649.81802750729366 0 0 0 0 509.58760002467534 -2.8605162341882533 0 -2.8605162341882533 547.74259530118434 0 0 0 0 860.0826280642832 -195.82699681596546 0 -195.82699681596546 457.81139045871259 0 0 0 0 566.5127146019513 -687.70117687176844 0 -687.70117687176844 950.57680114451887 0 0 0 0 1486.5276841485429 -81.45210211709491 0 -81.45210211709491 -65.612795999562877 0 0 0 0 1292.08814240436 -64.76361565368245 0 -64.76361565368245 503.97609678599474 0 0 0 0 11.895409917663414 0.41829907411329259 0 0.41829907411329259 0.10893560792946388 0 0 0 0 967.11824944098407 -784.16912007967198 0 -784.16912007967198 957.83712795128849 0 0 0 0 643.44082311277816 572.98788202712694 0 572.98788202712694 -158.50921385397487 0 0 0 0 859.34392363936786 173.92758338238559 0 173.92758338238559 45.527144128936925 0 0 0 0 870.76175364883602 176.7667822897572 0 176.7667822897572 -42.269602844098699 0 0 0 0 777.95880731513898 213.27602854917404 0 213.27602854917404 26.870077901359764 0 0 0 0 259.55936310297693 27.356569150656469 0 27.356569150656469 5.8086100698733389 0 0 0 0 392.73120977130748 -232.5115658191512 0 -232.5115658191512 69.775495268744635 0 0 0 0 842.36448107339675 208.73262332875947 0 208.73262332875947 -9.1403622766138142 0 0 0 0 73.817309862897673 -69.841508455328949 0 -69.841508455328949 108.16255896243365 0 0 0 0 58.25565247405757 164.2676445943398 0 164.2676445943398 113.48457458716803 0 0 0 0 155.29311341493121 -150.19943288954914 0 -150.19943288954914 -28.751174884235297 0 0 0 0 31.171857897500814 1.2302814948386214 0 1.2302814948386214 -1.1511060896731564 0 0 0 0 34.74097265319142 99.823022699566536 0 99.823022699566536 -300.21790724554967 0 0 0 0 66.381159283402667 -154.03335696941394 0 -154.03335696941394 64.787538100183156 0 0 0 0 4.1575583851881674 -175.33644372471736 0 -175.33644372471736 150.2870368586573 0 0 0 0 304.81817039493762 56.689045270356473 0 56.689045270356473 -352.80894813700434 0 0 0 0 1011.9122862053191 -657.10840603774886 0 -657.10840603774886 126.30445619451251 0 0 0 0 515.77911857514118 -31.243515940726866 0 -31.243515940726866 -25.857141532734204 0 0 0 0 2532.0385731714377 -578.07304085327223 0 -578.07304085327223 -155.08555483180317 0 0 0 0 1581.0420946341255 -1474.2316720058543 0 -1474.2316720058543 863.38745269030915 0 0 0 0 519.23218933137832 -867.61858568330899 0 -867.61858568330899 472.8946062785817 0 0 0 0 906.30723698719521 -588.28825880137811 0 -588.28825880137811 211.66502028056129 0 0 0 0 922.11183616923518 -761.17857266021383 0 -761.17857266021383 151.00817106980139 0 0 0 0 1310.5076607074898 -198.37946252471374 0 -198.37946252471374 -131.60645106861739 0 0 0 0 1136.2394132198096 -952.5997236436242 0 -952.5997236436242 201.42840929525184 0 0 0 0 704.09116984773937 -441.44851402780557 0 -441.44851402780557 179.67414199258019 0 0 0 0 1470.6409625716624 -687.96861050934422 0 -687.96861050934422 -84.582382274502379 0 0 0 0 708.83350293240869 -377.21789060452602 0 -377.21789060452602 -167.89136473488361 0 0 0 0 49.119148287129065 11.318672093168971 0 11.318672093168971 -10.797286634332977 0 0 0 0 6.4468746037408096 2.6249150501646028 0 2.6249150501646028 1.0992862221123971 0 0 0 0 1470.430336978377 -695.81810246613622 0 -695.81810246613622 -43.418904536581977 0 0 0 0 695.33752931289564 206.95302278654867 0 206.95302278654867 -286.34499936132124 0 0 0 0 617.95690494596784 -125.57016495329572 0 -125.57016495329572 657.02250155968431 0 0 0 0 1557.203460359131 -500.90185712782204 0 -500.90185712782204 -131.66786476569132 0 0 0 0 1988.457252616834 -994.04221286258144 0 -994.04221286258144 396.61006440245001 0 0 0 0 2991.8047719228925 238.52133748103324 0 238.52133748103324 -16.539927772275405 0 0 0 0 605.44491162462873 -330.40100347860528 0 -330.40100347860528 -247.70717233251344 0 0 0 0 92.361677486493136 -263.44646111077418 0 -263.44646111077418 68.247615821836007 0 0 0 0 1434.6736176617214 -1003.5257357783479 0 -1003.5257357783479 176.89530074196227 0 0 0 0 584.22271924931556 -463.51264415732021 0 -463.51264415732021 13.362286122551723 0 0 0 0 5.89880147353594 -7.0570596484535884 0 -7.0570596484535884 8.5915991030458585 0 0 0 0 -662.01554749894422 4.5417876905248704 0 4.5417876905248704 61.0003747205119 0 0 0 0 26.885076339545776 -363.86530979120835 0 -363.86530979120835 185.59333783938564 0 0 0 0 206.9436690039438 -36.009700311294182 0 -36.009700311294182 -122.81112376549936 0 0 0 0 232.4924572212185 -32.184467796254921 0 -32.184467796254921 -269.96696687515214 0 0 0 0 127.55737158200645 -90.802897884555932 0 -90.802897884555932 -41.408213324757526 0 0 0 0 40.249951750399191 -21.876734662273535 0 -21.876734662273535 -17.922866858745692 0 0 0 0 546.26502182162949 -360.75906524890888 0 -360.75906524890888 -90.921593593691796 0 0 0 0 42.233916601937381 -174.28257527446112 0 -174.28257527446112 269.36463183803608 0 0 0 0 2.1684569359384227 -3.270089753104088 0 -3.270089753104088 3.1609915277286902 0 0 0 0 695.76003457620391 -941.24507617132986 0 -941.24507617132986 351.69914284841434 0 0 0 0 690.79453796528833 186.88203455512485 0 186.88203455512485 -790.71272594844049 0 0 0 0 1161.4941055357922 100.53099533746445 0 100.53099533746445 135.16551052087016 0 0 0 0 -270.74256155105832 -343.04620424271707 0 -343.04620424271707 293.95893757542217 0 0 0 0 1175.0876444507667 103.63488997656964 0 103.63488997656964 17.923190061839705 0 0 0 0 1129.6420843858214 155.27399779344069 0 155.27399779344069 -30.454129642895168 0 0 0 0 11.720966505811745 -18.147651308204786 0 -18.147651308204786 20.232673934146924 0 0 0 0 -160.41847144527856 155.40013901771545 0 155.40013901771545 118.03578155933064 0 0 0 0 72.147198300925083 -9.1375406736424338 0 -9.1375406736424338 77.949750825420779 0 0 0 0 -33.52175399439875 157.29825279955185 0 157.29825279955185 -166.89511070396475 0 0 0 0 81.877980225369356 93.041428206690853 0 93.041428206690853 26.571758275349566 0 0 0 0 862.46716883088084 -320.64977890787463 0 -320.64977890787463 456.29314029526176 0 0 0 0 1512.8593385001877 -444.44034034759989 0 -444.44034034759989 155.43132462238736 0 0 0 0 1351.1973912927206 136.37352411841312 0 136.37352411841312 102.54833769720699 0 0 0 0 1549.8352482794726 47.599055862582645 0 47.599055862582645 4.0905306959866721 0 0 0 0 1005.9278801691107 -5.9178365447696706 0 -5.9178365447696706 30.010445107343003 0 0 0 0 1226.5812069350213 -257.96846960387893 0 -257.96846960387893 -97.95246673735619 0 0 0 0 1333.0491870819969 -29.001696360014648 0 -29.001696360014648 30.158846349393571 0 0 0 0 1034.3833986635509 -163.58932456246748 0 -163.58932456246748 -10.561950114904903 0 0 0 0 1086.2495593051717 -252.70051494931613 0 -252.70051494931613 74.232584579226113 0 0 0 0 1055.7052920638671 -97.06649304691291 0 -97.06649304691291 181.32852293425367 0 0 0 0 588.47127599749365 -41.906864268490608 0 -41.906864268490608 277.93847702431231 0 0 0 0 897.71799896213997 -245.74962712785714 0 -245.74962712785714 350.40613518181453 0 0 0 0 978.20869855109777 381.91872847355535 0 381.91872847355535 329.20716239461217 0 0 0 0 974.45927359498455 49.630210946804254 0 49.630210946804254 27.923507619033671 0 0 0 0 789.62840873378809 -53.550177275412807 0 -53.550177275412807 -48.737068358523175 0 0 0 0 732.52184065451002 134.28324800750715 0 134.28324800750715 101.61761490033678 0 0 0 0 1235.4610878909371 78.454658952186946 0 78.454658952186946 21.092178288714763 0 0 0 0 881.04731898191312 -42.314070884008743 0 -42.314070884008743 304.23219871354377 0 0 0 0 849.97999750258532 330.18459058307008 0 330.18459058307008 432.81060838141821 0 0 0 0 1346.5279826798433 374.41666224846813 0 374.41666224846813 65.323141449427567 0 0 0 0 765.30202471129451 161.14656824657004 0 161.14656824657004 97.06413724997401 0 0 0 0 704.47827924274316 298.08846445263953 0 298.08846445263953 168.28646909278541 0 0 0 0 941.29470932030745 267.74847969717439 0 267.74847969717439 42.904197939946243 0 0 0 0 902.18078673382479 182.62633286487062 0 182.62633286487062 -16.519702546769622 0 0 0 0 1347.2812762246103 -235.0578286064565 0 -235.0578286064565 34.44851003159647 0 0 0 0 11.675894623899126 6.9633235903785646 0 6.9633235903785646 3.4247143111340392 0 0 0 0 -83.607056076769368 -411.4803486832916 0 -411.4803486832916 518.85708717725265 0 0 0 0 5.6153062226123609 3.8347505308620811 0 3.8347505308620811 2.9635413987582879 0 0 0 0 -6.8354239962141037 501.85023983203365 0 501.85023983203365 317.70107024961544 0 0 0 0 563.56408121420827 -8.8757588370413032 0 -8.8757588370413032 -51.587645945059649 0 0 0 0 -54.277455109582661 295.69579464429444 0 295.69579464429444 -103.39155882464183 0 0 0 0 155.99842699012515 -48.736784312695818 0 -48.736784312695818 -319.43503960819908 0 0 0 0 155.89053434651578 83.850997479135003 0 83.850997479135003 -51.035552584745346 0 0 0 0 75.234948025492486 5.3450874737991398 0 5.3450874737991398 -233.36689357105388 0 0 0 0 430.91680169466417 301.09575067147853 0 301.09575067147853 -10.678775309615958 0 0 0 0 21.373794975380633 13.952610034636109 0 13.952610034636109 6.6488466637981958 0 0 0 0 -47.403056310942702 329.30951335020518 0 329.30951335020518 -593.31599913894024 0 0 0 0 8.9747925112980624 6.0768304725809514 0 6.0768304725809514 3.5964234452902772 0 0 0 0 2282.0558578820346 -554.84586314430726 0 -554.84586314430726 -136.57717439922999 0 0 0 0 1086.2525042236812 -500.72110132837588 0 -500.72110132837588 -16.310917660687664 0 0 0 0 1975.7858164673162 -145.4263203875289 0 -145.4263203875289 -87.959797205903669 0 0 0 0 1448.3375062217492 -0.70768591575961182 0 -0.70768591575961182 110.27996650194109 0 0 0 0 1657.4639323286538 199.33298660207947 0 199.33298660207947 -38.474266767812878 0 0 0 0 2477.852257705279 452.9528429363927 0 452.9528429363927 -202.46919607674863 0 0 0 0 989.53170339031931 -162.30952774205298 0 -162.30952774205298 -158.19871697473354 0 0 0 0 2018.4882083564298 -249.25482169664792 0 -249.25482169664792 -329.91631105351166 0 0 0 0 1553.6794751402122 1046.6230396030392 0 1046.6230396030392 -23.623732159641804 0 0 0 0 546.51412218247424 1295.3299090516666 0 1295.3299090516666 -569.79129933239346 0 0 0 0 2087.5651425558463 360.64470296369745 0 360.64470296369745 -431.36686951766751 0 0 0 0 1044.6829589758418 428.63288457696308 0 428.63288457696308 -87.312835249968657 0 0 0 0 1046.3695318112004 378.48076432042126 0 378.48076432042126 -299.76179868791314 0 0 0 0 968.38961849195766 584.12762530890268 0 584.12762530890268 -449.56416471058947 0 0 0 0 2.3422780857847627 -0.31724405678502876 0 -0.31724405678502876 -8.3263989682194861 0 0 0 0 1627.5103613724932 -17.267340985289593 0 -17.267340985289593 -323.59052213092036 0 0 0 0 3.8301625967169883 3.7160874131553499 0 3.7160874131553499 -1.1905950296338261 0 0 0 0 -61.50322901508116 668.05354227428415 0 668.05354227428415 -3.7773768195074808 0 0 0 0 3137.0266351309547 -138.90626519266334 0 -138.90626519266334 -331.6333882971403 0 0 0 0 1976.7611890841436 456.34865839561508 0 456.34865839561508 -3.369673133805918 0 0 0 0 2014.8679973157305 56.066824812357027 0 56.066824812357027 -503.59739433098366 0 0 0 0 1884.3819861556112 -75.561347975406534 0 -75.561347975406534 128.62874539308905 0 0 0 0 270.32064212922705 20.783748758425645 0 20.783748758425645 -198.82622284931495 0 0 0 0 6.5005184507031402 8.8884125583725506 0 8.8884125583725506 -0.42430215066746513 0 0 0 0 1572.3338397559928 335.71664289798809 0 335.71664289798809 -233.58588052414052 0 0 0 0 1585.0854008330789 228.85583542259428 0 228.85583542259428 78.973322000148983 0 0 0 0 2526.615494718164 409.27994977414255 0 409.27994977414255 -509.42537642293064 0 0 0 0 1868.5709754368145 368.11310433075232 0 368.11310433075232 -488.92666072053635 0 0 0 0 1918.3022120751411 285.14417020150995 0 285.14417020150995 -356.842781560601 0 0 0 0 1615.2372936072206 -185.24516134126679 0 -185.24516134126679 -667.24327332072789 0 0 0 0 1849.7962978686483 -189.87299939392688 0 -189.87299939392688 82.307094670333754 0 0 0 0 1530.0706419990674 223.38695147593535 0 223.38695147593535 -450.4358205168428 0 0 0 0 -593.63976154655393 -1179.8119785266117 0 -1179.8119785266117 797.28017023155007 0 0 0 0 3.7284904462893991 -5.8795871807543278 0 -5.8795871807543278 6.9514393211398371 0 0 0 0 70.724282388284337 -349.18396206260968 0 -349.18396206260968 56.022622438135841 0 0 0 0 7.0931292157778785 -12.069415070769949 0 -12.069415070769949 11.298979274984056 0 0 0 0 1326.9694468927555 266.13313975481924 0 266.13313975481924 21.686786764252247 0 0 0 0 577.40460666658328 -357.50303205136061 0 -357.50303205136061 -157.83432150014141 0 0 0 0 1762.0262616179389 50.758871425323377 0 50.758871425323377 -40.55881531088562 0 0 0 0 -5.6492715035565197 -67.428804407343705 0 -67.428804407343705 -83.476871900072638 0 0 0 0 -514.24326081541585 -299.70938959376053 0 -299.70938959376053 46.668250818329398 0 0 0 0 86.549171616614331 -184.56921503257763 0 -184.56921503257763 -204.51077554730364 0 0 0 0 1917.8748017473335 75.848696066903813 0 75.848696066903813 -166.57518773635456 0 0 0 0 -611.47745566257436 -560.89184088015008 0 -560.89184088015008 -88.622397774444835 0 0 0 0 3.6742381226996201 -5.3334792152434432 0 -5.3334792152434432 4.8793251289493043 0 0 0 0 1639.3892376791046 -265.79283448047318 0 -265.79283448047318 -534.03030961959826 0 0 0 0 35.815314427720295 1006.0833964910757 0 1006.0833964910757 -481.55191827485396 0 0 0 0 0.39863436292759502 -1.3964690662890291 0 -1.3964690662890291 -4.1920243393452168 0 0 0 0 393.53736263647261 -242.61607155761635 0 -242.61607155761635 -386.91785291474662 0 0 0 0 -176.60854823530826 -337.27136580629667 0 -337.27136580629667 -287.55432331196789 0 0 0 0 -182.68233674424482 -299.57114083958504 0 -299.57114083958504 -167.1788681902035 0 0 0 0 120.49844840358128 -40.661404387245057 0 -40.661404387245057 -271.27586596519177 0 0 0 0 55.305590664444026 -17.989168475134647 0 -17.989168475134647 -44.11456777083697 0 0 0 0 2.1407676295476037 -1.3900185708892536 0 -1.3900185708892536 -2.9027924930951627 0 0 0 0 100.25154239372205 4.0065756190524553 0 4.0065756190524553 -59.210996092591813 0 0 0 0 58.480843116685719 -3.1176300040626757 0 -3.1176300040626757 -5.9504017422259494 0 0 0 0 49.243706340290373 -24.903835913941293 0 -24.903835913941293 -22.975707471025089 0 0 0 0 32.956674764704076 -13.165751618760623 0 -13.165751618760623 -17.970129614372127 0 0 0 0 18.159583245878423 -4.3983695625804202 0 -4.3983695625804202 -5.0714031251355962 0 0 0 0 23.107688732074337 -4.6582998534647686 0 -4.6582998534647686 -18.094501062637534 0 0 0 0 47.985958902951097 -25.34617957116734 0 -25.34617957116734 -5.5015199977424345 0 0 0 0 39.639866059636915 -21.168698227592721 0 -21.168698227592721 -9.0710819534481661 0 0 0 0 18.360629497363036 -17.669314081552017 0 -17.669314081552017 -12.692317849128891 0 0 0 0 114.75012879430142 -115.54635006885383 0 -115.54635006885383 170.7898414029014 0 0 0 0 561.69776390169864 -129.56653314959203 0 -129.56653314959203 -94.354932475647729 0 0 0 0 -76.949196759203915 -186.65130547869921 0 -186.65130547869921 -332.88612720044148 0 0 0 0 409.95347913175647 95.436560974139866 0 95.436560974139866 38.012460430589272 0 0 0 0 3.2146410144573849 -5.464518092964795 0 -5.464518092964795 -15.220204327268618 0 0 0 0 892.58564872990246 -329.51856742453128 0 -329.51856742453128 -19.554908796315431 0 0 0 0 1399.1093185432837 105.7357669241992 0 105.7357669241992 -124.06661951786828 0 0 0 0 1306.8399975267675 -44.606675913762047 0 -44.606675913762047 -185.55306434800423 0 0 0 0 843.31995080906927 230.701022355845 0 230.701022355845 18.751358353829346 0 0 0 0 742.29112757708936 -17.438284112579822 0 -17.438284112579822 -18.842873354155756 0 0 0 0 1876.5965075174026 -2.0661507313407128 0 -2.0661507313407128 -256.43726958626644 0 0 0 0 1489.0232786208944 138.39060913044614 0 138.39060913044614 -219.844651345702 0 0 0 0 1725.4690796544455 -107.96295192198841 0 -107.96295192198841 -136.31966532726346 0 0 0 0 1619.1319809285487 180.20389680343305 0 180.20389680343305 -36.494789199696243 0 0 0 0 1666.4996180119342 -49.806975050507845 0 -49.806975050507845 -40.598414879250413 0 0 0 0 1551.5569355420375 32.680174203520892 0 32.680174203520892 -135.21566110186177 0 0 0 0 1773.9068855709629 -351.65870388505391 0 -351.65870388505391 -35.749232631640098 0 0 0 0 1646.4698454270401 28.777444695586382 0 28.777444695586382 -183.59174445169629 0 0 0 0 1252.7532617614088 374.64625320792584 0 374.64625320792584 10.738422853082739 0 0 0 0 1589.731286413109 314.74739023052825 0 314.74739023052825 -361.51408592359621 0 0 0 0 1604.6918015401698 176.20784063364232 0 176.20784063364232 52.125197500756258 0 0 0 0 510.13436549697508 963.07733646056113 0 963.07733646056113 -262.88616462313439 0 0 0 0 1563.1197858215164 0.9400070969850276 0 0.9400070969850276 -61.309136245276022 0 0 0 0 1106.0321177415171 218.58579308309163 0 218.58579308309163 97.70381250780747 0 0 0 0 1528.2074329456882 126.83019701452031 0 126.83019701452031 -52.255020121994676 0 0 0 0 1876.3185056734656 134.97267952823222 0 134.97267952823222 -167.50470376036355 0 0 0 0 3.4547722651385655 0.072248393852589743 0 0.072248393852589743 -16.915633753142039 0 0 0 0 3.2679902510986452 -1.0563932420363358 0 -1.0563932420363358 -14.243316488237884 0 0 0 0 1418.4571685962728 89.851977210639461 0 89.851977210639461 -91.408784463673328 0 0 0 0 1704.8474157786986 -89.137452548380679 0 -89.137452548380679 -152.85447427182226 0 0 0 0 1090.7222639777028 85.633239338881594 0 85.633239338881594 81.859996581336873 0 0 0 0 1081.4150662020293 135.96928977059679 0 135.96928977059679 -66.515446907485966 0 0 0 0 671.2485849467339 60.286253027242765 0 60.286253027242765 83.666037788330414 0 0 0 0 2.4895743338695695 -2.7544962654011158 0 -2.7544962654011158 0.66258391367716385 0 0 0 0 621.4014468157693 94.28381388602952 0 94.28381388602952 13.306184894369238 0 0 0 0 391.22191233972626 -1.0206569297142778 0 -1.0206569297142778 6.3003778335587413 0 0 0 0 510.26657039549173 101.6523754411196 0 101.6523754411196 68.159272389272701 0 0 0 0 2.0340924109900698 -2.311155593316272 0 -2.311155593316272 0.0073435802855712495 0 0 0 0 840.56684955208038 68.658581434083317 0 68.658581434083317 121.8841160487018 0 0 0 0 535.48349798162963 235.52602872399621 0 235.52602872399621 121.6396609680678 0 0 0 0 1107.9739059521637 129.45022798950293 0 129.45022798950293 32.24596442489019 0 0 0 0 296.69262074218204 -38.504221903756843 0 -38.504221903756843 149.14701499730836 0 0 0 0 970.89373833429272 53.745435587852398 0 53.745435587852398 -5.798068195822907 0 0 0 0 754.29074186108483 -69.018423531913868 0 -69.018423531913868 33.169566081045396 0 0 0 0 530.32541917343042 18.555503066348138 0 18.555503066348138 97.204542480100372 0 0 0 0 1.8152531198265294 -1.7274098345662878 0 -1.7274098345662878 0.10381790664107449 0 0 0 0 885.44518940880516 39.762192297983802 0 39.762192297983802 -24.384197286171911 0 0 0 0 997.90742362416495 124.13023403448551 0 124.13023403448551 -78.007691747086028 0 0 0 0 1349.2905830870877 83.027623735322209 0 83.027623735322209 -73.946195746118292 0 0 0 0 1010.2024881408961 67.395856110590387 0 67.395856110590387 75.694998014500925 0 0 0 0 1287.0554510452612 52.033048548160679 0 52.033048548160679 556.42949212521853 0 0 0 0 2.8378036356830307 -0.95072595662770709 0 -0.95072595662770709 -9.5034465885393384 0 0 0 0 964.77223597317789 63.839131460831993 0 63.839131460831993 68.834140537086569 0 0 0 0 1283.3724002270828 41.901117122935602 0 41.901117122935602 -36.30957036501826 0 0 0 0 1521.8920231757002 141.45288720994313 0 141.45288720994313 -156.9590999392866 0 0 0 0 2.9236766401808971 -0.83933184117594806 0 -0.83933184117594806 -7.1275911512751797 0 0 0 0 1545.1944112639194 85.818468056422546 0 85.818468056422546 -70.44026647106557 0 0 0 0 1544.2918032653979 75.501538897709452 0 75.501538897709452 -180.67463678058311 0 0 0 0 2111.3624800584657 -202.15700666911926 0 -202.15700666911926 -414.2674509641156 0 0 0 0 1157.0017464198827 39.697554043051468 0 39.697554043051468 -127.51596737247883 0 0 0 0 714.07549225896946 -347.73915777555408 0 -347.73915777555408 219.28463275618037 0 0 0 0 1929.0258491789064 353.77005700963218 0 353.77005700963218 -63.245876983090739 0 0 0 0 2247.884778899941 -222.87884602936629 0 -222.87884602936629 -116.25657090367258 0 0 0 0 2364.4415610954575 974.39108163688547 0 974.39108163688547 196.58801804684117 0 0 0 0 1000.1017597410464 473.13649952016817 0 473.13649952016817 93.666366200342964 0 0 0 0 11.207830036687369 -2.1587647839371584 0 -2.1587647839371584 -0.73707358519297372 0 0 0 0 312.96671433322626 132.3339700697436 0 132.3339700697436 -52.361987595216306 0 0 0 0 869.07597599489964 -948.77195623625153 0 -948.77195623625153 436.31473321618523 0 0 0 0 51.272352155181579 -28.760554362898347 0 -28.760554362898347 -19.563874557498366 0 0 0 0 50.589413105000858 -39.966750711942041 0 -39.966750711942041 -8.0698258712764073 0 0 0 0 549.51089678952121 244.12815661521199 0 244.12815661521199 -30.877260080362248 0 0 0 0 92.713448959766538 -59.75343939379286 0 -59.75343939379286 8.7390283114427803 0 0 0 0 15.527342750915366 -19.251593718391604 0 -19.251593718391604 -4.1391937243525518 0 0 0 0 17.604549293445359 -14.015862672487323 0 -14.015862672487323 2.1609913179863298 0 0 0 0 66.674455952539574 -29.224745039125082 0 -29.224745039125082 -10.591908462755782 0 0 0 0 78.297625612153752 -37.127719785864144 0 -37.127719785864144 -18.087890910569513 0 0 0 0 79.739620976542938 -21.106047907901484 0 -21.106047907901484 -5.7826877110401256 0 0 0 0 73.220354504250281 -42.12977464598373 0 -42.12977464598373 -22.530014719494829 0 0 0 0 77.480833783291018 -67.583747824759598 0 -67.583747824759598 -64.203055586782284 0 0 0 0 61.283964347865549 -64.469256550179011 0 -64.469256550179011 -64.472072534002109 0 0 0 0 7.7014827305823843 -19.164630711797201 0 -19.164630711797201 0.5195263446165761 0 0 0 0 -55.036334367447125 -79.928601869357635 0 -79.928601869357635 -25.519724570239305 0 0 0 0 -13.494674299538019 -56.232579167142831 0 -56.232579167142831 -51.412379402571283 0 0 0 0 35.589260471169837 -106.2722814152819 0 -106.2722814152819 -51.411371687552673 0 0 0 0 213.37300574523397 -63.135127590388606 0 -63.135127590388606 -80.429012079307199 0 0 0 0 86.570252554527542 -184.35921891536282 0 -184.35921891536282 -61.482863706353555 0 0 0 0 -207.79057207187725 -173.46019542034082 0 -173.46019542034082 -11.1075904614313 0 0 0 0 -305.96249161762535 -188.04874003686371 0 -188.04874003686371 31.179866897793545 0 0 0 0 4.0492658926741569 -108.46991365596034 0 -108.46991365596034 -79.310691438886352 0 0 0 0 183.31945090036606 -195.76669668890264 0 -195.76669668890264 -37.491588682005613 0 0 0 0 14.053011919986602 -73.039250212118219 0 -73.039250212118219 6.0080037185121 0 0 0 0 91.044433952252803 -262.20086347107087 0 -262.20086347107087 0.012729107449086341 0 0 0 0 31.799260623822192 -118.22967918744455 0 -118.22967918744455 -81.766996246527214 0 0 0 0 -284.2124961658119 -18.234363883542301 0 -18.234363883542301 -7.3194403156285084 0 0 0 0 3.8335462035876304 -4.3031862639838323 0 -4.3031862639838323 -0.42436889871190608 0 0 0 0 -342.89333527698182 -196.0645906197224 0 -196.0645906197224 -0.12034799811396441 0 0 0 0 -532.37977980146752 -195.32528285180203 0 -195.32528285180203 96.682936058843609 0 0 0 0 1782.4856447050697 -143.01599719097294 0 -143.01599719097294 1.3491613957768349 0 0 0 0 2582.2665199401126 239.53578426697288 0 239.53578426697288 -138.01439940371699 0 0 0 0 1697.6518017920753 142.4761803677867 0 142.4761803677867 124.58259669517156 0 0 0 0 6.3383173444492087 -11.423253436559008 0 -11.423253436559008 -0.056600982033327085 0 0 0 0 1907.9485393075738 160.12753994338652 0 160.12753994338652 -54.328712704635791 0 0 0 0 1373.1907728510523 26.582377630271765 0 26.582377630271765 -51.394362262874438 0 0 0 0 8.1566319777151506 -16.907195859280392 0 -16.907195859280392 0.91604771539340035 0 0 0 0 1527.6701742157165 137.42918472522456 0 137.42918472522456 24.652317419800511 0 0 0 0 1603.4503103749266 36.666612911599827 0 36.666612911599827 -66.260901947058301 0 0 0 0 906.42607888394559 -60.019302547056895 0 -60.019302547056895 0.0020583254595085308 0 0 0 0 1119.6741940986904 -39.925703962214335 0 -39.925703962214335 -3.3342980803544577 0 0 0 0 1069.7306576469564 94.100184246597621 0 94.100184246597621 45.898816674840219 0 0 0 0 1403.011202694026 52.681649140252063 0 52.681649140252063 -83.405157134244661 0 0 0 0 1415.8282520870343 -23.278745996837898 0 -23.278745996837898 19.602575572305909 0 0 0 0 2.943400166628571 -1.1992307950610837 0 -1.1992307950610837 -4.2786482314003198 0 0 0 0 1343.2164281210162 88.910412267018202 0 88.910412267018202 -50.002645113788603 0 0 0 0 1729.5542201103599 45.22570456687555 0 45.22570456687555 -137.1269572197923 0 0 0 0 1142.9426201098177 4.2738179406368806 0 4.2738179406368806 222.23562670550072 0 0 0 0 1782.6941799212509 -143.66704582374277 0 -143.66704582374277 -1.1676051585554763 0 0 0 0 2.5906664157873749 -0.57106694108983902 0 -0.57106694108983902 -1.08300657494408 0 0 0 0 828.48566895991098 -71.9959971798109 0 -71.9959971798109 25.720576038179132 0 0 0 0 958.17940509571781 74.620648215767147 0 74.620648215767147 -10.373065806297745 0 0 0 0 968.8064706949117 -60.589096288154252 0 -60.589096288154252 16.805578764645361 0 0 0 0 819.46777767140156 78.409531354538103 0 78.409531354538103 32.235079602675711 0 0 0 0 1357.031861346506 17.861823241123147 0 17.861823241123147 -105.59884683032396 0 0 0 0 1110.0641214578936 -184.96030627612117 0 -184.96030627612117 -86.890881125659575 0 0 0 0 1680.5699579605862 -368.59583372696898 0 -368.59583372696898 -53.768434952465213 0 0 0 0 1478.7325843966537 120.14003414575802 0 120.14003414575802 -20.538135944239457 0 0 0 0 584.05668595628231 318.07335149591745 0 318.07335149591745 203.6457684484534 0 0 0 0 454.92010998700425 47.999557133161034 0 47.999557133161034 115.32278164049239 0 0 0 0 557.99374815305055 168.03934694268537 0 168.03934694268537 8.2685069560466218 0 0 0 0 662.89518763529486 198.1785847734991 0 198.1785847734991 -7.1614931032599998 0 0 0 0 570.35093388419773 70.729416956740351 0 70.729416956740351 -12.088127135944887 0 0 0 0 663.73818162863608 117.28051935238091 0 117.28051935238091 -57.39238405395372 0 0 0 0 1149.6181726935465 310.65744566467674 0 310.65744566467674 3.2058731786000862 0 0 0 0 1082.0871159071976 64.910442702044747 0 64.910442702044747 -100.83371462350834 0 0 0 0 1117.0120577170783 137.62458725899978 0 137.62458725899978 -111.55250961971433 0 0 0 0 718.21007856109736 84.419379087920731 0 84.419379087920731 -70.91865478179534 0 0 0 0 722.94706070768007 117.54439559833554 0 117.54439559833554 -63.513880914024867 0 0 0 0 603.7953052285302 106.79424464211115 0 106.79424464211115 -36.279781880233259 0 0 0 0 1018.9046263957862 63.185632693342086 0 63.185632693342086 -131.58747316067365 0 0 0 0 1018.9843373534155 69.84376741723014 0 69.84376741723014 -66.683163025661997 0 0 0 0 897.75428894547076 135.65150672428445 0 135.65150672428445 -46.660305086590597 0 0 0 0 1115.0199592411227 48.653213874597441 0 48.653213874597441 -84.313352213061989 0 0 0 0 1110.5505811900507 -20.118931856548414 0 -20.118931856548414 -10.772981385847743 0 0 0 0 1227.7053865496564 50.407692649110686 0 50.407692649110686 -144.24808881058107 0 0 0 0 1324.2962292895718 -103.18168190619338 0 -103.18168190619338 -111.6801646256763 0 0 0 0 1167.0568099467782 -165.80694076247664 0 -165.80694076247664 -82.873266554984184 0 0 0 0 1168.8705198156676 -70.506665357703241 0 -70.506665357703241 -117.98408252618265 0 0 0 0 1176.3683532004943 -120.21661508133457 0 -120.21661508133457 1.4784536157183084 0 0 0 0 1172.5701322370733 -146.8683654270244 0 -146.8683654270244 -150.31077503274378 0 0 0 0 1.5740270902133409 -2.4704248976826477 0 -2.4704248976826477 -1.5996253954808886 0 0 0 0 837.87904484937462 -134.69569452253745 0 -134.69569452253745 -73.172292939743784 0 0 0 0 1136.3472349488075 -92.264877013965815 0 -92.264877013965815 -69.437992248222599 0 0 0 0 1140.6119885011176 -105.05517850113802 0 -105.05517850113802 -53.808696967978904 0 0 0 0 18.916700858751312 -25.20778007557594 0 -25.20778007557594 22.928231349890446 0 0 0 0 65.205546845900244 -46.274960431228465 0 -46.274960431228465 -49.1687317045089 0 0 0 0 53.768994258352905 -94.387596908287378 0 -94.387596908287378 -115.66395527482018 0 0 0 0 27.797502229202991 2.5902490224582664 0 2.5902490224582664 -25.905305192581416 0 0 0 0 631.02709392544057 -3.8451975636235147 0 -3.8451975636235147 -80.571842237267902 0 0 0 0 567.54264900463022 -83.090406332436942 0 -83.090406332436942 28.496225800949105 0 0 0 0 459.6459773745737 -26.670729384508832 0 -26.670729384508832 18.278267667894625 0 0 0 0 582.89782274996469 -235.46775948677009 0 -235.46775948677009 83.931783095998071 0 0 0 0 26.63214069816604 -25.124947404937529 0 -25.124947404937529 -98.707497909684207 0 0 0 0 142.37678302664426 -5.558338010632724 0 -5.558338010632724 -17.548857368534357 0 0 0 0 9.2006730397357046 -3.690410248488007 0 -3.690410248488007 -3.9972927831139344 0 0 0 0 6.228121219593703 -4.3589972701031741 0 -4.3589972701031741 0.3313285495938274 0 0 0 0 47.667172623856459 -30.287364409905422 0 -30.287364409905422 -98.278456128437028 0 0 0 0 192.21027150542068 -20.997303239390476 0 -20.997303239390476 -172.14394670452566 0 0 0 0 1202.7764155189288 -138.21902959085924 0 -138.21902959085924 60.952492011666436 0 0 0 0 -50.249551072804024 289.78655895433576 0 289.78655895433576 -197.48527860286413 0 0 0 0 0.037921475115581416 -0.20456017740272614 0 -0.20456017740272614 0.065966160758954118 0 0 0 0 834.40725875628414 -178.40059124404388 0 -178.40059124404388 48.799656798055821 0 0 0 0 427.53990089216677 209.5981664141857 0 209.5981664141857 -270.50212835361731 0 0 0 0 153.87178567137744 -104.95572377379995 0 -104.95572377379995 -93.580859228699865 0 0 0 0 280.61118365450238 -117.5542271893305 0 -117.5542271893305 -82.190600173291841 0 0 0 0 1102.1839126061386 -118.72985704444045 0 -118.72985704444045 -54.201675747962327 0 0 0 0 1131.8322945681721 7.1718342740608705 0 7.1718342740608705 -226.13777546249366 0 0 0 0 832.96685318424716 -113.99633311192315 0 -113.99633311192315 149.49848766555942 0 0 0 0 1.9719906777058283 -2.3510275408838197 0 -2.3510275408838197 -3.9903442022447422 0 0 0 0 772.9557242930141 -29.654572464645277 0 -29.654572464645277 54.745930943591702 0 0 0 0 791.900385890709 -505.23982418778888 0 -505.23982418778888 269.81548470483312 0 0 0 0 109.12802703060152 -321.00094784043063 0 -321.00094784043063 223.66070848521758 0 0 0 0 472.81819693520811 130.23355420416658 0 130.23355420416658 -59.519919198410662 0 0 0 0 795.37179765322071 2.6104900909727462 0 2.6104900909727462 -135.03639403607963 0 0 0 0 633.23514585314115 -24.354922458958981 0 -24.354922458958981 62.284337124054673 0 0 0 0 799.6603562532257 132.16528908247145 0 132.16528908247145 -152.27719156601734 0 0 0 0 1.3135467056611114 -1.2652156830766899 0 -1.2652156830766899 -2.3600101219482381 0 0 0 0 709.00240352405672 84.266724945104784 0 84.266724945104784 -175.10586208791756 0 0 0 0 487.89701694437827 -47.374637522217199 0 -47.374637522217199 -95.002754702912171 0 0 0 0 195.55161004865658 -44.261736656964104 0 -44.261736656964104 26.431770878432872 0 0 0 0 523.08915867752512 152.4292141958498 0 152.4292141958498 90.674915411355386 0 0 0 0 703.71490132214967 48.693620555285179 0 48.693620555285179 -223.95148299446032 0 0 0 0 702.42191598952923 -47.024341073476194 0 -47.024341073476194 -147.90027371204883 0 0 0 0 466.06978970702039 -2.2147260205426846 0 -2.2147260205426846 -79.985604802085163 0 0 0 0 481.76919732897659 -31.930191936319936 0 -31.930191936319936 -55.509580385951786 0 0 0 0 459.83592801565828 -172.73996645736167 0 -172.73996645736167 -109.81844123048342 0 0 0 0 506.69640018643258 -41.560553129626356 0 -41.560553129626356 -93.802400217079594 0 0 0 0 751.76931300046272 -199.39425124257275 0 -199.39425124257275 -6.01038898934911 0 0 0 0 1004.1181578855321 -8.9885790911259278 0 -8.9885790911259278 -218.85820082774359 0 0 0 0 1016.8568910706526 -235.28073331959087 0 -235.28073331959087 0.53682176464084996 0 0 0 0 488.52568347340275 -66.017268887211486 0 -66.017268887211486 103.47322858742309 0 0 0 0 831.24175933608785 101.27977043425693 0 101.27977043425693 -206.65041898574967 0 0 0 0 7.4644425933495313 -5.4184472765868463 0 -5.4184472765868463 1.805322278633295 0 0 0 0 775.98092864944192 -86.229767874734861 0 -86.229767874734861 93.151466490148451 0 0 0 0 678.51373039541068 194.26661713209853 0 194.26661713209853 134.91786890815058 0 0 0 0 4.3725867620310339 -1.7884765771102593 0 -1.7884765771102593 0.47164018155509957 0 0 0 0 1631.8381960114784 507.33638002677731 0 507.33638002677731 13.482562978531456 0 0 0 0 328.83048532533576 -9.3027255657119614 0 -9.3027255657119614 0.57146779039777218 0 0 0 0 960.74292448311462 452.92371150048706 0 452.92371150048706 103.37362233602192 0 0 0 0 1258.2666979327187 47.00568511732704 0 47.00568511732704 -0.47208210025315828 0 0 0 0 2012.4774284747473 432.85554669013987 0 432.85554669013987 11.619266175258502 0 0 0 0 1019.3313412591597 265.89398379710059 0 265.89398379710059 531.37543930352092 0 0 0 0 2557.574824162788 -288.53315010170286 0 -288.53315010170286 73.100719882867111 0 0 0 0 2271.231000676722 -220.38825127617974 0 -220.38825127617974 109.62819315308025 0 0 0 0 2168.5565318987501 -263.25312845329313 0 -263.25312845329313 109.16479740406248 0 0 0 0 5.2579795467655401 -3.5912818640004502 0 -3.5912818640004502 0.64356719310015187 0 0 0 0 -24.542923323155264 -200.98152074529833 0 -200.98152074529833 -173.89008599361659 0 0 0 0 25.526266786331092 -19.258779982644938 0 -19.258779982644938 12.922002103552369 0 0 0 0 1224.6613996877641 502.78262178958471 0 502.78262178958471 263.22882690246774 0 0 0 0 1050.4603129085881 278.00748060475371 0 278.00748060475371 189.53648193372518 0 0 0 0 11.368450411232402 -6.8294158008169887 0 -6.8294158008169887 4.2749335752413753 0 0 0 0 3124.1310618104399 694.85387100389926 0 694.85387100389926 280.18093061025979 0 0 0 0 -223.63854144287325 -284.8711369397621 0 -284.8711369397621 291.83137389297531 0 0 0 0 336.0380789969131 -17.483245459763452 0 -17.483245459763452 -182.50442212991334 0 0 0 0 2022.7138280917948 -421.22155053488024 0 -421.22155053488024 -217.7090344161943 0 0 0 0 192.00632775676786 -10.383683596837471 0 -10.383683596837471 219.85587993494889 0 0 0 0 902.22833357202762 -643.31065931138539 0 -643.31065931138539 305.60981971278289 0 0 0 0 1053.7155299039732 -58.69226090313142 0 -58.69226090313142 -0.11389309055665478 0 0 0 0 646.05484362550487 -370.83694822838549 0 -370.83694822838549 64.050349098580611 0 0 0 0 27.415608778217575 -38.110914722414286 0 -38.110914722414286 40.568035613637953 0 0 0 0 168.73739494648908 -15.610372502597333 0 -15.610372502597333 0.24060175390059224 0 0 0 0 15.923165007989155 8.7014087213536211 0 8.7014087213536211 -3.2870202150650849 0 0 0 0 32.417118801284232 -4.9404718975640041 0 -4.9404718975640041 -1.0576207271801792 0 0 0 0 13.656638511907659 5.3383061572070289 0 5.3383061572070289 -4.8834325680494572 0 0 0 0 14.572021063038846 3.0599738892513102 0 3.0599738892513102 -7.4354573209971022 0 0 0 0 2.9992513883626089 -6.8073526478499815 0 -6.8073526478499815 12.477263157667579 0 0 0 0 210.23541590255627 -28.841812072977547 0 -28.841812072977547 82.47059376927939 0 0 0 0 -0.020571453345269219 0.43842931789876616 0 0.43842931789876616 -0.97028836536775598 0 0 0 0 -1.818253874022048 -2.1931104591798416 0 -2.1931104591798416 22.560488652268113 0 0 0 0 -10.389553579661879 -12.977772590437834 0 -12.977772590437834 5.8600585330891803 0 0 0 0 26.163787134239101 -26.236315163282683 0 -26.236315163282683 -0.0090039629545554771 0 0 0 0 27.648296311104787 -8.3911072347379729 0 -8.3911072347379729 -1.2881850338576726 0 0 0 0 -13.436101802537451 -27.473552192392297 0 -27.473552192392297 -9.7315924013637609 0 0 0 0 -0.018899719240934587 -0.11007459238641104 0 -0.11007459238641104 -0.28078055545920821 0 0 0 0 -52.572363566760032 -2.4846946730254125 0 -2.4846946730254125 20.968975333739465 0 0 0 0 -46.152492911904119 -3.280275711780007 0 -3.280275711780007 -0.049689654206351477 0 0 0 0 -7.2380189351679292 5.9020192740924173 0 5.9020192740924173 12.717453726842717 0 0 0 0 -0.70472166201216169 -6.7516604238787181 0 -6.7516604238787181 -16.435530276454728 0 0 0 0 -1.378009160856891 -5.8303644910117285 0 -5.8303644910117285 13.881120815317985 0 0 0 0 24.289820055950258 -32.47094425053595 0 -32.47094425053595 12.041338596557566 0 0 0 0 26.640039664162032 1.7337684684349099 0 1.7337684684349099 11.252111628741318 0 0 0 0 68.273588974494487 -4.1951770215036106 0 -4.1951770215036106 -7.7749951656928431 0 0 0 0 8.8951685583451763 -22.957914368454652 0 -22.957914368454652 6.4596129985192761 0 0 0 0 0.36376472688425565 -18.343282157566691 0 -18.343282157566691 7.9842017072268163 0 0 0 0 -10.086991005868185 -11.113247398838197 0 -11.113247398838197 13.015094937400221 0 0 0 0 -0.52764114115640126 -0.32012017849612562 0 -0.32012017849612562 -1.0724623957983481 0 0 0 0 2.7104744862917869 -10.549227987883363 0 -10.549227987883363 1.882370053474915 0 0 0 0 12.80196544888895 -23.216308244715151 0 -23.216308244715151 -12.294483376662015 0 0 0 0 23.089807236508932 -9.5130171456480639 0 -9.5130171456480639 -0.98641428127316999 0 0 0 0 -5.0513460224028677 -9.0364771520556673 0 -9.0364771520556673 8.364452155491847 0 0 0 0 0.15209694276563823 -24.174750893356475 0 -24.174750893356475 1.4402165533979598 0 0 0 0 152.95885307378194 93.60574611160456 0 93.60574611160456 -31.813590166658742 0 0 0 0 138.10300178572652 108.52341790726234 0 108.52341790726234 71.691382544541298 0 0 0 0 -0.758832297526979 1.5197530593810598 0 1.5197530593810598 -3.164212644826887 0 0 0 0 5.7494417998095741 -0.43603920558948062 0 -0.43603920558948062 -5.2880856982262827 0 0 0 0 8.9614512201660546 6.2675891872149876 0 6.2675891872149876 1.5223946181848191 0 0 0 0 13.390696469679824 4.0272186158025676 0 4.0272186158025676 -7.1260203390227019 0 0 0 0 29.816817893253756 -3.9848491778507622 0 -3.9848491778507622 -7.0319480890866828 0 0 0 0 4.3431712756692775 -1.0435654491983541 0 -1.0435654491983541 -1.9827765422130024 0 0 0 0 29.113839026715141 -15.423574478542065 0 -15.423574478542065 -12.657339374120056 0 0 0 0 81.241716983044171 5.717754173852768 0 5.717754173852768 13.072330174828721 0 0 0 0 90.259511111726169 17.52065887868639 0 17.52065887868639 -54.952516786162619 0 0 0 0 116.36481024681416 -24.701836677786105 0 -24.701836677786105 -101.41523526013543 0 0 0 0 104.63229441938165 -29.148428406687344 0 -29.148428406687344 -50.828945850326818 0 0 0 0 35.767825428121114 -28.799567345348379 0 -28.799567345348379 17.740303676729891 0 0 0 0 29.346776158985449 -72.614222874883126 0 -72.614222874883126 -46.24278508784937 0 0 0 0 382.95307015412254 127.47190238187432 0 127.47190238187432 92.439391644427815 0 0 0 0 8.8142523501540495 -10.84991700589206 0 -10.84991700589206 0.28856422632529544 0 0 0 0 104.08593578010914 136.84333972304921 0 136.84333972304921 21.958393199207421 0 0 0 0 97.220111875484235 -82.838822693500902 0 -82.838822693500902 0.88908986021669989 0 0 0 0 265.16957607652876 43.456068070029687 0 43.456068070029687 -9.9157996025533066 0 0 0 0 356.78427285549697 160.86112124068859 0 160.86112124068859 22.1425827932635 0 0 0 0 35.152531197221833 -10.693876011203884 0 -10.693876011203884 -5.8994531076100429 0 0 0 0 87.044708213725244 -89.007335261965181 0 -89.007335261965181 9.5276610310265824 0 0 0 0 22.406529022945186 2.5624535961087815 0 2.5624535961087815 -8.2546953668436274 0 0 0 0 134.61479687165411 -5.3906468300156121 0 -5.3906468300156121 -16.212099548999504 0 0 0 0 27.186588039839592 -10.260409843465425 0 -10.260409843465425 -3.8902523835815721 0 0 0 0 35.556489377022388 -8.1028866398163473 0 -8.1028866398163473 -7.6119889845161435 0 0 0 0 64.758725103820325 -24.369530330752582 0 -24.369530330752582 -15.941021325294969 0 0 0 0 4.4802593559308121 1.0628996885086792 0 1.0628996885086792 -7.3400688653394761 0 0 0 0 116.71687011640824 24.487802550244623 0 24.487802550244623 -23.747009116317713 0 0 0 0 24.272491909774544 -7.5626386419358624 0 -7.5626386419358624 8.8167613619999656 0 0 0 0 31.364012679880872 -6.6709614392289325 0 -6.6709614392289325 -14.701417693900073 0 0 0 0 53.692632692899451 -7.5077661210024047 0 -7.5077661210024047 -15.559294654941596 0 0 0 0 28.417779939365573 -15.132867868793255 0 -15.132867868793255 -6.9263296188037202 0 0 0 0 23.198759317879606 -19.755545530822246 0 -19.755545530822246 -4.0699536489170249 0 0 0 0 60.445961149351206 -9.9133057100389124 0 -9.9133057100389124 -26.930292432611623 0 0 0 0 0.54014814527977251 -5.736182609044576 0 -5.736182609044576 2.3979227494484765 0 0 0 0 22.951488946047903 -15.716666804451449 0 -15.716666804451449 -14.157954570042989 0 0 0 0 21.143215272197267 -39.363415988430006 0 -39.363415988430006 33.800062170963656 0 0 0 0 42.140055983676575 -92.422011170579424 0 -92.422011170579424 129.4900750955826 0 0 0 0 9.9395266290157451 -43.436162985584815 0 -43.436162985584815 65.079217305882821 0 0 0 0 46.269336936427862 -77.073113310908411 0 -77.073113310908411 62.711451642272323 0 0 0 0 24.435204647685168 -52.765088532273467 0 -52.765088532273467 39.784321812108828 0 0 0 0 78.13621914027317 -69.624104335214838 0 -69.624104335214838 24.93162154761967 0 0 0 0 29.27357240406451 -36.78190133210073 0 -36.78190133210073 21.083290379410123 0 0 0 0 13.293738539330661 -56.902681812722449 0 -56.902681812722449 40.412126888602643 0 0 0 0 3.056004720958299 -54.013659279348303 0 -54.013659279348303 43.979956361481072 0 0 0 0 24.599970085138921 -52.208921031845534 0 -52.208921031845534 37.957015657660122 0 0 0 0 25.005751417396823 -54.426246773422463 0 -54.426246773422463 38.317273968907273 0 0 0 0 24.671991493814858 -54.823713735810543 0 -54.823713735810543 40.557962123752532 0 0 0 0 7.9790872294106521 -38.895392484447257 0 -38.895392484447257 35.498047700552888 0 0 0 0 44.15674412874796 -36.859769445392658 0 -36.859769445392658 4.9324134559301456 0 0 0 0 53.734104902934632 -58.237643900920375 0 -58.237643900920375 19.872970493421235 0 0 0 0 52.266364146227716 169.15896806382261 0 169.15896806382261 59.911537161773595 0 0 0 0 128.45299135666573 163.69232714203099 0 163.69232714203099 -45.03693315585042 0 0 0 0 90.577828151726862 -64.724739796560925 0 -64.724739796560925 7.505206929862652 0 0 0 0 68.354244125686819 -67.087869857541591 0 -67.087869857541591 24.326863742598107 0 0 0 0 58.578688073554076 -59.900959033620438 0 -59.900959033620438 18.803114340357297 0 0 0 0 60.715941563626984 -57.137748562194702 0 -57.137748562194702 16.741777368860312 0 0 0 0 69.707910992350662 -61.336175524860664 0 -61.336175524860664 16.210606291271063 0 0 0 0 58.473776115381042 -51.454846231034594 0 -51.454846231034594 9.2651035218614197 0 0 0 0 75.438436911383178 -54.828794817936 0 -54.828794817936 1.5897468404791653 0 0 0 0 64.088268436506041 -50.145443682478572 0 -50.145443682478572 6.8008885543968063 0 0 0 0 75.858919929072727 -52.365272771889295 0 -52.365272771889295 2.6561242580783073 0 0 0 0 71.937075961090159 -49.47184036257363 0 -49.47184036257363 4.1595929179557061 0 0 0 0 66.670680658513447 -53.192004217778049 0 -53.192004217778049 9.2172503229014922 0 0 0 0 66.420868475106545 -47.460768132767498 0 -47.460768132767498 3.5330686617630818 0 0 0 0 -114.91863264718995 -45.578372935764946 0 -45.578372935764946 71.781827918362978 0 0 0 0 28.508941421287133 -39.015915824419181 0 -39.015915824419181 25.629494956072818 0 0 0 0 64.157684543504729 -47.284258464797631 0 -47.284258464797631 10.253787446760725 0 0 0 0 -54.09909250306373 -35.54036913301934 0 -35.54036913301934 -0.57592793426010758 0 0 0 0 7.1447586639696965 -166.10797150698454 0 -166.10797150698454 -35.810373540138244 0 0 0 0 82.677186105647706 -63.804314844895089 0 -63.804314844895089 87.514011265953741 0 0 0 0 354.35168531019008 -91.226637639585533 0 -91.226637639585533 -36.182501559265802 0 0 0 0 103.04788367819856 -139.19152129283975 0 -139.19152129283975 42.315321904497978 0 0 0 0 394.16988588435925 -92.50782156927653 0 -92.50782156927653 -46.006963312676817 0 0 0 0 550.76922752775135 -21.371854441587857 0 -21.371854441587857 -83.555650779487223 0 0 0 0 434.95264105888782 38.935917160035387 0 38.935917160035387 7.4449603582324926 0 0 0 0 153.62981968453096 49.663392702575493 0 49.663392702575493 55.077163464055047 0 0 0 0 399.8683156791667 107.21034273680198 0 107.21034273680198 11.382727785901352 0 0 0 0 389.18938664111192 125.98991063841368 0 125.98991063841368 -7.8658934440511246 0 0 0 0 259.89031500564306 -13.877630537847381 0 -13.877630537847381 -37.405261303851148 0 0 0 0 241.63906433582451 -142.19471652468224 0 -142.19471652468224 82.8826386639048 0 0 0 0 2.9998327904104514 -1.4931430277455604 0 -1.4931430277455604 -4.195432353574283 0 0 0 0 442.89929400320398 -168.39278497239502 0 -168.39278497239502 -8.7826176711823791 0 0 0 0 5.8965531815445047 -0.017570092299152407 0 -0.017570092299152407 -3.088650913833618 0 0 0 0 42.439897688227575 -4.2115690973238884 0 -4.2115690973238884 -5.2405068406269493 0 0 0 0 58.762098829538445 4.4634675209954366 0 4.4634675209954366 -7.025040833568255 0 0 0 0 80.618200090597384 -2.0771143510257843 0 -2.0771143510257843 -8.0558727997735105 0 0 0 0 15.174161173083121 6.1320725709267663 0 6.1320725709267663 6.5353326082467902 0 0 0 0 14.650911572295627 0.865896017563756 0 0.865896017563756 -2.5242392615728022 0 0 0 0 41.726975889963796 3.4359012551713022 0 3.4359012551713022 -4.4640239913442201 0 0 0 0 4.3633574405539548 4.4458814948626468 0 4.4458814948626468 3.9216544357441308 0 0 0 0 28.560354201006703 4.7555578052806595 0 4.7555578052806595 -2.8867781540420765 0 0 0 0 31.044497782830149 -0.27647980992651355 0 -0.27647980992651355 -11.471969345202865 0 0 0 0 14.85936886244599 -6.3251781457581728 0 -6.3251781457581728 -8.0681134802252927 0 0 0 0 28.724970987765118 -3.4260459676065693 0 -3.4260459676065693 -9.6785697069689149 0 0 0 0 41.854646584215516 -7.0217977080542369 0 -7.0217977080542369 -10.593696067247038 0 0 0 0 54.371877432965675 -17.24582608084873 0 -17.24582608084873 -13.444459563959754 0 0 0 0 54.616084538196446 0.36299916110010599 0 0.36299916110010599 -8.2692694060149279 0 0 0 0 62.063606828276534 -19.352897648898988 0 -19.352897648898988 -12.137777489198641 0 0 0 0 72.085310792797827 -14.668383129490621 0 -14.668383129490621 -20.756060274573656 0 0 0 0 93.591787819881574 -32.615168160666826 0 -32.615168160666826 -11.075586836839449 0 0 0 0 68.298572709565633 -39.962080931180935 0 -39.962080931180935 0.82422029829240273 0 0 0 0 80.776393610634841 -45.800235953607626 0 -45.800235953607626 -5.2388091011812321 0 0 0 0 84.617117599380435 -49.604119980110227 0 -49.604119980110227 -1.5881047988787031 0 0 0 0 89.681255047704326 -50.567798305675979 0 -50.567798305675979 -3.8903501457698439 0 0 0 0 87.452335352165392 -13.132332920242561 0 -13.132332920242561 -16.698847969484859 0 0 0 0 79.56648084842891 -22.415794580732268 0 -22.415794580732268 -11.382655733783849 0 0 0 0 123.64467277377844 -33.336343692802757 0 -33.336343692802757 -10.783008720004972 0 0 0 0 90.864538216796063 6.4214326083090327 0 6.4214326083090327 -6.4881892548301039 0 0 0 0 108.27955803940131 -39.292521365345465 0 -39.292521365345465 -4.4489880615033144 0 0 0 0 186.63025331159588 -71.235844152381333 0 -71.235844152381333 6.6908676596598298 0 0 0 0 137.44479062096798 7.4696084902960251 0 7.4696084902960251 -3.8073548834233861 0 0 0 0 81.797331909248896 -77.312869873157695 0 -77.312869873157695 34.645883963663437 0 0 0 0 124.16551586613059 -66.42683841770986 0 -66.42683841770986 3.3819550264952341 0 0 0 0 132.7694431883283 -100.91480376800018 0 -100.91480376800018 45.223127873676447 0 0 0 0 105.56649309731438 -82.37202004368433 0 -82.37202004368433 122.19739047195395 0 0 0 0 130.04389100797471 -69.927609738598704 0 -69.927609738598704 35.080498671964733 0 0 0 0 136.28382684028475 -11.508926395449862 0 -11.508926395449862 2.2958140021153213 0 0 0 0 268.87424534146339 -23.504484998711163 0 -23.504484998711163 -17.629601502301512 0 0 0 0 128.70223514334066 -18.486642863200814 0 -18.486642863200814 278.00328856660872 0 0 0 0 234.330754189461 -162.91793480379079 0 -162.91793480379079 107.37994382495219 0 0 0 0 89.057103893079329 -119.10814013346106 0 -119.10814013346106 163.48301219842136 0 0 0 0 36.629726132203359 45.178082706998453 0 45.178082706998453 2.7379114595206602 0 0 0 0 3.4590206131940704 -0.39655280102143564 0 -0.39655280102143564 0.34610356624734362 0 0 0 0 128.12036052253097 25.386929579583125 0 25.386929579583125 -8.4644249506286542 0 0 0 0 138.30472183739766 31.681635353397724 0 31.681635353397724 -5.8140467547825665 0 0 0 0 35.545468693846487 19.985117838756878 0 19.985117838756878 5.8405465885664398 0 0 0 0 88.445658605920471 25.348583291989854 0 25.348583291989854 -4.3651155634947827 0 0 0 0 37.886701510607963 23.420407732872945 0 23.420407732872945 2.0219665474226076 0 0 0 0 98.802303603268228 -9.7862324917869046 0 -9.7862324917869046 -1.6663390189282836 0 0 0 0 13.142958425713005 7.9629264616605724 0 7.9629264616605724 5.2625086956086307 0 0 0 0 24.999636922744685 0.91490218645253663 0 0.91490218645253663 1.1544289983756926 0 0 0 0 -31.992562879837351 -13.128709110747565 0 -13.128709110747565 14.989306654836582 0 0 0 0 -27.906156256431132 23.77440718196209 0 23.77440718196209 1.8600763876104907 0 0 0 0 -5.6781118123326451 42.287672985126449 0 42.287672985126449 20.524237148098109 0 0 0 0 0.82328125055727241 -0.027954232749323182 0 -0.027954232749323182 -0.68325280150679357 0 0 0 0 -2.076942995954596 0.33977325175035844 0 0.33977325175035844 13.224354401924074 0 0 0 0 3.862651954535977 -3.2068581142176811 0 -3.2068581142176811 10.806329233495205 0 0 0 0 112.22684105242479 -103.81582519317364 0 -103.81582519317364 59.935181746981357 0 0 0 0 22.369449678240926 -44.276283873065154 0 -44.276283873065154 90.262794983043818 0 0 0 0 127.50047142314725 -135.12343052183138 0 -135.12343052183138 104.32999209831026 0 0 0 0 159.50296730260015 -119.63612385349302 0 -119.63612385349302 39.932171844272261 0 0 0 0 111.54132182314061 -109.33233067137738 0 -109.33233067137738 62.781509771519154 0 0 0 0 124.48644562243135 -98.77478221618216 0 -98.77478221618216 35.399303019117554 0 0 0 0 139.26157553799567 -112.73486727334711 0 -112.73486727334711 48.350597439249327 0 0 0 0 157.6335763616662 -97.749908098048877 0 -97.749908098048877 15.422634588598044 0 0 0 0 139.34708876734396 -97.429127965539379 0 -97.429127965539379 24.85458032827205 0 0 0 0 127.7906791861169 -66.440058984510159 0 -66.440058984510159 -3.5752250380254225 0 0 0 0 127.65082382486435 -86.541158750706202 0 -86.541158750706202 36.810364810153544 0 0 0 0 137.77220463020785 -82.779837057016195 0 -82.779837057016195 17.398524719868817 0 0 0 0 115.86948527503409 -82.610282391096845 0 -82.610282391096845 53.744004421341458 0 0 0 0 120.07314040776691 -77.222042012453983 0 -77.222042012453983 25.355982882935194 0 0 0 0 109.36504679248901 -103.91216337085365 0 -103.91216337085365 67.406501264872531 0 0 0 0 93.911072930386581 -67.312505392844685 0 -67.312505392844685 47.215818102514845 0 0 0 0 110.95838568071485 -73.358959699820758 0 -73.358959699820758 36.765122093944285 0 0 0 0 99.656749762012623 -69.787177233790203 0 -69.787177233790203 56.316488456611296 0 0 0 0 94.889749255613424 -74.080849519693615 0 -74.080849519693615 65.9013530887446 0 0 0 0 97.644539526343578 -82.021921442414566 0 -82.021921442414566 79.556319961107192 0 0 0 0 104.32694171962794 -79.533654117250876 0 -79.533654117250876 56.216614420705469 0 0 0 0 107.09349391999422 -88.090982726175639 0 -88.090982726175639 70.85819564535575 0 0 0 0 99.610046305577271 -90.966943316161689 0 -90.966943316161689 82.769447231351648 0 0 0 0 115.11795260483632 -99.586728204897867 0 -99.586728204897867 62.50070026929734 0 0 0 0 107.08301742275944 -87.017932738262971 0 -87.017932738262971 51.543673018992365 0 0 0 0 -1.5015015204239717 0.59430516664305344 0 0.59430516664305344 -0.24417838788922308 0 0 0 0 48.27218807124882 19.548571023431265 0 19.548571023431265 -46.189101709261536 0 0 0 0 139.05463496714947 -17.568235686955489 0 -17.568235686955489 -22.667214753499451 0 0 0 0 356.19795435442938 -79.150249541924893 0 -79.150249541924893 -42.042231422300006 0 0 0 0 258.27429753378965 -188.91843943242509 0 -188.91843943242509 68.232476381914751 0 0 0 0 201.35684721893631 -87.008623373179077 0 -87.008623373179077 -0.21182442866222573 0 0 0 0 155.83628944662632 -112.01807094816058 0 -112.01807094816058 25.467370252385535 0 0 0 0 61.490514565710328 -32.405162227367811 0 -32.405162227367811 11.096856467098362 0 0 0 0 138.49895230292896 -51.290825888218791 0 -51.290825888218791 -19.79663871713359 0 0 0 0 74.406901673297398 28.005587161420834 0 28.005587161420834 -23.975960334651354 0 0 0 0 0.17095158674018762 -0.013738352600682902 0 -0.013738352600682902 -0.011834656413259592 0 0 0 0 140.26697915799014 -16.207874009769345 0 -16.207874009769345 -47.283758524218229 0 0 0 0 80.810120357396954 -61.485072296305482 0 -61.485072296305482 18.948820570943404 0 0 0 0 98.068072326757829 -68.777711633479811 0 -68.777711633479811 18.639312251228432 0 0 0 0 55.751944441351952 -24.881299512149177 0 -24.881299512149177 0.030369156356736832 0 0 0 0 0.30741386588871933 -0.051152518327455709 0 -0.051152518327455709 -0.040995015648879612 0 0 0 0 47.787681047084334 -28.086265000287206 0 -28.086265000287206 -8.586868959154712 0 0 0 0 49.466879905347014 -20.300042532736789 0 -20.300042532736789 14.38063175496038 0 0 0 0 109.87361427556607 -57.559367372507424 0 -57.559367372507424 19.233605113751494 0 0 0 0 107.22916246222303 -66.391842691429261 0 -66.391842691429261 27.618362417293838 0 0 0 0 109.24990195798455 -70.764263210917278 0 -70.764263210917278 36.72438599209174 0 0 0 0 105.43807712724083 -64.7367886530037 0 -64.7367886530037 27.194337710649108 0 0 0 0 120.86859650192491 -63.514239642492228 0 -63.514239642492228 21.02323582029743 0 0 0 0 130.24035390486824 -71.57449766949965 0 -71.57449766949965 27.04712478698864 0 0 0 0 114.99628602151643 -71.727167583221487 0 -71.727167583221487 16.030944893607398 0 0 0 0 129.71288320908207 -66.488515460151717 0 -66.488515460151717 9.0645960221589945 0 0 0 0 138.88052440433239 -77.872232889197178 0 -77.872232889197178 15.923361816759437 0 0 0 0 133.36623373998736 -60.217977206104329 0 -60.217977206104329 8.0432075977060862 0 0 0 0 117.36755235317105 -48.774131996542167 0 -48.774131996542167 0.10077389761665391 0 0 0 0 90.131099955186073 -59.352386060120836 0 -59.352386060120836 25.195347926517051 0 0 0 0 -2.1440783851072638 -2.5188694602536543 0 -2.5188694602536543 -1.414846376872021 0 0 0 0 98.005751725053415 -60.206541883067842 0 -60.206541883067842 32.00210001438802 0 0 0 0 105.24261151233804 -64.675746713577567 0 -64.675746713577567 26.991493659205673 0 0 0 0 66.162040214650915 -65.23411943945581 0 -65.23411943945581 21.613194177052435 0 0 0 0 69.682218255438784 -33.300925470454708 0 -33.300925470454708 0.041029737471082607 0 0 0 0 -1.147241994866107 -0.68572655090522971 0 -0.68572655090522971 -0.23402705420565867 0 0 0 0 -168.41348136284068 40.18038820331931 0 40.18038820331931 11.879604951524755 0 0 0 0 78.540444549857057 -185.78033092501531 0 -185.78033092501531 -0.17716235929244781 0 0 0 0 211.52045468360302 -59.104752849261303 0 -59.104752849261303 -14.174450612920907 0 0 0 0 365.90059600071982 -129.71336474948833 0 -129.71336474948833 -49.321941475169467 0 0 0 0 107.56896490969666 -24.321948772395359 0 -24.321948772395359 -10.515049182786811 0 0 0 0 170.79698848714179 -57.777061875854542 0 -57.777061875854542 -9.33894056344311 0 0 0 0 452.84899675966153 46.000183112699233 0 46.000183112699233 -51.360350458486437 0 0 0 0 70.160202754268539 24.34850664769823 0 24.34850664769823 22.448559993566278 0 0 0 0 -32.565048564050812 -5.4615197687838872 0 -5.4615197687838872 -10.057512519961904 0 0 0 0 12.672960120704374 -48.070122743611989 0 -48.070122743611989 11.732167608940699 0 0 0 0 -52.960640629840782 -19.698626719426784 0 -19.698626719426784 9.8438166213859404 0 0 0 0 5.5481609312410001 5.9701764240880877 0 5.9701764240880877 6.8614002755359706 0 0 0 0 2.0345540701882499 -1.7018891990526299 0 -1.7018891990526299 -3.3711356254801164 0 0 0 0 -9.6065682070839102 14.064641668021977 0 14.064641668021977 3.5756231012525177 0 0 0 0 -60.559558477558312 16.109854174044074 0 16.109854174044074 -4.1396122876068375 0 0 0 0 -57.165305777089088 -9.5367172784094123 0 -9.5367172784094123 31.219128159263391 0 0 0 0 1051.6034369930276 -18.396280407181337 0 -18.396280407181337 -131.40218699121448 0 0 0 0 479.15369065890991 -240.91195449743827 0 -240.91195449743827 1.319110041329989 0 0 0 0 934.32135964387271 -32.506035537375624 0 -32.506035537375624 -89.266542252673617 0 0 0 0 1.7693790700071474 -1.0152335542374544 0 -1.0152335542374544 -0.15128695610684084 0 0 0 0 512.26931104628602 -84.984475239080894 0 -84.984475239080894 -51.547434532302759 0 0 0 0 586.42039087740704 -214.62459305392966 0 -214.62459305392966 0.1730749437784955 0 0 0 0 339.76214509359124 -193.61202884017126 0 -193.61202884017126 -0.030395374385098789 0 0 0 0 518.69737691456976 -97.44026120644142 0 -97.44026120644142 -39.900094748385996 0 0 0 0 365.84404018267173 -153.32261188574702 0 -153.32261188574702 -20.54390093104945 0 0 0 0 577.56760602013674 -114.93649312986821 0 -114.93649312986821 -125.08422394588683 0 0 0 0 553.41378261022328 -113.39929247703247 0 -113.39929247703247 -124.7956159007731 0 0 0 0 468.42219167693111 -93.090953876321009 0 -93.090953876321009 -94.487771778846991 0 0 0 0 518.89848130858445 -184.77630200964106 0 -184.77630200964106 -86.402531680041875 0 0 0 0 358.8205514639485 -164.79251921685625 0 -164.79251921685625 -58.169226026462638 0 0 0 0 1.4373383288768764 -1.1483745179034486 0 -1.1483745179034486 -0.1955754847102833 0 0 0 0 604.95336007021251 -172.5097590202115 0 -172.5097590202115 -86.117281070014997 0 0 0 0 521.64799840777414 -45.89257314699762 0 -45.89257314699762 -55.555537925686792 0 0 0 0 567.44052012199245 -70.755418215935379 0 -70.755418215935379 -43.389962252232181 0 0 0 0 790.86812100064708 -77.140871023649311 0 -77.140871023649311 -67.777315463383729 0 0 0 0 863.2433913362438 -57.210529472116008 0 -57.210529472116008 -118.83454679784973 0 0 0 0 440.80457416444551 -53.241197313905445 0 -53.241197313905445 -1.2296083870523944 0 0 0 0 492.26402005814452 -122.63185166714959 0 -122.63185166714959 39.132166261604198 0 0 0 0 477.38803947762062 -94.878029263107919 0 -94.878029263107919 14.884705955802474 0 0 0 0 599.92458563763648 -155.92027073685301 0 -155.92027073685301 -3.8576293673768305 0 0 0 0 547.84282737901231 -162.17471735634706 0 -162.17471735634706 112.78896743396126 0 0 0 0 524.95909998967545 -107.95975453107144 0 -107.95975453107144 -10.658777648326065 0 0 0 0 606.66225498108543 -150.30905509688057 0 -150.30905509688057 26.78392853772084 0 0 0 0 593.11823486430512 -209.3412164444278 0 -209.3412164444278 30.439594370468967 0 0 0 0 810.10944499271864 -214.73852320456717 0 -214.73852320456717 -32.60990950290261 0 0 0 0 660.17032682524587 -85.784268006604975 0 -85.784268006604975 -125.62835112893026 0 0 0 0 609.39274588325497 -190.88688591433106 0 -190.88688591433106 250.2224807408852 0 0 0 0 811.48763384550693 -1.9589157170139515 0 -1.9589157170139515 118.22590619798882 0 0 0 0 858.81495976996666 -122.5603932528939 0 -122.5603932528939 -41.852320779632464 0 0 0 0 879.48834138145321 -243.34442275766082 0 -243.34442275766082 32.05286445364618 0 0 0 0 1025.3537917632057 103.07920104583309 0 103.07920104583309 127.67034202117793 0 0 0 0 549.21760707029898 -129.75300234317638 0 -129.75300234317638 48.789640400381813 0 0 0 0 580.63880535031785 -71.469889927666713 0 -71.469889927666713 18.932976484821666 0 0 0 0 601.85938404711123 -44.714337041724889 0 -44.714337041724889 65.260112061414929 0 0 0 0 660.62059997116739 -149.11798459735769 0 -149.11798459735769 34.706560504505433 0 0 0 0 511.12594502131105 -88.325152390625135 0 -88.325152390625135 58.468444257943702 0 0 0 0 512.72365613991769 -77.891577689771296 0 -77.891577689771296 -0.71271674435911336 0 0 0 0 501.5622817723488 -36.534682840160713 0 -36.534682840160713 59.216779878638363 0 0 0 0 516.10755732598773 -29.092153719097496 0 -29.092153719097496 -45.454319942180064 0 0 0 0 478.7068286647409 -38.178658411514789 0 -38.178658411514789 17.161431207311466 0 0 0 0 453.51167085150519 -82.538951820029979 0 -82.538951820029979 -29.419274926563048 0 0 0 0 450.79265698276868 -59.36822372359984 0 -59.36822372359984 40.230175781132402 0 0 0 0 439.20048603433679 -87.016015910156284 0 -87.016015910156284 -2.7802874541994242 0 0 0 0 -121.191655151546 41.624580454564239 0 41.624580454564239 11.033069307109145 0 0 0 0 1.9977099160514626 -4.1676982792891408 0 -4.1676982792891408 -5.3198744884366533 0 0 0 0 3.6552330235347483 0.37223194256301895 0 0.37223194256301895 -5.6603487634958185 0 0 0 0 1.7057027961709537 -5.3453483738260275 0 -5.3453483738260275 -5.9600404010099055 0 0 0 0 17.207743474646122 8.0777155507294083 0 8.0777155507294083 -37.652135206219782 0 0 0 0 -0.42315880450769328 -20.854752703402994 0 -20.854752703402994 -25.276668454649553 0 0 0 0 14.410821452082018 -2.1269493730308113 0 -2.1269493730308113 -23.653009697301854 0 0 0 0 5.397810388437847 0.08441970485145589 0 0.08441970485145589 -6.1634978930447391 0 0 0 0 8.8595191214758984 -2.0735109832193217 0 -2.0735109832193217 -1.0352265337399915 0 0 0 0 -28.167061774453032 -66.65416849512485 0 -66.65416849512485 2.1741151391624953 0 0 0 0 29.390829962238058 -18.044298335221697 0 -18.044298335221697 -73.354119743178217 0 0 0 0 11.757694877976576 -2.5372741709058459 0 -2.5372741709058459 -1.4853342102069558 0 0 0 0 77.610894945973996 -71.909531329196057 0 -71.909531329196057 -13.877275041171913 0 0 0 0 618.26051597959668 219.45416194454475 0 219.45416194454475 -39.782430894876597 0 0 0 0 80.624215418079984 50.227571654611211 0 50.227571654611211 24.979573212882315 0 0 0 0 210.01676048143418 -231.17639288600458 0 -231.17639288600458 146.12668114133089 0 0 0 0 5.1016414462671946 -0.52191295315605402 0 -0.52191295315605402 0.28706178264704008 0 0 0 0 -26.863157689193031 47.711397774969555 0 47.711397774969555 -79.445354102655074 0 0 0 0 -14.023517393245129 93.909267827015356 0 93.909267827015356 39.689787412463374 0 0 0 0 -68.833163738279836 128.37379181772735 0 128.37379181772735 27.894489582655297 0 0 0 0 208.15539774537319 53.954049377320189 0 53.954049377320189 -74.823997074159251 0 0 0 0 334.62718388113717 -82.291929767525971 0 -82.291929767525971 -39.857676758017078 0 0 0 0 111.25701062603912 -20.188039488383765 0 -20.188039488383765 82.131990316908741 0 0 0 0 638.59228328011523 -305.75205239849515 0 -305.75205239849515 -3.3967971473880425 0 0 0 0 311.24085528045543 -103.91764067432723 0 -103.91764067432723 43.818054188200222 0 0 0 0 501.28952394187218 -199.89946848880209 0 -199.89946848880209 42.465878987081823 0 0 0 0 603.94324702984886 -138.36402169376015 0 -138.36402169376015 7.1181177763498908 0 0 0 0 584.70617367772502 -87.958188006061619 0 -87.958188006061619 154.08675486142874 0 0 0 0 336.16339763002179 -185.07269243836572 0 -185.07269243836572 242.11211694084432 0 0 0 0 286.52401673636632 -110.90996927681681 0 -110.90996927681681 338.43941945454071 0 0 0 0 396.5175343160372 -83.914700275058749 0 -83.914700275058749 344.24672743845622 0 0 0 0 321.8829774219048 -128.93337811083211 0 -128.93337811083211 59.709049138785076 0 0 0 0 4.3494376862217905 -2.0318802887875336 0 -2.0318802887875336 178.31446880046587 0 0 0 0 0.51313933322370531 -2.0224893338231595 0 -2.0224893338231595 1.6624111600589178 0 0 0 0 -28.896907928523433 -21.710786352240575 0 -21.710786352240575 72.212920507182389 0 0 0 0 7.7252458408183884 -78.774897915194288 0 -78.774897915194288 122.31407428510738 0 0 0 0 20.986583900274127 45.496238832232393 0 45.496238832232393 -10.694598622331796 0 0 0 0 1.6724337614361957 -2.5877963089715621 0 -2.5877963089715621 -3.3830139609027725 0 0 0 0 0.01965291345550213 -1.3008725035795123 0 -1.3008725035795123 -7.3201420046450494 0 0 0 0 -3.4590000217722263 0.12401425788220877 0 0.12401425788220877 7.6598130995384963 0 0 0 0 -0.5069324435753515 -6.3115817380407861 0 -6.3115817380407861 -4.5612351832714921 0 0 0 0 -0.023629361631265056 -2.0061880621468191 0 -2.0061880621468191 1.9350345560055757 0 0 0 0 11.799928902095417 9.4118652507049774 0 9.4118652507049774 12.715875332110954 0 0 0 0 4.1406380500839077 -0.16393793623704767 0 -0.16393793623704767 -2.430813793280663 0 0 0 0 4.3628310059721116 2.5515115460723337 0 2.5515115460723337 -7.4728090748408249 0 0 0 0 -23.037523765917285 -67.674980246095856 0 -67.674980246095856 304.14148453667167 0 0 0 0 0.82926586570079053 -0.12246587386884134 0 -0.12246587386884134 0.31285804350481827 0 0 0 0 30.795946092206577 -26.054583890813888 0 -26.054583890813888 -18.53043309341956 0 0 0 0 1.0452123311406467 -3.655280171465165 0 -3.655280171465165 22.587354185754066 0 0 0 0 80.317800531956891 -110.99864494737994 0 -110.99864494737994 93.190100875433927 0 0 0 0 72.56882370999665 -158.16887370638528 0 -158.16887370638528 -116.31949073666965 0 0 0 0 117.94736227829708 -70.317058534667012 0 -70.317058534667012 40.403373967610605 0 0 0 0 -28.979700452822726 -85.597459605476843 0 -85.597459605476843 38.93997167190696 0 0 0 0 43.527366358466679 -36.507142159238811 0 -36.507142159238811 16.865242897420785 0 0 0 0 66.99339015851001 -26.005271351258443 0 -26.005271351258443 -87.477482920853618 0 0 0 0 9.9124989140536854 -83.027313146470149 0 -83.027313146470149 143.66864586987685 0 0 0 0 10.207623067224631 -73.536765940995792 0 -73.536765940995792 199.23581647594347 0 0 0 0 12.672173760031001 -72.349794718037401 0 -72.349794718037401 129.97562503867175 0 0 0 0 45.96101511863526 -162.37130353084785 0 -162.37130353084785 278.79581757640972 0 0 0 0 341.16273659294529 -189.24006598117739 0 -189.24006598117739 64.84709797942196 0 0 0 0 92.021927595080342 148.70311875657535 0 148.70311875657535 -51.643080542836287 0 0 0 0 374.23366280926712 -129.7403551882187 0 -129.7403551882187 -11.96101452649782 0 0 0 0 324.58593871734047 87.759901517994876 0 87.759901517994876 11.892001162756969 0 0 0 0 419.05035105586285 112.83729014895471 0 112.83729014895471 -202.60809247600218 0 0 0 0 0.86883279928652257 1.3921009743436912 0 1.3921009743436912 -6.4447017612895294 0 0 0 0 -32.104442222655052 64.584580756406694 0 64.584580756406694 2.5106305413537484 0 0 0 0 114.23464611088275 -99.507217137857879 0 -99.507217137857879 43.399032587872625 0 0 0 0 170.52672124250603 -42.165484256420996 0 -42.165484256420996 -36.136199811990082 0 0 0 0 97.208491889919969 -55.345533472601346 0 -55.345533472601346 -0.0039588923641531437 0 0 0 0 75.813609672710299 -5.9746735138078293 0 -5.9746735138078293 -39.589729557427916 0 0 0 0 104.20503066970559 -28.38279445030139 0 -28.38279445030139 -60.772172981185577 0 0 0 0 67.252625823501148 -15.665788957393715 0 -15.665788957393715 -62.001521267971839 0 0 0 0 22.391335756561602 -46.496470357427825 0 -46.496470357427825 -53.538047479431043 0 0 0 0 93.880421276437119 10.936591151421908 0 10.936591151421908 -35.063164075656459 0 0 0 0 63.993013383515063 -20.979055170903848 0 -20.979055170903848 -40.645947848967239 0 0 0 0 1435.1143313583707 -182.44595192446195 0 -182.44595192446195 -201.50054305410231 0 0 0 0 7.2043607413893938 1.6838222612562674 0 1.6838222612562674 -15.291575131778711 0 0 0 0 66.025303820279078 -22.574800418680979 0 -22.574800418680979 -56.070207191822192 0 0 0 0 68.045429715421051 -25.944576487725328 0 -25.944576487725328 -64.547648539962211 0 0 0 0 1058.7438552301901 -129.80386641352561 0 -129.80386641352561 189.79067768953246 0 0 0 0 35.815734799620998 -25.802605748373864 0 -25.802605748373864 15.178548521678358 0 0 0 0 -77.198344934586203 -175.02342952792242 0 -175.02342952792242 -85.499087542177222 0 0 0 0 -90.318402117147343 -152.07731859056912 0 -152.07731859056912 -70.030707479316334 0 0 0 0 8.8925440706952941 -227.50602083970989 0 -227.50602083970989 -252.39901731161626 0 0 0 0 -49.383285228788736 -148.3605904161667 0 -148.3605904161667 -13.414028920713463 0 0 0 0 40.315053808321352 -26.341003353743048 0 -26.341003353743048 16.108285967592238 0 0 0 0 39.045953578615638 -26.646992406758955 0 -26.646992406758955 16.91694296901532 0 0 0 0 55.118786665538209 -103.57831381143706 0 -103.57831381143706 -129.14285268308959 0 0 0 0 624.54552485280146 -156.39243825892299 0 -156.39243825892299 -70.470411645092099 0 0 0 0 1000.1320914342941 -215.91111406097798 0 -215.91111406097798 -81.434634363773171 0 0 0 0 482.6589741021121 -100.54693052731132 0 -100.54693052731132 -57.910157974934918 0 0 0 0 445.67371809472388 -61.866740491469272 0 -61.866740491469272 -24.746394482051528 0 0 0 0 517.15083462248731 -92.19777322311279 0 -92.19777322311279 -55.993107094636798 0 0 0 0 559.84128311440872 -23.748678984701428 0 -23.748678984701428 -46.575367771879428 0 0 0 0 537.7517983824946 21.902777764034909 0 21.902777764034909 -104.63720051766541 0 0 0 0 637.4000663227489 -18.497988848087971 0 -18.497988848087971 -60.185927709674615 0 0 0 0 709.49970591813326 15.792441080509434 0 15.792441080509434 -146.19125960957035 0 0 0 0 591.65258052747231 151.39834620914144 0 151.39834620914144 -133.30300762345883 0 0 0 0 213.08768690569559 166.15861509990054 0 166.15861509990054 -41.724820117895433 0 0 0 0 393.86787777552854 -239.74933937709147 0 -239.74933937709147 101.55123953978637 0 0 0 0 537.2579293284216 23.944524858721081 0 23.944524858721081 -48.030146863694426 0 0 0 0 450.42493409542658 36.306587090082303 0 36.306587090082303 -26.87265837651421 0 0 0 0 4.2835419604780469 -4.9506273063687161 0 -4.9506273063687161 4.8107796859460876 0 0 0 0 2.9542898028557829 -149.00460557495023 0 -149.00460557495023 116.49316162084324 0 0 0 0 1823.9477927695989 -118.09604998638542 0 -118.09604998638542 -264.31545825074136 0 0 0 0 279.04608972649294 -6.1140087114844164 0 -6.1140087114844164 623.467529321033 0 0 0 0 1642.443788166368 -73.155737948900736 0 -73.155737948900736 -91.114760660721004 0 0 0 0 607.98243189048662 164.79592813026557 0 164.79592813026557 181.02969983316052 0 0 0 0 1342.3016331433028 -10.453140961291865 0 -10.453140961291865 -267.91622091622958 0 0 0 0 815.93327284723637 71.234421586445933 0 71.234421586445933 -28.714847645813279 0 0 0 0 1058.9576807948761 -131.08595324650378 0 -131.08595324650378 20.642035031971318 0 0 0 0 723.70971318150987 -139.81417553694155 0 -139.81417553694155 62.743587740635121 0 0 0 0 434.88786832259211 247.26551821159501 0 247.26551821159501 -397.85711351734244 0 0 0 0 398.92043513463796 -344.71331216474027 0 -344.71331216474027 -38.851292483275756 0 0 0 0 6.5688583275238983 -10.105094229772561 0 -10.105094229772561 12.078040797747576 0 0 0 0 158.21513545882044 -60.046958672003825 0 -60.046958672003825 153.95153575276254 0 0 0 0 712.45808669898543 17.459051200450176 0 17.459051200450176 -74.964620222735903 0 0 0 0 1563.8915509269718 -198.08630012774279 0 -198.08630012774279 -47.42126789237318 0 0 0 0 1535.9217629318082 -330.33345214289284 0 -330.33345214289284 28.990855026708687 0 0 0 0 678.06731230727019 484.40900439833786 0 484.40900439833786 262.38928232808848 0 0 0 0 6.7161730004050355 2.5046798017151843 0 2.5046798017151843 1.8108326984566672 0 0 0 0 284.06387005888973 166.44906724401881 0 166.44906724401881 136.2108323322459 0 0 0 0 1030.7913823889976 -763.01530817728099 0 -763.01530817728099 530.39309374719005 0 0 0 0 333.38350779437678 -368.71747950426948 0 -368.71747950426948 338.90531587145233 0 0 0 0 267.15270542446524 101.64033413133347 0 101.64033413133347 571.24775668822804 0 0 0 0 239.77835224732007 -398.14666397230121 0 -398.14666397230121 815.82921037424694 0 0 0 0 1450.9070023146487 -474.37659585884103 0 -474.37659585884103 236.83022499607432 0 0 0 0 655.39975351873727 -605.13604074325576 0 -605.13604074325576 623.57225104089321 0 0 0 0 -447.58553336736077 -164.15497560821268 0 -164.15497560821268 541.34988424586663 0 0 0 0 67.64485348155722 -419.15914070280087 0 -419.15914070280087 569.46934248217804 0 0 0 0 3.977628484199272 -5.655412568902392 0 -5.655412568902392 6.6132509314614474 0 0 0 0 805.33898259725538 -111.35213105578714 0 -111.35213105578714 250.15264018404378 0 0 0 0 545.52165159070864 178.87644567950883 0 178.87644567950883 -4.1075998934647941 0 0 0 0 1066.4446390432713 62.327398083023581 0 62.327398083023581 19.084180524881248 0 0 0 0 925.21962244136739 -325.10879442293344 0 -325.10879442293344 240.72903885604319 0 0 0 0 1071.2213833506685 -298.93198415246206 0 -298.93198415246206 245.35660878997624 0 0 0 0 895.84437000668549 -83.478283872102111 0 -83.478283872102111 239.33558336097576 0 0 0 0 481.91517474762077 -327.57121301301186 0 -327.57121301301186 414.45865898616103 0 0 0 0 979.42850678809918 -501.64212708188006 0 -501.64212708188006 475.0987711032526 0 0 0 0 861.77418393478729 -851.73734624706856 0 -851.73734624706856 548.30835246651895 0 0 0 0 664.30903621390644 -240.49437822383925 0 -240.49437822383925 207.51501491784529 0 0 0 0 211.53112666944799 -302.11623353465757 0 -302.11623353465757 343.86947176937156 0 0 0 0 794.45883405042696 -617.14364549806987 0 -617.14364549806987 439.71595853968483 0 0 0 0 802.9678716424969 -642.10332397507455 0 -642.10332397507455 491.42159011399372 0 0 0 0 820.44198228172081 -52.765877140742759 0 -52.765877140742759 71.938916550467184 0 0 0 0 123.04601331845333 171.38879384558686 0 171.38879384558686 13.843091301023378 0 0 0 0 77.883618228497653 233.48911831745556 0 233.48911831745556 -180.28737106812696 0 0 0 0 222.26646989288565 -151.47450914989713 0 -151.47450914989713 219.5279663332426 0 0 0 0 26.293869796842046 -250.8284678191435 0 -250.8284678191435 71.70493924006314 0 0 0 0 179.62875223501032 1.0507617431462677 0 1.0507617431462677 -18.945751738987383 0 0 0 0 186.45909993110399 20.549545771453268 0 20.549545771453268 47.07717139307897 0 0 0 0 -9.7192166675522458 -144.4890915365645 0 -144.4890915365645 -25.851872063030896 0 0 0 0 13.655902840662748 -131.98878631781372 0 -131.98878631781372 -78.206456727195473 0 0 0 0 -20.918303636492055 -211.49019992928379 0 -211.49019992928379 -47.023545434853077 0 0 0 0 -76.842952908322331 -217.61749739688184 0 -217.61749739688184 -23.876757494246704 0 0 0 0 1394.0750054160744 -98.545156057618442 0 -98.545156057618442 50.704498454320856 0 0 0 0 4.1798708275234908 -10.53065235392711 0 -10.53065235392711 11.682148452282526 0 0 0 0 -275.64485268185672 -150.30110184953992 0 -150.30110184953992 6.7198464349366986 0 0 0 0 -232.42407848899893 -128.30863104260607 0 -128.30863104260607 -62.9015596882914 0 0 0 0 1066.8315015523112 55.065268146216113 0 55.065268146216113 149.26976216594107 0 0 0 0 -244.10244354671158 -184.91909325728102 0 -184.91909325728102 -10.670234769087074 0 0 0 0 55.099728494329611 -6.8661668839672529 0 -6.8661668839672529 80.208002758708972 0 0 0 0 -723.07416003723301 -341.17590485512648 0 -341.17590485512648 495.73835684929327 0 0 0 0 0.24952253437704996 -2.470571481523308 0 -2.470571481523308 4.2403275342532112 0 0 0 0 2028.5773554062907 -658.77324657364761 0 -658.77324657364761 179.88962546043513 0 0 0 0 126.70506537225447 -154.67490261564308 0 -154.67490261564308 337.46245939382152 0 0 0 0 449.62251036262023 150.06806972151207 0 150.06806972151207 269.29546675315851 0 0 0 0 163.12009447795208 -29.470623392744528 0 -29.470623392744528 162.16906093364196 0 0 0 0 265.89706736019434 66.101706920458128 0 66.101706920458128 117.80108348110298 0 0 0 0 147.19728458380996 161.12576708792403 0 161.12576708792403 393.09761519784479 0 0 0 0 188.39860743885401 171.26911952055138 0 171.26911952055138 380.81412565593382 0 0 0 0 191.20331768427423 -41.750276600004327 0 -41.750276600004327 76.749208202408454 0 0 0 0 77.441512103527202 18.795194535068276 0 18.795194535068276 204.72186413448708 0 0 0 0 42.106642273298348 -139.63203397254074 0 -139.63203397254074 1.1763048741804596 0 0 0 0 211.61964203276875 8.2656327193553807 0 8.2656327193553807 121.91206397015412 0 0 0 0 38.417873140737356 109.315175875173 0 109.315175875173 263.21915074742537 0 0 0 0 55.166235669166781 -24.447525463261627 0 -24.447525463261627 175.37124732365191 0 0 0 0 -41.988750262251415 47.85054232875973 0 47.85054232875973 126.70546449689937 0 0 0 0 104.05160194158088 101.57968135005967 0 101.57968135005967 293.15116596325788 0 0 0 0 73.769752488384256 120.89412906295001 0 120.89412906295001 439.96806683005934 0 0 0 0 41.002602781532914 110.26885299269702 0 110.26885299269702 449.88610759789299 0 0 0 0 55.751719476920698 137.34911580591893 0 137.34911580591893 454.76657876164609 0 0 0 0 84.293206109046878 226.07146929360897 0 226.07146929360897 537.11886366745057 0 0 0 0 66.038141091150464 199.5793704273492 0 199.5793704273492 511.27605629324535 0 0 0 0 105.84062050873763 106.74385555664867 0 106.74385555664867 564.51306004928233 0 0 0 0 173.90717430845689 140.45309168875247 0 140.45309168875247 474.16287267344524 0 0 0 0 214.28179562387959 45.607070339941401 0 45.607070339941401 645.25099450255948 0 0 0 0 93.724179983357317 147.55645645352206 0 147.55645645352206 444.8906518094991 0 0 0 0 534.61339284977294 84.811555672865325 0 84.811555672865325 849.33344284345981 0 0 0 0 523.4000355732278 143.26098890208414 0 143.26098890208414 564.50710517389871 0 0 0 0 399.46390771635197 41.345282166103061 0 41.345282166103061 585.65903683740817 0 0 0 0 627.49044911212695 -92.283001108819917 0 -92.283001108819917 453.38574747654229 0 0 0 0 341.298119422936 128.04561221822314 0 128.04561221822314 613.16214913800104 0 0 0 0 635.70227041517501 -209.91829363732359 0 -209.91829363732359 753.87172803160274 0 0 0 0 342.5092765655063 113.21526398427432 0 113.21526398427432 319.86231630246039 0 0 0 0 477.53319302643649 7.4369466107591506 0 7.4369466107591506 267.97032639075542 0 0 0 0 784.42724243566408 193.00828240521832 0 193.00828240521832 85.727833972692679 0 0 0 0 116.1918813635275 38.723243781488236 0 38.723243781488236 322.75237027166804 0 0 0 0 145.09849314948224 139.71875585903308 0 139.71875585903308 313.96395999082597 0 0 0 0 268.41804559435695 -2.9406315208834712 0 -2.9406315208834712 477.23054800885495 0 0 0 0 318.86727201467147 151.17046836092322 0 151.17046836092322 151.05879081190324 0 0 0 0 201.91913726725033 8.9493359909247374 0 8.9493359909247374 269.12746055514708 0 0 0 0 108.00027953408426 115.37635268605891 0 115.37635268605891 149.85453900129141 0 0 0 0 76.995012988554663 -3.608308089826096 0 -3.608308089826096 137.12553670655507 0 0 0 0 38.450112243814658 92.419669814958013 0 92.419669814958013 28.683765205973032 0 0 0 0 38.521938523999061 -46.375639627102601 0 -46.375639627102601 -56.071699496595102 0 0 0 0 113.14499943512783 14.206004690162445 0 14.206004690162445 110.04720554342566 0 0 0 0 238.02537852033129 67.227668659165829 0 67.227668659165829 168.90677631211111 0 0 0 0 225.29501385612821 124.85018515239608 0 124.85018515239608 27.520817938639084 0 0 0 0 238.38181227014866 10.136975897166849 0 10.136975897166849 -5.9254588205526488 0 0 0 0 246.03661652852315 6.2819979572359443 0 6.2819979572359443 -121.78585379990318 0 0 0 0 298.1374052117244 85.364124191070914 0 85.364124191070914 -25.547123641521466 0 0 0 0 241.5418477345811 -22.48708713049291 0 -22.48708713049291 -15.072734215670835 0 0 0 0 97.564732075348729 117.12259734410964 0 117.12259734410964 -83.455770410451805 0 0 0 0 -109.25502148954547 -149.9222884782007 0 -149.9222884782007 -138.57821598516603 0 0 0 0 -118.58329685123135 -112.35920991113733 0 -112.35920991113733 -21.004730658027256 0 0 0 0 -127.72336824542435 11.187354967452848 0 11.187354967452848 33.526421539511261 0 0 0 0 574.33782939947559 120.05816358675474 0 120.05816358675474 76.683056185812802 0 0 0 0 421.51129162776851 200.40400841655912 0 200.40400841655912 100.22674228639335 0 0 0 0 375.81336486939108 16.537752860302135 0 16.537752860302135 32.82302978331245 0 0 0 0 147.3173348094133 86.064543838029749 0 86.064543838029749 62.190607025596819 0 0 0 0 727.9531787050073 151.10338995976508 0 151.10338995976508 172.37392168488986 0 0 0 0 659.53856106485182 -78.006526444855808 0 -78.006526444855808 -72.616428203999931 0 0 0 0 0.62065767238000547 -0.098203017271117687 0 -0.098203017271117687 -0.12646621948643144 0 0 0 0 253.55419474130031 4.3457143765717774 0 4.3457143765717774 40.587151387864651 0 0 0 0 256.76943690428743 47.872838277007759 0 47.872838277007759 10.678805555512554 0 0 0 0 311.44923672940058 -18.002573873028268 0 -18.002573873028268 -192.95066587738256 0 0 0 0 380.49092405693227 -24.1626709364823 0 -24.1626709364823 -171.14672588086978 0 0 0 0 245.34697637296631 50.571975260412728 0 50.571975260412728 -55.094093276064086 0 0 0 0 235.30475114460569 -51.435080451674025 0 -51.435080451674025 -248.87528942554854 0 0 0 0 335.94767193089501 27.803843842452125 0 27.803843842452125 79.02365754242237 0 0 0 0 0.39085874110163843 -0.19781028534953293 0 -0.19781028534953293 -1.7578088330534953 0 0 0 0 -230.38819493287883 -245.12325662120111 0 -245.12325662120111 -39.107501245109233 0 0 0 0 41.418727262262109 9.1779526052778237 0 9.1779526052778237 -37.238415444440761 0 0 0 0 -169.13872912881197 -53.168560300506215 0 -53.168560300506215 -158.23348989973783 0 0 0 0 10.028152719134098 -1.0538693144033147 0 -1.0538693144033147 -4.8402427945748698 0 0 0 0 139.95454940232594 69.129808963200048 0 69.129808963200048 -177.82261389702398 0 0 0 0 2.5261577584539054 -0.76640483596514031 0 -0.76640483596514031 -0.12207320930293264 0 0 0 0 -93.264100796106504 -277.83574585024326 0 -277.83574585024326 -80.022841959858852 0 0 0 0 119.06005018419819 -252.30933819222082 0 -252.30933819222082 -129.12323333021595 0 0 0 0 -147.18615093457629 -115.76106661363337 0 -115.76106661363337 -132.64716002950627 0 0 0 0 -56.998983939411119 -66.295441948406733 0 -66.295441948406733 -131.09326539690483 0 0 0 0 -16.24704787005976 -168.98585295433418 0 -168.98585295433418 -291.83748664040831 0 0 0 0 -2.3777019947557392 -11.452558311582123 0 -11.452558311582123 6.3949963396026241 0 0 0 0 63.548968571417618 -21.958611310152772 0 -21.958611310152772 2.9925396071840602 0 0 0 0 68.443365367711522 6.7459516315866495 0 6.7459516315866495 -65.696710160489602 0 0 0 0 69.496285651737708 -44.198032837499568 0 -44.198032837499568 6.5918865175938208 0 0 0 0 98.302779496181756 9.6971813831532927 0 9.6971813831532927 -77.224718173686597 0 0 0 0 22.270767893904122 -67.58457539065239 0 -67.58457539065239 28.520446172449738 0 0 0 0 143.65804999822285 16.03814688766397 0 16.03814688766397 -82.975234244173407 0 0 0 0 91.863111560836842 40.564374658575616 0 40.564374658575616 -69.024780060914054 0 0 0 0 265.40673511280329 -50.100549413678891 0 -50.100549413678891 -72.284896380416797 0 0 0 0 275.1844458595433 -200.19885680727896 0 -200.19885680727896 34.470586412713601 0 0 0 0 5.161824354880423 -3.112173133874947 0 -3.112173133874947 4.7954794974828054 0 0 0 0 20.44947987885098 8.1496041578593577 0 8.1496041578593577 -211.71915235174492 0 0 0 0 17.011598322118516 17.21030263629109 0 17.21030263629109 -208.62199877474313 0 0 0 0 130.64492717498797 -235.72171104991321 0 -235.72171104991321 110.17337470317943 0 0 0 0 24.015220423985738 -9.0907138467446202 0 -9.0907138467446202 -184.72557979675048 0 0 0 0 54.363420334237162 -19.138730046411638 0 -19.138730046411638 -21.01452588877487 0 0 0 0 60.609284300047875 -169.75777176657766 0 -169.75777176657766 161.93547596650205 0 0 0 0 109.3519272840058 -39.754613942663127 0 -39.754613942663127 13.505723736399204 0 0 0 0 54.870913738872048 -20.41299116041003 0 -20.41299116041003 3.7281529549745676 0 0 0 0 28.884536896279315 -32.169287141069617 0 -32.169287141069617 18.852018908314676 0 0 0 0 -21.318711759045925 -5.1020208563271581 0 -5.1020208563271581 20.516759501659678 0 0 0 0 -60.424442765768617 -48.900456830670009 0 -48.900456830670009 161.74165301874677 0 0 0 0 46.81190304136544 -60.978142720941605 0 -60.978142720941605 62.943377945372049 0 0 0 0 11.052018117712748 -3.60075074724422 0 -3.60075074724422 3.7194951605412445 0 0 0 0 2.331662380372336 -3.4460480670398912 0 -3.4460480670398912 6.4401427224592567 0 0 0 0 -3.4437262351275422 -20.877902319175973 0 -20.877902319175973 27.135863169790355 0 0 0 0 -53.086136263562366 2.8087360718918717 0 2.8087360718918717 30.337099638821201 0 0 0 0 56.125617920595687 -38.34925947427655 0 -38.34925947427655 -213.92406308073259 0 0 0 0 36.119711978136138 -26.377069040385706 0 -26.377069040385706 16.545729444136562 0 0 0 0 -11.478055030282121 -108.03762649784221 0 -108.03762649784221 25.257888930173976 0 0 0 0 3.4220235491229687 7.8405007660330739 0 7.8405007660330739 -188.48471975626671 0 0 0 0 55.011836980251246 0.17221083265030757 0 0.17221083265030757 -183.21235616279228 0 0 0 0 152.45711858486175 -26.337350137265275 0 -26.337350137265275 -212.43664062826542 0 0 0 0 23.677124397756415 -1.2966855886170379 0 -1.2966855886170379 -118.03655146997971 0 0 0 0 71.051642903265019 26.971409234939529 0 26.971409234939529 -145.30479926691442 0 0 0 0 27.310609334759647 -208.0897545158432 0 -208.0897545158432 -260.14799975858296 0 0 0 0 245.96046598858084 -127.40200993690996 0 -127.40200993690996 -237.08164543828434 0 0 0 0 1.9885118057386535 -0.93503686566809563 0 -0.93503686566809563 0.33105967921595436 0 0 0 0 160.3421176987722 107.36352240199233 0 107.36352240199233 -75.05245159680635 0 0 0 0 59.955358406790765 1.0255001448795156 0 1.0255001448795156 -152.59350136126523 0 0 0 0 23.09697240726382 41.576046208829212 0 41.576046208829212 102.84895492488795 0 0 0 0 21.702124307368649 -154.7882461248355 0 -154.7882461248355 -173.16785349807833 0 0 0 0 4.4373827856849459 -1.7962833849145596 0 -1.7962833849145596 0.16204075883913305 0 0 0 0 182.93208470279205 -127.28653072351881 0 -127.28653072351881 -229.54767104152506 0 0 0 0 -0.32393603987293318 -33.685158529282489 0 -33.685158529282489 -193.27452423405703 0 0 0 0 3.0907544576766668 -19.438539776892867 0 -19.438539776892867 -133.84355139133186 0 0 0 0 3502.1874762908174 57.495858093625067 0 57.495858093625067 -728.91461026832326 0 0 0 0 3497.9282985590235 44.768100821225644 0 44.768100821225644 738.29322269170336 0 0 0 0 2405.4205550716633 1207.4202425260196 0 1207.4202425260196 -25.49374220424848 0 0 0 0 2173.6085235360115 -685.68195770780369 0 -685.68195770780369 -104.35104649941945 0 0 0 0 1586.8404355601524 -5.7683669251535434 0 -5.7683669251535434 -178.96005088261336 0 0 0 0 1122.3254558310618 -306.66456002419989 0 -306.66456002419989 -57.985919582446343 0 0 0 0 369.91565043168521 64.349709361965722 0 64.349709361965722 -32.73984049102603 0 0 0 0 383.40477119277057 298.54466034668792 0 298.54466034668792 195.67653205490907 0 0 0 0 -53.392512019039714 -62.825520396252642 0 -62.825520396252642 200.80037337115596 0 0 0 0 65.733476881781826 -15.66533783039506 0 -15.66533783039506 -10.390443447718894 0 0 0 0 21.325222867832053 -35.825693854170055 0 -35.825693854170055 6.5744021256405123 0 0 0 0 49.69069309187762 -12.059069614921327 0 -12.059069614921327 12.283654383374085 0 0 0 0 1.6640787496680787 4.9879959859007101 0 4.9879959859007101 7.0636850430665143 0 0 0 0 65.834907590495277 -33.284382403902292 0 -33.284382403902292 -13.156985133431363 0 0 0 0 45.40209236325245 -2.3249915303047715 0 -2.3249915303047715 -30.30935376767502 0 0 0 0 -2.0015332252150984 8.019596199648813 0 8.019596199648813 -7.8258110267657912 0 0 0 0 34.917758058290929 -69.158807231054595 0 -69.158807231054595 8.3948369214905085 0 0 0 0 0.92935370869940925 1.7059212294722528 0 1.7059212294722528 1.7145633880598192 0 0 0 0 1.9448058429419746 1.3962783995674215 0 1.3962783995674215 0.70617113111688001 0 0 0 0 8.5170614045000548 20.373875311500591 0 20.373875311500591 308.18585612326308 0 0 0 0 -7.5358436749665998 270.82445411995673 0 270.82445411995673 89.836882590677305 0 0 0 0 -74.072880793908553 197.71937099640985 0 197.71937099640985 447.99511337175545 0 0 0 0 -22.016704819954612 17.363379228269014 0 17.363379228269014 124.49606287023153 0 0 0 0 0.7476427577198308 1.266649611838389 0 1.266649611838389 2.8942214411964389 0 0 0 0 187.54926387409796 84.189309726558804 0 84.189309726558804 120.07497481626348 0 0 0 0 -22.122112928309548 5.5476886438560964 0 5.5476886438560964 66.310676623709242 0 0 0 0 -19.974097107296984 115.59961601804315 0 115.59961601804315 66.73146838569437 0 0 0 0 -23.165892292614444 119.84328906089394 0 119.84328906089394 172.44440668283539 0 0 0 0 98.489895220933249 278.51044108411645 0 278.51044108411645 -126.36909488837546 0 0 0 0 51.981585664318914 -5.3036476806933806 0 -5.3036476806933806 -1.2744123991841438 0 0 0 0 293.08612901771994 -78.636204880494233 0 -78.636204880494233 -823.78636982739431 0 0 0 0 39.240753329722793 -191.30580227086972 0 -191.30580227086972 62.124282881585032 0 0 0 0 572.95380515342549 -1140.3832517510803 0 -1140.3832517510803 680.73037233725552 0 0 0 0 -287.36930905089685 -403.12914414582548 0 -403.12914414582548 641.84134902701555 0 0 0 0 169.31750197352085 491.85539319419615 0 491.85539319419615 -180.98640596176324 0 0 0 0 1140.1580656927981 -411.53103099952455 0 -411.53103099952455 372.74410670786676 0 0 0 0 626.6263942791993 69.620435386508888 0 69.620435386508888 207.91365462033866 0 0 0 0 931.6431481401014 -759.73302499320698 0 -759.73302499320698 236.99139287064418 0 0 0 0 2048.466676058315 -1323.9315919385951 0 -1323.9315919385951 27.28109412342917 0 0 0 0 1408.4919228525105 -1413.9481800450649 0 -1413.9481800450649 497.02972731992736 0 0 0 0 2527.9444936982763 2647.1147834929729 0 2647.1147834929729 2206.3592509964501 0 0 0 0 4409.7310480460947 942.32066493040111 0 942.32066493040111 224.41386460799308 0 0 0 0 22.646868080029719 -1.0548997844095567 0 -1.0548997844095567 1.0012154127836688 0 0 0 0 2506.12551021135 1620.7844215540099 0 1620.7844215540099 206.69550745422436 0 0 0 0 3499.4278627500134 564.1115268504675 0 564.1115268504675 -270.03268257179894 0 0 0 0 1083.1814997714682 1237.4832512079768 0 1237.4832512079768 833.24554752561301 0 0 0 0 956.65021265625182 326.71322761610281 0 326.71322761610281 286.32635649803717 0 0 0 0 1156.172450186772 870.63402229607163 0 870.63402229607163 663.96323771375069 0 0 0 0 2674.2992253384509 633.19200740396354 0 633.19200740396354 103.02138299586545 0 0 0 0 1574.011285528919 233.48516474007835 0 233.48516474007835 365.79873921375912 0 0 0 0 3324.8828969445894 1526.3661462247994 0 1526.3661462247994 27.954517365218464 0 0 0 0 4.9509975089756679 1.0547774690637084 0 1.0547774690637084 -1.8152566010386142 0 0 0 0 1392.8125882335007 591.28183374860521 0 591.28183374860521 437.37167405909298 0 0 0 0 4.8034793618184679 2.0228914216421003 0 2.0228914216421003 -1.6040269851049138 0 0 0 0 1940.279035001091 639.42465744583251 0 639.42465744583251 45.672950192282087 0 0 0 0 2860.0111656986501 75.262385425226924 0 75.262385425226924 2.1428959210712475 0 0 0 0 808.70667292269354 365.81496975813837 0 365.81496975813837 71.618058161731369 0 0 0 0 1496.7758364446781 357.32756770027208 0 357.32756770027208 0.040842734285699588 0 0 0 0 859.47474804810918 551.07659791602225 0 551.07659791602225 302.0820137156071 0 0 0 0 1397.2920818665643 585.29823517336933 0 585.29823517336933 174.26848833507051 0 0 0 0 206.41687484673457 243.70365530337065 0 243.70365530337065 303.04752301579708 0 0 0 0 270.03100238875777 111.69712249369194 0 111.69712249369194 217.98800921247897 0 0 0 0 632.45569235559378 369.79182408060893 0 369.79182408060893 129.16157745698888 0 0 0 0 91.11224520887481 332.08292297980609 0 332.08292297980609 375.20977782385694 0 0 0 0 238.85334123144276 162.2358587682487 0 162.2358587682487 29.551311611131723 0 0 0 0 645.08794381422922 318.44840500912619 0 318.44840500912619 336.83694356060255 0 0 0 0 1402.9298579844472 852.59874966798554 0 852.59874966798554 358.14870796059301 0 0 0 0 138.90557078604206 382.89859569623297 0 382.89859569623297 417.98909697572674 0 0 0 0 910.85074250187608 422.73951507292395 0 422.73951507292395 101.29707909208088 0 0 0 0 916.38986111505073 267.19791459097473 0 267.19791459097473 181.03060760760189 0 0 0 0 62.661422876280767 -4.3434556649389364 0 -4.3434556649389364 -2.9464421711058923 0 0 0 0 150.27827196795351 -169.16478295030723 0 -169.16478295030723 -68.619149726347814 0 0 0 0 142.72376482347318 -111.38219495658348 0 -111.38219495658348 -185.12999650353493 0 0 0 0 124.63242869847454 63.058557080340606 0 63.058557080340606 -287.18320881185423 0 0 0 0 131.77460956474533 42.769835779157916 0 42.769835779157916 -259.74705902685514 0 0 0 0 -157.73196286222083 105.10687116625149 0 105.10687116625149 112.51039414087421 0 0 0 0 114.55448906979291 -23.588704029595647 0 -23.588704029595647 281.24146622134066 0 0 0 0 -123.36563010350801 -115.05086359551342 0 -115.05086359551342 -179.70063609703175 0 0 0 0 8.4181905622172053 5.5337542009603027 0 5.5337542009603027 -0.88796360244760786 0 0 0 0 89.061070790456142 -62.780009829769888 0 -62.780009829769888 -236.6089653056128 0 0 0 0 12.027829461664567 -7.3440494233015414 0 -7.3440494233015414 -7.3735733529148497 0 0 0 0 24.806904119352112 -73.671114943880241 0 -73.671114943880241 -138.50036151318562 0 0 0 0 -10.857662018650444 36.454067879898645 0 36.454067879898645 -351.74524282580819 0 0 0 0 -53.622700343024917 -136.90559597193831 0 -136.90559597193831 -99.633553302263067 0 0 0 0 15.570728984829401 4.0922341964902671 0 4.0922341964902671 -2.1733210337434086 0 0 0 0 72.925798673109966 -110.18007606798756 0 -110.18007606798756 73.084320556207302 0 0 0 0 72.885078969935421 59.848803631611759 0 59.848803631611759 3.8487818726888179 0 0 0 0 -0.48168031383102061 2.2695946197544714 0 2.2695946197544714 92.155607197186356 0 0 0 0 -92.358783798059449 -57.724705104920112 0 -57.724705104920112 -29.328782982184407 0 0 0 0 5.1816532149678096 62.565559779332851 0 62.565559779332851 -162.10050719513879 0 0 0 0 98.180525352508994 73.04663788683709 0 73.04663788683709 -13.715441410441148 0 0 0 0 67.267789884004742 11.392781391132587 0 11.392781391132587 -49.160325841030968 0 0 0 0 26.988424266397487 2.3141113096172781 0 2.3141113096172781 113.06542513812578 0 0 0 0 19.286175373272272 56.327626030538688 0 56.327626030538688 46.952655095939427 0 0 0 0 28.566160908783786 -38.328237010423187 0 -38.328237010423187 -7.8449979358967923 0 0 0 0 97.867472285404801 -34.901455056344616 0 -34.901455056344616 -149.58636504275435 0 0 0 0 44.318409493425861 59.444521676127202 0 59.444521676127202 170.58681941495615 0 0 0 0 172.12279496650444 192.62796136146034 0 192.62796136146034 153.86036255760087 0 0 0 0 95.694107375806198 126.25587928587518 0 126.25587928587518 191.42854500699062 0 0 0 0 228.99888302357067 154.84693494487902 0 154.84693494487902 119.1773881596597 0 0 0 0 150.78189265177207 85.075999161020789 0 85.075999161020789 60.054379107992958 0 0 0 0 197.58562006350257 99.499566816994829 0 99.499566816994829 -0.0093375053429012173 0 0 0 0 417.14388787472853 155.86669779639226 0 155.86669779639226 0.43261458394385721 0 0 0 0 339.41285942266404 240.93196310406387 0 240.93196310406387 107.29376427893803 0 0 0 0 142.23346920443146 36.629344399873276 0 36.629344399873276 0.10496326272684073 0 0 0 0 90.973397901834687 70.576914139803392 0 70.576914139803392 99.904621364077116 0 0 0 0 126.44077504958841 25.943401839265704 0 25.943401839265704 26.819731844332935 0 0 0 0 102.66799684279249 5.2873102583789233 0 5.2873102583789233 33.493204391313604 0 0 0 0 145.2285299717114 1.5612853889125553 0 1.5612853889125553 -10.474121827036356 0 0 0 0 140.18078870783211 -27.595011513686174 0 -27.595011513686174 73.556851012510393 0 0 0 0 147.73911745994701 40.246844997197428 0 40.246844997197428 2.2036529758660492 0 0 0 0 140.9229487288394 -6.5956836775215422 0 -6.5956836775215422 -25.577835884653837 0 0 0 0 71.685874922623043 -107.57857920335243 0 -107.57857920335243 -224.48584234009695 0 0 0 0 55.228862778416442 -59.611932214826375 0 -59.611932214826375 -33.595366520009236 0 0 0 0 145.48292080318788 22.951593753586849 0 22.951593753586849 -120.94351922576818 0 0 0 0 -270.8956687724567 219.03952651172588 0 219.03952651172588 195.37966184591619 0 0 0 0 1.2158263557182067 -0.72837869354970053 0 -0.72837869354970053 0.051663707257575187 0 0 0 0 246.11677938958746 204.81601856916882 0 204.81601856916882 0.97939180203238152 0 0 0 0 -19.52567772573093 160.63556697311259 0 160.63556697311259 5.7711956887650047 0 0 0 0 292.44545393293811 -7.0392207887114182 0 -7.0392207887114182 -31.792768971892826 0 0 0 0 118.54920168616809 28.801300284414523 0 28.801300284414523 -38.29981049134453 0 0 0 0 140.2468345428133 11.338089801157388 0 11.338089801157388 -47.047208956129253 0 0 0 0 76.118436800708878 14.260190510071034 0 14.260190510071034 -34.385236773357292 0 0 0 0 82.336161416242248 18.859611176834463 0 18.859611176834463 -43.24043547384052 0 0 0 0 47.138896417282041 14.660640789135883 0 14.660640789135883 -1.8945292580018394 0 0 0 0 44.307533907096513 25.689582625232887 0 25.689582625232887 -17.537657171227806 0 0 0 0 46.332894231658429 19.94120861192647 0 19.94120861192647 -8.0606274087567726 0 0 0 0 40.969999621673196 75.770200066477628 0 75.770200066477628 -38.369022299578205 0 0 0 0 44.068616784412029 19.645034621229414 0 19.645034621229414 3.3208531351348669 0 0 0 0 27.946827855295851 60.24090947802889 0 60.24090947802889 -26.680921302566531 0 0 0 0 -90.615092398722481 45.498580162565204 0 45.498580162565204 7.7780593818295358 0 0 0 0 152.74878861632897 62.980119779614277 0 62.980119779614277 -43.541199713563685 0 0 0 0 40.527710742753698 27.188042389220755 0 27.188042389220755 -31.486200785473557 0 0 0 0 36.287018759932835 57.206840545415162 0 57.206840545415162 -21.179496099691505 0 0 0 0 49.660498257972904 14.354807065247513 0 14.354807065247513 -0.15458188178284715 0 0 0 0 44.610784248594427 30.825879019058277 0 30.825879019058277 -76.257678420326101 0 0 0 0 22.59895441266417 57.699390081345086 0 57.699390081345086 5.7753904477692686 0 0 0 0 10.421795537360595 89.506698948490452 0 89.506698948490452 -75.265901531989584 0 0 0 0 32.85998734666282 30.404272582837805 0 30.404272582837805 17.368167678539521 0 0 0 0 -2.4282560351130087 3.1518415976370306 0 3.1518415976370306 3.5102279199938664 0 0 0 0 10.539933181570589 5.6095102022646302 0 5.6095102022646302 -10.389536148356338 0 0 0 0 35.19749124563532 39.91434154215483 0 39.91434154215483 -5.3220510684202509 0 0 0 0 58.385223419390968 21.162972093388476 0 21.162972093388476 -9.7682739254783542 0 0 0 0 51.230145413705031 16.986321476108472 0 16.986321476108472 -8.5026914208637425 0 0 0 0 54.754562674148474 18.358045527658305 0 18.358045527658305 -9.472487080812698 0 0 0 0 -0.25427253703969654 3.664919068772889 0 3.664919068772889 -9.8926340454879185 0 0 0 0 48.009600770878023 7.2646331547966589 0 7.2646331547966589 -4.5935580114989962 0 0 0 0 8.0808027534803841 26.570685121326505 0 26.570685121326505 -2.7144751306328203 0 0 0 0 37.847117742479895 16.166070513098418 0 16.166070513098418 -0.86460069683406005 0 0 0 0 11.402701696746391 4.7742921822181472 0 4.7742921822181472 1.4821403264165038 0 0 0 0 13.829846245098452 -5.9551097699438742 0 -5.9551097699438742 17.576997201183531 0 0 0 0 104.54776805601432 17.763244774653742 0 17.763244774653742 7.714894051878403 0 0 0 0 2.474484999431823 1.6872696370180762 0 1.6872696370180762 1.236838078687899 0 0 0 0 56.823662823502673 17.075898118696898 0 17.075898118696898 -11.375170169335519 0 0 0 0 98.463041235227138 23.733891050692819 0 23.733891050692819 -10.898753432332455 0 0 0 0 54.52432686078464 26.829474347777932 0 26.829474347777932 0.46752551595329805 0 0 0 0 36.075978757129633 24.155912634036838 0 24.155912634036838 4.2598757717291846 0 0 0 0 17.205256109781487 -3.654076956874178 0 -3.654076956874178 -13.269089662484523 0 0 0 0 40.487832299244474 13.926475942038138 0 13.926475942038138 -14.959831666480682 0 0 0 0 92.401973315601936 33.340413139902466 0 33.340413139902466 368.63054542550617 0 0 0 0 22.550869576948287 2.9577698527740637 0 2.9577698527740637 -16.413957907790177 0 0 0 0 42.282411723790574 19.341391099442717 0 19.341391099442717 -2.2239693631995578 0 0 0 0 3968.7229126586753 772.37640017968124 0 772.37640017968124 -1255.0487306934281 0 0 0 0 3904.4661154477653 56.044069273210681 0 56.044069273210681 -736.66663482045305 0 0 0 0 3.1126211218040751 3.6603422306635025 0 3.6603422306635025 12.332508381792714 0 0 0 0 -94.625849332311191 -22.745364539325919 0 -22.745364539325919 459.231234767366 0 0 0 0 -124.50680929831287 195.79938532467895 0 195.79938532467895 938.98168058080682 0 0 0 0 151.9220507764112 -37.14297764865114 0 -37.14297764865114 -77.304961986188573 0 0 0 0 152.12723677893518 -42.653279161433602 0 -42.653279161433602 -19.44028799971602 0 0 0 0 125.06065374598984 -64.714789172308429 0 -64.714789172308429 39.796677627426106 0 0 0 0 16.266608886961649 -7.7688419819531944 0 -7.7688419819531944 -14.23694400239328 0 0 0 0 213.84473145933589 74.082423937558815 0 74.082423937558815 -44.203465578316354 0 0 0 0 246.7269677935692 305.25467009306067 0 305.25467009306067 286.47543538028867 0 0 0 0 329.19087435246911 323.27355501238753 0 323.27355501238753 305.69093890244494 0 0 0 0 268.13849575923814 363.21246138819674 0 363.21246138819674 534.0035224030953 0 0 0 0 2219.0128613830311 -76.093060821430299 0 -76.093060821430299 196.11790447170006 0 0 0 0 1064.3571060374961 1047.8587028032262 0 1047.8587028032262 996.44709687228351 0 0 0 0 527.84054356180422 -78.572798494133394 0 -78.572798494133394 1335.2044155566123 0 0 0 0 0.30116777807597828 -0.51319415228736887 0 -0.51319415228736887 -1.2177947018875379 0 0 0 0 381.33990446224925 316.0182805012671 0 316.0182805012671 282.73089664312425 0 0 0 0 257.06427312279993 -286.33543046127556 0 -286.33543046127556 297.22409025623119 0 0 0 0 -86.277086692629382 2.3037850414939385 0 2.3037850414939385 133.23927911102942 0 0 0 0 -79.086053703038488 139.04313998299835 0 139.04313998299835 584.02351829148074 0 0 0 0 -122.35105515459145 -65.206447740905787 0 -65.206447740905787 25.969846069268215 0 0 0 0 1896.2088439819054 -414.14534904721711 0 -414.14534904721711 -763.40036650523962 0 0 0 0 2056.5160705123853 943.21314076757017 0 943.21314076757017 511.6690689706154 0 0 0 0 143.49484839607612 208.38923901227145 0 208.38923901227145 128.01213858615046 0 0 0 0 511.51678017288214 -1.4920481694437058 0 -1.4920481694437058 164.34586504459548 0 0 0 0 2707.6952772404184 1047.7031243489259 0 1047.7031243489259 374.44695325871874 0 0 0 0 2792.6040142121492 1141.2164439580224 0 1141.2164439580224 228.5254652530266 0 0 0 0 226.358134938273 -642.34682376980186 0 -642.34682376980186 -545.62272734563157 0 0 0 0 15.9701294560561 -8.6053765113467193 0 -8.6053765113467193 4.7175890644628193 0 0 0 0 76.271297440762282 50.381021792744463 0 50.381021792744463 -95.174510329774364 0 0 0 0 -179.62468371189607 150.26800741975489 0 150.26800741975489 -127.3035621617762 0 0 0 0 -149.04299640886893 258.44622571432194 0 258.44622571432194 -137.63244844698647 0 0 0 0 19.585097129086961 20.032200491119539 0 20.032200491119539 8.3266890111507248 0 0 0 0 -29.387545490695629 47.57613976685343 0 47.57613976685343 40.724786298280378 0 0 0 0 5.7359245291700063 346.02881994933523 0 346.02881994933523 -91.192517850227887 0 0 0 0 5.3320749745169849 -2.6426524209450406 0 -2.6426524209450406 -1.3435585928598819 0 0 0 0 -121.13535114983097 150.39197634081668 0 150.39197634081668 -311.2232706337777 0 0 0 0 28.021836070576683 -14.10749987042982 0 -14.10749987042982 -31.237526401248601 0 0 0 0 33.658605032273499 -18.793291017046357 0 -18.793291017046357 11.889656592220938 0 0 0 0 367.4471318233409 128.45466322880111 0 128.45466322880111 17.716068668452863 0 0 0 0 2636.0650571813458 1009.0619828799299 0 1009.0619828799299 378.7849622476092 0 0 0 0 345.31991349319287 63.503124504756897 0 63.503124504756897 1003.9764873519352 0 0 0 0 7.8433277591746418 -4.7076510076763896 0 -4.7076510076763896 -14.83011667346172 0 0 0 0 174.31295946773753 -232.0801419063946 0 -232.0801419063946 348.43497195883538 0 0 0 0 2669.7613261285369 928.68521129998965 0 928.68521129998965 320.044709510742 0 0 0 0 11.308814805146653 -4.3483650782286247 0 -4.3483650782286247 4.1299076903317591 0 0 0 0 16.148208297783938 11.445650931120753 0 11.445650931120753 26.310421006430296 0 0 0 0 2785.7131739909964 963.03725335790728 0 963.03725335790728 290.76773000583307 0 0 0 0 2198.8506415900338 813.88810915970566 0 813.88810915970566 404.30165317017827 0 0 0 0 53.834746989712585 93.404088538158248 0 93.404088538158248 -94.894020691982973 0 0 0 0 5257.7450419242086 -1966.1518465223533 0 -1966.1518465223533 492.67287653221456 0 0 0 0 46.233610957674159 -10.876334670988697 0 -10.876334670988697 -23.815598159715023 0 0 0 0 88.512810868749511 27.013456330944791 0 27.013456330944791 -33.080008271963379 0 0 0 0 78.989693057235854 -4.1509553825219143 0 -4.1509553825219143 -18.275013004592012 0 0 0 0 91.248895267839544 -9.9422201518877955 0 -9.9422201518877955 -25.18530846390717 0 0 0 0 106.17223786103932 -27.504604978974527 0 -27.504604978974527 -5.0982423734250517 0 0 0 0 136.7999532562435 -5.2334090455277948 0 -5.2334090455277948 -8.6451898710313628 0 0 0 0 1044.964269221935 -349.97189126950502 0 -349.97189126950502 -104.73272398450058 0 0 0 0 760.43536728494655 -262.38244451533888 0 -262.38244451533888 -55.029469175835629 0 0 0 0 119.63948864085251 -0.83488475895054393 0 -0.83488475895054393 9.1989134651296922 0 0 0 0 -1.0929747211412604 -3.782559946868048 0 -3.782559946868048 -8.9908835698584433 0 0 0 0 198.17963793360104 4.4425249666729014 0 4.4425249666729014 -11.002121108201953 0 0 0 0 464.02398700910271 -339.1459498390534 0 -339.1459498390534 -12.848397913232475 0 0 0 0 246.85826340556378 -39.62699801691349 0 -39.62699801691349 -7.949181764428829 0 0 0 0 1078.7516671302437 -272.08867747153943 0 -272.08867747153943 -146.38673167957904 0 0 0 0 -211.21141057636123 166.38187117470477 0 166.38187117470477 -0.19920021457818579 0 0 0 0 5.2364630482767325 1.9231637918532414 0 1.9231637918532414 0.0057075725453040738 0 0 0 0 0.98893984386289446 -0.65888143584456316 0 -0.65888143584456316 -3.9279958949200018 0 0 0 0 1015.6594564749539 727.62143927644013 0 727.62143927644013 0.16547124095311649 0 0 0 0 691.38263218437714 40.612146463540711 0 40.612146463540711 -162.67546167122526 0 0 0 0 109.17607154345023 248.50134838785863 0 248.50134838785863 -0.10083999796427427 0 0 0 0 -113.41329041841527 72.640210042227991 0 72.640210042227991 -122.32564030808373 0 0 0 0 9.3724153548121194 5.3709744727600679 0 5.3709744727600679 1.5064837898375476 0 0 0 0 551.07536160839663 -47.886927840289161 0 -47.886927840289161 -414.63437675241539 0 0 0 0 0.38841219156165607 349.03743251057887 0 349.03743251057887 -195.05273660947026 0 0 0 0 263.49194450661025 276.23179622665532 0 276.23179622665532 -421.9789544325663 0 0 0 0 1225.5791596217605 -3.3789070042014373 0 -3.3789070042014373 -263.04381176712138 0 0 0 0 -12.342408028736827 78.664407319442716 0 78.664407319442716 -73.122945999657532 0 0 0 0 929.56114489550237 -151.84315139439786 0 -151.84315139439786 -281.62145220078128 0 0 0 0 939.50816738217645 226.18044642524944 0 226.18044642524944 -147.13546760775353 0 0 0 0 5.3019502261097955 2.9825555720776578 0 2.9825555720776578 0.89747318911421914 0 0 0 0 -35.346743962698383 721.83216102419465 0 721.83216102419465 259.40567162676462 0 0 0 0 453.83032804870163 926.76254401551068 0 926.76254401551068 273.22776731632393 0 0 0 0 383.1805591188313 249.60119671598568 0 249.60119671598568 76.53896233390725 0 0 0 0 -222.08294355064572 70.061046623398624 0 70.061046623398624 106.91168768636498 0 0 0 0 1293.1510532252851 648.62609048004003 0 648.62609048004003 216.38881735700579 0 0 0 0 467.19309060293017 764.08885606831473 0 764.08885606831473 756.17513304338445 0 0 0 0 114.37862061395572 85.362893752254763 0 85.362893752254763 385.64399429851028 0 0 0 0 923.50356180283416 776.00143519644803 0 776.00143519644803 209.64954799936277 0 0 0 0 452.63319111251576 486.0353719362854 0 486.0353719362854 84.790817453198997 0 0 0 0 14.434999073863111 -4.0374608165318193 0 -4.0374608165318193 11.066996356156434 0 0 0 0 25.775212591513991 -10.677885699201852 0 -10.677885699201852 -0.94552335528192089 0 0 0 0 16.077001901343465 -16.505234894165937 0 -16.505234894165937 -1.5484690186054451 0 0 0 0 12.809520643465419 -6.1191146545249495 0 -6.1191146545249495 4.05901540069714 0 0 0 0 24.096819911763305 -1.063683721990401 0 -1.063683721990401 5.7939522857461725 0 0 0 0 15.60772409758647 -6.8383104770887257 0 -6.8383104770887257 4.7343220790519922 0 0 0 0 28.198535267395869 -2.8863891620729931 0 -2.8863891620729931 -1.8428928123132664 0 0 0 0 141.79360889120267 44.802391685316486 0 44.802391685316486 64.148730358189823 0 0 0 0 3.3069509416457654 -0.33740444202572917 0 -0.33740444202572917 1.842046669842254 0 0 0 0 11.960182878649277 -5.9993954384594446 0 -5.9993954384594446 1.2947750259397603 0 0 0 0 707.97601138355458 382.06048926150703 0 382.06048926150703 759.12808590688564 0 0 0 0 0.81734560788490285 2.6830857979990981 0 2.6830857979990981 8.4928863011984923 0 0 0 0 43.406581914779963 8.7559594556515989 0 8.7559594556515989 0.51309228137803586 0 0 0 0 28.88930875051301 -14.479536003497437 0 -14.479536003497437 3.6525850103051738 0 0 0 0 1356.279603698873 383.26441628860948 0 383.26441628860948 -135.26706551051575 0 0 0 0 15.335085083832382 4.8907076548634691 0 4.8907076548634691 19.346406961592411 0 0 0 0 18.737017398288913 -8.7552819000741149 0 -8.7552819000741149 -3.4682162326620087 0 0 0 0 4.3067217835536429 -0.65218714449792969 0 -0.65218714449792969 -0.20011725732002889 0 0 0 0 19.845459242293487 -27.447620939455099 0 -27.447620939455099 0.20539969860980994 0 0 0 0 38.362706728614512 -3.8828547354271694 0 -3.8828547354271694 -7.7436806447039359 0 0 0 0 0.089174350398995239 0.012192231566899636 0 0.012192231566899636 -0.050101173201857849 0 0 0 0 72.650213054512278 11.517743810080569 0 11.517743810080569 -14.45271251875347 0 0 0 0 807.64755638270617 346.31929752881632 0 346.31929752881632 0.3259676495029028 0 0 0 0 0.25793538392726134 1.950973693313756 0 1.950973693313756 3.1736318359105531 0 0 0 0 1299.3561169094755 324.59445866959248 0 324.59445866959248 -308.16130233316312 0 0 0 0 4.3881244394700047 -1.3204799988413072 0 -1.3204799988413072 0.20587287723128062 0 0 0 0 1053.3254284371433 422.59104998745261 0 422.59104998745261 127.37914619243088 0 0 0 0 0.92380196449812502 -11.193662059323868 0 -11.193662059323868 -0.018117835151954878 0 0 0 0 20.258628844167106 2.5360036103652241 0 2.5360036103652241 -3.4682162326660588 0 0 0 0 19.098762431560317 -8.9311527360668244 0 -8.9311527360668244 0.015693672516835462 0 0 0 0 0.99468454711313825 -2.5122943902716344 0 -2.5122943902716344 4.2911580845542758 0 0 0 0 363.45142378832679 71.849738456227897 0 71.849738456227897 23.439641915261291 0 0 0 0 8.7849743351136453 -4.432520053840264 0 -4.432520053840264 1.6620006786037591 0 0 0 0 359.76198889485386 126.83078277242146 0 126.83078277242146 22.393743532382246 0 0 0 0 541.11935848266876 139.83095028672045 0 139.83095028672045 -3.6614242329997069 0 0 0 0 302.98466854354774 112.37968559832734 0 112.37968559832734 21.110653033990928 0 0 0 0 376.75332237889234 26.579530887947271 0 26.579530887947271 2.09913844138282 0 0 0 0 348.18434670259012 -2.0085153322601172 0 -2.0085153322601172 -30.893945328971085 0 0 0 0 413.81999699150037 95.713972251648329 0 95.713972251648329 -7.7063033881751153 0 0 0 0 524.71258886410214 -33.075878947783849 0 -33.075878947783849 -24.096664113800443 0 0 0 0 462.3348100962321 -19.169700900072712 0 -19.169700900072712 -26.873221807682512 0 0 0 0 349.37079348866246 -28.982765070526057 0 -28.982765070526057 32.425178815047616 0 0 0 0 411.37348367064624 -87.700674575524374 0 -87.700674575524374 28.281986160893666 0 0 0 0 324.66745118427207 -21.786427262898542 0 -21.786427262898542 30.361959655805549 0 0 0 0 316.27818509253848 -44.628667899839229 0 -44.628667899839229 8.3140601462500854 0 0 0 0 348.26871767199123 24.957416718977548 0 24.957416718977548 66.244169545420391 0 0 0 0 309.3090834931354 64.543180688980556 0 64.543180688980556 26.229514593033286 0 0 0 0 -0.056262544274318316 -0.17913588308604744 0 -0.17913588308604744 0.80713872848880008 0 0 0 0 61.128780870480114 -20.986021256413892 0 -20.986021256413892 14.524200017979638 0 0 0 0 -0.25219397171167657 -13.670069288321031 0 -13.670069288321031 25.637994243081721 0 0 0 0 14.633764733203861 -22.393682913301717 0 -22.393682913301717 65.494475847405283 0 0 0 0 10.704781263921177 -6.049790324538435 0 -6.049790324538435 19.017828022313552 0 0 0 0 54.627760121482424 -26.263169022235388 0 -26.263169022235388 7.7642465719090978 0 0 0 0 -37.236637279638671 20.754678578577568 0 20.754678578577568 92.900080156011882 0 0 0 0 187.03587079849967 -6.2718109357183494 0 -6.2718109357183494 62.287257502560635 0 0 0 0 197.31583595307893 75.321404770165827 0 75.321404770165827 60.009318673627689 0 0 0 0 17.611079563714952 26.224617601737663 0 26.224617601737663 19.058684360241294 0 0 0 0 12.792680282633228 73.647880594662638 0 73.647880594662638 37.905487697736135 0 0 0 0 -395.37627639150742 182.04615998911527 0 182.04615998911527 231.59168631561033 0 0 0 0 2.3082732826151187 62.397273237927266 0 62.397273237927266 -55.938363459214088 0 0 0 0 120.10362075675221 34.740909869818552 0 34.740909869818552 -32.703631930454549 0 0 0 0 139.1289988100034 -29.147470223906339 0 -29.147470223906339 5.1034538966732725 0 0 0 0 222.77751925261691 -3.5023467020728276 0 -3.5023467020728276 7.2788573860623274 0 0 0 0 138.69136184041781 -27.521112176995871 0 -27.521112176995871 36.127793501013912 0 0 0 0 243.94560356919828 -75.928136606971293 0 -75.928136606971293 20.82892309631734 0 0 0 0 359.38729932905699 -58.612007757865058 0 -58.612007757865058 12.528717934954329 0 0 0 0 360.27963064378127 -51.471040736748137 0 -51.471040736748137 -9.2026332631608057 0 0 0 0 291.64898985376931 -75.877404548461527 0 -75.877404548461527 14.430418374747887 0 0 0 0 374.74186274741078 -42.693043444896603 0 -42.693043444896603 7.583164861160185 0 0 0 0 251.08642329681606 3.0009635051746955 0 3.0009635051746955 8.8073915097338613 0 0 0 0 23.16230499328509 11.453166178531959 0 11.453166178531959 6.8751327219702638 0 0 0 0 76.870148427173262 -7.9542684962689236 0 -7.9542684962689236 55.633629505982583 0 0 0 0 100.98777775760391 8.6418075403357761 0 8.6418075403357761 -12.389936173941123 0 0 0 0 194.40211536071729 -164.05513108247078 0 -164.05513108247078 120.57735758974377 0 0 0 0 481.5213951938249 -152.00336288662521 0 -152.00336288662521 -9.1604010257296977 0 0 0 0 341.42107594016852 -135.65467481468681 0 -135.65467481468681 -7.8163689824314133 0 0 0 0 283.40633597804845 -54.691628808949304 0 -54.691628808949304 5.4504561120929793 0 0 0 0 168.99926036906254 -92.997247256355422 0 -92.997247256355422 69.249020279146293 0 0 0 0 125.68924478573172 7.9664130743517489 0 7.9664130743517489 13.967838058905727 0 0 0 0 129.16612427824293 -36.185262625223913 0 -36.185262625223913 41.270233027596078 0 0 0 0 12.546329725300893 57.323383113399132 0 57.323383113399132 35.451933240350172 0 0 0 0 18.768841158440864 26.38367608662989 0 26.38367608662989 26.167701212496802 0 0 0 0 -135.44339792926257 55.353448151417297 0 55.353448151417297 79.851912574911694 0 0 0 0 -76.92294218360621 -125.98360485785247 0 -125.98360485785247 -8.5039065241141429 0 0 0 0 -19.124092835496413 -39.685012192539943 0 -39.685012192539943 112.7545367783805 0 0 0 0 -4.8028983365555291 -9.5195810229835303 0 -9.5195810229835303 -7.3828108836581166 0 0 0 0 -38.965527263255353 -2.4228219321708622 0 -2.4228219321708622 34.009877740314352 0 0 0 0 -2.8305132293083375 -0.65143156277963499 0 -0.65143156277963499 9.0572441297199457 0 0 0 0 -9.5455745467625093 -51.93435860867919 0 -51.93435860867919 -0.27134669556471636 0 0 0 0 5.7910214824369177 -31.511339261587182 0 -31.511339261587182 -20.34838945896513 0 0 0 0 642.27394459815696 -167.78391838569542 0 -167.78391838569542 -95.67739383274602 0 0 0 0 49.496928734515677 -23.877600611570188 0 -23.877600611570188 45.368001218989775 0 0 0 0 -16.388251456374576 -7.429147660854909 0 -7.429147660854909 -2.247078632671641 0 0 0 0 -8.1271369035675889 -44.494858028711064 0 -44.494858028711064 21.31612927544802 0 0 0 0 8.7243535222660284 -20.446789430428908 0 -20.446789430428908 9.9572664503225496 0 0 0 0 -47.445434944005683 61.774839408338039 0 61.774839408338039 199.06177639864632 0 0 0 0 13.756124721330707 -46.354250108580345 0 -46.354250108580345 85.080587802235641 0 0 0 0 551.98370950710114 -522.4699338761543 0 -522.4699338761543 524.72135345401421 0 0 0 0 -1.298875954515438 -0.3816046158315487 0 -0.3816046158315487 4.9164599835365985 0 0 0 0 553.1521177435352 -552.10409516333721 0 -552.10409516333721 689.27884780929753 0 0 0 0 -48.851307270262623 76.345005912920669 0 76.345005912920669 48.95324081079093 0 0 0 0 967.9831950905791 -307.77069466956937 0 -307.77069466956937 -135.71551206348704 0 0 0 0 332.09976129906136 74.37214944876996 0 74.37214944876996 8.6466072789426107 0 0 0 0 396.99722518322778 118.14379035714674 0 118.14379035714674 34.252729074563831 0 0 0 0 254.94103479958721 -129.53828568058725 0 -129.53828568058725 660.37026621927453 0 0 0 0 442.26193988758314 -212.38919837283993 0 -212.38919837283993 186.92929991261553 0 0 0 0 13.617879459261303 -137.87039397555105 0 -137.87039397555105 476.37793857202632 0 0 0 0 215.36431686306605 -270.51063587120734 0 -270.51063587120734 423.66548245178819 0 0 0 0 353.28265372843452 -235.37120839028262 0 -235.37120839028262 316.65480400092019 0 0 0 0 251.81494905022555 -181.98561331394558 0 -181.98561331394558 294.57818334186504 0 0 0 0 244.64065882601426 -211.82262387839546 0 -211.82262387839546 377.52359303000503 0 0 0 0 104.06326477578841 -215.86042396056837 0 -215.86042396056837 397.69806201914616 0 0 0 0 123.5749838409829 -186.18387373883252 0 -186.18387373883252 399.38388596511504 0 0 0 0 57.558462691711611 -107.68428207277555 0 -107.68428207277555 382.03141232701273 0 0 0 0 175.03100577183068 -144.55671072045698 0 -144.55671072045698 350.14757728895165 0 0 0 0 -34.112632720163674 -107.52950899060693 0 -107.52950899060693 432.50063276088713 0 0 0 0 26.52557556584361 -146.13581138603922 0 -146.13581138603922 334.51492643887877 0 0 0 0 11.054458893184801 2.9510856930496452 0 2.9510856930496452 269.07094868645527 0 0 0 0 88.058268191016396 28.315523358192195 0 28.315523358192195 10.740575861358593 0 0 0 0 21.544544570424478 -94.045970898064752 0 -94.045970898064752 134.64192413064143 0 0 0 0 18.66950411392628 6.2479433640196618 0 6.2479433640196618 2.0889306292130492 0 0 0 0 38.10599844076205 20.837522165700875 0 20.837522165700875 40.563002981251998 0 0 0 0 241.8771779259896 -104.90012175219215 0 -104.90012175219215 78.15447063323154 0 0 0 0 103.71889928565361 -259.21646529488885 0 -259.21646529488885 375.75519412065751 0 0 0 0 55.334068622760242 -154.66918535285549 0 -154.66918535285549 159.61601219324075 0 0 0 0 166.61582251492655 43.377725631337569 0 43.377725631337569 293.36184121191673 0 0 0 0 -80.798494810223929 -130.45412689204795 0 -130.45412689204795 533.1272965412486 0 0 0 0 6.2665155289432732 -25.00770775493811 0 -25.00770775493811 419.70487336282804 0 0 0 0 -52.214280049520312 63.304765500285612 0 63.304765500285612 464.73511625875472 0 0 0 0 -94.632918174102088 -88.462772362732721 0 -88.462772362732721 428.45911189089634 0 0 0 0 123.55034334090305 -80.346913584319736 0 -80.346913584319736 314.85727230860721 0 0 0 0 -67.494061486097053 89.76401392230764 0 89.76401392230764 440.34559550587983 0 0 0 0 -46.472621132712447 106.53813700196258 0 106.53813700196258 388.92810960091992 0 0 0 0 -58.558482433611061 7.5516655664123391 0 7.5516655664123391 -371.96743113925913 0 0 0 0 -499.70398418457626 41.840592917592403 0 41.840592917592403 527.08768776703482 0 0 0 0 -0.67543029246508723 -0.61263541944850886 0 -0.61263541944850886 -0.041299094009549009 0 0 0 0 185.72966519229522 -27.867501350996918 0 -27.867501350996918 -112.04070782206145 0 0 0 0 8.3357330681074586 11.874228315340034 0 11.874228315340034 15.303049528668025 0 0 0 0 -85.66243918123655 5.6039708933349175 0 5.6039708933349175 5.1213708427385427 0 0 0 0 -64.705874609964667 108.61868599168884 0 108.61868599168884 80.24062207672614 0 0 0 0 1.7040272218404198 1.3808356076041264 0 1.3808356076041264 0.66730191780465731 0 0 0 0 20.995455288622907 24.475725630342026 0 24.475725630342026 16.833767519186495 0 0 0 0 10.553160429015406 12.303754819466121 0 12.303754819466121 19.670209736090783 0 0 0 0 1.8277002616019615 2.1919731440222563 0 2.1919731440222563 -5.4700601473546762 0 0 0 0 -356.08526020901627 232.16147340568432 0 232.16147340568432 85.450186707817011 0 0 0 0 5.0150834345490125 12.510932257946791 0 12.510932257946791 15.70105690599728 0 0 0 0 68.751111967532779 20.505567199283632 0 20.505567199283632 -58.179385473073125 0 0 0 0 157.60646718781936 68.862687552998068 0 68.862687552998068 47.922602618329165 0 0 0 0 67.888572908283095 111.97534643946119 0 111.97534643946119 101.94208176919983 0 0 0 0 148.15817973633239 62.990043066657108 0 62.990043066657108 0.71179253633317785 0 0 0 0 109.18654651461111 15.05404776094656 0 15.05404776094656 30.17574968752524 0 0 0 0 8.2965344480535919 -0.2123080406615685 0 -0.2123080406615685 -6.110979375163371 0 0 0 0 250.56602996886068 146.19708974560444 0 146.19708974560444 37.545857413851991 0 0 0 0 -40.597044296606384 27.402615668777386 0 27.402615668777386 57.907246741052532 0 0 0 0 18.153913913796714 126.15941745602231 0 126.15941745602231 89.599978221769561 0 0 0 0 353.20137569833605 100.70743615675701 0 100.70743615675701 2.2195352739265672 0 0 0 0 2.5213088667845795 1.892681066347734 0 1.892681066347734 3.6526755476826622 0 0 0 0 192.98576045897789 -5.8061831004979467 0 -5.8061831004979467 614.14005889073815 0 0 0 0 -34.023979154605897 21.390971148146534 0 21.390971148146534 77.324148574652384 0 0 0 0 185.36071471549803 390.06812004293715 0 390.06812004293715 335.66708049293902 0 0 0 0 22.811300702458539 165.37345475649863 0 165.37345475649863 436.49831639036711 0 0 0 0 -478.19903895320022 -141.06601307351411 0 -141.06601307351411 451.29782320411141 0 0 0 0 896.41057727049338 76.121882519237261 0 76.121882519237261 104.78434109566297 0 0 0 0 8.0649535073164316 14.60013801509244 0 14.60013801509244 13.112253704755364 0 0 0 0 6.4595828116994767 9.5095510574413709 0 9.5095510574413709 3.891631905123762 0 0 0 0 204.04917143523971 578.70501348144694 0 578.70501348144694 -234.78506154058778 0 0 0 0 494.82566570787458 83.319825203613618 0 83.319825203613618 -95.163647846253298 0 0 0 0 683.26519622560591 -99.321573863155209 0 -99.321573863155209 -1384.7390420251177 0 0 0 0 878.11367051512298 -401.5655180540117 0 -401.5655180540117 -310.09267573027682 0 0 0 0 391.83080539811635 -272.77325976033717 0 -272.77325976033717 358.32724610806872 0 0 0 0 131.88036943562838 -25.7611909924982 0 -25.7611909924982 133.92300422669723 0 0 0 0 363.10062966245459 83.355801501757014 0 83.355801501757014 19.646185215839068 0 0 0 0 108.75551696449111 96.635830365291895 0 96.635830365291895 112.74740788463714 0 0 0 0 91.054180620636629 30.923588141843453 0 30.923588141843453 -31.93895486504228 0 0 0 0 297.19798414257821 -58.657355947580982 0 -58.657355947580982 -55.030047449848325 0 0 0 0 35.205712899871287 59.215101496678244 0 59.215101496678244 130.50317810398383 0 0 0 0 68.383306505304063 148.75498001676465 0 148.75498001676465 84.078904714278679 0 0 0 0 25.723935445326788 -147.7693241348079 0 -147.7693241348079 -101.40129629729108 0 0 0 0 38.072325467892114 7.5362492471022904 0 7.5362492471022904 12.322309614570498 0 0 0 0 181.09505140982947 82.753375654727733 0 82.753375654727733 0.12071912965939191 0 0 0 0 105.14414414074855 25.178449773365465 0 25.178449773365465 -36.140572174167232 0 0 0 0 124.42249761979474 93.531740250415169 0 93.531740250415169 99.233495582888281 0 0 0 0 122.82189920264705 121.52092761174865 0 121.52092761174865 -97.765236063016346 0 0 0 0 42.838349510009721 172.55969197010972 0 172.55969197010972 153.19675854399793 0 0 0 0 103.97183452655008 255.23532435244397 0 255.23532435244397 -30.807714086156011 0 0 0 0 68.161888644790452 346.6482886212907 0 346.6482886212907 210.76444762097481 0 0 0 0 95.466591523159877 137.0807522525829 0 137.0807522525829 302.38003516083882 0 0 0 0 -24.0052892955282 -100.61837211177931 0 -100.61837211177931 206.55360360653685 0 0 0 0 -23.84339856171573 165.61390202309121 0 165.61390202309121 401.48815444387765 0 0 0 0 -34.824506969358481 40.139305085812794 0 40.139305085812794 5.8058728627427172 0 0 0 0 11.037501653387153 33.068165199506893 0 33.068165199506893 593.19157313939832 0 0 0 0 4.5183782022794503 3.9876628148043736 0 3.9876628148043736 4.0722790781299985 0 0 0 0 -48.187119929076289 77.726461022989497 0 77.726461022989497 84.237905890543516 0 0 0 0 -53.929133270852617 6.4387487958524616 0 6.4387487958524616 129.71272508515983 0 0 0 0 -31.305427876919509 41.363693717172083 0 41.363693717172083 42.185253155584491 0 0 0 0 4.4474884978741898 -9.9171939962787796 0 -9.9171939962787796 1.6150530822397056 0 0 0 0 -68.51286477650865 -126.25449096267766 0 -126.25449096267766 115.12496720051786 0 0 0 0 17.849166588370281 -10.340399292585971 0 -10.340399292585971 -33.945319760904567 0 0 0 0 -1206.0859418118998 -915.81771119076893 0 -915.81771119076893 -406.70663056118065 0 0 0 0 4131.9141110209457 4106.4024109454804 0 4106.4024109454804 906.00151279679267 0 0 0 0 6.8173259214859456 1.2024045852728307 0 1.2024045852728307 -4.3151174349055861 0 0 0 0 267.7795888587134 288.05299246884169 0 288.05299246884169 280.54835855177771 0 0 0 0 261.65655852100872 398.58696127679701 0 398.58696127679701 488.72527231792992 0 0 0 0 676.02748450863146 340.76648836490858 0 340.76648836490858 72.613464751661013 0 0 0 0 771.10242197613115 469.3210415347985 0 469.3210415347985 246.22032863703453 0 0 0 0 1163.7629767531907 94.147694695626342 0 94.147694695626342 29.012514529809778 0 0 0 0 770.87820742919575 -56.850418834788798 0 -56.850418834788798 -28.636955992173171 0 0 0 0 831.2213432486169 647.62707687476359 0 647.62707687476359 627.26784979244826 0 0 0 0 986.29751705340459 705.08667891826872 0 705.08667891826872 425.57332796121045 0 0 0 0 1395.3955345956492 -780.62707540142583 0 -780.62707540142583 1056.4833008021633 0 0 0 0 1154.5889798935386 28.701675936761603 0 28.701675936761603 -397.0313373406816 0 0 0 0 1560.3320172668318 450.95960102045683 0 450.95960102045683 -879.05804504460411 0 0 0 0 541.72579193372803 704.27669247397171 0 704.27669247397171 822.33778036192962 0 0 0 0 755.28467912979249 467.4512645773284 0 467.4512645773284 247.11013806262054 0 0 0 0 0.41522497300201167 1.5890462264399439 0 1.5890462264399439 -2.0759831352148703 0 0 0 0 -5.4595645460067317 47.633516559522832 0 47.633516559522832 -369.19467107307901 0 0 0 0 0.54898687961934911 -0.077256046785265653 0 -0.077256046785265653 -1.1163158002831644 0 0 0 0 315.78021222030657 -617.75093273089988 0 -617.75093273089988 -128.10893463018874 0 0 0 0 374.11085486190132 143.69890497825725 0 143.69890497825725 -78.0670561502086 0 0 0 0 427.86279439758573 155.8349068618673 0 155.8349068618673 -133.0974046330839 0 0 0 0 18.277154218450292 24.361028503651333 0 24.361028503651333 -12.626654325833421 0 0 0 0 -26.336224843529635 29.811906644358714 0 29.811906644358714 -27.986917143226492 0 0 0 0 415.99608437422125 -121.25480640072956 0 -121.25480640072956 -29.521392859523985 0 0 0 0 127.97136350933579 -73.147288386492164 0 -73.147288386492164 -121.88246748801407 0 0 0 0 129.67021920152817 -6.8204619612548782 0 -6.8204619612548782 -17.642056620802286 0 0 0 0 140.09992982881158 -1.768250866800031 0 -1.768250866800031 -76.274511662816622 0 0 0 0 179.00615111240768 -54.446577752067469 0 -54.446577752067469 -120.05814026649313 0 0 0 0 133.31303137214854 -24.039246507449661 0 -24.039246507449661 -25.500649526090911 0 0 0 0 161.4287419283246 73.096668194845165 0 73.096668194845165 50.60575864606858 0 0 0 0 291.57145448619849 1.6317447247990913 0 1.6317447247990913 -99.654744270984793 0 0 0 0 381.53896498258655 226.13147442849643 0 226.13147442849643 77.930261619726707 0 0 0 0 4.0585078706067748 1.8116819015377814 0 1.8116819015377814 -1.6513756770007399 0 0 0 0 426.39260203139747 501.66660915340486 0 501.66660915340486 483.94982653625726 0 0 0 0 588.41307582326408 117.94806355653748 0 117.94806355653748 89.384299675167682 0 0 0 0 247.33620081352274 24.560765692520818 0 24.560765692520818 183.77592627044885 0 0 0 0 316.17748886709524 3.1575688308376755 0 3.1575688308376755 -46.370645495083863 0 0 0 0 150.64564412194886 52.261489468753439 0 52.261489468753439 113.80265729523245 0 0 0 0 -174.2951528895137 -181.23945817258863 0 -181.23945817258863 -74.401109046697457 0 0 0 0 208.63095409568632 -103.71158141866437 0 -103.71158141866437 -147.47996852489533 0 0 0 0 5.611741568567453 -7.7942268491009088 0 -7.7942268491009088 3.6590908958600323 0 0 0 0 790.78422021094229 -234.96140085177251 0 -234.96140085177251 185.1398046886743 0 0 0 0 -352.93606522762275 -313.92720827118671 0 -313.92720827118671 374.16375315632968 0 0 0 0 259.01925642017159 -485.62654590319335 0 -485.62654590319335 405.8921858263131 0 0 0 0 4.2939339590741952 -3.4749334371728651 0 -3.4749334371728651 0.98448701137906447 0 0 0 0 684.74695424061792 -564.04011731984974 0 -564.04011731984974 168.07171946350525 0 0 0 0 -3.5972920938511379 75.634437059725585 0 75.634437059725585 55.586097503306185 0 0 0 0 310.42361110345519 -75.676606430674269 0 -75.676606430674269 125.41757073429108 0 0 0 0 415.28029366936244 -226.4798370833081 0 -226.4798370833081 160.87369602305171 0 0 0 0 281.1146775148809 -176.40304038660724 0 -176.40304038660724 247.4615529043499 0 0 0 0 26.634724502306199 -132.8334770233655 0 -132.8334770233655 242.87010674488874 0 0 0 0 176.50841339066392 -274.1294055602051 0 -274.1294055602051 217.45821990831519 0 0 0 0 297.32316949788947 -189.66384351037914 0 -189.66384351037914 116.79862750331904 0 0 0 0 396.89690628455719 -169.49700991935879 0 -169.49700991935879 33.547048035591615 0 0 0 0 395.11404284727178 -417.99434962374727 0 -417.99434962374727 172.15310475082617 0 0 0 0 308.07521516628913 -353.26833202461273 0 -353.26833202461273 156.52953410142936 0 0 0 0 49.730075968895108 -351.9328871799467 0 -351.9328871799467 327.29428722697958 0 0 0 0 284.58977779772249 -392.71960510512145 0 -392.71960510512145 263.05575974882163 0 0 0 0 218.55890975575312 -335.12500854544555 0 -335.12500854544555 223.62427699206091 0 0 0 0 240.1652694674558 -278.18208378232839 0 -278.18208378232839 188.16995898050436 0 0 0 0 287.26592535662348 -307.65600028673134 0 -307.65600028673134 191.85575422953116 0 0 0 0 294.86919704353204 -304.14336513147418 0 -304.14336513147418 166.73384122580467 0 0 0 0 288.8413253755898 -252.98864441568008 0 -252.98864441568008 183.57513522108093 0 0 0 0 207.32679766759975 -213.26674479740586 0 -213.26674479740586 181.73177547530167 0 0 0 0 0.8333471305681428 -0.88536426061590134 0 -0.88536426061590134 -0.28562801882779487 0 0 0 0 273.69182611441647 -293.32831327968938 0 -293.32831327968938 178.00490648693403 0 0 0 0 221.08789417186017 -314.01929635481906 0 -314.01929635481906 171.94574855447354 0 0 0 0 -2.1379184658043471 -4.3681975529445509 0 -4.3681975529445509 -2.0735813538914396 0 0 0 0 130.23443634080468 -61.446198707935764 0 -61.446198707935764 25.956821033338201 0 0 0 0 71.010264816839481 -94.328199407301554 0 -94.328199407301554 203.58397894022528 0 0 0 0 90.916620368167059 -166.19648235915065 0 -166.19648235915065 46.560591720132834 0 0 0 0 307.80983415921219 -247.93500308027046 0 -247.93500308027046 216.82095057504461 0 0 0 0 323.7274060837517 -266.54111502919204 0 -266.54111502919204 150.91365349419993 0 0 0 0 259.32390236882202 -481.83477108194506 0 -481.83477108194506 244.97180393952888 0 0 0 0 842.71406717005812 -164.3123972261476 0 -164.3123972261476 107.15660262773918 0 0 0 0 755.67134871969756 42.630996211762067 0 42.630996211762067 192.76379186365068 0 0 0 0 1180.9568018260179 220.60764914520723 0 220.60764914520723 143.65114989897666 0 0 0 0 653.97905084191007 595.46310588962501 0 595.46310588962501 481.54433570817201 0 0 0 0 350.60043970275001 329.28807293687089 0 329.28807293687089 298.27961380485976 0 0 0 0 614.59304524238541 402.29450445354325 0 402.29450445354325 257.19407206687924 0 0 0 0 570.17629361341096 101.08073298302764 0 101.08073298302764 183.04995747571706 0 0 0 0 553.78861752197554 133.84299084973588 0 133.84299084973588 137.24418744479925 0 0 0 0 238.54856495677086 356.48744510902662 0 356.48744510902662 391.87384261637163 0 0 0 0 312.15454405295895 591.39346359712818 0 591.39346359712818 657.93388564675888 0 0 0 0 183.88675073121703 52.840988129522373 0 52.840988129522373 -1.5498605469278672 0 0 0 0 94.270588263636455 409.09329497928718 0 409.09329497928718 436.60122804770475 0 0 0 0 201.92145255325158 360.58699797589679 0 360.58699797589679 426.65284102865803 0 0 0 0 202.33391296507034 358.30725992380201 0 358.30725992380201 365.61316276080515 0 0 0 0 400.22072016217862 413.70578332108425 0 413.70578332108425 366.16683633816854 0 0 0 0 409.03693847019531 376.72038082490201 0 376.72038082490201 259.8612525143626 0 0 0 0 74.914135674727731 -9.6018884324437295 0 -9.6018884324437295 17.927308381189874 0 0 0 0 67.568179712499841 49.734749585980069 0 49.734749585980069 10.25984345891959 0 0 0 0 26.830229414075887 -3.9821019690904933 0 -3.9821019690904933 -12.401499361608028 0 0 0 0 58.698367134718865 -16.975318905260821 0 -16.975318905260821 12.330359525140466 0 0 0 0 4.1946634283307844 10.450692235624857 0 10.450692235624857 0.86719514383390595 0 0 0 0 30.993904837894405 25.922188395423348 0 25.922188395423348 4.5924726246325651 0 0 0 0 44.674364626480383 55.240905395120876 0 55.240905395120876 24.924151932441987 0 0 0 0 58.433109462948778 44.451619785509713 0 44.451619785509713 16.151753541205721 0 0 0 0 79.18523530767925 -13.050253125220543 0 -13.050253125220543 -9.6406526554654874 0 0 0 0 47.996099837004977 -0.12622991021862617 0 -0.12622991021862617 -0.7509248171840317 0 0 0 0 53.605003063348704 -16.399319574487322 0 -16.399319574487322 -17.122359670184551 0 0 0 0 13.145855342996953 -2.5348754032426086 0 -2.5348754032426086 -1.5694418373245833 0 0 0 0 153.59170342143625 -0.84277824826213532 0 -0.84277824826213532 -13.49248814298744 0 0 0 0 79.386669848798192 39.22916454817539 0 39.22916454817539 6.9967394743682121 0 0 0 0 -1.8637101709274475 13.405862553129879 0 13.405862553129879 -6.2999679759845177 0 0 0 0 62.057542863069102 85.418503784701031 0 85.418503784701031 -14.74374906344978 0 0 0 0 61.464716877117098 81.43579674803911 0 81.43579674803911 -36.913094831193888 0 0 0 0 -145.95186709305563 201.33059157497053 0 201.33059157497053 -87.787252889817609 0 0 0 0 187.67819479046375 375.97881077670081 0 375.97881077670081 751.8628369242947 0 0 0 0 986.8791577940865 509.12926198117339 0 509.12926198117339 182.54748425476635 0 0 0 0 5.1292161526075404 2.5792954414110909 0 2.5792954414110909 -2.0479153195716586 0 0 0 0 363.44711354068568 544.30985078419019 0 544.30985078419019 553.01990596333439 0 0 0 0 86.828548049874371 349.71911716183837 0 349.71911716183837 550.15087956762784 0 0 0 0 674.01761557848658 334.27336297402996 0 334.27336297402996 413.06056914864416 0 0 0 0 622.86463153740624 692.70122987279558 0 692.70122987279558 580.46258866999608 0 0 0 0 -179.67929054878186 91.506071065756487 0 91.506071065756487 62.132563049864558 0 0 0 0 -3.4675671640836754 3.2923232512344782 0 3.2923232512344782 -2.48947641324443 0 0 0 0 115.01472656407714 862.43080179126957 0 862.43080179126957 523.77843226508844 0 0 0 0 4.4258095831993387 2.6572325972470807 0 2.6572325972470807 -2.1239105256863482 0 0 0 0 93.71805090943235 164.13666586678141 0 164.13666586678141 129.27169988330206 0 0 0 0 422.53414330007945 588.60435984504306 0 588.60435984504306 719.31800323355117 0 0 0 0 119.8004393151823 140.99992243477413 0 140.99992243477413 134.65332707935568 0 0 0 0 171.66571384428244 225.23246155747904 0 225.23246155747904 269.30107564897469 0 0 0 0 88.385029159049736 109.71497017514184 0 109.71497017514184 202.5642511492083 0 0 0 0 6.608188994746115 2.6620411762615745 0 2.6620411762615745 -2.7653517252967266 0 0 0 0 416.81960952688678 201.32638737320696 0 201.32638737320696 139.01480968687864 0 0 0 0 156.63446338292852 149.19066104145395 0 149.19066104145395 309.49539946451614 0 0 0 0 220.50843277198146 91.987466109862908 0 91.987466109862908 -5.5686692089866483 0 0 0 0 150.70179109314267 172.20790813943916 0 172.20790813943916 148.19943148014727 0 0 0 0 63.211729414499132 69.224578665020999 0 69.224578665020999 65.446515742753945 0 0 0 0 118.81405450109014 86.918240527011676 0 86.918240527011676 14.917209597902911 0 0 0 0 124.29825078777503 18.310700865515173 0 18.310700865515173 -20.533633378189279 0 0 0 0 161.64356775378474 27.304166672973338 0 27.304166672973338 -103.73354311107687 0 0 0 0 74.877272359488416 4.3518158388778829 0 4.3518158388778829 -116.96049277316843 0 0 0 0 97.006153689920325 3.8064959125471276 0 3.8064959125471276 -16.260002177876633 0 0 0 0 105.52424031856026 -163.13089861145056 0 -163.13089861145056 -174.84914905408641 0 0 0 0 68.797822997905314 52.143629480744494 0 52.143629480744494 -21.834049077517193 0 0 0 0 64.643154777766796 19.792993104782294 0 19.792993104782294 -21.015162600366345 0 0 0 0 82.802159516431857 49.711586762707157 0 49.711586762707157 -22.853124445913636 0 0 0 0 34.362984454070101 -27.871756188076688 0 -27.871756188076688 -130.96839181435644 0 0 0 0 13.293281159919985 -9.1118870871054689 0 -9.1118870871054689 -9.8005440803087733 0 0 0 0 21.457532663749589 -21.038023203385819 0 -21.038023203385819 -20.994059123116358 0 0 0 0 6.8591676181131334 -42.273433869543624 0 -42.273433869543624 -91.87323730315984 0 0 0 0 16.965263766824535 -10.836763209292274 0 -10.836763209292274 -3.8775201543143702 0 0 0 0 9.0735901492735138 4.4291437408683123 0 4.4291437408683123 -7.2909721745281786 0 0 0 0 11.567977500803778 -1.555450474046717 0 -1.555450474046717 -2.0314691354555277 0 0 0 0 35.047746850657859 -27.297050424824874 0 -27.297050424824874 21.153934443089383 0 0 0 0 -4.0003824152518064 47.400124275548023 0 47.400124275548023 75.430798487368975 0 0 0 0 7.8447653394687222 44.409373098203218 0 44.409373098203218 4.7456019298612091 0 0 0 0 63.709372819954297 31.620435269335246 0 31.620435269335246 33.984894480621278 0 0 0 0 12.836769111330796 70.83782057846031 0 70.83782057846031 64.025737712445107 0 0 0 0 41.338352586550172 -25.059362148563196 0 -25.059362148563196 15.958099332100574 0 0 0 0 26.592736465209498 -12.379453861441082 0 -12.379453861441082 -16.852188788664929 0 0 0 0 23.010945963342863 -22.034117796035545 0 -22.034117796035545 -32.04181139021869 0 0 0 0 26.080621171480743 -6.891339293996225 0 -6.891339293996225 -27.01300797565716 0 0 0 0 -15.700828393106349 23.989269320031326 0 23.989269320031326 33.37033920230806 0 0 0 0 30.817277446127264 2.2810993007692559 0 2.2810993007692559 69.348588067537406 0 0 0 0 5.4426998354808802 7.3083939857466582 0 7.3083939857466582 -0.28723514949725204 0 0 0 0 50.269566231878841 6.0377691792427157 0 6.0377691792427157 -10.87014561992833 0 0 0 0 59.259538296638823 65.200767735899944 0 65.200767735899944 27.93878323328385 0 0 0 0 15.777114832888259 4.9231254669106335 0 4.9231254669106335 -0.086853756613539446 0 0 0 0 49.599739101504383 64.034907930870304 0 64.034907930870304 -17.450750229676487 0 0 0 0 85.687901460118155 24.820204400930834 0 24.820204400930834 22.363267181994161 0 0 0 0 75.534585730063554 68.685602143106053 0 68.685602143106053 -23.676126458080034 0 0 0 0 36.169422431022099 27.447566149486207 0 27.447566149486207 19.008683701362909 0 0 0 0 93.928688581896495 65.903102889934871 0 65.903102889934871 -80.179168221948203 0 0 0 0 3.9515111245418666 86.841789784870627 0 86.841789784870627 11.567459704480697 0 0 0 0 -22.423520266343985 31.17758605018382 0 31.17758605018382 44.659505068503904 0 0 0 0 -24.12362228721031 21.940943919370511 0 21.940943919370511 167.00541876898296 0 0 0 0 148.98723348780186 -38.736262399197585 0 -38.736262399197585 -42.363664452665034 0 0 0 0 76.609948292098125 117.0617499778109 0 117.0617499778109 256.46099550308827 0 0 0 0 270.09051136829657 68.270519956490716 0 68.270519956490716 51.101683080994007 0 0 0 0 -0.64353104303016551 -3.56459215234743 0 -3.56459215234743 1.4874670710850424 0 0 0 0 -86.701125364634208 45.527136523041918 0 45.527136523041918 72.104492935800863 0 0 0 0 68.457350343710914 148.35476270625549 0 148.35476270625549 139.81941298455968 0 0 0 0 70.099390208619297 151.06555777144558 0 151.06555777144558 134.8293858737693 0 0 0 0 51.792571000827593 130.77173664023758 0 130.77173664023758 254.96267586843288 0 0 0 0 -36.18398174730828 214.83575598223592 0 214.83575598223592 176.1690511888396 0 0 0 0 1.5324172042892314 -64.501759426857916 0 -64.501759426857916 633.14593331476499 0 0 0 0 -44.634636385117119 196.0071334200054 0 196.0071334200054 618.93149635323698 0 0 0 0 -158.09858953551884 90.14515027782852 0 90.14515027782852 1082.5411297132291 0 0 0 0 113.69981579964224 397.66265198984325 0 397.66265198984325 1665.2053146044354 0 0 0 0 10.501580822260507 7.3556742300503473 0 7.3556742300503473 6.8372316025893696 0 0 0 0 2189.2234464908688 789.44021920656587 0 789.44021920656587 662.44070518836656 0 0 0 0 2472.6273693930852 -201.66324769396556 0 -201.66324769396556 64.013834396795772 0 0 0 0 -21.746329638044699 -229.85439745215612 0 -229.85439745215612 139.6192725595761 0 0 0 0 26.062709393972312 19.680927752041804 0 19.680927752041804 15.110815467604734 0 0 0 0 -53.241063707522699 94.010427298573944 0 94.010427298573944 -61.414309603256896 0 0 0 0 6.8444225809380441 129.43590699902626 0 129.43590699902626 83.953685651677006 0 0 0 0 104.6378202845226 -33.744490418912392 0 -33.744490418912392 180.88692289944265 0 0 0 0 -140.57488218630169 -2.0535040197100471 0 -2.0535040197100471 2.5297631535294158 0 0 0 0 73.015410663778312 75.128452746000775 0 75.128452746000775 -67.272896520479662 0 0 0 0 219.1282161277486 -3.0503912313789669 0 -3.0503912313789669 4.1852080825046869 0 0 0 0 -15.559132862479601 -47.514512136465186 0 -47.514512136465186 18.918009158922814 0 0 0 0 174.52816625163541 -190.29269124187641 0 -190.29269124187641 -61.039661747311811 0 0 0 0 2814.9689329024623 287.32806520879893 0 287.32806520879893 -32.194801208216063 0 0 0 0 2.1677968264447216 3.8277622733694727 0 3.8277622733694727 -0.51070415711711958 0 0 0 0 141.88760956166516 -132.39541230699024 0 -132.39541230699024 -163.49463881493102 0 0 0 0 -21.060339757903421 155.06415769371756 0 155.06415769371756 478.93227477875917 0 0 0 0 9.0477978371276961 5.6538449645118902 0 5.6538449645118902 -7.437736536600613 0 0 0 0 388.29962577321567 135.73400137705022 0 135.73400137705022 -219.78241187124718 0 0 0 0 825.08036087847722 186.13241090656578 0 186.13241090656578 304.42617228153466 0 0 0 0 3.5815042203340397 -1.6084911679698699 0 -1.6084911679698699 0.67935573338907673 0 0 0 0 -7.143675012717722 -96.969220216362146 0 -96.969220216362146 212.34759140960597 0 0 0 0 117.86352223320864 203.42685494525881 0 203.42685494525881 277.30574558623141 0 0 0 0 14.621065116560203 17.010415159934382 0 17.010415159934382 117.77352340330094 0 0 0 0 3499.9130351409112 329.4199741993271 0 329.4199741993271 -289.30940930044687 0 0 0 0 3133.8541608598625 486.31172105555191 0 486.31172105555191 -114.71852979819367 0 0 0 0 2827.4428361463215 125.16560808034498 0 125.16560808034498 -348.1148130753046 0 0 0 0 2842.5945277933051 366.35790255014018 0 366.35790255014018 -139.5574169376473 0 0 0 0 3085.1138852690565 259.68698443481611 0 259.68698443481611 -447.53162101974351 0 0 0 0 2406.9276425061253 86.402313091772442 0 86.402313091772442 4.4589478740886079 0 0 0 0 3140.0095833915766 280.96233943689356 0 280.96233943689356 -147.10901784855037 0 0 0 0 3124.8796092290941 335.9302408708129 0 335.9302408708129 -152.36705062877985 0 0 0 0 3499.187448075907 81.625807936306316 0 81.625807936306316 19.073794301597335 0 0 0 0 2875.0513231159566 174.65314542401353 0 174.65314542401353 179.05332090893651 0 0 0 0 2854.7570443895747 614.12310705945015 0 614.12310705945015 112.10497502498113 0 0 0 0 2825.0300597821406 284.03266422765569 0 284.03266422765569 1015.2805453814175 0 0 0 0 2565.9416324961057 -280.80340811296116 0 -280.80340811296116 1154.4535163080627 0 0 0 0 2800.2967508326683 97.280502616219891 0 97.280502616219891 467.31850263327613 0 0 0 0 2582.6667381783773 -436.67808311792601 0 -436.67808311792601 588.98580187440189 0 0 0 0 3500.4446451910262 -645.43933364735494 0 -645.43933364735494 68.245842549903799 0 0 0 0 3493.5290810844308 -1483.9612251436274 0 -1483.9612251436274 -322.1288067686263 0 0 0 0 2222.1627557367538 -1134.6859798570083 0 -1134.6859798570083 -88.392723239088042 0 0 0 0 2323.3613728764103 -461.3370661387703 0 -461.3370661387703 -2.4825647324755309 0 0 0 0 1270.574627439637 -665.86969774865247 0 -665.86969774865247 262.8503349760835 0 0 0 0 2751.4023794545428 -565.50707813299755 0 -565.50707813299755 390.16700764572363 0 0 0 0 1515.2270509219961 -271.70084299949247 0 -271.70084299949247 397.75222816687335 0 0 0 0 1730.2207711053488 -47.226759401442578 0 -47.226759401442578 156.20299018800858 0 0 0 0 416.78912948395737 428.01383104516577 0 428.01383104516577 694.85544931054324 0 0 0 0 424.11799342694576 465.67499129076378 0 465.67499129076378 109.8275360238207 0 0 0 0 -359.18967297548079 450.2435317086584 0 450.2435317086584 1079.6195222700544 0 0 0 0 -726.19593500827614 -55.172379532419669 0 -55.172379532419669 151.91127550929093 0 0 0 0 -714.35400022225338 573.50112581860685 0 573.50112581860685 389.00760103250877 0 0 0 0 58.552489012246951 613.79070819310346 0 613.79070819310346 126.70010739848755 0 0 0 0 -442.85586093913298 294.70864512472809 0 294.70864512472809 45.929372533640816 0 0 0 0 487.5612290197314 434.85975154046434 0 434.85975154046434 122.49119166822622 0 0 0 0 368.76077589562919 264.46395413795187 0 264.46395413795187 -121.6152641596188 0 0 0 0 27.01416027340747 335.39279118408353 0 335.39279118408353 -123.04243010610983 0 0 0 0 549.45054203971085 -185.09944784481056 0 -185.09944784481056 -1008.6748638049564 0 0 0 0 46.147561885802133 308.8241564516826 0 308.8241564516826 -272.24463040553746 0 0 0 0 -109.439840523366 271.49142851322569 0 271.49142851322569 46.406254257941981 0 0 0 0 -22.945573530698312 148.65894002234495 0 148.65894002234495 -114.93663736949355 0 0 0 0 47.299170387996128 -95.704683851008269 0 -95.704683851008269 -102.10581805415029 0 0 0 0 49.269493891591651 -2.6625210348344375 0 -2.6625210348344375 -1.5319348464350035 0 0 0 0 23.118620838904462 116.70003193023565 0 116.70003193023565 -444.04410350230086 0 0 0 0 12.23496644433726 -3.6141873684844228 0 -3.6141873684844228 -2.3891703916341163 0 0 0 0 -58.320453386855661 -13.884481803122441 0 -13.884481803122441 -10.134429986471332 0 0 0 0 34.298215818605968 19.904914011770416 0 19.904914011770416 20.44626829848778 0 0 0 0 81.662516180396779 -60.381320136602596 0 -60.381320136602596 259.05425315396741 0 0 0 0 76.35444256226765 -150.86999300609494 0 -150.86999300609494 -21.032985140899768 0 0 0 0 1092.2449231056889 299.08077661176344 0 299.08077661176344 -125.09576362661312 0 0 0 0 328.09537366974109 1203.6000080766032 0 1203.6000080766032 1509.2796157386413 0 0 0 0 1260.1669619723543 -1939.9924519076799 0 -1939.9924519076799 758.83299866943173 0 0 0 0 18.466415102117423 -1.4816292972696665 0 -1.4816292972696665 1.5494492739399337 0 0 0 0 43.02931116351354 -2.5464583629519986 0 -2.5464583629519986 -1.0855762160862832 0 0 0 0 205.60801497600914 140.89856625990285 0 140.89856625990285 -98.406446831540791 0 0 0 0 1866.7350575029996 -132.32258730386249 0 -132.32258730386249 618.92019081428202 0 0 0 0 3491.4101460575839 -1521.7695018072295 0 -1521.7695018072295 -88.130563181953562 0 0 0 0 1770.8962634087402 -418.80224814566702 0 -418.80224814566702 -75.015792240187906 0 0 0 0 2441.0601337788539 -245.1648093486958 0 -245.1648093486958 -110.17524656613259 0 0 0 0 2182.6885735036212 200.77188872174381 0 200.77188872174381 -196.06138265929434 0 0 0 0 1.3367221833768497 2.1462916510036649 0 2.1462916510036649 6.630140045238079 0 0 0 0 1734.0538931807132 273.17530332721935 0 273.17530332721935 103.57716143790651 0 0 0 0 51.426190132006013 -12.913155276330372 0 -12.913155276330372 25.550818531620507 0 0 0 0 -6.946157363428938 347.59116449777991 0 347.59116449777991 747.37002568556977 0 0 0 0 -64.112784066575841 165.98163769495724 0 165.98163769495724 268.49404280574413 0 0 0 0 -204.35408932407518 -102.21622377079296 0 -102.21622377079296 423.65393887903201 0 0 0 0 692.62659603251632 549.34938307338155 0 549.34938307338155 140.36959725229678 0 0 0 0 186.9312820956111 166.2257792497453 0 166.2257792497453 -119.16414809098151 0 0 0 0 27.696966211100516 241.30367592082132 0 241.30367592082132 310.80346268205562 0 0 0 0 230.94333275969529 348.08851253928827 0 348.08851253928827 -0.86604471343980549 0 0 0 0 178.15730048085243 41.057519761597234 0 41.057519761597234 -509.87051383347728 0 0 0 0 122.30568670677894 147.19348393134447 0 147.19348393134447 -128.75987920664906 0 0 0 0 157.33283872115226 214.75614021121402 0 214.75614021121402 -249.60976253687147 0 0 0 0 477.16048833473906 -98.117798611398854 0 -98.117798611398854 -985.43370136231806 0 0 0 0 233.29622511056368 228.25392840600983 0 228.25392840600983 -194.9123176733969 0 0 0 0 -136.12466919985309 115.43634289322732 0 115.43634289322732 38.70603208031141 0 0 0 0 568.79527209161529 -513.54979288773859 0 -513.54979288773859 515.13764661532412 0 0 0 0 -2025.2588990776858 -680.14178171637809 0 -680.14178171637809 1706.964123198617 0 0 0 0 713.53611800857834 -1451.7807126158107 0 -1451.7807126158107 -328.55495690536776 0 0 0 0 -4.3929005097038782 70.482074974352344 0 70.482074974352344 8.1847882376776475 0 0 0 0 3637.4978633784358 1563.198989374052 0 1563.198989374052 646.45149872414117 0 0 0 0 -5.1974930532566646 14.779840513181142 0 14.779840513181142 9.6671951257754731 0 0 0 0 48.545945966225133 -10.670853335617789 0 -10.670853335617789 -4.4846223817700954 0 0 0 0 142.59220890038705 20.55078051229907 0 20.55078051229907 -34.872325589746652 0 0 0 0 3060.5077010197019 1260.0769022289323 0 1260.0769022289323 493.7072915236451 0 0 0 0 246.18377408849483 109.8856626968165 0 109.8856626968165 -3.5940249335386625 0 0 0 0 72.83738986510366 -96.147088123565851 0 -96.147088123565851 -24.549320727024678 0 0 0 0 197.88863012291586 -38.17684025226113 0 -38.17684025226113 -31.32000664548832 0 0 0 0 -3.464543869344979 7.3289408168882915 0 7.3289408168882915 3.5740754415100811 0 0 0 0 64.781676882717875 96.1111360185389 0 96.1111360185389 69.030413635054629 0 0 0 0 3499.3941034261297 1256.9538628091209 0 1256.9538628091209 232.75632676347175 0 0 0 0 2817.1380398973633 974.84784492629512 0 974.84784492629512 118.9475976159614 0 0 0 0 2638.198519363581 576.08826476332968 0 576.08826476332968 21.574002155737546 0 0 0 0 0.74267029290497533 2.2772494705226478 0 2.2772494705226478 0.50540980270634872 0 0 0 0 2058.7171460431637 1017.2900443202617 0 1017.2900443202617 170.99591163218975 0 0 0 0 2904.6485360806437 883.62177323008359 0 883.62177323008359 119.64090490607435 0 0 0 0 2932.8010839948765 675.58821911432847 0 675.58821911432847 530.0254196477639 0 0 0 0 2947.4527375133257 546.0415693826036 0 546.0415693826036 -126.97392850956165 0 0 0 0 3499.5797610882678 795.6853304447269 0 795.6853304447269 -89.823182696482306 0 0 0 0 86.531766240950674 6.9844425160790706 0 6.9844425160790706 -196.5465965490871 0 0 0 0 49.034247732342919 -57.148481364521558 0 -57.148481364521558 9.3931646884248039 0 0 0 0 31.473918112271349 -37.154112439050095 0 -37.154112439050095 16.550368818417155 0 0 0 0 113.72720372007461 -163.88076936269408 0 -163.88076936269408 -27.768777516440878 0 0 0 0 1697.0417155089453 -341.38426104328312 0 -341.38426104328312 2.6596292734226026 0 0 0 0 5.5250445412675901 1.8190173645863084 0 1.8190173645863084 -0.30880812983394379 0 0 0 0 -284.39172279049671 -197.99616495932241 0 -197.99616495932241 299.52291725387909 0 0 0 0 471.17376589759806 119.19080681456313 0 119.19080681456313 -90.419963863399687 0 0 0 0 3.9541408117432937 -8.0734930423135012 0 -8.0734930423135012 1.2674824270960769 0 0 0 0 54.465164464098052 -10.000743178547118 0 -10.000743178547118 -6.6714301488003613 0 0 0 0 35.123934150471541 1.268306567927489 0 1.268306567927489 -10.410707665630785 0 0 0 0 35.654067551419757 -8.6566681972600374 0 -8.6566681972600374 -0.18494279320250939 0 0 0 0 53.575470306292118 -17.674881689497965 0 -17.674881689497965 -13.848059206428843 0 0 0 0 38.568207028502599 -17.423919290438395 0 -17.423919290438395 -2.4794554976293344 0 0 0 0 10.996186871566518 -8.6991916115371168 0 -8.6991916115371168 -6.579544690152078 0 0 0 0 15.001243602739123 -28.232174174190845 0 -28.232174174190845 32.388093250460599 0 0 0 0 84.622562447300879 -503.76736361066895 0 -503.76736361066895 -823.63509506956518 0 0 0 0 59.583717480849174 -15.75432201745954 0 -15.75432201745954 -6.7111840976201327 0 0 0 0 -186.39528978073213 -162.99700356926951 0 -162.99700356926951 -420.91741583070836 0 0 0 0 72.174642241225229 -72.766123273637277 0 -72.766123273637277 -355.88956190196518 0 0 0 0 46.088672654499533 25.159044234943224 0 25.159044234943224 -357.29391556698039 0 0 0 0 73.014169828515151 -7.0509398323287087 0 -7.0509398323287087 -337.96227897911956 0 0 0 0 136.63191169810307 82.724412869425464 0 82.724412869425464 -217.9573877922453 0 0 0 0 83.47446713825957 88.918753679252049 0 88.918753679252049 -162.05315775675399 0 0 0 0 45.466708352165369 -76.17127933209423 0 -76.17127933209423 -192.99930081794423 0 0 0 0 79.342087062075734 95.277711382192166 0 95.277711382192166 -72.367603135323805 0 0 0 0 3.1909829397443694 -2.5340444324451639 0 -2.5340444324451639 -3.3194023095821255 0 0 0 0 16.028834731416282 55.645588337154777 0 55.645588337154777 -89.8083398968555 0 0 0 0 59.937935534984717 3.0539304288724907 0 3.0539304288724907 -41.693466740005533 0 0 0 0 30.828869580425959 -2.6075207082151977 0 -2.6075207082151977 -4.811528713746033 0 0 0 0 58.824056140572793 11.640884063617023 0 11.640884063617023 -87.326093114458217 0 0 0 0 42.771602238677573 -5.1740503850316912 0 -5.1740503850316912 -7.7940828149911168 0 0 0 0 60.100944954538136 -25.600209815693688 0 -25.600209815693688 -41.367051257909452 0 0 0 0 37.989453079409941 -7.0310978354720532 0 -7.0310978354720532 -10.947663159273587 0 0 0 0 34.996737915797894 -12.822363453716783 0 -12.822363453716783 -23.742987789541409 0 0 0 0 50.495864043186884 -46.39349321551299 0 -46.39349321551299 -31.039572150916797 0 0 0 0 -18.238676295686673 -4.2583964378330847 0 -4.2583964378330847 53.396366136030338 0 0 0 0 33.776222553527845 -14.17744384044672 0 -14.17744384044672 -0.88029286951858765 0 0 0 0 25.726289074358647 -10.483415415812715 0 -10.483415415812715 -7.6546264917778899 0 0 0 0 64.081190041117225 -14.510277065844662 0 -14.510277065844662 -11.126226359305292 0 0 0 0 13.579885168218038 -11.706650185780141 0 -11.706650185780141 -2.073602349939879 0 0 0 0 31.602620470621332 -15.674829616094485 0 -15.674829616094485 -8.1152292841196072 0 0 0 0 11.265979584081265 -6.4367591285023309 0 -6.4367591285023309 -7.9914971653718965 0 0 0 0 49.478910861289478 -28.825873107523648 0 -28.825873107523648 -15.61725944799548 0 0 0 0 44.584836827951221 -24.017648378846332 0 -24.017648378846332 2.2419099720973463 0 0 0 0 39.227579350888846 -30.008631450305529 0 -30.008631450305529 4.3966481826573727 0 0 0 0 32.882885739512858 -31.729132884761384 0 -31.729132884761384 16.266104555694255 0 0 0 0 51.85378932284948 -36.115138823617144 0 -36.115138823617144 4.9106588330560044 0 0 0 0 58.394345174463524 110.06787405884688 0 110.06787405884688 75.745563582620889 0 0 0 0 115.87719631023356 140.29676363963881 0 140.29676363963881 69.335150719860394 0 0 0 0 143.71354648438864 173.97261200378125 0 173.97261200378125 -57.623767957644304 0 0 0 0 211.02590663563751 189.58480253710786 0 189.58480253710786 92.622305469751154 0 0 0 0 218.91399195393024 183.13452830307688 0 183.13452830307688 66.950077483849554 0 0 0 0 181.32213135228085 136.39997735747966 0 136.39997735747966 106.16580682702079 0 0 0 0 135.45342643122422 127.48403329263601 0 127.48403329263601 152.34439300312079 0 0 0 0 18.738665937438853 -7.1458427738968382 0 -7.1458427738968382 -2.6641778620383825 0 0 0 0 4.5385235614125889 -1.7680074796397527 0 -1.7680074796397527 -3.5849286770451076 0 0 0 0 117.64922650353401 -17.199806640003771 0 -17.199806640003771 -0.14661374039224029 0 0 0 0 26.924796343396793 -9.592797356926539 0 -9.592797356926539 -3.0153556853748711 0 0 0 0 30.964382659412877 -12.338703787093493 0 -12.338703787093493 -11.36132096419442 0 0 0 0 208.81945595718571 20.276454671235115 0 20.276454671235115 -11.479146605174719 0 0 0 0 85.711695174592023 22.399251414323317 0 22.399251414323317 2.7625926693690417 0 0 0 0 306.104302740001 -24.376288419253342 0 -24.376288419253342 -25.162173175969656 0 0 0 0 174.19787175940291 55.156119759967623 0 55.156119759967623 0.46215930769926672 0 0 0 0 362.07129324263951 111.30053649952015 0 111.30053649952015 6.6148979751776551 0 0 0 0 136.28519974013034 89.163457291027953 0 89.163457291027953 27.966941648883221 0 0 0 0 267.84763111316715 122.10707451467897 0 122.10707451467897 23.790419572744213 0 0 0 0 249.46916198861072 180.58991273399988 0 180.58991273399988 40.412565046952295 0 0 0 0 251.7279371974073 165.20011079936739 0 165.20011079936739 32.053512991966272 0 0 0 0 310.46066626008542 169.70194725441888 0 169.70194725441888 18.251988079101011 0 0 0 0 347.28104657257427 198.21794201580997 0 198.21794201580997 29.112875233825434 0 0 0 0 327.01291671744548 190.60626052731277 0 190.60626052731277 68.20591187853924 0 0 0 0 328.33893805052685 122.56094504664344 0 122.56094504664344 15.92245941733745 0 0 0 0 392.16352190112229 196.27689266651305 0 196.27689266651305 59.21179038180594 0 0 0 0 383.23924462383729 131.28424753063564 0 131.28424753063564 143.55927770576727 0 0 0 0 345.53807270382094 185.46941889210484 0 185.46941889210484 68.086923738627775 0 0 0 0 358.571533773189 213.4862906941155 0 213.4862906941155 118.57177777471043 0 0 0 0 73.764456420816714 90.644339730441516 0 90.644339730441516 131.56197145006922 0 0 0 0 115.97518190846313 -48.605688128050588 0 -48.605688128050588 4.1895408567061168 0 0 0 0 433.01306646523881 -39.166497609299313 0 -39.166497609299313 -8.6332855470593586 0 0 0 0 1.0307853924875445 0.53639645266706637 0 0.53639645266706637 1.9802513407511126 0 0 0 0 511.48757778128493 106.61098351431963 0 106.61098351431963 -82.089021134339873 0 0 0 0 503.92966575207538 107.51942161815387 0 107.51942161815387 42.324130429560682 0 0 0 0 353.90826374345488 194.51975580453814 0 194.51975580453814 144.79922873497497 0 0 0 0 449.93686210450869 180.22511618590244 0 180.22511618590244 107.34876935693364 0 0 0 0 475.85376998769789 105.24186942825827 0 105.24186942825827 121.62006290139118 0 0 0 0 383.95873024998582 192.16659219850823 0 192.16659219850823 144.29494511957068 0 0 0 0 482.35386651304361 295.15182082527315 0 295.15182082527315 249.65176139612248 0 0 0 0 184.44676891513518 -94.412261338314352 0 -94.412261338314352 -41.603344602972356 0 0 0 0 741.5430527031283 580.19113407085263 0 580.19113407085263 278.24841765049518 0 0 0 0 4.8109498718842616 -0.88821011002548289 0 -0.88821011002548289 -0.91523299381123646 0 0 0 0 -11.884124710137257 -122.84426148130945 0 -122.84426148130945 -33.102006339452927 0 0 0 0 254.49134827264061 283.62121899484373 0 283.62121899484373 257.3041161031523 0 0 0 0 713.91901442669905 91.983110674735158 0 91.983110674735158 175.11749892232456 0 0 0 0 436.92497074043786 161.06125586509583 0 161.06125586509583 44.434293149243359 0 0 0 0 -0.075724203123083811 -0.88390990215646781 0 -0.88390990215646781 -0.73597139711163706 0 0 0 0 230.57125734262081 349.2840748035602 0 349.2840748035602 122.87799176818851 0 0 0 0 591.54302567247942 181.53439485385366 0 181.53439485385366 11.884621313130765 0 0 0 0 498.95128168323936 117.91280146526643 0 117.91280146526643 52.727457762853 0 0 0 0 91.273473979548726 221.65000744268769 0 221.65000744268769 6.6460483053985797 0 0 0 0 -187.71843999277098 158.29815588014878 0 158.29815588014878 -6.4721147801981829 0 0 0 0 149.6915970714399 221.91068724434456 0 221.91068724434456 -100.50294725267972 0 0 0 0 55.426716530477279 131.94052748922155 0 131.94052748922155 80.576589803183651 0 0 0 0 27.34014504825609 220.64989097522567 0 220.64989097522567 143.0713105117685 0 0 0 0 56.486147203606379 167.29009985353093 0 167.29009985353093 212.17140307793306 0 0 0 0 173.37321350263028 93.541408980771337 0 93.541408980771337 155.1609058989518 0 0 0 0 97.91664010151726 242.54294851851841 0 242.54294851851841 220.85400825731898 0 0 0 0 148.85832463488623 141.1227478836222 0 141.1227478836222 142.67637294974975 0 0 0 0 175.66268869365376 189.10484815724283 0 189.10484815724283 139.43301607081276 0 0 0 0 16.85623412096902 131.60850253146759 0 131.60850253146759 260.87559891870842 0 0 0 0 56.922673624831077 161.22754680913522 0 161.22754680913522 209.19144916678215 0 0 0 0 45.446788050634495 51.832664363182175 0 51.832664363182175 235.78066214895091 0 0 0 0 110.43958577170997 47.878691181887916 0 47.878691181887916 59.26337437687107 0 0 0 0 218.05517071637587 80.064011842482614 0 80.064011842482614 41.724462388417123 0 0 0 0 144.85784191556377 103.76923981887137 0 103.76923981887137 119.05011651827681 0 0 0 0 303.70937548698566 148.65665587978606 0 148.65665587978606 47.794346113266897 0 0 0 0 221.59986474332254 88.120413428822758 0 88.120413428822758 18.950542077659293 0 0 0 0 256.18775851460578 71.849983989003704 0 71.849983989003704 9.1167216394269417 0 0 0 0 256.85237363485794 74.634541627756334 0 74.634541627756334 -3.0890897307617706 0 0 0 0 250.10149437306973 78.865020079561191 0 78.865020079561191 8.1547077670916224 0 0 0 0 239.14036366007349 22.8176416623362 0 22.8176416623362 -56.77356093584126 0 0 0 0 115.98574046174235 52.340938400002585 0 52.340938400002585 54.124956461248985 0 0 0 0 138.23748900910505 68.288617392926653 0 68.288617392926653 29.769851501303492 0 0 0 0 381.25548274698667 -33.418005787326592 0 -33.418005787326592 -42.993715786423536 0 0 0 0 281.60355311183957 91.86792033772133 0 91.86792033772133 -40.69723770346036 0 0 0 0 492.43482818204393 223.39064431355928 0 223.39064431355928 33.872404073480084 0 0 0 0 231.32968561068265 209.49503656161301 0 209.49503656161301 146.10166226280853 0 0 0 0 2.4175416185911094 19.915473811339567 0 19.915473811339567 14.332056342712377 0 0 0 0 53.082657685630693 36.184227284092628 0 36.184227284092628 25.623741401369614 0 0 0 0 46.901464927661436 28.897687902248947 0 28.897687902248947 17.827930633930748 0 0 0 0 48.048604026902467 24.823148325753209 0 24.823148325753209 35.467985050948755 0 0 0 0 -9.7315447999764899 2.0731658174724075 0 2.0731658174724075 7.7302584906521021 0 0 0 0 121.37270474172601 20.666485920354901 0 20.666485920354901 47.159535562825795 0 0 0 0 -0.14646440552750306 -0.40314201526560112 0 -0.40314201526560112 -1.6470693931762863 0 0 0 0 51.07134974062501 18.229291012858198 0 18.229291012858198 13.495840662373666 0 0 0 0 90.837884241409483 40.760205394727109 0 40.760205394727109 -9.751115397476724 0 0 0 0 109.23278229454445 85.520612643555978 0 85.520612643555978 62.293522523146748 0 0 0 0 79.787323420001485 60.743239867504144 0 60.743239867504144 23.957088044616285 0 0 0 0 23.732929418293349 16.920198967360776 0 16.920198967360776 -14.810664821426743 0 0 0 0 58.935865466839459 -6.4897355691339271 0 -6.4897355691339271 -49.612328447044547 0 0 0 0 12.916731651875779 2.3243653308020882 0 2.3243653308020882 0.086818397745084042 0 0 0 0 0.73021965843508951 22.930011284461102 0 22.930011284461102 16.642989507917036 0 0 0 0 54.313217840441212 40.997131363684957 0 40.997131363684957 -7.5868927543128848 0 0 0 0 14.508154935298066 43.328715718535321 0 43.328715718535321 -21.268995154294931 0 0 0 0 0.59865118107060766 25.366343228510893 0 25.366343228510893 30.603678423646031 0 0 0 0 11.667621647709751 25.143242632863533 0 25.143242632863533 3.9690953361539734 0 0 0 0 -0.97045481339955586 3.0197093098647585 0 3.0197093098647585 7.0586813661123209 0 0 0 0 51.916997755964985 70.078158144280678 0 70.078158144280678 32.847306766889233 0 0 0 0 15.43031917620101 50.314061844801472 0 50.314061844801472 38.632644055614946 0 0 0 0 17.8618084659538 46.120011398410497 0 46.120011398410497 16.30094223123524 0 0 0 0 21.498059969833307 35.672376480028902 0 35.672376480028902 4.6708278098729625 0 0 0 0 0.110777596270907 17.644309986480344 0 17.644309986480344 -0.93111259265526058 0 0 0 0 0.80074196403438691 23.448110318599902 0 23.448110318599902 18.091858273082096 0 0 0 0 1.0501981009656447 24.44921978522234 0 24.44921978522234 8.6099136726334109 0 0 0 0 35.775427559248783 35.839948583580281 0 35.839948583580281 8.4404000765498495 0 0 0 0 42.750757624475227 33.706442086553579 0 33.706442086553579 -1.5042992538942599 0 0 0 0 10.156819986994378 57.120780799344175 0 57.120780799344175 13.426549296393205 0 0 0 0 6.2882229002425447 68.762466466257138 0 68.762466466257138 0.68052127619057501 0 0 0 0 -38.982704554713564 25.780950266538639 0 25.780950266538639 26.620679124662274 0 0 0 0 11.000560889093776 6.4629491102090384 0 6.4629491102090384 -1.6694292452211865 0 0 0 0 4.3726140781946015 25.061886529194453 0 25.061886529194453 9.5737159527689073 0 0 0 0 3.1241042001056485 21.218168981602503 0 21.218168981602503 12.245758287065655 0 0 0 0 4.7126313820044743 52.465446602825068 0 52.465446602825068 35.962267517290456 0 0 0 0 23.775762230463442 41.730959792370868 0 41.730959792370868 15.184920190153207 0 0 0 0 -25.449674803996459 41.366612227448059 0 41.366612227448059 20.942110405945641 0 0 0 0 8.8226072419492994 60.078317070775938 0 60.078317070775938 27.467522434166312 0 0 0 0 -22.263942403289548 78.488287382529279 0 78.488287382529279 -3.0034118488420063 0 0 0 0 56.510575027292361 39.023367107696686 0 39.023367107696686 -11.407062811529613 0 0 0 0 -77.822481155628338 69.840676731927942 0 69.840676731927942 44.353837434678098 0 0 0 0 -112.58406549316715 81.335619422291074 0 81.335619422291074 95.978310676478031 0 0 0 0 -1.6761937948355126 -0.14058051482965084 0 -0.14058051482965084 2.8742245776051352 0 0 0 0 73.420847673332901 28.803672233641009 0 28.803672233641009 -12.131860371671792 0 0 0 0 -48.869939415999397 153.72064350415872 0 153.72064350415872 34.9388413871784 0 0 0 0 363.17411744889978 -41.041223516528589 0 -41.041223516528589 -56.725400917302068 0 0 0 0 113.33019489372964 76.757322217389628 0 76.757322217389628 -1.9511429641515861 0 0 0 0 232.0342026129656 204.06543094597873 0 204.06543094597873 -113.38183318893789 0 0 0 0 -94.606282703520264 -26.803501780563238 0 -26.803501780563238 234.78392549303226 0 0 0 0 -197.6727705586818 16.386942170333668 0 16.386942170333668 150.91046336181807 0 0 0 0 -56.622364511829801 109.16051081421983 0 109.16051081421983 178.89197823350059 0 0 0 0 15.622167373527191 -4.1014773015234596 0 -4.1014773015234596 -37.619528007795452 0 0 0 0 129.93790654321492 100.90514754458081 0 100.90514754458081 25.240885645278922 0 0 0 0 167.74430616780228 -104.77419090359723 0 -104.77419090359723 79.265674033224059 0 0 0 0 37.466791681508766 -7.1317126709947161 0 -7.1317126709947161 15.110362578477861 0 0 0 0 22.891372105936171 12.378162016899523 0 12.378162016899523 11.144522291318708 0 0 0 0 29.823790917507722 8.7590673319809866 0 8.7590673319809866 3.406275576040116 0 0 0 0 17.201184079109225 60.611981837394239 0 60.611981837394239 -42.108956151786288 0 0 0 0 -10.091478754933632 45.35143186142011 0 45.35143186142011 32.895854708202933 0 0 0 0 -26.383110922797641 23.499579774724452 0 23.499579774724452 33.132863280875426 0 0 0 0 0.8097291932645021 -18.358296165631145 0 -18.358296165631145 97.557933867377187 0 0 0 0 20.427577183319954 17.006885524951031 0 17.006885524951031 4.2961422526182105 0 0 0 0 15.242375663772691 3.9197108468453052 0 3.9197108468453052 34.241319644558381 0 0 0 0 5.1559679038837203 23.625547836132512 0 23.625547836132512 -4.1121280910678024 0 0 0 0 71.087246745282755 36.385350557588758 0 36.385350557588758 -47.062696844173473 0 0 0 0 59.639680221425806 17.982405609895466 0 17.982405609895466 8.8330367228449518 0 0 0 0 6.1505009943386497 1.5699090588233986 0 1.5699090588233986 -3.4819448820283014 0 0 0 0 5.2068081903853454 34.87982513999097 0 34.87982513999097 23.368907548368725 0 0 0 0 -2.8174411366256558 19.34631127158238 0 19.34631127158238 6.2455398827794166 0 0 0 0 12.584455628879368 26.623092063243462 0 26.623092063243462 17.728728559022898 0 0 0 0 47.661035236723365 25.518967498211559 0 25.518967498211559 5.3165939590192011 0 0 0 0 52.053278951658285 59.435314446172697 0 59.435314446172697 25.479461655812884 0 0 0 0 59.412485380853468 -0.44426499062444691 0 -0.44426499062444691 6.5428641895779265 0 0 0 0 40.548631967018082 42.841857070625906 0 42.841857070625906 -71.5513390322742 0 0 0 0 54.229566728965438 -12.637301278691012 0 -12.637301278691012 -68.812345479029062 0 0 0 0 11.199482896208124 -3.1744683856452554 0 -3.1744683856452554 -0.21898450694691785 0 0 0 0 352.25530816840546 241.20323157655216 0 241.20323157655216 175.24338011214695 0 0 0 0 359.38847907664604 198.52517650181699 0 198.52517650181699 121.04495426005587 0 0 0 0 287.74709893162071 225.05787698584436 0 225.05787698584436 175.91581948831345 0 0 0 0 249.92818129034276 208.58996886045207 0 208.58996886045207 169.94593248981823 0 0 0 0 318.73462851419026 178.29175548149851 0 178.29175548149851 112.69138899665313 0 0 0 0 301.33961793183698 213.433052079763 0 213.433052079763 115.26495478273188 0 0 0 0 11.359083082701545 6.9304542127247259 0 6.9304542127247259 3.3435828217770904 0 0 0 0 1.3284005308018534 9.5328587899983148 0 9.5328587899983148 -1.2575105557247186 0 0 0 0 45.152833698186441 -10.895940944576182 0 -10.895940944576182 17.389881514736452 0 0 0 0 7.6497393976530361 -0.21653578072358215 0 -0.21653578072358215 -1.4064479074336562 0 0 0 0 15.378162681122404 -2.3825413396971555 0 -2.3825413396971555 -1.3918551536936135 0 0 0 0 292.39640808606055 173.97610366473191 0 173.97610366473191 87.737947668977526 0 0 0 0 165.91458991491163 101.7146637411679 0 101.7146637411679 89.392431534054595 0 0 0 0 33.00848784018558 14.465464210827214 0 14.465464210827214 -1.0005916251957387 0 0 0 0 5.5774264057689038 9.6374926809329935 0 9.6374926809329935 -3.3598555548982687 0 0 0 0 31.210674294974524 24.00894613471543 0 24.00894613471543 16.608301863680026 0 0 0 0 19.916456214016108 8.2328344979620809 0 8.2328344979620809 -8.6593439853307572 0 0 0 0 4.336431626863634 1.5660459941870641 0 1.5660459941870641 3.0343301386116535 0 0 0 0 -8.8208574442159033 0.62449072016831408 0 0.62449072016831408 33.93600234094356 0 0 0 0 -0.026873011222706245 -1.8989354185834344 0 -1.8989354185834344 0.68564339380747086 0 0 0 0 307.12443739853188 181.26644815808322 0 181.26644815808322 88.11722986060704 0 0 0 0 285.72636552458607 164.067117249175 0 164.067117249175 81.236858325832145 0 0 0 0 283.14626095319545 169.24748095677705 0 169.24748095677705 122.11886612714079 0 0 0 0 275.5370463742147 109.83691105198159 0 109.83691105198159 36.255143352121195 0 0 0 0 317.30037872825778 194.02587253859519 0 194.02587253859519 69.483625883030072 0 0 0 0 339.69924938039549 214.35687278525722 0 214.35687278525722 85.24766093494145 0 0 0 0 280.85770584785496 197.80074913861881 0 197.80074913861881 104.86590751426411 0 0 0 0 279.76113271922804 177.10135902108141 0 177.10135902108141 95.5263540428532 0 0 0 0 316.45180729449203 188.74399046520375 0 188.74399046520375 68.882281309392852 0 0 0 0 312.34298131795367 176.97197958656716 0 176.97197958656716 46.229120806053288 0 0 0 0 328.42073085720767 199.10461326714039 0 199.10461326714039 35.495523931018397 0 0 0 0 323.70367424159122 206.55310417232522 0 206.55310417232522 22.962740431581551 0 0 0 0 340.57633115454519 192.27700197549893 0 192.27700197549893 32.171006236801077 0 0 0 0 324.09812977838737 196.95882908517615 0 196.95882908517615 17.377212758375208 0 0 0 0 339.05724101524538 218.71943665202343 0 218.71943665202343 25.192180767611717 0 0 0 0 384.86089123948477 196.39768380644364 0 196.39768380644364 4.19581638074078 0 0 0 0 337.38454544773049 182.14022389106208 0 182.14022389106208 0.023263341565325391 0 0 0 0 332.34055604960304 164.78382277592118 0 164.78382277592118 41.262283917607874 0 0 0 0 307.6245366732619 128.59520100346936 0 128.59520100346936 -1.8456486928080267 0 0 0 0 235.57946504677966 157.12278867509758 0 157.12278867509758 28.048365434566222 0 0 0 0 211.88017563266476 83.550520580455668 0 83.550520580455668 4.1229141679368695 0 0 0 0 356.63206545306457 156.78289637797479 0 156.78289637797479 -29.088771825543517 0 0 0 0 353.72630453085003 147.36594642523232 0 147.36594642523232 -4.3618328836919318 0 0 0 0 455.74468042194712 208.74182544496034 0 208.74182544496034 -9.3912797653956659 0 0 0 0 359.34339934652598 78.822501744801002 0 78.822501744801002 -43.515286391224436 0 0 0 0 589.62811736077128 132.4457705084983 0 132.4457705084983 -32.804492074259542 0 0 0 0 432.54351975741156 241.94731979075186 0 241.94731979075186 58.987462026499998 0 0 0 0 439.61420062053367 243.55770626059029 0 243.55770626059029 42.011599461993683 0 0 0 0 376.44517691664805 304.66515894954864 0 304.66515894954864 140.21073185588102 0 0 0 0 202.11576203226286 222.16570124107238 0 222.16570124107238 256.16017485783277 0 0 0 0 283.06162878567557 233.25193192685583 0 233.25193192685583 99.622045667460043 0 0 0 0 255.35515494407446 181.05411831215224 0 181.05411831215224 51.480114539734132 0 0 0 0 290.39801044961496 209.99715372430592 0 209.99715372430592 59.03263395549402 0 0 0 0 393.94074405450374 236.82633057686144 0 236.82633057686144 30.608349717153942 0 0 0 0 377.62428284691123 213.82394343177475 0 213.82394343177475 36.517251697101528 0 0 0 0 150.354456261819 114.37689574794786 0 114.37689574794786 54.903942177512363 0 0 0 0 147.99572559588705 116.53722496195769 0 116.53722496195769 77.537360127556894 0 0 0 0 24.054103706369915 50.661613030442894 0 50.661613030442894 34.316768770869295 0 0 0 0 101.54978462401778 130.21899711666629 0 130.21899711666629 105.84234872087836 0 0 0 0 21.67023877619701 -2.4988664084717556 0 -2.4988664084717556 -15.982965522221683 0 0 0 0 53.331459929337143 83.522258345531554 0 83.522258345531554 44.904584974230602 0 0 0 0 -6.7156268233855485 17.182099757017177 0 17.182099757017177 21.669226297239661 0 0 0 0 20.068937995041779 27.610798624680683 0 27.610798624680683 63.554051084043294 0 0 0 0 204.91255853659095 -105.77425032429346 0 -105.77425032429346 19.084439951086551 0 0 0 0 134.75419218603929 44.637790312778634 0 44.637790312778634 12.143192041212842 0 0 0 0 212.62533218547469 82.334089345334405 0 82.334089345334405 4.8345282253367259 0 0 0 0 -21.542456934342688 18.013456890160214 0 18.013456890160214 21.149225680720058 0 0 0 0 -8.1808946858800482 60.154226442632535 0 60.154226442632535 77.670723146569799 0 0 0 0 42.066834139477578 48.983902674345245 0 48.983902674345245 28.878727332310064 0 0 0 0 63.369957517803414 24.611124396311538 0 24.611124396311538 0.91762562438407258 0 0 0 0 14.41833100590523 14.576355897190368 0 14.576355897190368 0.74522874417508378 0 0 0 0 10.591191773230094 45.866414186968228 0 45.866414186968228 39.432241367952365 0 0 0 0 -9.1842122525679883 24.597677268060437 0 24.597677268060437 22.192295105643801 0 0 0 0 37.983139986523497 16.970671460999682 0 16.970671460999682 -0.98352694633905635 0 0 0 0 22.906717190145599 7.5494219335814918 0 7.5494219335814918 -1.5326770434034307 0 0 0 0 51.939447741526237 29.418712474253795 0 29.418712474253795 0.13677834725821469 0 0 0 0 -18.420703713985858 20.414214500518028 0 20.414214500518028 -5.9863609481535605 0 0 0 0 26.726743585365512 18.638711547676557 0 18.638711547676557 3.3613993096059387 0 0 0 0 4.2493904537986964 29.889090068544647 0 29.889090068544647 -3.5755197357134421 0 0 0 0 6.6922041548968991 29.981104342176877 0 29.981104342176877 -5.723789462041168 0 0 0 0 112.07700129515433 151.46925265421396 0 151.46925265421396 88.548705338730542 0 0 0 0 -27.33126380603062 4.1064707559662565 0 4.1064707559662565 16.219742611039692 0 0 0 0 10.206387981923058 29.897995359530334 0 29.897995359530334 7.6555514874561403 0 0 0 0 129.36932636704296 27.81639118246585 0 27.81639118246585 -41.699319986615592 0 0 0 0 7.1429614241351373 24.599901719446734 0 24.599901719446734 2.3674422874646552 0 0 0 0 6.882281475185323 3.0898479029647987 0 3.0898479029647987 -3.1271807142396675 0 0 0 0 34.560533507028595 29.996827625258447 0 29.996827625258447 10.494664185478541 0 0 0 0 -2.4575780500705093 9.6795128547157816 0 9.6795128547157816 -0.067444933228498982 0 0 0 0 4.7590349596670762 9.3644597476045561 0 9.3644597476045561 -0.5309441268075421 0 0 0 0 38.634364919533255 -5.8553259461991729 0 -5.8553259461991729 -31.247062000551523 0 0 0 0 5.9422166515141726 9.7366197082267263 0 9.7366197082267263 0.24074545096573274 0 0 0 0 10.942128301307093 15.618617490602901 0 15.618617490602901 -0.34964380379051363 0 0 0 0 28.614628492243355 11.965309532348556 0 11.965309532348556 -5.0616663881339719 0 0 0 0 19.14434592195903 14.891601358895741 0 14.891601358895741 -3.2608568659370576 0 0 0 0 15.657175567845115 21.557563192926182 0 21.557563192926182 -9.4297835221464084 0 0 0 0 11.475490550627001 9.9578676229352823 0 9.9578676229352823 -2.7889242866102961 0 0 0 0 -9.053665336148697 33.664972705791797 0 33.664972705791797 -1.8318596645349317 0 0 0 0 -2.914507120338385 31.134717767889242 0 31.134717767889242 -3.5518742787999145 0 0 0 0 12.860783735755831 27.444174484392533 0 27.444174484392533 -4.7332357293298628 0 0 0 0 7.6030810365045909 35.847843709873814 0 35.847843709873814 -8.5643267022096552 0 0 0 0 18.762887611112092 24.504630033461581 0 24.504630033461581 -6.8438782089025381 0 0 0 0 18.32169648775016 31.838058637440554 0 31.838058637440554 -9.1706162443309722 0 0 0 0 1.5229655858420301 43.150629427585613 0 43.150629427585613 -14.799061939178046 0 0 0 0 46.911092846938118 31.653021637992197 0 31.653021637992197 -24.516121299024007 0 0 0 0 6.0009701460373819 -0.28962743613939779 0 -0.28962743613939779 3.2449920985516929 0 0 0 0 87.275967085442971 10.420658357315858 0 10.420658357315858 -10.533513394176794 0 0 0 0 -20.161093574468396 53.037651384604658 0 53.037651384604658 -4.5600771201495718 0 0 0 0 35.876283937872358 59.710162855131799 0 59.710162855131799 29.241083473766821 0 0 0 0 16.30876493336109 18.404242387172189 0 18.404242387172189 10.004103932716589 0 0 0 0 5.2441276765918481 14.459935416688353 0 14.459935416688353 9.4849370133119368 0 0 0 0 15.822485408847569 19.606036229823985 0 19.606036229823985 8.7548220258381662 0 0 0 0 4.4610261003836058 16.61718272545707 0 16.61718272545707 16.9048843122562 0 0 0 0 19.248937532975106 20.043915573174672 0 20.043915573174672 6.8209335168935468 0 0 0 0 3.8559344815065231 5.5124418139353892 0 5.5124418139353892 1.8355681687477801 0 0 0 0 7.0945240042783553 19.942987651438337 0 19.942987651438337 6.1702498772090628 0 0 0 0 5.36790397806908 17.148298019419599 0 17.148298019419599 2.0197068608249538 0 0 0 0 7.4260907095354867 11.880129053517891 0 11.880129053517891 9.9383530911521678 0 0 0 0 -1.9473079643939855 21.562608167655526 0 21.562608167655526 -10.40513664224639 0 0 0 0 3.3443054859190511 12.181117877414827 0 12.181117877414827 9.3521065527130283 0 0 0 0 23.042453043992282 14.802696385201216 0 14.802696385201216 6.5348108302960668 0 0 0 0 28.964170795997546 14.403403100201849 0 14.403403100201849 3.3512997288202477 0 0 0 0 13.243158389527469 9.6666346818196445 0 9.6666346818196445 3.5028819965330067 0 0 0 0 19.40582466419437 34.761124274236863 0 34.761124274236863 8.9515050478366902 0 0 0 0 13.644275624774764 15.446122964699597 0 15.446122964699597 11.084292628000657 0 0 0 0 1.8735813728999346 40.055102144164266 0 40.055102144164266 -20.56900331700308 0 0 0 0 17.02143178880592 9.7995780974670197 0 9.7995780974670197 0.069057679445840847 0 0 0 0 34.068707954114871 11.1866872830552 0 11.1866872830552 1.8342963568145478 0 0 0 0 -11.186901221712105 32.367726506444313 0 32.367726506444313 -24.299420314247072 0 0 0 0 9.0216723150806502 10.071091886555223 0 10.071091886555223 -16.450620769763191 0 0 0 0 55.300165607826784 25.789121568363043 0 25.789121568363043 30.080143669238169 0 0 0 0 3.4059941564259688 2.6827928338830702 0 2.6827928338830702 -0.35647405417602585 0 0 0 0 41.963694731164402 15.576216030771121 0 15.576216030771121 -11.643536494739557 0 0 0 0 4.3060873483773321 34.958975357971212 0 34.958975357971212 -27.692162191633543 0 0 0 0 17.671772118524217 9.8603941482723343 0 9.8603941482723343 2.2800703604667056 0 0 0 0 3.4943299488396722 2.4436670041434354 0 2.4436670041434354 -0.31533446603319426 0 0 0 0 5.5510069489646412 15.836927478970551 0 15.836927478970551 10.784768087004522 0 0 0 0 -0.61709989563496492 53.645544467228802 0 53.645544467228802 -11.850896812787141 0 0 0 0 36.578200946056313 18.087112887916362 0 18.087112887916362 9.2234345351798765 0 0 0 0 24.31595524441218 38.860091358688805 0 38.860091358688805 27.634648028790252 0 0 0 0 32.910952726638243 39.423080329281447 0 39.423080329281447 11.779446675567669 0 0 0 0 16.802797961759097 2.7331334898968578 0 2.7331334898968578 -3.8228084749753606 0 0 0 0 6.9161803289316595 15.63966541649279 0 15.63966541649279 19.305987257943343 0 0 0 0 4.8029556998226326 13.209845662791849 0 13.209845662791849 12.9425417335558 0 0 0 0 6.4717106177195092 17.860962394855733 0 17.860962394855733 12.20727341163456 0 0 0 0 12.804048861195042 14.07428098145374 0 14.07428098145374 -0.15893906860674178 0 0 0 0 6.9380868749650091 11.205284672607377 0 11.205284672607377 1.4583119294803559 0 0 0 0 5.6810491680589621 16.448160088813893 0 16.448160088813893 3.2635751994175735 0 0 0 0 8.3534427099511959 3.9885198041376952 0 3.9885198041376952 -10.139146975825724 0 0 0 0 3.4071791127234405 10.209802436992483 0 10.209802436992483 -3.2799410177087527 0 0 0 0 8.3541014977654413 12.700652003578739 0 12.700652003578739 -1.8079839078527584 0 0 0 0 10.994666791768509 11.235650811434496 0 11.235650811434496 6.7372824815524393 0 0 0 0 1.6448449421150144 24.504018949648525 0 24.504018949648525 -9.5480849445248168 0 0 0 0 6.1390719531773357 18.790550192696173 0 18.790550192696173 -1.8635702412327646 0 0 0 0 -2.0782400813968138 12.297834648117167 0 12.297834648117167 4.962808833607947 0 0 0 0 -10.240908403531648 26.727705494866314 0 26.727705494866314 23.767288580969762 0 0 0 0 21.508374995963095 20.286202960918558 0 20.286202960918558 4.6785607098086075 0 0 0 0 19.430872206765343 21.017643280692027 0 21.017643280692027 12.029457180318218 0 0 0 0 10.151037542097356 15.745477223893872 0 15.745477223893872 7.4762237547433008 0 0 0 0 0.71879751235246658 12.879072818645909 0 12.879072818645909 -3.1357138993835179 0 0 0 0 3.0030979714375405 17.344785897376781 0 17.344785897376781 9.1418885486868717 0 0 0 0 6.9476355779852383 9.6308175487163794 0 9.6308175487163794 5.1079155039790916 0 0 0 0 -3.335886570662467 6.361046488298669 0 6.361046488298669 4.6624534668759949 0 0 0 0 44.12542640317406 8.403593462239769 0 8.403593462239769 1.5677217634010958 0 0 0 0 20.308180505260282 15.188094733087752 0 15.188094733087752 10.938136113870005 0 0 0 0 11.493847869933234 -18.91384288711356 0 -18.91384288711356 99.683319601937683 0 0 0 0 -43.800654595601372 126.66071942034432 0 126.66071942034432 144.9951847547394 0 0 0 0 -1.5626432817871034 2.0185105179565141 0 2.0185105179565141 0.26975687008267002 0 0 0 0 -126.43330674862955 -20.098281896267508 0 -20.098281896267508 140.75514454747099 0 0 0 0 -108.59735549040488 73.673535472560616 0 73.673535472560616 30.575520540709022 0 0 0 0 -108.52631959941937 52.276964570412929 0 52.276964570412929 59.701460121294076 0 0 0 0 22.414934798056493 33.317495205711566 0 33.317495205711566 -75.44964824473027 0 0 0 0 22.120549397688592 114.2707829649662 0 114.2707829649662 51.718318993367575 0 0 0 0 85.862521685310639 10.595435944762357 0 10.595435944762357 108.84473722506664 0 0 0 0 15.666500639547849 18.788734468834491 0 18.788734468834491 0.91607096739517146 0 0 0 0 30.251340204675216 125.0513738417485 0 125.0513738417485 -109.95107503719373 0 0 0 0 74.35665222548414 97.411531013620333 0 97.411531013620333 -119.26900199383272 0 0 0 0 13.980989840570459 14.335364358327482 0 14.335364358327482 8.6778479473100347 0 0 0 0 125.03543888844433 60.58774323892294 0 60.58774323892294 -1.2207838778173254 0 0 0 0 16.625347653996869 13.664403009929174 0 13.664403009929174 5.1676221614370661 0 0 0 0 18.035716213933483 15.545933962534036 0 15.545933962534036 14.060533923173352 0 0 0 0 16.035228522508987 12.019536607342161 0 12.019536607342161 8.4222423372009416 0 0 0 0 19.792641882857424 17.952907606884764 0 17.952907606884764 6.7245989053001267 0 0 0 0 15.969293171321624 16.714671262012246 0 16.714671262012246 7.145032695790178 0 0 0 0 19.904464880353771 17.614574757452374 0 17.614574757452374 4.0422364874550567 0 0 0 0 19.149897229373892 17.795738743170887 0 17.795738743170887 9.4705389853625093 0 0 0 0 21.093404483088307 13.921355569819639 0 13.921355569819639 9.5236239339010353 0 0 0 0 -132.46857169239593 -14.045120155765204 0 -14.045120155765204 91.892379138184651 0 0 0 0 192.26896017072431 -43.040954077321885 0 -43.040954077321885 -61.972109395394 0 0 0 0 -1.1357123702558845 -2.9266793791237404 0 -2.9266793791237404 1.5018437148303896 0 0 0 0 -131.16423531181863 -13.079808244473952 0 -13.079808244473952 79.615338315346889 0 0 0 0 -15.237012238120769 135.67238427093241 0 135.67238427093241 109.90577854130424 0 0 0 0 -137.70025635879574 -57.001470747677558 0 -57.001470747677558 -50.635635495640599 0 0 0 0 3.1807309810909743 14.175050627328901 0 14.175050627328901 11.488931099879379 0 0 0 0 28.768648327866686 16.984288687377102 0 16.984288687377102 10.0627673361505 0 0 0 0 26.182360783626791 13.87093280004683 0 13.87093280004683 7.2198100891446302 0 0 0 0 21.094322068704059 13.927313401551146 0 13.927313401551146 20.219243836705573 0 0 0 0 1.3334152004479449 9.0216654273045549 0 9.0216654273045549 7.5753422799985541 0 0 0 0 10.13327471512045 14.170873909881479 0 14.170873909881479 7.9793881303595064 0 0 0 0 -1.6067715897397647 12.356076534637282 0 12.356076534637282 6.0006968783345656 0 0 0 0 2.1205124079454976 5.0662550561222019 0 5.0662550561222019 6.644889993044572 0 0 0 0 5.0017884515837068 8.5364289487915812 0 8.5364289487915812 12.240359887708109 0 0 0 0 -0.026015295553534656 4.3239266154615876 0 4.3239266154615876 1.9627728960317121 0 0 0 0 216.75541391363367 73.221006524981931 0 73.221006524981931 -3.7686815174165531 0 0 0 0 -8.4987921939917896 4.9918315529092681 0 4.9918315529092681 6.2743927906507224 0 0 0 0 -2.2369082963850815 12.791288274497674 0 12.791288274497674 8.6163047302106861 0 0 0 0 -0.88564801946677107 10.653754515438436 0 10.653754515438436 10.454154798735544 0 0 0 0 -0.29866031330766418 10.563022702226391 0 10.563022702226391 6.3091946506983607 0 0 0 0 -6.4585289335955167 29.898880244265968 0 29.898880244265968 16.716142470067325 0 0 0 0 1.4182841182695967 11.08733239740944 0 11.08733239740944 19.622520340700174 0 0 0 0 -7.2203730653127423 14.996016759198028 0 14.996016759198028 14.097176921273331 0 0 0 0 -7.332844182217741 15.287841748822302 0 15.287841748822302 13.374267472296197 0 0 0 0 -0.17361395970561233 6.0847400110696555 0 6.0847400110696555 15.315498413096819 0 0 0 0 -11.081058662108262 -0.77555791738996049 0 -0.77555791738996049 12.597106494442414 0 0 0 0 5.8782800319158923 -3.9834129351644378 0 -3.9834129351644378 6.3078364549328398 0 0 0 0 3.54624610330211 -5.9845623942828752 0 -5.9845623942828752 3.3730494429655664 0 0 0 0 3.8946571640221777 -1.7654930354847238 0 -1.7654930354847238 3.9008841575488589 0 0 0 0 11.110229860511026 -1.0270014064358293 0 -1.0270014064358293 8.6672317917618784 0 0 0 0 10.288562732865756 2.3739773490046048 0 2.3739773490046048 3.6299019016589842 0 0 0 0 9.4064388216647785 1.0570989581392496 0 1.0570989581392496 7.5256926123142875 0 0 0 0 15.239484685123898 2.4432532586924935 0 2.4432532586924935 7.9964613085994642 0 0 0 0 9.9406669525342295 -0.18501116179686505 0 -0.18501116179686505 9.266278747611068 0 0 0 0 14.195109568710905 2.644821942460112 0 2.644821942460112 8.2214134205732989 0 0 0 0 12.18437585645006 2.2310241111772484 0 2.2310241111772484 8.5261479766086268 0 0 0 0 24.189727755024251 50.606310596080448 0 50.606310596080448 41.545705631446253 0 0 0 0 26.091773006060976 4.9797962144602934 0 4.9797962144602934 -5.1864435800325737 0 0 0 0 16.379091252245416 12.782245790922389 0 12.782245790922389 2.4621736063490971 0 0 0 0 20.789629668186535 -42.081257997263492 0 -42.081257997263492 24.479066715019144 0 0 0 0 50.299018591962522 17.263245198550067 0 17.263245198550067 5.6244128034450114 0 0 0 0 16.919426943313852 0.26012427886537637 0 0.26012427886537637 -2.0409092821628576 0 0 0 0 26.641409906032621 -9.1840435991612281 0 -9.1840435991612281 0.20379764386339616 0 0 0 0 36.136726510600852 -0.91239537879957666 0 -0.91239537879957666 -2.0366903222175061 0 0 0 0 14.97384224784949 4.5241479096400692 0 4.5241479096400692 -2.3837170515074462 0 0 0 0 13.423318804620067 -0.29027682211017236 0 -0.29027682211017236 2.2332129821916169 0 0 0 0 21.077024448876728 14.337012688175264 0 14.337012688175264 11.382456883669875 0 0 0 0 13.200184871687497 4.9125999421547428 0 4.9125999421547428 0.4789651996931612 0 0 0 0 27.031817736162338 93.222700978438297 0 93.222700978438297 135.76465913708125 0 0 0 0 51.668616391278192 38.651893359922269 0 38.651893359922269 125.76416852098555 0 0 0 0 179.12123591633281 31.66753506914938 0 31.66753506914938 81.781790282308066 0 0 0 0 118.47453431492613 35.084573150461438 0 35.084573150461438 125.94979348284323 0 0 0 0 80.920057546492899 88.88097234588713 0 88.88097234588713 133.61863605197868 0 0 0 0 67.548094777972437 76.427935058363801 0 76.427935058363801 124.25768897825765 0 0 0 0 58.851409289665753 154.14829585248663 0 154.14829585248663 201.84217711437714 0 0 0 0 35.097955915523926 124.46565626241863 0 124.46565626241863 209.08703011411217 0 0 0 0 13.139293396685389 145.7269487577596 0 145.7269487577596 253.22139175015582 0 0 0 0 21.494816302743857 120.67782011439203 0 120.67782011439203 264.91284760000053 0 0 0 0 56.484726210474037 74.295445213670064 0 74.295445213670064 52.485502040181018 0 0 0 0 29.459624020761112 77.191829030492954 0 77.191829030492954 167.45681337251244 0 0 0 0 37.875099800170574 100.027454898011 0 100.027454898011 158.01636853464515 0 0 0 0 2.8057862927581851 0.090507307739315479 0 0.090507307739315479 -0.80427606717982059 0 0 0 0 35.347691268449125 1.0174426834109909 0 1.0174426834109909 71.266660581080941 0 0 0 0 10.634777285718883 2.7330575195171605 0 2.7330575195171605 85.357954968741979 0 0 0 0 47.423593259227346 76.942925883711723 0 76.942925883711723 143.39976151720475 0 0 0 0 16.038591132568399 30.072910279673124 0 30.072910279673124 141.576678210713 0 0 0 0 47.10827365003388 33.670822077498997 0 33.670822077498997 137.18709506734012 0 0 0 0 0.90704292961675037 -1.036883519786457 0 -1.036883519786457 0.94451490260507853 0 0 0 0 47.202339640149148 22.391450658433314 0 22.391450658433314 -24.795654321853362 0 0 0 0 81.975071256209048 14.61442129405259 0 14.61442129405259 -10.966305742145778 0 0 0 0 15.693303912768897 0.57859989524922639 0 0.57859989524922639 8.73622077832988 0 0 0 0 8.5715919855574612 4.9448252995698567 0 4.9448252995698567 18.569861907567429 0 0 0 0 9.1523503132339101 5.2834542019500077 0 5.2834542019500077 16.427188655408827 0 0 0 0 12.794468888052506 -0.17068078407464782 0 -0.17068078407464782 16.717525494470465 0 0 0 0 11.932214304528316 3.0659463760530343 0 3.0659463760530343 6.536811003483308 0 0 0 0 -48.555119765311247 -18.136128964592899 0 -18.136128964592899 29.931253750804899 0 0 0 0 9.5649568904191256 3.9545902680201834 0 3.9545902680201834 6.5111776994472166 0 0 0 0 1.905990539091631 7.3884233764262746 0 7.3884233764262746 12.531853701569148 0 0 0 0 -3.0758708252149063 4.0934038670326061 0 4.0934038670326061 21.123851480842788 0 0 0 0 -28.989808766906208 7.5021590973819912 0 7.5021590973819912 16.455076748633246 0 0 0 0 -27.191742522161803 30.951888888772032 0 30.951888888772032 28.394279367091258 0 0 0 0 -12.921114532320644 10.461205230304699 0 10.461205230304699 24.810647453429283 0 0 0 0 -58.335312875288764 48.885628738979037 0 48.885628738979037 13.805814447910052 0 0 0 0 -58.671274195876322 53.290369549529487 0 53.290369549529487 26.201587657139498 0 0 0 0 -11.900330037181391 10.781442114652137 0 10.781442114652137 36.109361913268927 0 0 0 0 -224.58062048073043 81.551977073739181 0 81.551977073739181 28.064198638605973 0 0 0 0 -86.295674764041905 -157.10702693097301 0 -157.10702693097301 223.73561130529561 0 0 0 0 24.502643732324941 -39.608794255258545 0 -39.608794255258545 30.243110130970308 0 0 0 0 83.935975051732385 -73.333461919033653 0 -73.333461919033653 -28.832421954954043 0 0 0 0 -8.6527558777430045 -4.2385668997864911 0 -4.2385668997864911 5.4917364881582955 0 0 0 0 -31.577010390115902 12.40023130602458 0 12.40023130602458 30.073842305389292 0 0 0 0 1.2186315632635107 14.603269117103025 0 14.603269117103025 23.322517613282926 0 0 0 0 -150.71468664699933 -15.461934792563625 0 -15.461934792563625 76.352348655127571 0 0 0 0 191.6805171307642 123.18295281387691 0 123.18295281387691 -31.394820278865154 0 0 0 0 -144.79286566666269 -3.3739450973243947 0 -3.3739450973243947 6.192116534741217 0 0 0 0 -5.1887657507493259 -0.86282565483915619 0 -0.86282565483915619 11.130894426602886 0 0 0 0 -1.9235834541777734 4.0503439308384515 0 4.0503439308384515 40.830058596680487 0 0 0 0 100.91885467383781 150.87614940323056 0 150.87614940323056 256.45186613390979 0 0 0 0 -131.96982208777627 73.597698791954372 0 73.597698791954372 41.001300131340031 0 0 0 0 162.44338107653311 118.00115808466944 0 118.00115808466944 -3.6383191380264179 0 0 0 0 -80.674777343199821 46.901027264737309 0 46.901027264737309 26.728220683271033 0 0 0 0 -63.325994069320586 67.50989985558715 0 67.50989985558715 42.591201929567887 0 0 0 0 -93.783187669469044 32.876517818166121 0 32.876517818166121 99.927911929211859 0 0 0 0 -47.632050940484078 18.218844797979074 0 18.218844797979074 58.744949550186902 0 0 0 0 -59.20409989926884 75.69661342713016 0 75.69661342713016 -24.76767387055861 0 0 0 0 -38.271185988429352 -52.572963777943187 0 -52.572963777943187 6.6356426929767167 0 0 0 0 274.6255921984739 256.3486594150113 0 256.3486594150113 261.38438405992201 0 0 0 0 263.69757763361849 204.26017929532372 0 204.26017929532372 15.89853511480851 0 0 0 0 77.65793707127159 215.47573256074975 0 215.47573256074975 234.47936135440614 0 0 0 0 104.63662580060918 250.09389079009361 0 250.09389079009361 276.09475361121076 0 0 0 0 76.303559772837616 175.990098657413 0 175.990098657413 229.03397494801538 0 0 0 0 159.24738243193133 138.08772191399657 0 138.08772191399657 127.71710426347158 0 0 0 0 213.70638441100891 219.08878238804664 0 219.08878238804664 113.73731642207349 0 0 0 0 151.05285782882129 104.05758356017668 0 104.05758356017668 9.8357431005861145 0 0 0 0 29.963387221712765 247.88289011500274 0 247.88289011500274 364.93328232759268 0 0 0 0 28.315299523470458 181.09427567171178 0 181.09427567171178 309.40922347425294 0 0 0 0 -13.293672966610757 195.3408423349756 0 195.3408423349756 305.28430270146782 0 0 0 0 -104.68072506962926 223.44227696149619 0 223.44227696149619 367.09796864903001 0 0 0 0 45.899850663612597 377.33337642160677 0 377.33337642160677 379.12766403681235 0 0 0 0 -156.59869283163789 331.95679213753738 0 331.95679213753738 224.42945501009672 0 0 0 0 -335.69031041728522 99.827687679479368 0 99.827687679479368 346.77239079599167 0 0 0 0 203.50028201294663 768.25320139028918 0 768.25320139028918 640.83052938736 0 0 0 0 -71.577392876293743 232.93806032608336 0 232.93806032608336 334.42600744663923 0 0 0 0 89.750149306877574 235.88273456119532 0 235.88273456119532 -723.68875493597807 0 0 0 0 14.783413014127291 -286.73330484168673 0 -286.73330484168673 668.5774188008545 0 0 0 0 -671.35739990515867 335.09933666067991 0 335.09933666067991 224.91130912820779 0 0 0 0 -4.4797392462705545 8.3528259546880577 0 8.3528259546880577 1.4164486157286262 0 0 0 0 6.2864141937321563 7.204954344711723 0 7.204954344711723 2.8213450845884136 0 0 0 0 -189.62734090945287 32.832449850628507 0 32.832449850628507 15.749940454197713 0 0 0 0 -55.859910000974196 -516.23562031045367 0 -516.23562031045367 -759.37694521525111 0 0 0 0 -52.88267837461899 97.309652305524651 0 97.309652305524651 490.84795255947347 0 0 0 0 22.65537020444026 67.615529943383081 0 67.615529943383081 300.37405352939095 0 0 0 0 -6.9905492773104925 222.57458790931923 0 222.57458790931923 141.88668702779796 0 0 0 0 -4.7329710736667039 112.87212320949038 0 112.87212320949038 328.61367575327495 0 0 0 0 154.38242824749614 447.50827698015746 0 447.50827698015746 435.52112087974774 0 0 0 0 91.697324874128753 -40.342901756468791 0 -40.342901756468791 614.12625279503845 0 0 0 0 57.351634232327342 151.76366985469213 0 151.76366985469213 350.39674812245175 0 0 0 0 62.935639597819204 160.42794945303865 0 160.42794945303865 103.63295209329226 0 0 0 0 10.916846344822853 65.341649140991677 0 65.341649140991677 45.125054156500568 0 0 0 0 15.207700880906486 59.601723767818669 0 59.601723767818669 47.492060730794321 0 0 0 0 43.332179810851812 206.87999314676563 0 206.87999314676563 100.33783999515799 0 0 0 0 -15.46200675517872 35.118196011650411 0 35.118196011650411 6.9941004512872738 0 0 0 0 -11.814734580599179 186.23932269473028 0 186.23932269473028 235.97227543151166 0 0 0 0 94.134335226422991 93.688353362102134 0 93.688353362102134 87.20651651404296 0 0 0 0 -17.460585526903628 4.6008087883128326 0 4.6008087883128326 11.336116796848115 0 0 0 0 -106.7182647324953 160.06109132340862 0 160.06109132340862 -468.91929268374952 0 0 0 0 342.98256600799505 232.24715887133243 0 232.24715887133243 -979.69650186384024 0 0 0 0 14.70284027690667 31.300599247732801 0 31.300599247732801 8.6936363587928511 0 0 0 0 18.008195170367344 43.169879109492001 0 43.169879109492001 16.344681928339014 0 0 0 0 19.384986129545723 57.129448292807865 0 57.129448292807865 61.130981432300359 0 0 0 0 -554.49879305837476 603.13273786013235 0 603.13273786013235 -232.93434402905041 0 0 0 0 282.81617921493307 519.78854751889776 0 519.78854751889776 -662.45660236463391 0 0 0 0 24.045620093093277 48.215962017152037 0 48.215962017152037 22.608186933341642 0 0 0 0 34.641514933632479 24.067382602791497 0 24.067382602791497 -4.539825971351803 0 0 0 0 -112.90294323721901 393.25823018798474 0 393.25823018798474 -298.00950435333061 0 0 0 0 -316.73748877664184 360.86470904201269 0 360.86470904201269 393.81532617503035 0 0 0 0 1258.262646516072 259.94347027977165 0 259.94347027977165 -471.12814626607047 0 0 0 0 -27.590481533603452 712.54875108843407 0 712.54875108843407 855.43836066936456 0 0 0 0 1067.6001667082019 444.77536625824814 0 444.77536625824814 87.738830840155515 0 0 0 0 0.64812774393988093 -1.1607336671180377 0 -1.1607336671180377 14.799387003928135 0 0 0 0 -39.282708269953218 -184.91095849548572 0 -184.91095849548572 357.48476378486157 0 0 0 0 -221.64176238441723 -53.123813984432672 0 -53.123813984432672 852.12516566492582 0 0 0 0 -210.03945138985 103.76856718092313 0 103.76856718092313 419.88544473993318 0 0 0 0 -235.64450940237657 46.051475568351407 0 46.051475568351407 320.8943882162439 0 0 0 0 -85.579647103924799 -72.789805617164347 0 -72.789805617164347 318.99415121445236 0 0 0 0 -57.228383784538892 130.05841276006004 0 130.05841276006004 174.31818768335597 0 0 0 0 -207.45413741103971 204.81771375638476 0 204.81771375638476 185.49804658156791 0 0 0 0 -59.934902676388447 113.92341194413439 0 113.92341194413439 79.735592139385972 0 0 0 0 97.660261062097561 125.21038322344157 0 125.21038322344157 35.982970629757801 0 0 0 0 95.650958412715227 114.34972651869973 0 114.34972651869973 58.230027302663075 0 0 0 0 21.418314482433615 72.53653043939795 0 72.53653043939795 74.421615980863862 0 0 0 0 88.808729610929731 277.30635112951131 0 277.30635112951131 -222.12960312298674 0 0 0 0 -266.14659616654899 432.55698883424702 0 432.55698883424702 144.51502078280464 0 0 0 0 135.49215691015888 150.0913912079186 0 150.0913912079186 -25.156845790334955 0 0 0 0 150.86918344367064 69.800147688884721 0 69.800147688884721 11.209486268663472 0 0 0 0 194.77249672174821 91.830960406838585 0 91.830960406838585 -61.033888815112732 0 0 0 0 86.471466713002883 170.04841293042773 0 170.04841293042773 -31.229081889300687 0 0 0 0 145.45573910375788 147.28967570723808 0 147.28967570723808 -144.63225093398978 0 0 0 0 117.26386582844134 272.23131750842458 0 272.23131750842458 -73.332687347593492 0 0 0 0 138.10657462123709 35.272194946692252 0 35.272194946692252 -255.84523241290844 0 0 0 0 159.26700630349296 211.48115421208968 0 211.48115421208968 -327.9560208681537 0 0 0 0 141.18223020060464 66.42713013449044 0 66.42713013449044 18.601019177661456 0 0 0 0 24.968751134572614 22.204407270547527 0 22.204407270547527 -4.9239318829596534 0 0 0 0 -213.52339805338056 376.31974660908145 0 376.31974660908145 -374.11518848883497 0 0 0 0 2.8023732436140563 182.59221066590271 0 182.59221066590271 -426.90281771510854 0 0 0 0 -95.471003401148664 234.07138501330883 0 234.07138501330883 -77.925298666035815 0 0 0 0 13.639106994387475 321.98676754647659 0 321.98676754647659 -184.97866491946843 0 0 0 0 111.86215672461913 216.97707743838328 0 216.97707743838328 -135.34764659929806 0 0 0 0 36.895588306193531 275.27808804658343 0 275.27808804658343 20.156986930200219 0 0 0 0 109.14992517662904 196.3940116638496 0 196.3940116638496 59.845828333716781 0 0 0 0 -11.661020221123181 235.65525318136133 0 235.65525318136133 74.694403760737259 0 0 0 0 38.404256301046189 189.18080513335826 0 189.18080513335826 -63.377778894666335 0 0 0 0 111.02954335878894 206.46533096648545 0 206.46533096648545 77.879981259654073 0 0 0 0 35.315924994063607 253.95225435657403 0 253.95225435657403 191.73044098323589 0 0 0 0 166.70499136962462 198.00630617016031 0 198.00630617016031 211.93999191236344 0 0 0 0 94.952537737124658 333.21410150942575 0 333.21410150942575 330.73452329450447 0 0 0 0 81.520433950096049 214.77385526188482 0 214.77385526188482 181.69943444256387 0 0 0 0 82.011267900687585 233.2338397569284 0 233.2338397569284 104.85724599838431 0 0 0 0 -1.0160435927464277 160.70302235469353 0 160.70302235469353 311.61317743718519 0 0 0 0 5.479687085851765 113.78793997315915 0 113.78793997315915 66.469034059733985 0 0 0 0 102.61887863345146 217.81252168798369 0 217.81252168798369 104.7911730165888 0 0 0 0 115.40937619520992 212.60817682364814 0 212.60817682364814 -7.7882830476428353 0 0 0 0 109.09176093421861 290.77364444745547 0 290.77364444745547 119.59006260220849 0 0 0 0 240.20364247407269 79.126850915980867 0 79.126850915980867 40.816470085535627 0 0 0 0 254.29647872904388 91.407010218714731 0 91.407010218714731 -57.204253461259214 0 0 0 0 369.8615711571174 67.968082270354898 0 67.968082270354898 40.208513301444015 0 0 0 0 243.35115151689206 130.56647547581088 0 130.56647547581088 134.34450888003812 0 0 0 0 265.98948979058332 143.4239058623607 0 143.4239058623607 80.591416865903057 0 0 0 0 141.18027317588712 227.51649596288735 0 227.51649596288735 204.38369347066509 0 0 0 0 26.61385519468331 132.77278324856843 0 132.77278324856843 150.80500702255085 0 0 0 0 85.293963580237687 209.90825439489254 0 209.90825439489254 69.753045837662285 0 0 0 0 41.951039309540192 119.19232037883489 0 119.19232037883489 -79.713662681564529 0 0 0 0 119.18575058694114 80.48280900460577 0 80.48280900460577 -20.160194859437979 0 0 0 0 153.35795234169018 141.13921772089361 0 141.13921772089361 81.396531971587819 0 0 0 0 125.03930593565565 182.6983009354708 0 182.6983009354708 -77.658709653057031 0 0 0 0 68.820590104164694 99.701703371863459 0 99.701703371863459 -192.81823180947322 0 0 0 0 -50.430204777750987 210.13161632635183 0 210.13161632635183 -62.24674767521401 0 0 0 0 -126.28497507747124 321.22663166024904 0 321.22663166024904 -221.44054473271262 0 0 0 0 -9.4193003912225919 25.829899543227775 0 25.829899543227775 25.538707210212813 0 0 0 0 -0.091308103512346861 355.75302344712873 0 355.75302344712873 -444.80537416088919 0 0 0 0 131.09486244114305 128.94901275710527 0 128.94901275710527 -108.80052349517064 0 0 0 0 205.36727866075762 105.36125588472896 0 105.36125588472896 -20.668618412661999 0 0 0 0 311.97973988726358 84.399853644248168 0 84.399853644248168 -86.474259731128768 0 0 0 0 206.9879291507109 154.99348616944553 0 154.99348616944553 -163.12836899547256 0 0 0 0 142.15207006782703 85.748157451814791 0 85.748157451814791 -31.597739693816038 0 0 0 0 102.66551890547629 107.98713330206846 0 107.98713330206846 31.605257106586578 0 0 0 0 296.04933772653703 71.049185936458798 0 71.049185936458798 -72.993790242864634 0 0 0 0 91.135427730622268 177.50819964449784 0 177.50819964449784 9.8736299059501107 0 0 0 0 52.936453365597686 117.13919561751493 0 117.13919561751493 67.170284240628462 0 0 0 0 -68.28211435011508 127.07888062012353 0 127.07888062012353 194.61688953700923 0 0 0 0 -16.835877004743452 254.42359645248052 0 254.42359645248052 -40.444029672586566 0 0 0 0 23.421696521394551 148.35180379276107 0 148.35180379276107 39.252802677878208 0 0 0 0 -15.451844803676522 143.67058095966786 0 143.67058095966786 36.933838686497438 0 0 0 0 95.330386418185185 173.29663039815739 0 173.29663039815739 -50.049971194235695 0 0 0 0 149.0670695863746 80.797564766177857 0 80.797564766177857 -19.681929502597995 0 0 0 0 138.77939080201759 54.174061581288697 0 54.174061581288697 32.188491946688373 0 0 0 0 145.04313057261925 78.700082493884565 0 78.700082493884565 23.773429389166267 0 0 0 0 150.23472367463637 90.055408336724213 0 90.055408336724213 -6.6756579413113286 0 0 0 0 169.86492305151205 37.554426484462056 0 37.554426484462056 53.245790994185882 0 0 0 0 118.1207436675968 85.854617590139242 0 85.854617590139242 45.263943052683203 0 0 0 0 169.70788686292235 96.881287239566973 0 96.881287239566973 6.3180048324538802 0 0 0 0 -32.73560287818691 62.9673080001362 0 62.9673080001362 50.957355874270206 0 0 0 0 11.050794917776932 68.48854732607137 0 68.48854732607137 51.75282895678086 0 0 0 0 -6.3566250726007638 93.659435306172099 0 93.659435306172099 86.515813055214494 0 0 0 0 -80.213046681848937 63.969643255046776 0 63.969643255046776 126.85467305772136 0 0 0 0 -40.315558260848775 58.370309534823036 0 58.370309534823036 18.761203703905267 0 0 0 0 -42.927319812151836 60.868824327043967 0 60.868824327043967 50.53278916207455 0 0 0 0 -0.33595741543103941 78.21195248652657 0 78.21195248652657 20.794197707184139 0 0 0 0 0.21314441491267644 61.982498992008459 0 61.982498992008459 12.492027275336113 0 0 0 0 -49.33902080142434 83.029293131116901 0 83.029293131116901 -6.5861780172590443 0 0 0 0 -37.806747531700239 51.82177673128399 0 51.82177673128399 -13.628296470518762 0 0 0 0 -3.6721320007397367 17.087692503066208 0 17.087692503066208 33.231488526304673 0 0 0 0 -12.905812605650681 79.860383022884207 0 79.860383022884207 -14.73329519116669 0 0 0 0 -11.258267822922789 89.100026026512751 0 89.100026026512751 -27.654914736545834 0 0 0 0 -26.082446928714489 71.605884190586494 0 71.605884190586494 19.577168028108645 0 0 0 0 15.855412161457934 84.59520460495969 0 84.59520460495969 -17.114037705133342 0 0 0 0 200.33712966726489 58.314511013850279 0 58.314511013850279 36.166349933613674 0 0 0 0 8.3882020290657238 -0.72357408078300978 0 -0.72357408078300978 -47.17688152628665 0 0 0 0 205.17895133384187 53.16645532821947 0 53.16645532821947 33.065060257489677 0 0 0 0 82.246692822056815 -11.050240593688834 0 -11.050240593688834 -45.35344118833558 0 0 0 0 10.58952131514099 73.90016780612099 0 73.90016780612099 12.799871590973687 0 0 0 0 68.384977747009543 -121.42807957066782 0 -121.42807957066782 -131.06532901806077 0 0 0 0 3.3547705485783155 -2.0958430854412526 0 -2.0958430854412526 -1.5759477676062303 0 0 0 0 150.63420170247264 85.669786985295104 0 85.669786985295104 60.336694893049525 0 0 0 0 150.38379950782974 70.873453732288908 0 70.873453732288908 33.402154570147104 0 0 0 0 196.85357316242153 59.480209717552498 0 59.480209717552498 31.936375106517517 0 0 0 0 12.031065871544083 66.320860061513685 0 66.320860061513685 30.857006507514789 0 0 0 0 197.11585422748703 45.672385787127496 0 45.672385787127496 24.474641029277763 0 0 0 0 225.59858085000724 41.210765354479918 0 41.210765354479918 12.793620253120025 0 0 0 0 235.72643503481879 37.584917561531711 0 37.584917561531711 40.4079747428259 0 0 0 0 10.740147297304212 61.571729321721186 0 61.571729321721186 20.69621769481757 0 0 0 0 296.19220005112038 74.862651846778022 0 74.862651846778022 17.820250731139822 0 0 0 0 258.99340470262541 70.198939930129654 0 70.198939930129654 43.605598960062252 0 0 0 0 262.24029142291329 68.382644654562 0 68.382644654562 17.071147467164337 0 0 0 0 238.6824478875933 89.059565643766291 0 89.059565643766291 17.916319846427541 0 0 0 0 407.18013405798411 89.698098184897844 0 89.698098184897844 0.92328975990494655 0 0 0 0 -187.89598596525684 -131.49708749190995 0 -131.49708749190995 -70.617995936512671 0 0 0 0 374.81422212078905 201.7504646226771 0 201.7504646226771 64.664639125904159 0 0 0 0 2.4537836959695483 -0.74111445773607443 0 -0.74111445773607443 -1.1910902784993134 0 0 0 0 261.86903300276754 149.78216176288288 0 149.78216176288288 104.74232913302149 0 0 0 0 190.34726569078339 96.805247874467113 0 96.805247874467113 69.247483381190705 0 0 0 0 164.22959353463193 57.508151075113119 0 57.508151075113119 54.240177059621601 0 0 0 0 255.96203926506132 60.333542612996553 0 60.333542612996553 0.32458468247205019 0 0 0 0 252.88041993107618 67.590035382152109 0 67.590035382152109 26.779767694061775 0 0 0 0 215.22769805241114 54.630077143749986 0 54.630077143749986 29.185178167246704 0 0 0 0 253.50273748067048 68.691161839942879 0 68.691161839942879 9.5944443195294298 0 0 0 0 160.30898882534166 58.064112324625967 0 58.064112324625967 34.139383330902547 0 0 0 0 215.73830218859803 52.423681286359169 0 52.423681286359169 10.015682127154832 0 0 0 0 123.16860215239285 35.371439425201288 0 35.371439425201288 -2.467914473554174 0 0 0 0 150.29788806449142 78.215682567241856 0 78.215682567241856 65.050436706596145 0 0 0 0 139.47394136946059 84.313047104673615 0 84.313047104673615 2.0940235663820204 0 0 0 0 66.707795952585002 84.430636592290739 0 84.430636592290739 19.82689654674914 0 0 0 0 153.65339926960223 58.852891074274794 0 58.852891074274794 19.477605090802172 0 0 0 0 184.46332299663482 80.64282431166157 0 80.64282431166157 19.907473865046995 0 0 0 0 212.13098206785799 45.987269441034186 0 45.987269441034186 35.095015656578653 0 0 0 0 195.6208614418465 61.42421092597624 0 61.42421092597624 2.7928657296470192 0 0 0 0 141.13991699208418 88.000397063573928 0 88.000397063573928 6.7547883373899822 0 0 0 0 174.08708954702524 90.347018809494102 0 90.347018809494102 -0.03635865779233427 0 0 0 0 172.47022359812763 69.517153709491595 0 69.517153709491595 -12.521751943655545 0 0 0 0 182.73126597519877 81.089630142815622 0 81.089630142815622 0.46036277665734815 0 0 0 0 55.481829086573271 67.36440193359249 0 67.36440193359249 18.187669344495134 0 0 0 0 133.27396039155064 70.379148801880319 0 70.379148801880319 -8.6143099334094586 0 0 0 0 107.53211632242164 80.452154842246273 0 80.452154842246273 3.4005992075685754 0 0 0 0 140.73911064510321 71.045901745934316 0 71.045901745934316 2.7820452605274113 0 0 0 0 112.79825352770422 63.520572231305323 0 63.520572231305323 22.709652719158839 0 0 0 0 144.42416789474009 60.756380078632901 0 60.756380078632901 27.248505778851722 0 0 0 0 163.80024197802413 60.318772824911321 0 60.318772824911321 -11.445148849677707 0 0 0 0 225.89224011538511 -113.71792674398182 0 -113.71792674398182 -107.65109323092292 0 0 0 0 174.63769810037047 28.335779480282781 0 28.335779480282781 -39.765856942207165 0 0 0 0 76.882336874713644 -17.683582241600568 0 -17.683582241600568 -42.971858019525556 0 0 0 0 220.9212156185331 48.752055620603414 0 48.752055620603414 -47.239006058601262 0 0 0 0 172.86854084421066 82.730204463038717 0 82.730204463038717 1.7873928038202394 0 0 0 0 262.15077293312788 10.199258497043047 0 10.199258497043047 16.045360203363089 0 0 0 0 12.768499776153476 -118.98661250095483 0 -118.98661250095483 -135.3313273797994 0 0 0 0 74.432301897757242 -16.50166022586599 0 -16.50166022586599 -42.560648531870754 0 0 0 0 153.77525759992295 91.170010170331807 0 91.170010170331807 -44.750943271193137 0 0 0 0 143.1389000293475 54.405038277426684 0 54.405038277426684 -24.906457772420254 0 0 0 0 170.38233635742154 148.97979317176305 0 148.97979317176305 39.358656654227161 0 0 0 0 0.56148744472302048 -0.10702299321192843 0 -0.10702299321192843 -0.023989077410107029 0 0 0 0 330.01766346681632 -53.050795267579815 0 -53.050795267579815 68.159511581465267 0 0 0 0 581.94376206207812 69.032510573234504 0 69.032510573234504 -136.54551669615103 0 0 0 0 245.89868564396431 80.220600894145718 0 80.220600894145718 -88.370579392512809 0 0 0 0 469.68624263934737 122.3670704102683 0 122.3670704102683 5.5369875538056021 0 0 0 0 571.13429501293763 73.865439481887506 0 73.865439481887506 -61.356649819263112 0 0 0 0 309.46622466037138 28.24245918270482 0 28.24245918270482 56.215028440534297 0 0 0 0 315.36359024858984 99.861990999200771 0 99.861990999200771 -68.977693250197262 0 0 0 0 0.66482052399332603 0.85265594545651791 0 0.85265594545651791 2.4968245976715622 0 0 0 0 1032.8269467339753 -22.037094058389812 0 -22.037094058389812 -437.55831045411651 0 0 0 0 0.95196027138711914 3.6562690039975649 0 3.6562690039975649 3.8234695467253541 0 0 0 0 318.35299516594853 -173.52147565074415 0 -173.52147565074415 85.627955053138066 0 0 0 0 -3.3365034369949171 364.99033652628259 0 364.99033652628259 -115.6569579982297 0 0 0 0 657.69732055712734 -281.99450203009974 0 -281.99450203009974 59.377937118217233 0 0 0 0 202.17529246452864 380.67857856221735 0 380.67857856221735 -116.03056135846418 0 0 0 0 -11.125487717706619 276.17151928665044 0 276.17151928665044 -50.965235690860936 0 0 0 0 230.36273111121204 245.51413950714414 0 245.51413950714414 -47.076381705847552 0 0 0 0 281.5433656897369 373.10069488132649 0 373.10069488132649 -118.31602844127792 0 0 0 0 408.00993867508475 49.758288722439602 0 49.758288722439602 31.620864630427604 0 0 0 0 443.8763901845835 -8.4115590722451543 0 -8.4115590722451543 369.42834736952409 0 0 0 0 0.74129207905315742 0.40302447178880207 0 0.40302447178880207 4.2172356429506266 0 0 0 0 41.371818583267668 41.343258432452785 0 41.343258432452785 -115.92674674848149 0 0 0 0 135.99711067635889 106.86488903363625 0 106.86488903363625 -78.950105578931471 0 0 0 0 221.68158648029021 84.3536947746652 0 84.3536947746652 -162.78360627448001 0 0 0 0 126.07279972112326 16.954113857777088 0 16.954113857777088 -7.3143454175806255 0 0 0 0 210.01799237110754 30.914684839150141 0 30.914684839150141 -16.380003252747883 0 0 0 0 120.15142598254079 28.921390988410167 0 28.921390988410167 -7.9558189027502522 0 0 0 0 92.579825729753793 158.35291731002644 0 158.35291731002644 4.1534402869092446 0 0 0 0 129.36572898620034 165.78335912389048 0 165.78335912389048 -36.977684366542235 0 0 0 0 145.22659618476064 147.73419931797889 0 147.73419931797889 -19.752668837866622 0 0 0 0 -60.952409046632511 130.50312999424023 0 130.50312999424023 -43.026078761948156 0 0 0 0 66.762240737188222 205.36040713572902 0 205.36040713572902 -67.102504045002206 0 0 0 0 113.98185939414543 96.066866137543911 0 96.066866137543911 -170.50282091647767 0 0 0 0 53.926914098086854 76.599194241423902 0 76.599194241423902 -171.57335270064596 0 0 0 0 -63.886402213808651 -16.109343529268699 0 -16.109343529268699 -241.04464614250537 0 0 0 0 197.70040004613429 22.657938330280558 0 22.657938330280558 -278.87256651119196 0 0 0 0 -226.86219973037942 151.87322241559013 0 151.87322241559013 -76.158127430222066 0 0 0 0 3.839527168861423 234.12470481689888 0 234.12470481689888 -378.9980578313814 0 0 0 0 4.2770946672399113 -1.7130449997424186 0 -1.7130449997424186 -1.4912079227826638 0 0 0 0 128.52688220511936 58.15111906679067 0 58.15111906679067 -417.03012056681291 0 0 0 0 116.89663425444269 151.89419511988308 0 151.89419511988308 -216.79841900851534 0 0 0 0 107.47454640010261 32.072560662371814 0 32.072560662371814 -186.71363954855769 0 0 0 0 103.3302265743423 113.29644981811452 0 113.29644981811452 -300.31379413343711 0 0 0 0 -72.768206290388207 79.685625438684383 0 79.685625438684383 -286.12592159022824 0 0 0 0 7.0219260690917125 2.5654348238830726 0 2.5654348238830726 -2.9373878878401349 0 0 0 0 32.163112065401947 -41.260376755706602 0 -41.260376755706602 11.267453723066865 0 0 0 0 -54.470777813488894 53.187098147403958 0 53.187098147403958 -325.09689012026138 0 0 0 0 72.722120586979742 30.258771913453117 0 30.258771913453117 8.9539031162670568 0 0 0 0 52.282685311503201 28.870003846768668 0 28.870003846768668 70.630042558099376 0 0 0 0 21.731829593720278 -0.51972870153963058 0 -0.51972870153963058 -4.6118635954672289 0 0 0 0 41.026634090694188 -10.230624512938448 0 -10.230624512938448 -47.738240482368383 0 0 0 0 14.298464211040368 -118.0741175316989 0 -118.0741175316989 -30.092637634477001 0 0 0 0 6.2791007872963291 -100.8705378640916 0 -100.8705378640916 61.133703332250604 0 0 0 0 80.258111548438308 -12.424437827308999 0 -12.424437827308999 -37.960896499250538 0 0 0 0 146.08243393338125 71.330954227688608 0 71.330954227688608 19.767181724912007 0 0 0 0 141.50549594452605 81.935906629157671 0 81.935906629157671 27.710143661648544 0 0 0 0 124.37344830083748 46.945608307220027 0 46.945608307220027 26.39596330432687 0 0 0 0 63.664094184981792 34.748719980528904 0 34.748719980528904 11.830010399684774 0 0 0 0 84.420890290297393 44.514010803743076 0 44.514010803743076 28.27723917642129 0 0 0 0 1761.1572994841736 -1181.3622435728703 0 -1181.3622435728703 808.09902156176236 0 0 0 0 1232.7016512249738 -956.50548692567168 0 -956.50548692567168 540.75114835543525 0 0 0 0 -185.73211493818326 208.05584537907825 0 208.05584537907825 -152.80745853326169 0 0 0 0 23.995954939283493 38.458956306544607 0 38.458956306544607 28.251353577135184 0 0 0 0 1440.6053238796139 -1085.0130782296005 0 -1085.0130782296005 576.84671162930124 0 0 0 0 1962.6711400941622 -748.12550347181241 0 -748.12550347181241 208.04199413008388 0 0 0 0 831.66966390455286 -300.87576438167525 0 -300.87576438167525 428.31972629481334 0 0 0 0 22.185040487386697 -11.226227088936067 0 -11.226227088936067 -31.506350171985581 0 0 0 0 1516.9187161031309 -552.25223535046609 0 -552.25223535046609 133.02896663321206 0 0 0 0 1957.2536614919184 -165.64441530858386 0 -165.64441530858386 -374.87370874700787 0 0 0 0 2415.8213667460413 -731.21648886814648 0 -731.21648886814648 -120.51389687681649 0 0 0 0 1954.93993105204 -436.21036632302457 0 -436.21036632302457 -150.20187704198293 0 0 0 0 47.050011934299576 23.394923659180762 0 23.394923659180762 7.1714402132510076 0 0 0 0 290.59127218391461 264.9469576395544 0 264.9469576395544 103.75076554800398 0 0 0 0 166.40983970538764 98.739893633595784 0 98.739893633595784 -5.5534991265922145 0 0 0 0 26.199035338057911 20.455664740057614 0 20.455664740057614 -15.242739263811814 0 0 0 0 79.008033995751248 -413.30507128066347 0 -413.30507128066347 376.94235958970785 0 0 0 0 -254.46986231775372 -10.534215255702293 0 -10.534215255702293 13.149202014040839 0 0 0 0 78.476583208115699 -215.00107217837649 0 -215.00107217837649 -253.55393084765092 0 0 0 0 366.47950669870716 -2.3242716571421624 0 -2.3242716571421624 -260.05431903472345 0 0 0 0 218.64706860965089 -44.253831674806861 0 -44.253831674806861 -332.80195417585946 0 0 0 0 0.31527425121677366 -1.6436833484662454 0 -1.6436833484662454 -2.8853646279341021 0 0 0 0 179.12293930950045 -153.97902897963627 0 -153.97902897963627 -362.49889896278182 0 0 0 0 -1.3713990521996893 -15.766018019005049 0 -15.766018019005049 -22.515283779498304 0 0 0 0 -123.59905381866884 -70.501219709201905 0 -70.501219709201905 -326.91050832983092 0 0 0 0 546.18596230499861 -295.74934139811603 0 -295.74934139811603 -630.60531838438874 0 0 0 0 115.07800233462331 -199.73690599979727 0 -199.73690599979727 -368.79262091904093 0 0 0 0 2265.506686467776 -398.1919505828098 0 -398.1919505828098 -270.51341312928929 0 0 0 0 2205.2882932223142 -402.55175295598406 0 -402.55175295598406 -42.795121531142968 0 0 0 0 2466.9979292365629 -487.29450870377917 0 -487.29450870377917 -153.50434486215374 0 0 0 0 2249.1535421932158 -628.41828934847706 0 -628.41828934847706 -140.64438838174553 0 0 0 0 2616.5962418394497 -505.59120554787637 0 -505.59120554787637 -151.63756430631565 0 0 0 0 2334.0485163190956 -308.13354495234074 0 -308.13354495234074 -23.669435856241194 0 0 0 0 2644.3147043371687 -235.85048547332562 0 -235.85048547332562 -81.441425383701244 0 0 0 0 2612.2620070487351 -246.84640328094224 0 -246.84640328094224 -35.412765094534493 0 0 0 0 391.80574630277442 -46.968886983628636 0 -46.968886983628636 173.51483571254084 0 0 0 0 492.57135833450957 -10.599354302902157 0 -10.599354302902157 30.317689844945562 0 0 0 0 191.24895745310278 -51.374500867335883 0 -51.374500867335883 129.96215649914666 0 0 0 0 203.63729420740037 76.022233046202018 0 76.022233046202018 29.681279079548403 0 0 0 0 3499.6897628864044 -349.73484257780092 0 -349.73484257780092 -501.83539305296114 0 0 0 0 2720.9817459454798 -316.74933490709668 0 -316.74933490709668 -248.95350426150102 0 0 0 0 2768.3382902320095 -390.2323964114168 0 -390.2323964114168 -225.13448844530427 0 0 0 0 2787.2661351736278 -745.17494831341105 0 -745.17494831341105 -254.56359250737387 0 0 0 0 3088.7320096313438 -533.39201425992394 0 -533.39201425992394 -384.89243105880985 0 0 0 0 3016.1279029685711 -577.71641812220469 0 -577.71641812220469 -395.20635242722244 0 0 0 0 3499.5477292878418 -718.15144191917716 0 -718.15144191917716 -382.92701904390952 0 0 0 0 3062.4285869565515 -750.14480472338835 0 -750.14480472338835 -18.340189320340727 0 0 0 0 2467.3675091155255 -632.33726206292795 0 -632.33726206292795 -199.53089481907469 0 0 0 0 3043.5288779651546 -907.86982343322177 0 -907.86982343322177 -173.19612738158185 0 0 0 0 3171.9538511738738 -1136.2415590479709 0 -1136.2415590479709 333.81324989330881 0 0 0 0 2285.9318323141006 -1051.6019593168205 0 -1051.6019593168205 241.20834928795171 0 0 0 0 2774.2049680549371 -1162.7409957436626 0 -1162.7409957436626 265.57519800978537 0 0 0 0 2581.8390156365022 -762.43331793267907 0 -762.43331793267907 92.789347878391055 0 0 0 0 2770.6034253037651 -810.99978938898232 0 -810.99978938898232 104.07649011665592 0 0 0 0 3560.0414660536044 -643.42568643455274 0 -643.42568643455274 3.7493381481790777 0 0 0 0 3500.9640845239392 -858.14565535916734 0 -858.14565535916734 531.24058509132101 0 0 0 0 4012.8278505267417 -267.26421585897469 0 -267.26421585897469 1204.8108281248374 0 0 0 0 3733.8676448584315 -1634.6053011218551 0 -1634.6053011218551 903.10581723188102 0 0 0 0 3499.6224382485561 117.38572912258843 0 117.38572912258843 1539.096258211719 0 0 0 0 5156.4374936820677 -24.671125735571422 0 -24.671125735571422 1227.267130727671 0 0 0 0 5495.3376638817044 -1232.436111518025 0 -1232.436111518025 952.72491656631144 0 0 0 0 153.33318711837637 751.82198124673323 0 751.82198124673323 667.73072130910532 0 0 0 0 15.194215945872507 8.3170540691401094 0 8.3170540691401094 6.2955697722314223 0 0 0 0 5011.8803688467087 -1883.9721425121922 0 -1883.9721425121922 294.04038156853539 0 0 0 0 -130.39003517188394 -231.31112483471929 0 -231.31112483471929 916.62178299050356 0 0 0 0 0.19395840497042371 -0.70879171903859906 0 -0.70879171903859906 -1.9946302709487869 0 0 0 0 2639.3867652694898 -1422.0651275487426 0 -1422.0651275487426 776.28468853458946 0 0 0 0 3039.2544418742291 -1040.3149643302734 0 -1040.3149643302734 464.4564757650827 0 0 0 0 118.813810219468 -26.866999888570945 0 -26.866999888570945 -24.433646314877024 0 0 0 0 43.799709673745213 24.406112244165318 0 24.406112244165318 12.930092215153893 0 0 0 0 21.736038910179055 9.6370014399165314 0 9.6370014399165314 5.5487249633285671 0 0 0 0 118.94787584816731 -24.044469335191252 0 -24.044469335191252 -250.44889250806727 0 0 0 0 67.234815611260274 58.577825352207128 0 58.577825352207128 22.888584646417257 0 0 0 0 112.84027368004536 65.144473035809597 0 65.144473035809597 13.576851992809679 0 0 0 0 86.044009720048052 56.226240240710467 0 56.226240240710467 13.391060485331593 0 0 0 0 88.107351019252746 54.865646565450334 0 54.865646565450334 0.27145677983480709 0 0 0 0 -38.983225945146842 39.493720449456305 0 39.493720449456305 18.762991676224033 0 0 0 0 252.71582969407518 -214.4244802242834 0 -214.4244802242834 -88.158723904660292 0 0 0 0 -1.2662952841834745 5.6505211329897733 0 5.6505211329897733 14.423383888688154 0 0 0 0 17.641483054310811 200.47992693800654 0 200.47992693800654 607.49248702206478 0 0 0 0 41.816286510533246 42.087089312355147 0 42.087089312355147 -11.32588300630448 0 0 0 0 51.468997278032475 79.488014519693479 0 79.488014519693479 -0.04568031513463211 0 0 0 0 6.1886022081816918 102.40443990179892 0 102.40443990179892 32.397043241601182 0 0 0 0 1.8497939331601305 6.3159141396527971 0 6.3159141396527971 15.225194734490243 0 0 0 0 -162.86781926954109 45.585428316751205 0 45.585428316751205 47.111674269247487 0 0 0 0 1044.9230151711188 523.44673221961989 0 523.44673221961989 139.26967561113139 0 0 0 0 2164.3187626667132 -67.328027105924889 0 -67.328027105924889 -115.65183420195899 0 0 0 0 3501.6406513755701 -6.4127229680525408 0 -6.4127229680525408 -440.92484252052566 0 0 0 0 2472.2602828046365 375.12311922319066 0 375.12311922319066 -287.22055433698398 0 0 0 0 3984.9943850922373 2.1955455014125818 0 2.1955455014125818 -395.38023547934483 0 0 0 0 1135.6427201553415 -140.16801321120576 0 -140.16801321120576 -69.946808291811578 0 0 0 0 2286.0675498822275 1485.4958322303428 0 1485.4958322303428 389.16023416321906 0 0 0 0 -177.84979074918374 -212.33666348134375 0 -212.33666348134375 -39.775311457079852 0 0 0 0 12.732090541903744 48.340485345277557 0 48.340485345277557 -7.9743313467290591 0 0 0 0 -180.61043699876518 47.655195546400591 0 47.655195546400591 174.66257675636189 0 0 0 0 -193.85635315323134 -137.11677926920007 0 -137.11677926920007 118.87857242836981 0 0 0 0 4.0451365957414964 17.574544618592881 0 17.574544618592881 164.11093976449683 0 0 0 0 26.502847407420631 -55.179782703518413 0 -55.179782703518413 211.10442106465234 0 0 0 0 -5.7954938897310058 137.61144820749087 0 137.61144820749087 329.306928738029 0 0 0 0 375.95976694043202 -24.542879692388851 0 -24.542879692388851 312.0896532865645 0 0 0 0 164.90825369533195 123.1198330723505 0 123.1198330723505 210.45815090898395 0 0 0 0 779.67654482813668 -70.142174158705529 0 -70.142174158705529 444.77146223292812 0 0 0 0 451.29444439484359 160.97769630654534 0 160.97769630654534 301.25524217607381 0 0 0 0 403.27601811914428 174.47589717157734 0 174.47589717157734 63.924650792980174 0 0 0 0 655.28362085142726 4.0439687515945479 0 4.0439687515945479 158.32142000698877 0 0 0 0 279.38250354523188 -68.164053939273799 0 -68.164053939273799 116.41407677295092 0 0 0 0 -1.7322033818636555 17.848448168351752 0 17.848448168351752 97.407531223203478 0 0 0 0 77.448885215238988 -85.718456034919427 0 -85.718456034919427 -212.28602832618708 0 0 0 0 310.74833573255455 -14.951345994113581 0 -14.951345994113581 -25.000464417870717 0 0 0 0 17.664483013006247 3.7954397992439226 0 3.7954397992439226 21.622566116449889 0 0 0 0 527.3953446168307 68.210610794920285 0 68.210610794920285 -34.010144181275791 0 0 0 0 265.16334392455974 81.399083670637992 0 81.399083670637992 84.871493900880523 0 0 0 0 318.23008393039345 53.407465879321535 0 53.407465879321535 -97.680812188566051 0 0 0 0 179.52365866507171 99.221240585676242 0 99.221240585676242 12.433047670479027 0 0 0 0 84.425132839183789 41.362164355705318 0 41.362164355705318 9.5089729301053012 0 0 0 0 -112.66172359182383 19.480210973947578 0 19.480210973947578 -37.565376594297049 0 0 0 0 -142.29276912071509 -237.69560426979388 0 -237.69560426979388 -114.0691804770463 0 0 0 0 198.54524594254326 -43.963488184170274 0 -43.963488184170274 -104.32300469978873 0 0 0 0 113.4292313062324 -18.546653866285851 0 -18.546653866285851 -186.66800964262984 0 0 0 0 3.9776252967494656 101.61624019784574 0 101.61624019784574 -3.3767705804057186 0 0 0 0 1.0768824319745534 0.38588269729413582 0 0.38588269729413582 -5.2735456801029343 0 0 0 0 -107.70399017792079 7.2789912948046549 0 7.2789912948046549 48.508061201413511 0 0 0 0 23.473001137259416 39.88841073905769 0 39.88841073905769 0.27681180736908573 0 0 0 0 0.21560938587214196 3.4001842529569473 0 3.4001842529569473 -8.0430578164117499 0 0 0 0 -107.70399017794989 7.2789912945299875 0 7.2789912945299875 48.508061201573582 0 0 0 0 -0.18961916328407824 21.643779982194246 0 21.643779982194246 25.005176850245334 0 0 0 0 7.757076577458065 24.76001270683264 0 24.76001270683264 18.851658799023426 0 0 0 0 -5.2480854927562177 39.456639500815072 0 39.456639500815072 18.789202898944495 0 0 0 0 10.818593771022279 34.349202596069517 0 34.349202596069517 27.851610602601795 0 0 0 0 -0.010988310212269425 33.379712788835604 0 33.379712788835604 31.91250512877923 0 0 0 0 3.791123483737465 30.372761581122177 0 30.372761581122177 26.343950751766897 0 0 0 0 5.2067978412378579 28.486847138679877 0 28.486847138679877 18.489367363057681 0 0 0 0 4.2885920937987976 35.876718309737043 0 35.876718309737043 32.195491000019956 0 0 0 0 16.512803352787159 19.454784306623878 0 19.454784306623878 32.389283994474681 0 0 0 0 47.014726616229382 -62.012283241813179 0 -62.012283241813179 21.193927531341615 0 0 0 0 -8.6882705669486313 53.328336066243537 0 53.328336066243537 -20.89435759852131 0 0 0 0 8.4847815192770213 8.9444007951096864 0 8.9444007951096864 3.9538447091472335 0 0 0 0 1.5465123901341826 -0.21947980074325812 0 -0.21947980074325812 -2.3152177359018964 0 0 0 0 68.398825257536373 107.86112541407329 0 107.86112541407329 -51.118539049510218 0 0 0 0 32.826177081740752 28.314286946786979 0 28.314286946786979 79.015704724235547 0 0 0 0 115.99398424709216 122.76649944422388 0 122.76649944422388 99.303268451625627 0 0 0 0 123.22455433674622 64.061173869593404 0 64.061173869593404 51.8026991846491 0 0 0 0 48.240398575959262 90.354341258858767 0 90.354341258858767 95.457232038905204 0 0 0 0 107.0202893968326 66.817472719630018 0 66.817472719630018 52.253560664576071 0 0 0 0 42.310414556472097 16.687304536024385 0 16.687304536024385 41.602875302434768 0 0 0 0 0.75120687324204027 0.57539488307254771 0 0.57539488307254771 -3.4856399188065623 0 0 0 0 63.489670333685353 -0.18516237106450717 0 -0.18516237106450717 51.138441713599605 0 0 0 0 1.2356163166678868 1.2840884418403249 0 1.2840884418403249 -2.1773926040085136 0 0 0 0 150.88175063254675 13.176108937896515 0 13.176108937896515 -5.0248376982908667 0 0 0 0 104.05650486175 19.523656864348993 0 19.523656864348993 39.530236291153415 0 0 0 0 155.63465077590081 -3.1401179431595665 0 -3.1401179431595665 19.607934368108545 0 0 0 0 92.544550288468599 9.3379028320669022 0 9.3379028320669022 37.82782884776816 0 0 0 0 57.580856885761023 10.586497246160434 0 10.586497246160434 38.273887190087407 0 0 0 0 93.421935169731114 -13.994515727867793 0 -13.994515727867793 43.22378987740376 0 0 0 0 25.183471012511291 23.617616800336691 0 23.617616800336691 33.909896281526017 0 0 0 0 48.515565171954222 7.9898910092069855 0 7.9898910092069855 29.326194416913495 0 0 0 0 94.174037782649975 -29.275836180936494 0 -29.275836180936494 27.687798661911074 0 0 0 0 46.672374136804137 7.5033458304169471 0 7.5033458304169471 34.229911397913384 0 0 0 0 31.12322648963891 -15.795833446387405 0 -15.795833446387405 25.181842054526896 0 0 0 0 26.297512099554297 17.191987797687034 0 17.191987797687034 17.947277802057215 0 0 0 0 19.258642939385027 10.867250278508436 0 10.867250278508436 29.930379438552336 0 0 0 0 21.758429519890342 24.361301262415509 0 24.361301262415509 25.169821201630839 0 0 0 0 471.31176718288043 169.59962476021519 0 169.59962476021519 -66.898987124108544 0 0 0 0 383.69098629493965 0.31090710219268658 0 0.31090710219268658 -71.937576536337474 0 0 0 0 196.48491875117179 35.209100823998597 0 35.209100823998597 2.2946011525855283 0 0 0 0 279.60112195338661 123.94747804847697 0 123.94747804847697 -10.865190624099341 0 0 0 0 281.71923025266733 87.766284160619762 0 87.766284160619762 -5.7662704973627115 0 0 0 0 290.86042926643859 142.26046477694945 0 142.26046477694945 -70.670185622754616 0 0 0 0 327.22203440134763 277.58505146760672 0 277.58505146760672 29.188673150951217 0 0 0 0 146.08185722515191 220.92539624823758 0 220.92539624823758 13.961171208329688 0 0 0 0 74.623267372851842 131.71958239363448 0 131.71958239363448 -11.789284054666496 0 0 0 0 284.82251704402734 223.23180937987581 0 223.23180937987581 -33.912705484228354 0 0 0 0 303.08673981055108 166.41821473724303 0 166.41821473724303 -26.87196904598386 0 0 0 0 237.87952676697751 194.82675260410178 0 194.82675260410178 -1.9626256368110262 0 0 0 0 187.13828683423344 192.17065200897287 0 192.17065200897287 1.2443716132547706 0 0 0 0 184.89013287710259 198.18536335755653 0 198.18536335755653 -14.204951132145652 0 0 0 0 192.63311441749102 202.6082556032643 0 202.6082556032643 43.952734999520544 0 0 0 0 189.4932248792029 161.51235399278175 0 161.51235399278175 38.312045103968558 0 0 0 0 242.24609268479253 183.74589867301302 0 183.74589867301302 24.132983189287188 0 0 0 0 244.8781957500687 188.51582165622631 0 188.51582165622631 15.09830804305966 0 0 0 0 216.33152051041543 176.37333735440825 0 176.37333735440825 72.792451258897927 0 0 0 0 241.41335474251537 192.34837576477366 0 192.34837576477366 24.131286508676041 0 0 0 0 237.92836299852934 186.69681049307655 0 186.69681049307655 52.188982922216383 0 0 0 0 214.82913318226929 170.4028073389818 0 170.4028073389818 69.828350240368309 0 0 0 0 9.1399600710428786 7.2682257603783 0 7.2682257603783 8.0970859922599629 0 0 0 0 243.03556036838563 179.36027594358166 0 179.36027594358166 24.06638835607373 0 0 0 0 236.89547171750746 182.84570472267478 0 182.84570472267478 51.343286509043537 0 0 0 0 229.91500092571368 164.19526826604852 0 164.19526826604852 21.76543230356765 0 0 0 0 187.14838904532371 161.75247615913031 0 161.75247615913031 89.510370896754466 0 0 0 0 231.67764036783774 157.85429738598305 0 157.85429738598305 44.268332937943342 0 0 0 0 251.41498352208873 123.92867109751205 0 123.92867109751205 23.355453542277246 0 0 0 0 194.93940256524365 124.81525856020016 0 124.81525856020016 50.914207567158883 0 0 0 0 197.03427810507128 115.18888830866854 0 115.18888830866854 46.832282110815868 0 0 0 0 199.1077059484669 87.252718372556046 0 87.252718372556046 -2.2959373606208828 0 0 0 0 168.97967445745599 102.88982512109578 0 102.88982512109578 49.30187966800986 0 0 0 0 245.84760284977528 139.0605345660374 0 139.0605345660374 -11.109627058845945 0 0 0 0 256.37377275395556 167.50058202215769 0 167.50058202215769 -21.739519596076207 0 0 0 0 257.6149860638252 159.61961990031887 0 159.61961990031887 22.165786180149553 0 0 0 0 -25.787946643591567 17.888953320217524 0 17.888953320217524 -161.75106796224281 0 0 0 0 -2.9009970072074793 -64.021173571238251 0 -64.021173571238251 -369.60939165735181 0 0 0 0 -61.547207877287292 -21.661077733594539 0 -21.661077733594539 -387.4127661301336 0 0 0 0 69.384766731382115 63.389374337935806 0 63.389374337935806 -160.63111723606107 0 0 0 0 -98.055510370104457 14.921780389372543 0 14.921780389372543 -132.63663273866769 0 0 0 0 32.241591684796731 -0.61233825589351909 0 -0.61233825589351909 -242.1919917294781 0 0 0 0 -26.656897788139759 61.237366561877934 0 61.237366561877934 -34.221260758853532 0 0 0 0 103.28968509385595 104.03093224277382 0 104.03093224277382 -97.566039682068549 0 0 0 0 82.933872484703897 164.37654295821358 0 164.37654295821358 -31.518403825325549 0 0 0 0 105.17555738640658 139.22152550380542 0 139.22152550380542 -4.7337212879119761 0 0 0 0 133.54825167435047 199.91377142355941 0 199.91377142355941 55.72040735576411 0 0 0 0 177.01956010988215 188.36815166567794 0 188.36815166567794 -5.3444991495733518 0 0 0 0 120.54446524912782 115.65096639937929 0 115.65096639937929 7.866539621204538 0 0 0 0 21.887902520218631 124.62158738531343 0 124.62158738531343 13.489780283150139 0 0 0 0 30.726941891029128 61.853194233782233 0 61.853194233782233 -55.09248333080177 0 0 0 0 59.209326928394148 119.91597126720808 0 119.91597126720808 -81.475080822761811 0 0 0 0 1.3166203337386833 60.652297337526306 0 60.652297337526306 -21.467642237339533 0 0 0 0 9.9211169234913541 -11.663479732185806 0 -11.663479732185806 -139.78595533512726 0 0 0 0 84.183401834074175 92.445408579414106 0 92.445408579414106 101.57151286695262 0 0 0 0 157.05620074499166 88.8401345039847 0 88.8401345039847 -24.267890407307277 0 0 0 0 149.74441135318193 195.05565361902654 0 195.05565361902654 82.108991542108924 0 0 0 0 137.62055116916599 170.09729753705869 0 170.09729753705869 155.86128467535491 0 0 0 0 191.31932127990876 168.97751983020316 0 168.97751983020316 99.004766970037053 0 0 0 0 140.36169012240134 180.85110263760907 0 180.85110263760907 96.280021970993403 0 0 0 0 171.27371424353623 221.63550540542792 0 221.63550540542792 158.01423540513133 0 0 0 0 222.02223980493727 217.80342986488722 0 217.80342986488722 176.50101852781063 0 0 0 0 178.18470563117444 176.52055575955683 0 176.52055575955683 220.48183412267099 0 0 0 0 264.58991886202421 163.57735781371957 0 163.57735781371957 125.48956436596382 0 0 0 0 -67.29088637715904 -0.3348234572695219 0 -0.3348234572695219 0.12496130356157664 0 0 0 0 1.2787726678071749 -0.46065626134293325 0 -0.46065626134293325 -1.9366357306586721 0 0 0 0 1.7793204234567099 0.55867463585867938 0 0.55867463585867938 -0.9755199941598427 0 0 0 0 -8.048003216052166 -100.8366826247709 0 -100.8366826247709 15.676712504142415 0 0 0 0 241.55036323150853 188.10995470980561 0 188.10995470980561 49.4447034251898 0 0 0 0 214.70742801777669 161.99045676134028 0 161.99045676134028 102.88282031046765 0 0 0 0 251.32022966694785 173.48045523860128 0 173.48045523860128 57.867316426845719 0 0 0 0 222.69834170270769 184.75264167703426 0 184.75264167703426 118.38232898325805 0 0 0 0 267.94282325345557 154.36199669223424 0 154.36199669223424 134.87088075256725 0 0 0 0 234.24243823936558 181.80641919561731 0 181.80641919561731 71.911718390278111 0 0 0 0 181.76950539785321 183.84907954631672 0 183.84907954631672 156.78572438264382 0 0 0 0 175.15342214892735 199.06015034241318 0 199.06015034241318 250.98403620328099 0 0 0 0 162.80743973846256 219.28618760324844 0 219.28618760324844 226.5360400696045 0 0 0 0 203.72390994831221 177.31684346645852 0 177.31684346645852 158.69544916289124 0 0 0 0 216.5087460763898 182.79219158419437 0 182.79219158419437 221.23851169624686 0 0 0 0 347.31129347113892 290.48243436286066 0 290.48243436286066 275.92717723908936 0 0 0 0 267.04714165820042 167.96597734686657 0 167.96597734686657 216.89058886761268 0 0 0 0 196.70044525330013 183.53794809112787 0 183.53794809112787 216.23623744604993 0 0 0 0 3.1277076041794203 -0.30476819034355174 0 -0.30476819034355174 -1.3554531646699672 0 0 0 0 -61.949163156186842 -52.909946960687648 0 -52.909946960687648 116.66559638544186 0 0 0 0 2.4833461034501738 -0.80557799742034319 0 -0.80557799742034319 0.11898531920827438 0 0 0 0 193.30671882751631 253.263645389884 0 253.263645389884 214.68821209924135 0 0 0 0 121.10969700819987 84.314368232574452 0 84.314368232574452 -39.499934400897018 0 0 0 0 0.1917915033655504 -0.1173823887750558 0 -0.1173823887750558 -0.22041469953908077 0 0 0 0 -12.330072016895429 153.71599672631487 0 153.71599672631487 360.17065248567997 0 0 0 0 -2.0644026725494768 52.308160912701169 0 52.308160912701169 67.888940560756282 0 0 0 0 63.231682826284668 56.421345927630341 0 56.421345927630341 72.838298688474424 0 0 0 0 -31.180876507380162 107.92060019193832 0 107.92060019193832 421.21678470307961 0 0 0 0 478.93458552805532 194.58656395476646 0 194.58656395476646 213.62989639618991 0 0 0 0 0.6416226026404388 -0.45213324815806288 0 -0.45213324815806288 1.3190137364216561 0 0 0 0 44.240189506789193 -87.530291082872438 0 -87.530291082872438 399.29197481947813 0 0 0 0 34.073358360379643 190.7781532963927 0 190.7781532963927 368.41495991941429 0 0 0 0 503.59581960328069 -36.739658025928293 0 -36.739658025928293 380.76395325357453 0 0 0 0 282.6232452609911 194.53050848006842 0 194.53050848006842 545.13511343698519 0 0 0 0 148.00995540485019 120.31876433427806 0 120.31876433427806 671.68121059915347 0 0 0 0 39.056739735511655 203.98272375050965 0 203.98272375050965 488.573458261817 0 0 0 0 3.5770812012706301 169.26583475780762 0 169.26583475780762 568.4209960572789 0 0 0 0 152.02204997721128 66.586389164977845 0 66.586389164977845 430.36345575168525 0 0 0 0 163.84456573973148 139.41332046143657 0 139.41332046143657 552.58459592257532 0 0 0 0 53.355746619883575 196.37883867840083 0 196.37883867840083 592.48914129149784 0 0 0 0 52.791371898485522 190.56322172649197 0 190.56322172649197 566.23884600041129 0 0 0 0 63.612814751148107 223.58729227538652 0 223.58729227538652 537.00120693446661 0 0 0 0 129.66105707491806 279.42677904180709 0 279.42677904180709 567.77140627011522 0 0 0 0 41.060800808965723 222.04671626012896 0 222.04671626012896 604.18078172446258 0 0 0 0 37.250376231269911 188.69987473471247 0 188.69987473471247 517.57422271580526 0 0 0 0 30.425273508524697 240.06246940415622 0 240.06246940415622 559.05234822803868 0 0 0 0 -3.0247033316554734 200.59939276938439 0 200.59939276938439 576.49043629477728 0 0 0 0 -17.335979082519771 214.19836066211883 0 214.19836066211883 506.41383241721724 0 0 0 0 144.73441134713357 75.812185082700125 0 75.812185082700125 352.621241507989 0 0 0 0 17.661737287221513 203.21985229031611 0 203.21985229031611 533.87906099817519 0 0 0 0 -73.341387793014292 139.12687128415655 0 139.12687128415655 363.72223515179394 0 0 0 0 0.23920026373889414 100.64308218865534 0 100.64308218865534 383.61195017453792 0 0 0 0 534.22050222290272 213.06008849476802 0 213.06008849476802 631.28166018474803 0 0 0 0 427.18465586793172 59.776631447982709 0 59.776631447982709 543.29350236746905 0 0 0 0 167.54087833790982 183.72222877857075 0 183.72222877857075 506.17194304729446 0 0 0 0 184.13324153375288 232.44501772803687 0 232.44501772803687 695.19177473561558 0 0 0 0 177.50459676076571 189.75583552178614 0 189.75583552178614 504.97672762664206 0 0 0 0 221.59910739269981 266.34542051478456 0 266.34542051478456 603.98325059189574 0 0 0 0 496.09842625027886 251.71905893869075 0 251.71905893869075 565.29141439605337 0 0 0 0 187.05567067779339 209.52397466815773 0 209.52397466815773 512.64680451823369 0 0 0 0 265.60312340807286 271.96673343590373 0 271.96673343590373 495.64906627345226 0 0 0 0 212.53131167698302 106.08684837324961 0 106.08684837324961 418.67135039083041 0 0 0 0 498.51525747606502 184.87682922020394 0 184.87682922020394 440.25192010348474 0 0 0 0 514.69320207058627 251.10621216100344 0 251.10621216100344 603.92763428646776 0 0 0 0 545.22723218404826 58.70122246116216 0 58.70122246116216 635.40628323185683 0 0 0 0 596.54409208969446 -258.67421908186043 0 -258.67421908186043 427.46655967206334 0 0 0 0 1389.100729498954 -188.23046763477669 0 -188.23046763477669 419.82466853945289 0 0 0 0 568.94593071176496 -65.867391407810828 0 -65.867391407810828 331.35670002263487 0 0 0 0 863.22283930048434 -80.819646530177124 0 -80.819646530177124 318.00534768282341 0 0 0 0 361.75022714537772 -217.39201055109334 0 -217.39201055109334 455.15714146003393 0 0 0 0 563.22695509998448 -595.23934756252038 0 -595.23934756252038 502.74908792031096 0 0 0 0 788.5616954957186 -334.43753218752227 0 -334.43753218752227 646.25237105394717 0 0 0 0 444.89409525108931 -545.08485381074706 0 -545.08485381074706 560.38231528723782 0 0 0 0 740.01548945634931 -689.45641896447569 0 -689.45641896447569 271.97666774868594 0 0 0 0 -353.54186734447649 -511.06535774064719 0 -511.06535774064719 291.81190405604502 0 0 0 0 -48.220624637004221 -427.85125579145279 0 -427.85125579145279 -416.10559688798378 0 0 0 0 357.17642233952938 -128.88353523382978 0 -128.88353523382978 -400.14921719974882 0 0 0 0 178.82970079952429 111.24533170070117 0 111.24533170070117 -47.200791582085003 0 0 0 0 10.17750539258202 -5.1645884605817258 0 -5.1645884605817258 2.7281901224807115 0 0 0 0 2151.2409336617857 996.35761257311651 0 996.35761257311651 577.13729849267997 0 0 0 0 1930.6367490556295 -28.702467839373639 0 -28.702467839373639 400.71668394637845 0 0 0 0 927.20220126841014 -219.9192681823572 0 -219.9192681823572 873.39228295309749 0 0 0 0 722.02716553946811 283.12488990957127 0 283.12488990957127 905.91382900489589 0 0 0 0 -2.1474434619661338 1.4903426254311967 0 1.4903426254311967 0.051386653827179885 0 0 0 0 16.076388579991999 -1.0266423123810355 0 -1.0266423123810355 0.49212832690233022 0 0 0 0 -49.680802633491112 -4.8008164554098585 0 -4.8008164554098585 -5.5359268493411946 0 0 0 0 137.50026266538771 4.6001019196701236 0 4.6001019196701236 -106.30142307475489 0 0 0 0 7.0519029904826311 13.246553616409074 0 13.246553616409074 -118.26469002698923 0 0 0 0 13.040368512600253 138.44606163244316 0 138.44606163244316 -101.96596922242679 0 0 0 0 332.03953451837151 -25.821611897891216 0 -25.821611897891216 -76.209343335922313 0 0 0 0 0.87751186368404888 70.522316764264815 0 70.522316764264815 -86.119821701775152 0 0 0 0 32.674089787349658 100.37094675707704 0 100.37094675707704 -133.54341113022565 0 0 0 0 91.096251060400391 134.14311724256186 0 134.14311724256186 177.74076342216995 0 0 0 0 12.227000690696173 -3.029127943152794 0 -3.029127943152794 0.40281104650685684 0 0 0 0 182.8922094726513 -70.169675587859501 0 -70.169675587859501 -373.21874597965325 0 0 0 0 116.75272311349545 102.83932048644601 0 102.83932048644601 204.12731950302987 0 0 0 0 24.434628699411405 66.071662759220089 0 66.071662759220089 22.242327200023738 0 0 0 0 926.22563815869216 -427.99123981525008 0 -427.99123981525008 270.34139804868755 0 0 0 0 343.81632061964774 -657.04963150189405 0 -657.04963150189405 251.26121806266019 0 0 0 0 834.20337840566935 51.187296922903897 0 51.187296922903897 69.561608028233422 0 0 0 0 4.9388752773073179 -1.7589627066889051 0 -1.7589627066889051 0.95758508924513741 0 0 0 0 368.74089216132415 367.99590649688434 0 367.99590649688434 422.3291500981818 0 0 0 0 256.64124302852656 212.43857164431546 0 212.43857164431546 38.032391733206168 0 0 0 0 261.79251064767595 -15.72124143004794 0 -15.72124143004794 70.416591006551471 0 0 0 0 176.59540455901879 -71.007009356884737 0 -71.007009356884737 -233.82417456142593 0 0 0 0 176.01617509566131 99.081135139351773 0 99.081135139351773 -81.00960509777633 0 0 0 0 144.82308918223134 86.573747927805925 0 86.573747927805925 -50.133109212007184 0 0 0 0 116.56760535528883 68.161268679458772 0 68.161268679458772 -44.883752213812841 0 0 0 0 130.08063845071592 72.096283286284233 0 72.096283286284233 -54.51624279358839 0 0 0 0 157.03711665074297 141.95696378689911 0 141.95696378689911 6.5139126682206552 0 0 0 0 97.61366128580994 128.71172049123288 0 128.71172049123288 77.650286302715358 0 0 0 0 109.22597820977535 150.3143356429332 0 150.3143356429332 84.563539504682922 0 0 0 0 113.15836573157867 175.57187570859787 0 175.57187570859787 207.92324874253245 0 0 0 0 52.588191246657516 120.23578483833535 0 120.23578483833535 172.74735735293007 0 0 0 0 34.422310287205619 69.801379653109962 0 69.801379653109962 76.197672430136663 0 0 0 0 97.06005877222924 117.6921210178748 0 117.6921210178748 94.21517205623968 0 0 0 0 101.62154304730939 108.92017532630234 0 108.92017532630234 97.979836211526163 0 0 0 0 101.14846020750701 79.859925349077457 0 79.859925349077457 52.788098175873529 0 0 0 0 97.895791669317987 125.7518800698017 0 125.7518800698017 62.67766558544281 0 0 0 0 124.47934613046891 96.838293836160119 0 96.838293836160119 4.9182450725274975 0 0 0 0 118.54704687552294 40.301952470833385 0 40.301952470833385 -42.409374783810563 0 0 0 0 104.3358745147998 77.628776964898861 0 77.628776964898861 25.06622818127471 0 0 0 0 115.25389231820009 49.276058455510793 0 49.276058455510793 39.024906684422604 0 0 0 0 87.608388433931395 78.637246061658971 0 78.637246061658971 112.2913171902328 0 0 0 0 1.9501587060605772 1.7922375313648899 0 1.7922375313648899 5.5946981735108672 0 0 0 0 9.4544451589463279 -3.4796395335001762 0 -3.4796395335001762 102.35382140320326 0 0 0 0 130.81567481686943 137.04590714968617 0 137.04590714968617 93.836878778153732 0 0 0 0 232.06127904749883 129.19943846207025 0 129.19943846207025 66.644693560736414 0 0 0 0 74.414593832874743 176.17259459620558 0 176.17259459620558 368.81534385554551 0 0 0 0 69.827431373443687 54.776970666111083 0 54.776970666111083 80.37850749503923 0 0 0 0 -70.99281651689671 -267.19663974334799 0 -267.19663974334799 310.51446913062387 0 0 0 0 150.91897732001962 -38.708243065115312 0 -38.708243065115312 113.53076647846137 0 0 0 0 58.986211595794884 215.49336471838797 0 215.49336471838797 406.0308944298522 0 0 0 0 49.081130059508723 138.45568532459492 0 138.45568532459492 -49.212750614160541 0 0 0 0 183.33475275248202 77.464476875074752 0 77.464476875074752 38.795332237050388 0 0 0 0 105.51020093156694 34.388364064106099 0 34.388364064106099 21.561052756182107 0 0 0 0 134.04437599628 50.506431526041524 0 50.506431526041524 25.241688967345908 0 0 0 0 127.83418771147262 39.860088933427505 0 39.860088933427505 -89.172512869921775 0 0 0 0 13.723027046364621 2.9958400953491662 0 2.9958400953491662 -5.5016261581556769 0 0 0 0 0.68709495234966766 11.389869608351631 0 11.389869608351631 -3.8698403943091932 0 0 0 0 269.47565770239453 -71.60487204225592 0 -71.60487204225592 -246.076519060789 0 0 0 0 114.6439789297292 78.445761267041235 0 78.445761267041235 31.848767770097766 0 0 0 0 112.16118866344914 10.030533603393451 0 10.030533603393451 -140.22036288147865 0 0 0 0 114.8516468234011 -7.1967210589245951 0 -7.1967210589245951 -159.43784180174316 0 0 0 0 32.530519316467689 -125.022371675057 0 -125.022371675057 -141.87358385992047 0 0 0 0 -219.27950083930045 41.585554818155288 0 41.585554818155288 482.52185413632287 0 0 0 0 3.2256201866750445 2.3481087318109815 0 2.3481087318109815 -1.5177927493946441 0 0 0 0 754.13060812058393 68.267243545147721 0 68.267243545147721 37.396360882936278 0 0 0 0 -2.4625902023529704 1.0988369248753855 0 1.0988369248753855 2.3540259322466834 0 0 0 0 -47.636294998090307 -153.70400314637232 0 -153.70400314637232 -383.936679469105 0 0 0 0 491.55376143928152 275.73547343382779 0 275.73547343382779 -324.05840192481992 0 0 0 0 121.73547427644371 -195.96809225237757 0 -195.96809225237757 -366.59471810162722 0 0 0 0 286.85962943197228 156.36704270394875 0 156.36704270394875 -270.42594894749209 0 0 0 0 167.99871703566168 114.37534879462692 0 114.37534879462692 -32.869528694329347 0 0 0 0 88.562642958830111 117.68687943250598 0 117.68687943250598 -30.436545068219857 0 0 0 0 275.79183035754249 164.76057695205873 0 164.76057695205873 -62.903162577706098 0 0 0 0 368.33256170636741 60.513752440587268 0 60.513752440587268 49.696583249882679 0 0 0 0 180.92406717286212 281.51928961416252 0 281.51928961416252 182.02749464073713 0 0 0 0 434.07156815120834 339.03415587894051 0 339.03415587894051 194.62332817057177 0 0 0 0 125.82591156681883 57.054050709709372 0 57.054050709709372 -50.360764223169099 0 0 0 0 102.35430790914688 69.451096283868537 0 69.451096283868537 45.543936935918737 0 0 0 0 65.076721708173864 -29.007893574875197 0 -29.007893574875197 26.620073720741402 0 0 0 0 84.206299808007316 21.906197225512187 0 21.906197225512187 -71.900169154101604 0 0 0 0 141.15431407702999 9.5025207323924406 0 9.5025207323924406 -80.793622553463138 0 0 0 0 133.39753448018746 66.913858278943735 0 66.913858278943735 -78.542259722715244 0 0 0 0 117.99192180691171 51.803605576122209 0 51.803605576122209 -53.638770047166872 0 0 0 0 114.20571449081763 20.596873335077362 0 20.596873335077362 -89.910945199850175 0 0 0 0 100.10799755278276 7.9960100214084378 0 7.9960100214084378 -75.685909191276551 0 0 0 0 98.942180857819039 -15.40997404407608 0 -15.40997404407608 -109.63263832597477 0 0 0 0 95.104256747174077 -14.460564678474839 0 -14.460564678474839 -109.30123097334217 0 0 0 0 88.212227618583711 -1.8907914131978032 0 -1.8907914131978032 -51.461950472721583 0 0 0 0 93.297382154327352 -9.2574603573730201 0 -9.2574603573730201 -110.69713868957297 0 0 0 0 113.33702467814874 -9.3943468375819066 0 -9.3943468375819066 -116.68535524906838 0 0 0 0 70.319078535030712 7.7890193367675238 0 7.7890193367675238 -78.391316849782925 0 0 0 0 110.32628753426252 11.546623476764125 0 11.546623476764125 -119.85816035517564 0 0 0 0 56.487041534739546 -47.578899027428633 0 -47.578899027428633 -118.97708808915331 0 0 0 0 73.764537851428031 -46.778925591042025 0 -46.778925591042025 -134.29491446219663 0 0 0 0 57.14843494381455 -12.241240772686481 0 -12.241240772686481 2.1417522272620353 0 0 0 0 72.680605985922739 -102.2229801068388 0 -102.2229801068388 -225.41143539729819 0 0 0 0 14.231031384338706 2.2401111549900037 0 2.2401111549900037 -10.537975613617537 0 0 0 0 27.008889936405467 -52.108685914052785 0 -52.108685914052785 -130.07780968294901 0 0 0 0 74.294395380959031 -31.647400336996725 0 -31.647400336996725 -113.25612464493861 0 0 0 0 90.153924192920385 -52.257832509922082 0 -52.257832509922082 -161.77887375838509 0 0 0 0 108.18129647721798 -6.1544300414041118 0 -6.1544300414041118 -129.40438420290229 0 0 0 0 94.188972386982641 1.2649866114215911 0 1.2649866114215911 -102.5875784734144 0 0 0 0 123.5501738523526 24.892538724865972 0 24.892538724865972 -126.68009912819434 0 0 0 0 144.71639222497288 17.605534669668828 0 17.605534669668828 -184.2165305816161 0 0 0 0 59.98417148583394 -36.733432612516026 0 -36.733432612516026 -139.64739434051262 0 0 0 0 104.89728321854636 -5.702814856671921 0 -5.702814856671921 -154.84863350263004 0 0 0 0 -74.970026169481571 -64.201683728586886 0 -64.201683728586886 -164.38233366652548 0 0 0 0 94.735327645998041 -52.599877667223154 0 -52.599877667223154 -243.32466949993977 0 0 0 0 3.4803005839621619 -146.03002791109867 0 -146.03002791109867 -208.15013758676469 0 0 0 0 36.204402585547058 -21.052530988595677 0 -21.052530988595677 7.7489111685980951 0 0 0 0 496.28797703914461 262.98799811607205 0 262.98799811607205 170.134402724616 0 0 0 0 256.64614607259864 156.0098300272366 0 156.0098300272366 171.78888311620904 0 0 0 0 121.23979930666974 -8.8910681580382516 0 -8.8910681580382516 34.741512877153582 0 0 0 0 202.26050317590125 150.86334586219891 0 150.86334586219891 77.458156481348851 0 0 0 0 167.05753150035162 62.445123053075804 0 62.445123053075804 -125.55279948724274 0 0 0 0 56.750778198998887 -89.50406505875435 0 -89.50406505875435 -65.951433338530478 0 0 0 0 392.93474579456961 253.3328231857522 0 253.3328231857522 92.185327295832394 0 0 0 0 621.92766602909978 279.51489953317287 0 279.51489953317287 78.584161169008439 0 0 0 0 505.76534370280569 234.88932638213373 0 234.88932638213373 24.646282636766045 0 0 0 0 534.20884819565981 232.37161830683499 0 232.37161830683499 -4.6780774695143919 0 0 0 0 549.12390525607771 187.28157235493836 0 187.28157235493836 -0.78739557776862057 0 0 0 0 346.70023091117037 164.95492534976074 0 164.95492534976074 -37.428898434096482 0 0 0 0 83.17922399067902 105.36279013341482 0 105.36279013341482 -8.8026582410893752 0 0 0 0 110.38957876697532 115.30324430080873 0 115.30324430080873 -32.527172425441677 0 0 0 0 257.52131504047429 196.62821269373308 0 196.62821269373308 18.8488978468813 0 0 0 0 258.15342969255289 174.48840898624621 0 174.48840898624621 -98.682457546314254 0 0 0 0 275.55319314567168 156.26781608243073 0 156.26781608243073 -5.5316566665787832 0 0 0 0 259.25253838737262 203.92072319097861 0 203.92072319097861 23.055581231950782 0 0 0 0 392.0099691702053 224.20484983507049 0 224.20484983507049 9.4945628216373734 0 0 0 0 509.64553510717815 235.30966562715184 0 235.30966562715184 -33.362467461498454 0 0 0 0 389.34723323897924 189.53439022855673 0 189.53439022855673 -26.330284006267902 0 0 0 0 421.55967433062324 212.0065070231376 0 212.0065070231376 18.366046708360955 0 0 0 0 389.13183383998694 167.83178445926387 0 167.83178445926387 9.2733204685609962 0 0 0 0 292.88669770861452 99.586583236032311 0 99.586583236032311 60.547315092520876 0 0 0 0 473.82039809250273 175.62461485213134 0 175.62461485213134 27.154524680639497 0 0 0 0 624.56407312484225 225.21765311176387 0 225.21765311176387 10.239061942331318 0 0 0 0 620.88329343058285 236.74585919414767 0 236.74585919414767 -25.785467022702505 0 0 0 0 748.52172520579188 249.00165931067386 0 249.00165931067386 -21.144856658647768 0 0 0 0 598.66692790188245 183.54424953859143 0 183.54424953859143 29.512045829724229 0 0 0 0 721.68734970470541 200.98328520506766 0 200.98328520506766 25.328540951926698 0 0 0 0 566.12765514681814 213.17455689060807 0 213.17455689060807 23.663792572059947 0 0 0 0 748.35365430866659 67.379682495953602 0 67.379682495953602 113.33557843172457 0 0 0 0 547.31652335198305 122.48575483011336 0 122.48575483011336 104.50315774375849 0 0 0 0 535.17983459056995 145.00102292989141 0 145.00102292989141 75.183946245975676 0 0 0 0 419.20798933724291 111.65877893206471 0 111.65877893206471 83.553842109915422 0 0 0 0 376.37172230443684 151.08644473809363 0 151.08644473809363 57.404811267326295 0 0 0 0 279.92891096477979 15.195967619438306 0 15.195967619438306 98.26580337993073 0 0 0 0 291.15566448892059 92.999454450193298 0 92.999454450193298 118.07847692304858 0 0 0 0 382.14175761646038 17.111759484463619 0 17.111759484463619 177.29532408156592 0 0 0 0 220.91747956105246 -34.459034164834065 0 -34.459034164834065 129.06552075304717 0 0 0 0 193.84043883853883 74.7949188144039 0 74.7949188144039 57.957765610855859 0 0 0 0 149.17490681739582 -51.56764616878354 0 -51.56764616878354 -166.364100689103 0 0 0 0 193.50133313116385 -16.02637566508929 0 -16.02637566508929 -5.6595000508077646 0 0 0 0 277.57140488683945 119.06909722623641 0 119.06909722623641 35.78061535947927 0 0 0 0 -101.09787594113732 22.189027475251351 0 22.189027475251351 -163.21764887640893 0 0 0 0 197.42507238610415 1.3673712124546 0 1.3673712124546 -54.636862686966197 0 0 0 0 79.853698426217306 41.809089438218507 0 41.809089438218507 16.679971407595076 0 0 0 0 -27.31558669919113 -85.624476683095551 0 -85.624476683095551 -78.055422745441319 0 0 0 0 -27.616539669397753 188.82961930543752 0 188.82961930543752 -52.59432119547273 0 0 0 0 109.46234641998308 98.879962459148373 0 98.879962459148373 -323.3813343670372 0 0 0 0 141.28832482508733 -11.349165375548182 0 -11.349165375548182 -2.9047287161592976 0 0 0 0 191.53262698223989 -7.4943588751275456 0 -7.4943588751275456 -157.5609121024645 0 0 0 0 147.60190391057768 -59.843521688991814 0 -59.843521688991814 47.010246001720589 0 0 0 0 18.306508686990128 19.021828216458744 0 19.021828216458744 2.0987686905664305 0 0 0 0 169.55369619884004 21.713904137473037 0 21.713904137473037 71.047941670032742 0 0 0 0 43.045380156901956 -58.493087473589185 0 -58.493087473589185 115.89390512656064 0 0 0 0 46.662113194543053 -28.299219024685044 0 -28.299219024685044 21.712696366341333 0 0 0 0 0.40543672401884123 -1.6136909974731992 0 -1.6136909974731992 0.26746995099794546 0 0 0 0 27.851895074010827 -38.807784448898019 0 -38.807784448898019 23.218184272893268 0 0 0 0 62.503828508880133 -13.680345465280606 0 -13.680345465280606 2.2961653334131773 0 0 0 0 64.952420379864634 -89.242852734695589 0 -89.242852734695589 -51.51922649406788 0 0 0 0 25.839212822102127 -30.628238757979489 0 -30.628238757979489 22.443618550136307 0 0 0 0 95.729664027690887 27.623580010654223 0 27.623580010654223 -65.010749149029834 0 0 0 0 906.97801868633542 363.90380383731645 0 363.90380383731645 87.349887001329307 0 0 0 0 1020.2160667677817 247.7014041859411 0 247.7014041859411 -34.832099036674663 0 0 0 0 681.64551749303064 213.71937909301323 0 213.71937909301323 149.07205827652979 0 0 0 0 1139.9792037244551 52.740768582472583 0 52.740768582472583 196.04873676156967 0 0 0 0 864.89422700114665 127.55015469127102 0 127.55015469127102 399.29035793499634 0 0 0 0 1352.4808964766053 465.69324956161449 0 465.69324956161449 105.48886975536334 0 0 0 0 910.71328856240871 538.50207495389441 0 538.50207495389441 449.1078126389782 0 0 0 0 25.692820946987638 -14.814570433512742 0 -14.814570433512742 5.3705208418772159 0 0 0 0 921.46481154218054 557.80539000438114 0 557.80539000438114 338.66777285671287 0 0 0 0 727.54442305779958 464.90395910884126 0 464.90395910884126 314.32520498710392 0 0 0 0 538.07710732439591 223.02085478699701 0 223.02085478699701 140.10980479955106 0 0 0 0 552.40776668777107 297.46878403772735 0 297.46878403772735 156.05916118217465 0 0 0 0 769.06318474782165 413.08395600276162 0 413.08395600276162 150.09278074826852 0 0 0 0 971.77239240270865 448.56439571973988 0 448.56439571973988 38.720228651767684 0 0 0 0 984.96528355029568 360.96743932818976 0 360.96743932818976 -34.939992603605788 0 0 0 0 930.50404592913401 376.56770418010547 0 376.56770418010547 -38.912874399484281 0 0 0 0 936.91291493108292 359.87380356213816 0 359.87380356213816 -45.310231248569835 0 0 0 0 946.85241200689779 360.89654813258312 0 360.89654813258312 -82.922939386164217 0 0 0 0 734.59405749576399 308.16111988718694 0 308.16111988718694 12.978483674462694 0 0 0 0 656.16198035940761 256.36830049786204 0 256.36830049786204 13.696052340637834 0 0 0 0 884.27931456980878 354.28746612281338 0 354.28746612281338 -44.717846715157066 0 0 0 0 852.66922326394706 313.54289997541309 0 313.54289997541309 -55.433349940652988 0 0 0 0 748.96322439837968 248.25178050802424 0 248.25178050802424 -21.592504120493686 0 0 0 0 855.86499415633443 281.53503586812076 0 281.53503586812076 -45.424985838693829 0 0 0 0 889.10769279921078 236.45480327030782 0 236.45480327030782 -29.732239111711351 0 0 0 0 986.74298065379844 307.11118407644608 0 307.11118407644608 -63.532219735539911 0 0 0 0 878.78762169016409 265.99153036979442 0 265.99153036979442 -38.577387358116539 0 0 0 0 1014.4595825065771 220.44761197018124 0 220.44761197018124 -30.851565752078386 0 0 0 0 791.20897877259995 192.256141440188 0 192.256141440188 48.334489416733049 0 0 0 0 744.8915564298004 169.9153731341321 0 169.9153731341321 45.172530593092233 0 0 0 0 949.32263703792705 400.8320494569316 0 400.8320494569316 -84.115073856231902 0 0 0 0 993.10463625907141 364.04852900884907 0 364.04852900884907 -83.540929354337777 0 0 0 0 964.40493742976832 343.50755463584755 0 343.50755463584755 -88.847595091756375 0 0 0 0 1094.0558429940138 339.6860751740096 0 339.6860751740096 -89.792039837578386 0 0 0 0 999.93363400406088 375.32921350236484 0 375.32921350236484 -45.730196946879005 0 0 0 0 997.33517854547244 362.0252779736511 0 362.0252779736511 -87.33575498931873 0 0 0 0 643.82649638148723 375.50107439005842 0 375.50107439005842 -1.9377093606744893 0 0 0 0 896.15834551270382 348.3693792403983 0 348.3693792403983 -89.917729987992061 0 0 0 0 883.80637455679243 458.69855522624493 0 458.69855522624493 1.4734140088094136 0 0 0 0 937.27671387612645 385.62829874117278 0 385.62829874117278 -79.041417669972361 0 0 0 0 595.87337417907111 292.01303325627578 0 292.01303325627578 -23.155393090195503 0 0 0 0 706.43613348789222 227.27230157496524 0 227.27230157496524 -28.936697894906274 0 0 0 0 332.87825368654376 239.23630389098378 0 239.23630389098378 50.673133661475731 0 0 0 0 476.23630474686797 292.85517656298452 0 292.85517656298452 25.290468047725881 0 0 0 0 497.41347103627049 192.27553531805643 0 192.27553531805643 -27.93647324623862 0 0 0 0 640.90370813118352 251.97222756025258 0 251.97222756025258 -51.994079302892715 0 0 0 0 239.95034237473737 129.120840214282 0 129.120840214282 28.477458379445693 0 0 0 0 508.47406023500662 384.67288255783387 0 384.67288255783387 185.19055100281184 0 0 0 0 93.980400858825305 66.091053042169733 0 66.091053042169733 -176.52501587757433 0 0 0 0 38.739106317714061 -4.2824579745191489 0 -4.2824579745191489 -3.8777356719840022 0 0 0 0 193.93394217571768 -5.1973202998351553 0 -5.1973202998351553 -114.57864777068789 0 0 0 0 15.249799224708113 5.8447717425369774 0 5.8447717425369774 147.03776898042997 0 0 0 0 1046.4829084168668 882.20770805662596 0 882.20770805662596 746.59835641388509 0 0 0 0 15.186243000248737 -1.5397273409069649 0 -1.5397273409069649 1.0901432232300774 0 0 0 0 254.45488332836248 471.60832306924931 0 471.60832306924931 534.3175757453937 0 0 0 0 547.75173501817335 367.85968273912977 0 367.85968273912977 57.503521785180055 0 0 0 0 1115.0639979269909 640.64235036772334 0 640.64235036772334 137.60598320916324 0 0 0 0 1278.1265415500529 394.64030675950562 0 394.64030675950562 -52.67741142313298 0 0 0 0 1100.7975629926086 370.06491621101122 0 370.06491621101122 97.288614192286332 0 0 0 0 917.30272946758487 91.123754115588781 0 91.123754115588781 106.08041233619952 0 0 0 0 1205.281849971725 103.844482894066 0 103.844482894066 58.951363841468265 0 0 0 0 992.82057189983607 232.46435960256531 0 232.46435960256531 -16.233061393233584 0 0 0 0 1007.9391399201122 112.87765477226822 0 112.87765477226822 170.24667027522992 0 0 0 0 1010.9464350719645 121.77987041325832 0 121.77987041325832 112.92886460752561 0 0 0 0 974.89779141464533 -198.91622915930566 0 -198.91622915930566 791.29556367024452 0 0 0 0 1705.0795794563746 -105.50365704730757 0 -105.50365704730757 232.04068148269289 0 0 0 0 1846.2703858707027 552.47308051913842 0 552.47308051913842 122.71354759537826 0 0 0 0 2147.5076126955682 297.88095075662795 0 297.88095075662795 207.87943043621271 0 0 0 0 1633.0025584106843 -461.11921239896947 0 -461.11921239896947 -202.86548781268357 0 0 0 0 950.22369178460212 317.951165095953 0 317.951165095953 911.78784838309548 0 0 0 0 716.80802227069216 45.60578249831633 0 45.60578249831633 594.676955488565 0 0 0 0 841.53675453803589 289.58237628715506 0 289.58237628715506 599.49081589429989 0 0 0 0 869.407648126813 21.611266233936476 0 21.611266233936476 319.65462039070007 0 0 0 0 1287.5449420701116 38.551953865488031 0 38.551953865488031 294.06005375233508 0 0 0 0 898.43869223937509 24.225497637931767 0 24.225497637931767 294.14992108184924 0 0 0 0 1210.1713296885573 -91.585752957122168 0 -91.585752957122168 84.517114042037065 0 0 0 0 1531.0415898573629 -332.52710270276202 0 -332.52710270276202 8.2802862098651531 0 0 0 0 1479.9680532163766 -281.00482536087111 0 -281.00482536087111 210.87985000648769 0 0 0 0 1021.5911743636607 -188.09047053438553 0 -188.09047053438553 314.74000255552164 0 0 0 0 1200.4683565641608 -261.41664150850738 0 -261.41664150850738 344.48739235369794 0 0 0 0 1173.1181094231433 -358.3070267489602 0 -358.3070267489602 462.49335920347949 0 0 0 0 1498.6993991804484 -755.68326801745025 0 -755.68326801745025 943.33674771106234 0 0 0 0 1694.355628449237 -605.75014519870092 0 -605.75014519870092 168.59010716199009 0 0 0 0 1999.0241738916084 -652.00962833194353 0 -652.00962833194353 243.75252373913463 0 0 0 0 946.95776442662464 -680.3000672811213 0 -680.3000672811213 461.61973892032256 0 0 0 0 1839.0705933880818 -222.15406920659734 0 -222.15406920659734 116.83401954877263 0 0 0 0 1497.7134646655502 -63.194700839786606 0 -63.194700839786606 44.821481685372419 0 0 0 0 1498.5088331984007 -476.18287599166797 0 -476.18287599166797 184.22725569607428 0 0 0 0 1378.0459124782792 -454.91563472917551 0 -454.91563472917551 -88.908864385772176 0 0 0 0 965.57629691896727 -151.70457621322566 0 -151.70457621322566 78.602119733419386 0 0 0 0 748.08648186703795 18.995104139485193 0 18.995104139485193 -9.6262054628459737 0 0 0 0 277.81959394924343 430.12966138928823 0 430.12966138928823 161.92410952501814 0 0 0 0 -616.35976998039405 605.6895644530523 0 605.6895644530523 315.19223390055049 0 0 0 0 2.5207957112730099 -0.75822749289915237 0 -0.75822749289915237 -1.2473085022858612 0 0 0 0 786.33216853946215 73.684320902098989 0 73.684320902098989 -101.84015597574398 0 0 0 0 -208.67399581239442 -195.7846834785887 0 -195.7846834785887 -38.487604754023778 0 0 0 0 354.13436020593508 36.224151459755376 0 36.224151459755376 -51.269416017079493 0 0 0 0 979.32947530027013 148.39341051550582 0 148.39341051550582 -77.455419786332641 0 0 0 0 -284.82885729771806 533.19943125257487 0 533.19943125257487 148.49486993930623 0 0 0 0 3.1568542993185815 -1.2387566762625113 0 -1.2387566762625113 0.23851249169618427 0 0 0 0 4.7448056414838504 -3.6930493404062688 0 -3.6930493404062688 1.376469186497971 0 0 0 0 -179.22986153376405 -124.08141979622087 0 -124.08141979622087 411.91356251237448 0 0 0 0 1069.1784665959422 195.31627506312361 0 195.31627506312361 215.13673647350151 0 0 0 0 -19.890675299699069 -324.08646632219097 0 -324.08646632219097 431.00175518012838 0 0 0 0 -101.20247223540355 -76.038887853918823 0 -76.038887853918823 409.17234000001918 0 0 0 0 35.083643692778423 -169.61713140099891 0 -169.61713140099891 406.49349525209436 0 0 0 0 -112.28354535670951 -153.70202587930544 0 -153.70202587930544 411.21359756680613 0 0 0 0 -179.63289577824253 -31.801213204332726 0 -31.801213204332726 419.41935791337164 0 0 0 0 -188.15998420599499 -96.862352720647323 0 -96.862352720647323 409.09202578738768 0 0 0 0 26.370325092007988 15.491180845462623 0 15.491180845462623 -14.916683503162858 0 0 0 0 -121.32814077005605 -70.706476191782713 0 -70.706476191782713 427.64659196246066 0 0 0 0 6.416329276675242 10.688311391132629 0 10.688311391132629 -2.3370666557748336 0 0 0 0 11.152658615224937 6.9567206780920969 0 6.9567206780920969 -19.475859041118383 0 0 0 0 4.2758427989690517 7.2859805780254092 0 7.2859805780254092 -12.500739986670052 0 0 0 0 4.1960203780909069 -2.5023650509938307 0 -2.5023650509938307 -14.606911243114155 0 0 0 0 -21.777998084674891 64.136772983515812 0 64.136772983515812 98.869393110937381 0 0 0 0 9.8484888463426614 28.888288402611579 0 28.888288402611579 22.020606762798707 0 0 0 0 -0.80883383332394487 2.9403078684986497 0 2.9403078684986497 -1.5104015651868394 0 0 0 0 -171.90317964114001 134.68733718039107 0 134.68733718039107 69.873882084382785 0 0 0 0 684.06440719158854 -429.9310766888957 0 -429.9310766888957 89.009525621800094 0 0 0 0 -189.53791594725408 53.895486821149916 0 53.895486821149916 203.07814367769606 0 0 0 0 -49.121551032192656 -120.19700690442369 0 -120.19700690442369 136.90815078287778 0 0 0 0 995.77203584973176 -152.02787672318664 0 -152.02787672318664 -89.862224320899259 0 0 0 0 659.84568086458603 -343.36936846494064 0 -343.36936846494064 121.46157671412266 0 0 0 0 139.76565022808791 210.31736777486003 0 210.31736777486003 -112.45492566555913 0 0 0 0 -8.0851604669896915 -99.093713906155244 0 -99.093713906155244 13.062362707452849 0 0 0 0 -121.4717139750137 -41.652158829627297 0 -41.652158829627297 182.73322246737553 0 0 0 0 63.564881411526585 125.4833431808338 0 125.4833431808338 274.53250805468087 0 0 0 0 22.585795689472434 111.98203442301087 0 111.98203442301087 293.87854810989666 0 0 0 0 6.9347284667601343 64.003291826606073 0 64.003291826606073 197.61116198491436 0 0 0 0 9.7768379977424047 -5.5682864093887474 0 -5.5682864093887474 208.02533124171714 0 0 0 0 57.109790954709752 5.0682593323144829 0 5.0682593323144829 66.673910846723629 0 0 0 0 68.10462869956973 94.980450339996423 0 94.980450339996423 232.60566838313298 0 0 0 0 172.10571857253672 -15.228490826915731 0 -15.228490826915731 93.401505761101362 0 0 0 0 192.50514980708249 73.374968017151332 0 73.374968017151332 175.62357921770399 0 0 0 0 154.04403806538903 7.171484955505548 0 7.171484955505548 321.60904999928243 0 0 0 0 188.43171327722666 129.60182510597042 0 129.60182510597042 308.48500251629889 0 0 0 0 74.088862202916062 90.142732676503329 0 90.142732676503329 393.12430668355228 0 0 0 0 192.78151097078808 104.19620920247507 0 104.19620920247507 456.83473183116348 0 0 0 0 399.42945581436288 118.5433108040063 0 118.5433108040063 356.92515490182268 0 0 0 0 369.50386930174136 18.903777357971194 0 18.903777357971194 324.58098874109601 0 0 0 0 224.90479588838934 101.65027619919147 0 101.65027619919147 296.19984870069675 0 0 0 0 303.90633588262426 -14.849274266754037 0 -14.849274266754037 243.9808728426633 0 0 0 0 366.92509699652146 113.3791137150165 0 113.3791137150165 191.14674892271591 0 0 0 0 539.48566468736681 -20.459632349045933 0 -20.459632349045933 276.47667788771105 0 0 0 0 590.49280191773505 115.33283627744004 0 115.33283627744004 221.26864474916874 0 0 0 0 794.73830761425779 -41.602945491864375 0 -41.602945491864375 321.30677755556735 0 0 0 0 748.57954841437459 122.76654698013408 0 122.76654698013408 397.16111138061478 0 0 0 0 394.6157207373908 138.84696741636435 0 138.84696741636435 568.8177955695437 0 0 0 0 625.12337317547644 -31.887051785326548 0 -31.887051785326548 425.62115913424532 0 0 0 0 683.40688320044865 138.52643985269469 0 138.52643985269469 468.51882432378989 0 0 0 0 437.99136106417427 211.86584153728745 0 211.86584153728745 552.72409174421409 0 0 0 0 681.42405890065129 110.45470192925677 0 110.45470192925677 420.34181808135691 0 0 0 0 527.18070616470504 228.91566724912536 0 228.91566724912536 448.70216391435679 0 0 0 0 509.42972938772436 172.52940409432995 0 172.52940409432995 310.87845221847601 0 0 0 0 309.23785063090327 260.00010539381947 0 260.00010539381947 422.35369443239324 0 0 0 0 287.03066816492355 194.33121761484563 0 194.33121761484563 260.79102818184765 0 0 0 0 374.86019853367361 71.235676140547639 0 71.235676140547639 406.76014009128994 0 0 0 0 230.72593978101213 205.58987969742066 0 205.58987969742066 476.67749138302497 0 0 0 0 406.14619552293152 139.92243620290719 0 139.92243620290719 393.67394805084541 0 0 0 0 93.657533374054765 197.86470223974538 0 197.86470223974538 373.02168598367098 0 0 0 0 178.19491025148454 123.69459546270764 0 123.69459546270764 362.83453847265991 0 0 0 0 139.31707280685077 171.37706833426182 0 171.37706833426182 269.39702641870463 0 0 0 0 137.93264312058454 145.61467165545582 0 145.61467165545582 221.34492044679791 0 0 0 0 212.90799536649138 243.91715834324896 0 243.91715834324896 339.63576236447034 0 0 0 0 -55.380970210120722 153.02418404441505 0 153.02418404441505 351.58599914503247 0 0 0 0 -36.779898278444307 170.40222641228866 0 170.40222641228866 337.37516635723819 0 0 0 0 -16.027232379288762 177.94895990884288 0 177.94895990884288 350.01661432903347 0 0 0 0 48.023962666004081 147.65525730750778 0 147.65525730750778 346.8282415167273 0 0 0 0 17.63280431451858 122.68463663388047 0 122.68463663388047 342.03642413041234 0 0 0 0 -435.35049541083936 -417.5380044754811 0 -417.5380044754811 -439.84345081043284 0 0 0 0 106.57336358685961 -0.79932980289919442 0 -0.79932980289919442 -60.680811264188378 0 0 0 0 100.63543594203657 70.176442220948957 0 70.176442220948957 -8.6721901440087095 0 0 0 0 -23.890590042101394 -42.668290234278174 0 -42.668290234278174 12.88858608155715 0 0 0 0 50.638567659600085 107.25843847554597 0 107.25843847554597 205.29900498056304 0 0 0 0 362.24172459000511 242.27602939599046 0 242.27602939599046 83.923807492366905 0 0 0 0 310.77184710452275 77.925196196390061 0 77.925196196390061 -36.352923451398965 0 0 0 0 274.81754975699005 251.95041854739247 0 251.95041854739247 106.0337447351958 0 0 0 0 799.45428454918147 388.79084654879262 0 388.79084654879262 -200.80230902106268 0 0 0 0 640.03274981494178 -76.11166759099342 0 -76.11166759099342 -249.87239322941787 0 0 0 0 371.08569583164353 366.3184170642453 0 366.3184170642453 -185.56450664234308 0 0 0 0 277.24630016431911 277.58935121377908 0 277.58935121377908 275.39393462525095 0 0 0 0 372.24970191421016 286.93775446596737 0 286.93775446596737 125.5816305705448 0 0 0 0 323.98285395905987 359.65674402321383 0 359.65674402321383 136.70528326945168 0 0 0 0 307.95991837893962 274.48748685810824 0 274.48748685810824 329.46645082224723 0 0 0 0 593.75091566835908 130.98569539315667 0 130.98569539315667 230.36111276455449 0 0 0 0 168.99211424740497 202.28151654001067 0 202.28151654001067 228.71460033653966 0 0 0 0 -153.27609553296497 489.0589186086072 0 489.0589186086072 -1.0817496556918513 0 0 0 0 335.50293658034934 397.7670744366078 0 397.7670744366078 12.260414766147733 0 0 0 0 -167.17199882000114 -60.290989426439864 0 -60.290989426439864 -75.02595137568278 0 0 0 0 87.43810029746237 -89.172064396364931 0 -89.172064396364931 -370.19395405839714 0 0 0 0 24.33707407550537 -166.62026886317108 0 -166.62026886317108 13.401410006452807 0 0 0 0 502.77194721782871 -223.89761389850355 0 -223.89761389850355 5.2899645284887811 0 0 0 0 9.9573969610439406 1.4700053766228791 0 1.4700053766228791 -0.95529713773948188 0 0 0 0 273.72255106461671 685.53071240100553 0 685.53071240100553 -338.99295463183626 0 0 0 0 220.92397756600985 645.16226582569743 0 645.16226582569743 314.73197977810014 0 0 0 0 817.48515997482173 403.8248547036485 0 403.8248547036485 40.38872893784901 0 0 0 0 195.37142133149609 117.84557205711553 0 117.84557205711553 -56.25840946631206 0 0 0 0 415.14267316993937 102.77223757723868 0 102.77223757723868 -308.59304121059358 0 0 0 0 1.8882866833288858 0.83769153310851152 0 0.83769153310851152 0.59539785662012257 0 0 0 0 315.13252043934335 129.01932803027739 0 129.01932803027739 -132.2073324506855 0 0 0 0 456.0516337378067 598.98711008357532 0 598.98711008357532 402.47905450357302 0 0 0 0 -150.2532531011675 191.49549848150491 0 191.49549848150491 1313.2773249058914 0 0 0 0 -268.76044567477675 582.07964674485993 0 582.07964674485993 -430.57471552662537 0 0 0 0 175.25606676649477 428.47074278515265 0 428.47074278515265 -548.21833327677086 0 0 0 0 986.93250127483043 -492.00078102143016 0 -492.00078102143016 -136.76067633779166 0 0 0 0 994.78830515531081 -459.59290140322855 0 -459.59290140322855 -140.3820322030806 0 0 0 0 730.14039987014257 -339.86532637464916 0 -339.86532637464916 -133.5485745992687 0 0 0 0 1095.8689872693794 -496.66677791965049 0 -496.66677791965049 -155.95600666121027 0 0 0 0 1288.3525697311925 -358.13483272541362 0 -358.13483272541362 -116.01401894169248 0 0 0 0 1085.3472851815604 -485.67986624849982 0 -485.67986624849982 -174.8448460027812 0 0 0 0 1044.3336865223828 -404.85794705390254 0 -404.85794705390254 -204.55262213760125 0 0 0 0 451.28337637314689 -140.53173153829539 0 -140.53173153829539 50.842480504879859 0 0 0 0 743.29329249630973 -284.36487205294725 0 -284.36487205294725 -155.99369017532081 0 0 0 0 7.0412667850521773 7.2999331844293067 0 7.2999331844293067 -1.7198798699378557 0 0 0 0 24.96478579162067 5.7602991034545994 0 5.7602991034545994 -1.6556097513530403 0 0 0 0 1277.4438421295927 -267.79219712060512 0 -267.79219712060512 -158.26208460699422 0 0 0 0 6.4560954205157657 1.9080316828238324 0 1.9080316828238324 -0.4289803553233611 0 0 0 0 -54.316494102822617 -274.52571946553871 0 -274.52571946553871 -124.02937193218531 0 0 0 0 16.00483637987054 4.1429112673358759 0 4.1429112673358759 -2.2856953154550865 0 0 0 0 8.9139569003629653 9.4585661590945449 0 9.4585661590945449 0.099345757184430283 0 0 0 0 25.905254848780828 6.2020663169768113 0 6.2020663169768113 -1.6429634642389956 0 0 0 0 864.18448287494539 -99.709435825210676 0 -99.709435825210676 -84.692372925368545 0 0 0 0 195.80965852097142 -97.211574323555396 0 -97.211574323555396 -62.114632537435682 0 0 0 0 4.848129920273343 -0.90573601531164627 0 -0.90573601531164627 -0.022920985071763766 0 0 0 0 7.9965224233323369 8.6126730981882957 0 8.6126730981882957 -7.4158710612309875 0 0 0 0 606.97715407636133 -378.98267264187962 0 -378.98267264187962 -4.6753435099526541 0 0 0 0 -90.001914421154652 125.92895191762 0 125.92895191762 249.69888195094245 0 0 0 0 539.03793159939232 -143.596118396159 0 -143.596118396159 -259.0856215359745 0 0 0 0 291.68777506554898 -182.25813995183614 0 -182.25813995183614 -54.900725579733262 0 0 0 0 244.10358483510208 87.289262616650376 0 87.289262616650376 -245.22560436737695 0 0 0 0 221.35519163068966 83.484229844474612 0 83.484229844474612 -114.56302902972857 0 0 0 0 403.62395448649477 -118.48409492335668 0 -118.48409492335668 -123.19847405111796 0 0 0 0 256.74767608204274 -99.661775790267711 0 -99.661775790267711 227.50762000013492 0 0 0 0 -0.42404470809196937 11.125374556077091 0 11.125374556077091 3.2945542882681664 0 0 0 0 291.14497674597624 -141.0858577424481 0 -141.0858577424481 -381.79380201922322 0 0 0 0 -99.650485503603704 50.336707352886151 0 50.336707352886151 373.48923964708229 0 0 0 0 187.4493769191904 -24.451877154395333 0 -24.451877154395333 157.69015404728998 0 0 0 0 12.745918400294613 68.130773211618362 0 68.130773211618362 259.95865868578403 0 0 0 0 58.782303447645972 -84.349198229432659 0 -84.349198229432659 375.90166795690311 0 0 0 0 -68.413177250011358 -49.522970491183514 0 -49.522970491183514 393.64426942561113 0 0 0 0 311.26843682938488 -499.0000951081347 0 -499.0000951081347 511.73223644433165 0 0 0 0 36.501311168278335 -177.18904899691188 0 -177.18904899691188 388.28921040360001 0 0 0 0 222.67491453612456 -306.95998422249977 0 -306.95998422249977 466.66885075309256 0 0 0 0 88.219004086218774 -93.108814872855874 0 -93.108814872855874 316.10853462749219 0 0 0 0 760.38784009739175 -574.97179431849145 0 -574.97179431849145 203.61629575710685 0 0 0 0 636.47720968887734 -722.57126122857517 0 -722.57126122857517 613.7554777505502 0 0 0 0 309.73468415698153 -329.58549732146275 0 -329.58549732146275 372.53778434827109 0 0 0 0 579.54301820643013 -551.60204512747441 0 -551.60204512747441 471.77826404829102 0 0 0 0 353.54737275050138 -253.63260459484809 0 -253.63260459484809 202.97766532514652 0 0 0 0 191.10006197771554 -200.60713662153046 0 -200.60713662153046 366.83928391274821 0 0 0 0 594.90513141275733 -418.09030926440028 0 -418.09030926440028 251.24644912246731 0 0 0 0 744.30459534868714 -409.40924487420671 0 -409.40924487420671 -13.363932781750918 0 0 0 0 987.94075936396257 -693.77261100099895 0 -693.77261100099895 213.39095088266913 0 0 0 0 912.38475861694315 -563.00266727918461 0 -563.00266727918461 23.988453067868249 0 0 0 0 1133.6987700782192 -561.86909631101025 0 -561.86909631101025 -66.00809899441083 0 0 0 0 1339.7542850734608 -443.08737732054215 0 -443.08737732054215 -23.741256038221763 0 0 0 0 1364.2921178764664 -513.69673294219683 0 -513.69673294219683 91.819644299917854 0 0 0 0 1878.3068225888419 -310.75432612477016 0 -310.75432612477016 170.32278966802551 0 0 0 0 1696.7366210944601 -310.20004093448733 0 -310.20004093448733 201.39983026051414 0 0 0 0 1416.7443362082413 -969.67353614274543 0 -969.67353614274543 398.14665543086448 0 0 0 0 1516.9129907855531 64.277735710826619 0 64.277735710826619 720.63692507429005 0 0 0 0 1155.2902554380707 -281.27990662022421 0 -281.27990662022421 441.4773374194956 0 0 0 0 1246.8507086518803 -159.87501800456994 0 -159.87501800456994 239.7876102853661 0 0 0 0 797.88013793522259 -77.654340856131967 0 -77.654340856131967 440.15771217049769 0 0 0 0 838.15481349297625 -259.68375690991797 0 -259.68375690991797 61.320087097468786 0 0 0 0 954.86231808265438 -109.30166961344003 0 -109.30166961344003 247.80253428916558 0 0 0 0 1165.9031417894585 -371.84005554937903 0 -371.84005554937903 38.785010804984267 0 0 0 0 1248.4085985683632 -237.65105896068417 0 -237.65105896068417 -4.8469708305492532 0 0 0 0 1586.6607471457028 -147.23739858556928 0 -147.23739858556928 154.7726673699508 0 0 0 0 538.9180938808131 116.76108222608855 0 116.76108222608855 315.48069461848797 0 0 0 0 882.60067310414888 -70.723875568476615 0 -70.723875568476615 249.61475106691614 0 0 0 0 541.12155071845336 93.819807041403692 0 93.819807041403692 215.48092404352155 0 0 0 0 87.507112526749552 133.67153744707866 0 133.67153744707866 72.694847436101554 0 0 0 0 534.12624053235049 60.513792659670798 0 60.513792659670798 -292.92339824389455 0 0 0 0 570.05475519289757 39.943398050984797 0 39.943398050984797 88.891140415567861 0 0 0 0 421.96758630896511 -250.94490341114033 0 -250.94490341114033 -10.093266197703088 0 0 0 0 1123.2459286635421 -459.18965370325895 0 -459.18965370325895 -176.52988187382834 0 0 0 0 887.70001231197966 -283.22059673325748 0 -283.22059673325748 -10.510910761558989 0 0 0 0 954.16720350258402 -161.32919707960718 0 -161.32919707960718 -42.487392060213097 0 0 0 0 1002.7781569032668 -433.5311199317739 0 -433.5311199317739 -233.76270836264484 0 0 0 0 835.93620866180572 -498.46255684620883 0 -498.46255684620883 -192.2508530117575 0 0 0 0 185.18861595464114 -165.93702345100519 0 -165.93702345100519 -435.60350809578631 0 0 0 0 138.66298787084088 447.35980525002196 0 447.35980525002196 -804.27316496115509 0 0 0 0 22.895487855641363 3.437205670597109 0 3.437205670597109 -2.2952146054703135 0 0 0 0 96.038434251138824 -106.84745355076575 0 -106.84745355076575 -593.83775430954211 0 0 0 0 -265.51015617360645 -397.22213357867417 0 -397.22213357867417 265.93823140988206 0 0 0 0 1346.167702577317 -581.6668832915675 0 -581.6668832915675 -195.2883753013889 0 0 0 0 13.884674973549323 0.91126444948586283 0 0.91126444948586283 -2.1544843803242166 0 0 0 0 2183.6426767348967 38.80923980726493 0 38.80923980726493 43.267090280309048 0 0 0 0 1001.9721934214012 -431.52679543511294 0 -431.52679543511294 -160.44018574310758 0 0 0 0 2147.6224661793094 -722.22102024506876 0 -722.22102024506876 -307.98238967332509 0 0 0 0 1142.3703390459705 -490.84354983078265 0 -490.84354983078265 -198.44087017777929 0 0 0 0 29.217381241029216 7.4165391575980664 0 7.4165391575980664 -6.2431906116762548 0 0 0 0 737.19104271806282 244.6411783972967 0 244.6411783972967 -21.318766040340051 0 0 0 0 1675.4810349480613 628.46924596855888 0 628.46924596855888 134.18938185722072 0 0 0 0 6.3054551264041834 -2.554333740868671 0 -2.554333740868671 1.603575426666751 0 0 0 0 2136.2915118093515 -164.75913036215661 0 -164.75913036215661 -476.36613813573695 0 0 0 0 133.29414733556041 -166.38573386400458 0 -166.38573386400458 242.70314231213888 0 0 0 0 5.1793843133895487 7.1259845122151404 0 7.1259845122151404 -7.0744611351939461 0 0 0 0 33.605802800675974 3.6269857042990878 0 3.6269857042990878 -9.4228359033731977 0 0 0 0 19.388107325023157 -0.58216256522518961 0 -0.58216256522518961 -3.713311478720243 0 0 0 0 16.818276210113254 2.0611708535043363 0 2.0611708535043363 -5.1221807354486373 0 0 0 0 4.2211761036567594 -0.044860847657886893 0 -0.044860847657886893 -6.4985647704305798 0 0 0 0 7.9961416621663375 7.9914322326590082 0 7.9914322326590082 -21.728173040258753 0 0 0 0 10.571442151369411 0.70616761655674054 0 0.70616761655674054 -1.9093849551179574 0 0 0 0 -16.798056632600492 1.6067684618265048 0 1.6067684618265048 -0.94637165289623226 0 0 0 0 -49.005549861692998 -21.453789380004309 0 -21.453789380004309 13.246428404333813 0 0 0 0 -25.654672737458895 -52.022265280467309 0 -52.022265280467309 -39.365372142578963 0 0 0 0 -6.5589717343609664 19.283005132883545 0 19.283005132883545 19.074191789060933 0 0 0 0 13.256878919542942 -12.048020186669419 0 -12.048020186669419 -19.441455321496505 0 0 0 0 12.162398209390346 -0.59545779521434383 0 -0.59545779521434383 -11.76008931472278 0 0 0 0 37.189458704713616 6.0725620048915516 0 6.0725620048915516 -7.8163248885430221 0 0 0 0 20.64187061592267 1.5220778038204088 0 1.5220778038204088 -4.8991541651012938 0 0 0 0 211.48096956856898 -5.1080028831156596 0 -5.1080028831156596 -38.007144329323637 0 0 0 0 0.45427122612730386 -0.79661391809353077 0 -0.79661391809353077 0.46171571212568008 0 0 0 0 85.604767407494364 -56.522331806024795 0 -56.522331806024795 -20.068759751080052 0 0 0 0 -0.037077262852108106 3.7115287596743656 0 3.7115287596743656 16.12955276905268 0 0 0 0 6.736668636687682 19.132784549774215 0 19.132784549774215 -6.770321645731201 0 0 0 0 75.281436773686437 -8.1782612360857456 0 -8.1782612360857456 -9.0363101163065949 0 0 0 0 194.91033842555044 -24.518560857698048 0 -24.518560857698048 -35.96586767534518 0 0 0 0 89.709801425553451 27.37610360352619 0 27.37610360352619 -11.109330480077006 0 0 0 0 329.59684750146744 -122.31656984525875 0 -122.31656984525875 -8.4573877755683498 0 0 0 0 339.31116884310904 106.97602033089242 0 106.97602033089242 -33.006172438158501 0 0 0 0 -81.476641287881648 -228.58552880619084 0 -228.58552880619084 -126.41637036139946 0 0 0 0 -4.540180460204283 40.360837592506414 0 40.360837592506414 43.111802884368444 0 0 0 0 61.523799762770068 -33.764156164888846 0 -33.764156164888846 -68.824944201021026 0 0 0 0 51.807653194953929 -10.432179152085261 0 -10.432179152085261 -10.565865830479522 0 0 0 0 117.35689320611709 26.043249912848296 0 26.043249912848296 -65.704365218392297 0 0 0 0 628.53418908451567 184.36820144943658 0 184.36820144943658 -320.41992774407663 0 0 0 0 -215.36840509571266 8.6005863429622877 0 8.6005863429622877 504.34305768576451 0 0 0 0 17.424524439334476 15.383737630391664 0 15.383737630391664 -0.0088947964438190752 0 0 0 0 55.102228996067424 27.475607906082587 0 27.475607906082587 3.7342627912421449 0 0 0 0 45.392301176493817 -4.7403627715713696 0 -4.7403627715713696 -13.24756213092299 0 0 0 0 68.359156921054819 12.809467974401741 0 12.809467974401741 -17.834354591001102 0 0 0 0 86.62172614276642 22.101881921676977 0 22.101881921676977 -13.130631651961266 0 0 0 0 71.297596672129657 23.365004203529224 0 23.365004203529224 -7.9380706175215892 0 0 0 0 1.6392704739000123 7.3112153037016014 0 7.3112153037016014 -10.785853721912638 0 0 0 0 27.853885887565411 21.487110609821684 0 21.487110609821684 -2.7745740299487807 0 0 0 0 86.300768118468113 41.050451463494937 0 41.050451463494937 -5.107667866041993 0 0 0 0 5.8395777944683687 28.900264854992677 0 28.900264854992677 2.8885728286550147 0 0 0 0 10.539929108897923 6.8156616340384062 0 6.8156616340384062 0.83081197129263273 0 0 0 0 32.07006041425484 19.201331253880653 0 19.201331253880653 -12.358688524986064 0 0 0 0 23.229986910315347 6.6699875413669361 0 6.6699875413669361 -6.2565915999075514 0 0 0 0 6.7163691684836522 3.422682542266557 0 3.422682542266557 -5.8487868654228805 0 0 0 0 12.789715197766782 6.1473841080687635 0 6.1473841080687635 -3.7292180707427178 0 0 0 0 18.565383707915316 20.569083689572835 0 20.569083689572835 0.081865032447240083 0 0 0 0 6.3628793643156882 3.8050296742922569 0 3.8050296742922569 -9.2919039519910065 0 0 0 0 15.41550305835699 7.3319315545641075 0 7.3319315545641075 -15.848255229056576 0 0 0 0 -4.1029971571988426 3.7514028585574124 0 3.7514028585574124 -2.8467275165512547 0 0 0 0 0.9000598493439611 13.884052463658008 0 13.884052463658008 -4.5050646759191295 0 0 0 0 12.665369341222686 14.656355202599116 0 14.656355202599116 -6.4536919521087839 0 0 0 0 30.930043199943611 14.133023842684452 0 14.133023842684452 -10.932114133260256 0 0 0 0 28.145971107282094 27.063189475044055 0 27.063189475044055 -2.1026226434587443 0 0 0 0 -0.8867457862903052 2.7813795230749605 0 2.7813795230749605 -7.2774810917198849 0 0 0 0 10.348252317926381 15.922608808132281 0 15.922608808132281 13.310949850562793 0 0 0 0 65.387703336658888 38.190875483974196 0 38.190875483974196 22.965915236454748 0 0 0 0 144.06143851000525 95.863508633862693 0 95.863508633862693 9.1981566729809856 0 0 0 0 97.518650822486961 44.243664193139921 0 44.243664193139921 -26.083064580763676 0 0 0 0 55.645199794364089 -12.013420347047678 0 -12.013420347047678 -10.19787282062968 0 0 0 0 49.774495991443473 -89.099745886373285 0 -89.099745886373285 -150.55747457208054 0 0 0 0 157.36628462299268 26.203038659977665 0 26.203038659977665 -112.37242581202463 0 0 0 0 184.6408277284354 114.56708445890035 0 114.56708445890035 11.888420364427475 0 0 0 0 105.25225740605674 31.155980164840912 0 31.155980164840912 -22.285685566563188 0 0 0 0 112.46782407694263 95.288639353734652 0 95.288639353734652 62.338575717114509 0 0 0 0 124.3171293766427 40.003001337285923 0 40.003001337285923 -31.01091148152409 0 0 0 0 19.576887317613 10.851478303195108 0 10.851478303195108 3.4459532062101061 0 0 0 0 132.59146694246738 119.88490922884375 0 119.88490922884375 89.961346418537687 0 0 0 0 2.9494734848778421 0.57047626462544088 0 0.57047626462544088 -2.0840213687635227 0 0 0 0 146.53370529806125 140.69150135344807 0 140.69150135344807 54.148817819667102 0 0 0 0 178.37237999621721 109.32202489194469 0 109.32202489194469 39.130447587973322 0 0 0 0 231.40932190445164 51.716509714684435 0 51.716509714684435 -116.02069472677613 0 0 0 0 308.45827880017168 157.72953157209849 0 157.72953157209849 3.412310342568162 0 0 0 0 144.37465253057053 119.2660619244557 0 119.2660619244557 81.591047420988616 0 0 0 0 227.86299179535126 147.59339435403945 0 147.59339435403945 44.067682803465118 0 0 0 0 131.42513114777103 112.67366047214909 0 112.67366047214909 252.81764650265359 0 0 0 0 197.62968432941125 178.09978902879902 0 178.09978902879902 94.597137645602743 0 0 0 0 216.14539783853979 139.47722207888091 0 139.47722207888091 92.473850868209411 0 0 0 0 152.48897054529516 298.86487630520514 0 298.86487630520514 434.12037181571122 0 0 0 0 63.906912650752929 -89.784597527924461 0 -89.784597527924461 -75.247171724868167 0 0 0 0 209.7869019944701 -62.87909740028681 0 -62.87909740028681 -70.609443602609645 0 0 0 0 6.11782132156236 -0.035399730922318184 0 -0.035399730922318184 0.28388841266761844 0 0 0 0 -52.935737528518075 42.11877522715622 0 42.11877522715622 -18.809789148115669 0 0 0 0 -32.41826860816218 19.654502714656701 0 19.654502714656701 5.6919663920489256 0 0 0 0 8.6477275902871042 9.0294323353809887 0 9.0294323353809887 9.5686707265718383 0 0 0 0 -23.244533428282011 13.445691430057195 0 13.445691430057195 9.5956613910275337 0 0 0 0 24.78971701557748 13.214599795850518 0 13.214599795850518 9.6701214463391807 0 0 0 0 31.119854988064617 -3.398566890415168 0 -3.398566890415168 -94.027450378329377 0 0 0 0 -9.4492944729281589 -69.335789452801691 0 -69.335789452801691 -106.04335193255429 0 0 0 0 31.76150074810721 27.525653770382633 0 27.525653770382633 -86.981572944707295 0 0 0 0 32.117900399724022 19.237768119764951 0 19.237768119764951 -58.987057595863007 0 0 0 0 29.6832526542712 28.577389709407726 0 28.577389709407726 -87.263031893322477 0 0 0 0 20.756649050628766 32.822032105290418 0 32.822032105290418 -55.473200924447156 0 0 0 0 25.616916925413534 23.267748324160493 0 23.267748324160493 -49.804254107869383 0 0 0 0 27.506702485494316 15.819085766735952 0 15.819085766735952 -51.612354482635055 0 0 0 0 29.510438935481943 12.613791910636792 0 12.613791910636792 -45.013961364642455 0 0 0 0 28.157868539579795 18.887259068585081 0 18.887259068585081 -56.984040904557332 0 0 0 0 30.15060108184116 16.899915377507568 0 16.899915377507568 -41.695427862345241 0 0 0 0 29.205463988095289 17.033440580868955 0 17.033440580868955 -54.431184421402577 0 0 0 0 32.024134445207892 16.59707354836155 0 16.59707354836155 -56.007180042048276 0 0 0 0 26.100371200358495 10.529862607552786 0 10.529862607552786 -58.631176963053804 0 0 0 0 32.652660670690238 15.210174261947031 0 15.210174261947031 -81.779558235240984 0 0 0 0 27.901492372620851 -10.904481601741281 0 -10.904481601741281 -80.213946298681776 0 0 0 0 19.0168171498226 -6.4400379783619428 0 -6.4400379783619428 -54.106902754509122 0 0 0 0 22.864668000838719 4.7820391458790255 0 4.7820391458790255 -29.510279728499881 0 0 0 0 13.750681622751074 -0.49576606982652649 0 -0.49576606982652649 -2.4616238477275578 0 0 0 0 29.569964807596989 49.832331267243717 0 49.832331267243717 -125.6604769229134 0 0 0 0 -41.039306760940235 79.156995046874727 0 79.156995046874727 -76.135416347562568 0 0 0 0 -18.210068044660147 80.503570960707293 0 80.503570960707293 -96.699181058320391 0 0 0 0 -18.396365008215071 76.861900350104634 0 76.861900350104634 -94.243832472333452 0 0 0 0 -3.8691004102583975 53.921425072498096 0 53.921425072498096 -55.501331518418738 0 0 0 0 -4.9686290579847991 53.322814066734281 0 53.322814066734281 -54.654449630819727 0 0 0 0 -20.76784542873429 49.278522593771413 0 49.278522593771413 -33.17814782205096 0 0 0 0 -15.793500252300873 -25.608487539895577 0 -25.608487539895577 -88.738003876544099 0 0 0 0 19.766489768982865 44.217108555181767 0 44.217108555181767 -113.48898560801172 0 0 0 0 0.59108141483739018 -11.37750106373278 0 -11.37750106373278 -106.21312085588215 0 0 0 0 -4.9404197801686678 54.456913894554589 0 54.456913894554589 -53.963490676498623 0 0 0 0 -4.0585604289080948 55.45664366735582 0 55.45664366735582 -53.226680823827337 0 0 0 0 19.766489769215696 44.217108555145387 0 44.217108555145387 -113.48898560800444 0 0 0 0 19.76648976909928 44.217108555196319 0 44.217108555196319 -113.48898560804082 0 0 0 0 -0.49466353841125965 42.397029788422515 0 42.397029788422515 -25.319622437149519 0 0 0 0 -2.990277571050683 47.360745086893985 0 47.360745086893985 -22.836335326763219 0 0 0 0 -2.8060202422784641 56.34811469426495 0 56.34811469426495 -53.829627306418843 0 0 0 0 3.7298233126639389 51.684524154893211 0 51.684524154893211 -20.148718555879896 0 0 0 0 4.1881262061651796 43.84553779453563 0 43.84553779453563 -27.176056310250715 0 0 0 0 -35.097647002665326 57.293353616940294 0 57.293353616940294 -36.964259286094602 0 0 0 0 -2.9263354387367144 55.116926787395641 0 55.116926787395641 -54.6104855311969 0 0 0 0 -26.149235545730335 42.891492972724336 0 42.891492972724336 -14.056311545216886 0 0 0 0 -22.59681802848354 53.188373252618476 0 53.188373252618476 -19.017112285742769 0 0 0 0 -14.882941325035063 37.011284698898635 0 37.011284698898635 -11.376381668007525 0 0 0 0 -9.9627969894791022 50.795935069239931 0 50.795935069239931 -21.939135629807424 0 0 0 0 -3.9488064518664032 41.448272631769214 0 41.448272631769214 -9.6627565696944657 0 0 0 0 -13.117543750675395 39.386046178002289 0 39.386046178002289 2.1715736935875611 0 0 0 0 0.71258858009241521 34.718868298383313 0 34.718868298383313 2.4202952742198249 0 0 0 0 -17.186703980667517 30.793302345326083 0 30.793302345326083 18.933297199073422 0 0 0 0 4.9736137957224855 53.489310674673106 0 53.489310674673106 -11.364757953539083 0 0 0 0 -8.4048694459488615 51.010134339052456 0 51.010134339052456 -13.182695906314621 0 0 0 0 6.310120333917439 38.069234059385053 0 38.069234059385053 -3.8921874745574314 0 0 0 0 -4.8347122657578439 41.965181493975251 0 41.965181493975251 -12.236614727196866 0 0 0 0 -6.4560776787693612 44.806505277932956 0 44.806505277932956 2.4553773841907969 0 0 0 0 10.071490516187623 30.721754573129147 0 30.721754573129147 11.730345451589528 0 0 0 0 13.71243787574349 46.162162364984397 0 46.162162364984397 -6.9659544113455922 0 0 0 0 8.1211574964690953 30.504723529680632 0 30.504723529680632 18.995019669720932 0 0 0 0 12.360244075651281 52.939713680403656 0 52.939713680403656 -7.5708728861354757 0 0 0 0 23.462340261612553 7.1220637546502985 0 7.1220637546502985 113.14851795441064 0 0 0 0 7.5107109607197344 52.533754668853362 0 52.533754668853362 -9.586699135863455 0 0 0 0 5.1114101669518277 48.632625813970662 0 48.632625813970662 -17.783937442574825 0 0 0 0 4.2432398822857067 52.671631523731776 0 52.671631523731776 -9.3020792472161702 0 0 0 0 6.8877235251711681 45.862730379521963 0 45.862730379521963 -16.513409317629339 0 0 0 0 10.038753691478632 46.711959963591653 0 46.711959963591653 -17.742605639672547 0 0 0 0 7.9515849626623094 45.821100460612797 0 45.821100460612797 -16.531543237302685 0 0 0 0 14.552434078389524 32.064394932077676 0 32.064394932077676 -19.737814697131398 0 0 0 0 7.8834575300279539 47.792098495885512 0 47.792098495885512 -18.102271177223884 0 0 0 0 14.570633236551657 33.054753072337917 0 33.054753072337917 -54.976001798855577 0 0 0 0 5.3911650312365964 52.510648095521901 0 52.510648095521901 -34.279235107998829 0 0 0 0 29.775565443356754 19.146395490552095 0 19.146395490552095 -45.226350557015394 0 0 0 0 25.846643071854487 25.759758852393134 0 25.759758852393134 -36.152450268367829 0 0 0 0 32.608664190542186 5.3470300330745886 0 5.3470300330745886 -7.788883889108547 0 0 0 0 8.4247915436280891 46.702716094328935 0 46.702716094328935 11.951441021898063 0 0 0 0 119.34794364307891 -60.969566109632069 0 -60.969566109632069 -42.697006382423751 0 0 0 0 -107.70399017778982 7.2789912947646371 0 7.2789912947646371 48.508061201409873 0 0 0 0 8.0994343774622735 4.7860796540317381 0 4.7860796540317381 -9.4464042177144698 0 0 0 0 79.430722649914969 35.989426592718019 0 35.989426592718019 -16.517183249383379 0 0 0 0 64.714896841527661 -54.57669500609336 0 -54.57669500609336 -25.226289740367065 0 0 0 0 53.88323975916137 44.507022784477158 0 44.507022784477158 -50.626029147949339 0 0 0 0 21.960154864300421 38.805811427068278 0 38.805811427068278 -70.829546178558303 0 0 0 0 25.329436989093665 10.705606139239535 0 10.705606139239535 -27.397867678670991 0 0 0 0 28.074854176520603 13.81183083684391 0 13.81183083684391 -31.02781202634651 0 0 0 0 29.451937683887081 16.810712146054357 0 16.810712146054357 -36.556409060529404 0 0 0 0 2.0451572136839502 6.1487919545979679 0 6.1487919545979679 -10.632508190995868 0 0 0 0 29.680210428196006 14.978421722665189 0 14.978421722665189 -49.047463696137129 0 0 0 0 -58.019760058901738 -154.56956759803325 0 -154.56956759803325 -79.795113743879483 0 0 0 0 136.9843025636219 -27.941522356395581 0 -27.941522356395581 -78.480444915810949 0 0 0 0 17.771137151750736 93.984037290128981 0 93.984037290128981 14.495748362889572 0 0 0 0 226.26788636705896 155.96180850716064 0 155.96180850716064 -24.154949942865642 0 0 0 0 -89.662968493226799 9.6293293421022099 0 9.6293293421022099 50.01112699092846 0 0 0 0 21.841509354562731 4.9961077224397741 0 4.9961077224397741 -26.516237987047134 0 0 0 0 18.428131608030526 13.129484939103349 0 13.129484939103349 -5.464491200298653 0 0 0 0 22.994454512818066 6.6406142727810895 0 6.6406142727810895 -14.178354562418576 0 0 0 0 -1.1595441201249059 14.422805394541371 0 14.422805394541371 -15.228972412292212 0 0 0 0 17.400167839514324 17.601226367762138 0 17.601226367762138 -13.47304434470243 0 0 0 0 11.332719462312525 12.026484840671401 0 12.026484840671401 4.7646122868609382 0 0 0 0 11.575627268175765 2.3361205464474537 0 2.3361205464474537 -7.3115204166119128 0 0 0 0 15.475847143010469 -1.1458654857015063 0 -1.1458654857015063 -16.5975410198389 0 0 0 0 22.376708759886242 7.0967116304516367 0 7.0967116304516367 -5.3060475255115307 0 0 0 0 12.527689561255329 -4.8561064827456786 0 -4.8561064827456786 -2.3651230205512146 0 0 0 0 14.115146109383204 2.8546804254046947 0 2.8546804254046947 -16.321140857402497 0 0 0 0 -15.785201887483709 55.893740925053862 0 55.893740925053862 6.4240689910911897 0 0 0 0 38.268296445123269 38.876918772624776 0 38.876918772624776 -147.63593828656917 0 0 0 0 16.677906092201795 5.4806188476186648 0 5.4806188476186648 -9.1305270962762393 0 0 0 0 -52.139346600488352 -193.48199609602534 0 -193.48199609602534 -220.88612549078334 0 0 0 0 13.421169414804908 3.7149334528589861 0 3.7149334528589861 -3.3107658542033072 0 0 0 0 -12.26046458449855 -85.733114068761097 0 -85.733114068761097 -18.546125374559779 0 0 0 0 13.335902227455847 0.12540197576778667 0 0.12540197576778667 -6.5280952140710102 0 0 0 0 77.010823205055203 152.11371698778748 0 152.11371698778748 138.348355855504 0 0 0 0 -11.818086061175563 -208.31251427580264 0 -208.31251427580264 -611.98992000961971 0 0 0 0 -1.2641574687086745 -0.61368105543775542 0 -0.61368105543775542 -0.11740919623389789 0 0 0 0 -6.4688745112016477 32.255486739420121 0 32.255486739420121 32.427630665175457 0 0 0 0 -209.63155297524645 -148.68947970462432 0 -148.68947970462432 -169.48907247607031 0 0 0 0 -166.48583986287122 -199.75225268402664 0 -199.75225268402664 -118.00970902323741 0 0 0 0 -26.671294118103106 -10.597950206250516 0 -10.597950206250516 -106.42608488308178 0 0 0 0 43.9378877398849 -19.888047485022071 0 -19.888047485022071 -131.2461939927598 0 0 0 0 14.51932382333689 155.75743138977384 0 155.75743138977384 200.31005067019942 0 0 0 0 169.21703520078154 -144.74579768353215 0 -144.74579768353215 94.214198510258029 0 0 0 0 610.32198553741182 170.53029659917775 0 170.53029659917775 -104.40758220798671 0 0 0 0 345.31875270213641 369.19878821973271 0 369.19878821973271 253.94605886525096 0 0 0 0 159.65040873445105 -41.742628800660896 0 -41.742628800660896 -82.082846040266304 0 0 0 0 314.04971801921783 33.669074916374484 0 33.669074916374484 -99.671375155279748 0 0 0 0 -63.258300441604661 94.509746066231173 0 94.509746066231173 -152.01889527074491 0 0 0 0 186.1256241795636 -42.508117455681258 0 -42.508117455681258 -185.87506973420568 0 0 0 0 -382.93046581780072 -205.02333226115297 0 -205.02333226115297 -95.821358773448083 0 0 0 0 -7.7918931656895438 -301.38387668024734 0 -301.38387668024734 -307.33327142545022 0 0 0 0 -38.361568347565481 -152.38833972639441 0 -152.38833972639441 -150.69795901194811 0 0 0 0 55.903159128494167 -9.5731911805524348 0 -9.5731911805524348 -13.003309230484128 0 0 0 0 35.499859296134673 -205.45498796574611 0 -205.45498796574611 -184.49720058986173 0 0 0 0 17.674774347353377 -104.79730207131661 0 -104.79730207131661 -110.35971885753634 0 0 0 0 119.1421572760446 33.008491482456975 0 33.008491482456975 -67.60059541274768 0 0 0 0 134.91918551223353 -185.43627904221285 0 -185.43627904221285 -321.73435949038685 0 0 0 0 47.652855542393809 74.381650424465533 0 74.381650424465533 -22.027476963789468 0 0 0 0 93.683319822870544 14.278197614866485 0 14.278197614866485 -62.857577528762818 0 0 0 0 100.71116692831856 -41.478629745596791 0 -41.478629745596791 -30.42224894785447 0 0 0 0 11.345950524917956 22.888857201930932 0 22.888857201930932 -11.363422725334527 0 0 0 0 115.38715224590851 74.365189351048855 0 74.365189351048855 -66.651859854533541 0 0 0 0 133.65097976466313 42.332693004207712 0 42.332693004207712 -13.899417868089586 0 0 0 0 94.197768867394188 96.953993234563313 0 96.953993234563313 18.979889189597316 0 0 0 0 98.017056661614333 65.292699813825379 0 65.292699813825379 66.682124808071194 0 0 0 0 89.886595231742831 121.04050844462859 0 121.04050844462859 -26.439749790984024 0 0 0 0 97.215176202822477 32.893885855751819 0 32.893885855751819 -46.579222785295215 0 0 0 0 117.66415951777526 74.146545715816529 0 74.146545715816529 -207.59822316180976 0 0 0 0 -21.423669904528651 -106.02415881299403 0 -106.02415881299403 -131.32560559230308 0 0 0 0 -1.8199123456600574 1.9262087486365971 0 1.9262087486365971 1.8002529265729448 0 0 0 0 89.069857807029621 -33.258355245383939 0 -33.258355245383939 -32.047030352147274 0 0 0 0 27.862113838927201 4.1908639804793495 0 4.1908639804793495 -4.6399476306536158 0 0 0 0 62.550093994235795 5.9132581736292202 0 5.9132581736292202 -40.533487748200258 0 0 0 0 159.72023858848843 -24.980423255082428 0 -24.980423255082428 -51.344298604564131 0 0 0 0 13.335374505948216 17.443572352485532 0 17.443572352485532 -23.079032485725403 0 0 0 0 58.621326099163184 -7.3020263045961045 0 -7.3020263045961045 -11.626731433861599 0 0 0 0 21.073735417136049 4.5940951044653957 0 4.5940951044653957 4.9365938255841684 0 0 0 0 17.691175429528279 0.0046520892893795462 0 0.0046520892893795462 -9.3002729746274255 0 0 0 0 46.162427734154335 -1.314421698544038 0 -1.314421698544038 -11.679923948982491 0 0 0 0 101.31167249487771 -6.6990724016638978 0 -6.6990724016638978 0.53690058833706189 0 0 0 0 188.70501211943338 -40.251176156465334 0 -40.251176156465334 -181.93513148028043 0 0 0 0 164.29302821344027 19.15257983987641 0 19.15257983987641 -53.552986092893434 0 0 0 0 17.499907533980149 129.25920311348546 0 129.25920311348546 266.06583707543723 0 0 0 0 33.663093524388387 45.517314999597147 0 45.517314999597147 -4.2676638848197399 0 0 0 0 41.066271038864215 38.085489719323903 0 38.085489719323903 3.0821893179881954 0 0 0 0 43.428617242747649 12.541667481588808 0 12.541667481588808 -0.6537617972753651 0 0 0 0 43.335674736328656 2.1440779634885985 0 2.1440779634885985 -25.351684936105812 0 0 0 0 14.74946728129288 6.0158709853512988 0 6.0158709853512988 -3.3368846913624481 0 0 0 0 5.4691853538001851 0.42575217188377223 0 0.42575217188377223 0.49396730429389368 0 0 0 0 43.639194322167896 -83.433148867835371 0 -83.433148867835371 78.077107603667173 0 0 0 0 187.10661431374319 -152.42863205541107 0 -152.42863205541107 103.87529570604283 0 0 0 0 119.83597954534343 -31.024965068106667 0 -31.024965068106667 -2.3701927331276238 0 0 0 0 202.936228561608 -27.074219674853794 0 -27.074219674853794 -51.774356410519431 0 0 0 0 202.3157735399011 -53.37873316152259 0 -53.37873316152259 -23.961843306906303 0 0 0 0 119.63913613714249 -23.413760932094192 0 -23.413760932094192 -12.780666478327475 0 0 0 0 44.101419338068808 -20.257202599781522 0 -20.257202599781522 31.033386569588401 0 0 0 0 164.77265429569525 -28.325110009798209 0 -28.325110009798209 -7.9956576305252156 0 0 0 0 58.859156088612508 -1.9429989919835862 0 -1.9429989919835862 -2.585529073615362 0 0 0 0 105.38919613200414 -38.847926371437552 0 -38.847926371437552 37.12618120539571 0 0 0 0 166.16015829339449 3.8790328821123694 0 3.8790328821123694 23.915402845394055 0 0 0 0 73.245009389480401 -98.110676836493582 0 -98.110676836493582 -31.639361098769584 0 0 0 0 48.112062117259484 -69.563528541296719 0 -69.563528541296719 -39.451633082803298 0 0 0 0 42.363247915542509 -27.145083146450219 0 -27.145083146450219 -16.130749907321992 0 0 0 0 41.395824398264267 5.2784215996634885 0 5.2784215996634885 -13.143218824872747 0 0 0 0 1.3092762350905147 -31.883050643673513 0 -31.883050643673513 -22.254570505793225 0 0 0 0 -22.92618429644881 -49.382900750353684 0 -49.382900750353684 34.215459089749075 0 0 0 0 -43.359285736529273 -34.818731163253688 0 -34.818731163253688 -19.27789772678625 0 0 0 0 33.295348005674896 -30.222952595055176 0 -30.222952595055176 1.8900579847972949 0 0 0 0 -9.6306831458327906 -4.2419909743573214 0 -4.2419909743573214 -0.7096975273269166 0 0 0 0 152.10090235624375 -208.62292490587384 0 -208.62292490587384 78.158590443164769 0 0 0 0 1.3181985223927768 -13.450813059197969 0 -13.450813059197969 -30.905983213577969 0 0 0 0 -34.111968249679194 -81.601257650753837 0 -81.601257650753837 97.017796426268035 0 0 0 0 -16.617182398462319 -32.126510469516873 0 -32.126510469516873 -42.840479163062298 0 0 0 0 0.9379526499855757 -9.810498231882633 0 -9.810498231882633 -0.75029225480820383 0 0 0 0 -72.097859546658583 -35.549751004991776 0 -35.549751004991776 -6.5019534579873834 0 0 0 0 4.7118057697632807 -35.293654349932368 0 -35.293654349932368 -19.019550735901973 0 0 0 0 -20.898281077640604 -66.59581930081265 0 -66.59581930081265 11.308212992101289 0 0 0 0 41.242802972153385 -34.862263727197274 0 -34.862263727197274 7.7515302073196573 0 0 0 0 191.49670772454556 26.28130721996547 0 26.28130721996547 -45.456988142565478 0 0 0 0 245.40719864754283 55.548225273469029 0 55.548225273469029 -39.858488943842985 0 0 0 0 121.99721915669579 -54.944558834614554 0 -54.944558834614554 24.207051436095753 0 0 0 0 63.986890649277484 -45.729913381419465 0 -45.729913381419465 23.129385973973967 0 0 0 0 -0.32192364843001542 -0.29901258333111969 0 -0.29901258333111969 0.25080393132045842 0 0 0 0 65.035787154607533 -22.719285830998615 0 -22.719285830998615 -22.580810271149858 0 0 0 0 24.480843174816982 -85.053304993471556 0 -85.053304993471556 -22.661003956189091 0 0 0 0 81.87239709829737 -57.469194420642907 0 -57.469194420642907 -25.357235324327576 0 0 0 0 129.42994486870157 -26.619164117837499 0 -26.619164117837499 -22.48290308768901 0 0 0 0 43.757826055487385 -32.300112328562818 0 -32.300112328562818 -21.575235703426642 0 0 0 0 79.709328853248735 -19.461776692562808 0 -19.461776692562808 -24.570632735586514 0 0 0 0 43.696771489235772 -25.051224085771622 0 -25.051224085771622 7.7121473521277579 0 0 0 0 -23.497847978514073 -173.54174832569083 0 -173.54174832569083 134.45804975246574 0 0 0 0 -26.283440950251133 -151.17758857926054 0 -151.17758857926054 -43.777825251373542 0 0 0 0 286.11393801547456 -207.67187177024812 0 -207.67187177024812 -9.3361718855494473 0 0 0 0 521.59494331942551 -79.759728227304777 0 -79.759728227304777 -115.32755381931793 0 0 0 0 33.736621026575449 -40.682831209547885 0 -40.682831209547885 71.677362305810675 0 0 0 0 8.0271626498636728 -4.1512283979045606 0 -4.1512283979045606 -19.543170264678842 0 0 0 0 78.941895466545247 -47.345645306275401 0 -47.345645306275401 -105.44889611587587 0 0 0 0 43.448332319414476 -13.063244715909605 0 -13.063244715909605 305.75145600920587 0 0 0 0 241.69731154444889 -56.361938343677139 0 -56.361938343677139 -132.98040975962931 0 0 0 0 -0.99558160699483444 0.16983528547351767 0 0.16983528547351767 -5.8357958564849319 0 0 0 0 200.47568535782557 158.30462293196524 0 158.30462293196524 139.78832689418414 0 0 0 0 -78.25992774396218 -84.668557156961924 0 -84.668557156961924 21.800998384577724 0 0 0 0 443.63512184023983 -185.51004037000601 0 -185.51004037000601 -257.38974262143165 0 0 0 0 443.58615018134151 -190.72427599555567 0 -190.72427599555567 -455.80738786687471 0 0 0 0 361.92699706043641 61.4484400547517 0 61.4484400547517 -382.42812680866109 0 0 0 0 364.19241222416531 27.783870431579544 0 27.783870431579544 -54.608605391696983 0 0 0 0 106.52845986640023 -0.58112791382427531 0 -0.58112791382427531 -23.850431321679025 0 0 0 0 524.47856107926964 59.181116001580904 0 59.181116001580904 -107.47410397361546 0 0 0 0 390.79151721548988 -175.08078781032373 0 -175.08078781032373 74.471111021968227 0 0 0 0 203.93245159401431 -274.23972655387672 0 -274.23972655387672 -212.95122983741567 0 0 0 0 -52.64121926462758 -173.60068493906147 0 -173.60068493906147 82.304812532647702 0 0 0 0 -0.27791118703031259 -0.89276223552245426 0 -0.89276223552245426 3.638334710268488 0 0 0 0 403.3501020609765 -26.178521512995076 0 -26.178521512995076 -331.801083697786 0 0 0 0 -39.258304642055009 -9.9581000131674955 0 -9.9581000131674955 83.546992467881068 0 0 0 0 -35.259806259145989 -17.672890555804543 0 -17.672890555804543 -3.4169798392558732 0 0 0 0 -39.894579867694119 -27.001963846652643 0 -27.001963846652643 25.797156292842942 0 0 0 0 -43.730794574927131 -42.341372485828884 0 -42.341372485828884 -7.2211919474716524 0 0 0 0 -31.757914286357845 -17.3137774266566 0 -17.3137774266566 0.22876391294585119 0 0 0 0 1.3718644278970871 -3.4099040634920428 0 -3.4099040634920428 8.0183469658750557 0 0 0 0 -42.674928867083509 -32.983701845074393 0 -32.983701845074393 -3.6358398380997343 0 0 0 0 -86.823383399128943 -314.22117773890523 0 -314.22117773890523 -82.228614083956927 0 0 0 0 -309.49939859897131 -48.217653299256654 0 -48.217653299256654 72.243306551961041 0 0 0 0 -297.12716052847099 -90.311894114528968 0 -90.311894114528968 -19.307950888703999 0 0 0 0 -274.30359915172448 -36.142453619580465 0 -36.142453619580465 109.0165456397558 0 0 0 0 -53.925908789977257 -168.37464022317113 0 -168.37464022317113 120.56047123765711 0 0 0 0 -90.861648906386108 -105.45239717416507 0 -105.45239717416507 64.626523847029603 0 0 0 0 -331.74541981819129 -123.49302291060224 0 -123.49302291060224 60.024124831167683 0 0 0 0 -29.915561203964899 -36.236575222662964 0 -36.236575222662964 -0.72578985988457134 0 0 0 0 -11.785174829718869 -17.918936567636578 0 -17.918936567636578 -8.6388999266838766 0 0 0 0 -6.6915553170416615 -8.0569750907539301 0 -8.0569750907539301 10.317878789799909 0 0 0 0 -356.50949810742168 -41.984652318801636 0 -41.984652318801636 -23.910938458044257 0 0 0 0 -141.26202024067243 -97.005785167242891 0 -97.005785167242891 -16.471603535132772 0 0 0 0 -41.539347388446913 -13.428521772147974 0 -13.428521772147974 -21.586963653092283 0 0 0 0 -5.6912338033680197 1.054307194000522 0 1.054307194000522 -0.50612551452050258 0 0 0 0 -5.9661134105576323 -16.617205727565448 0 -16.617205727565448 -4.4680003663055725 0 0 0 0 -566.93462511550752 21.63113530377484 0 21.63113530377484 108.28073018568011 0 0 0 0 -81.610626766076166 -11.702204199337757 0 -11.702204199337757 225.51459403168428 0 0 0 0 -238.43272779285326 18.489158339617461 0 18.489158339617461 124.91160375010668 0 0 0 0 -105.43294816659545 -82.271406182510418 0 -82.271406182510418 38.621823259170924 0 0 0 0 -405.98567099837237 96.857683309553067 0 96.857683309553067 -6.543593237576772 0 0 0 0 -264.83465868100029 -36.510050685301167 0 -36.510050685301167 45.010139225637431 0 0 0 0 -203.95340091767139 -5.369552979143009 0 -5.369552979143009 -55.006431134936065 0 0 0 0 -424.82712574357538 36.285867745810265 0 36.285867745810265 82.745792703152802 0 0 0 0 -437.6076166614821 -48.087822342832922 0 -48.087822342832922 10.460451425949486 0 0 0 0 -39.121618586514614 18.041602191464207 0 18.041602191464207 5.0505504037910214 0 0 0 0 -210.74851002101786 21.185465197660847 0 21.185465197660847 89.493250920693299 0 0 0 0 174.87985112414754 60.739732016118751 0 60.739732016118751 131.72587465121069 0 0 0 0 173.68139703087945 79.203644915215932 0 79.203644915215932 6.0504503053180088 0 0 0 0 -38.554979216415632 30.135512413498361 0 30.135512413498361 174.59428698357897 0 0 0 0 122.75609641421761 -0.10641730388033466 0 -0.10641730388033466 300.11374342594809 0 0 0 0 121.3086943268936 -18.478677689007327 0 -18.478677689007327 68.600918917868057 0 0 0 0 332.39923471812654 -78.457391513580205 0 -78.457391513580205 417.02911839399121 0 0 0 0 356.13957662625035 105.57916559465639 0 105.57916559465639 85.296757492755887 0 0 0 0 361.64296527149281 10.772201125021994 0 10.772201125021994 166.99271815560769 0 0 0 0 644.74671382016822 82.155699247761277 0 82.155699247761277 106.7914824026486 0 0 0 0 818.431080905606 -221.57841447248381 0 -221.57841447248381 -6.2735514892347055 0 0 0 0 846.42350611716392 -178.18037721118162 0 -178.18037721118162 45.639253075125225 0 0 0 0 991.93113898884621 -765.06032097585739 0 -765.06032097585739 455.97641829526128 0 0 0 0 1153.5401326497995 220.1953775028793 0 220.1953775028793 398.82719361892578 0 0 0 0 1497.328160015677 -407.28708203334281 0 -407.28708203334281 116.25536378989545 0 0 0 0 754.58173319295747 -92.195304831918747 0 -92.195304831918747 189.47759749873967 0 0 0 0 688.06366130008246 167.54973196248511 0 167.54973196248511 181.34737043363111 0 0 0 0 896.35742141641094 -243.07469603526306 0 -243.07469603526306 469.20180486362938 0 0 0 0 740.99415459259762 110.77520218865538 0 110.77520218865538 312.74526675349443 0 0 0 0 1457.4428118887868 56.201640147575631 0 56.201640147575631 7.8111935469078162 0 0 0 0 1464.5348708607016 -32.442183079371262 0 -32.442183079371262 46.694774383374352 0 0 0 0 752.04864911493496 222.62859106913834 0 222.62859106913834 359.25708680470598 0 0 0 0 311.73225179133806 -232.69456518225456 0 -232.69456518225456 292.24920493656555 0 0 0 0 316.80021497951384 -215.04783010249594 0 -215.04783010249594 26.853954255427197 0 0 0 0 48.291894546531694 -18.562263091839441 0 -18.562263091839441 264.02621336762604 0 0 0 0 333.79475461161928 -55.350624236426938 0 -55.350624236426938 101.23497869917719 0 0 0 0 284.65574578546511 -204.89595994102592 0 -204.89595994102592 -405.85602753028525 0 0 0 0 -94.221293133188738 -269.59107835394434 0 -269.59107835394434 -257.66450102085588 0 0 0 0 137.48078856315988 -172.48758194561901 0 -172.48758194561901 -230.89297845119393 0 0 0 0 29.590228527573345 -93.370752628914147 0 -93.370752628914147 -369.67390377123138 0 0 0 0 -30.318092572997557 -205.91019402768552 0 -205.91019402768552 -505.0202595904052 0 0 0 0 101.08936236689624 -439.7000746718262 0 -439.7000746718262 -551.13150832604697 0 0 0 0 3.7089359547691458 0.29427006010232049 0 0.29427006010232049 -0.87242263909088713 0 0 0 0 162.15835319545295 422.66589825974052 0 422.66589825974052 580.75705028275513 0 0 0 0 290.03756848562625 -210.27677200716516 0 -210.27677200716516 74.440092150216287 0 0 0 0 449.48090084295836 249.31140069330871 0 249.31140069330871 142.05977234230477 0 0 0 0 410.34742862620988 -170.597724473634 0 -170.597724473634 66.213798518643216 0 0 0 0 -4.8982694759165355 -4.2068444845441206 0 -4.2068444845441206 2.0937402705951671 0 0 0 0 630.83843921972584 -32.59779732407992 0 -32.59779732407992 -27.907793628263903 0 0 0 0 286.09705474524526 14.06163053856335 0 14.06163053856335 -0.028782728612441133 0 0 0 0 278.50898298293032 -61.499464789618742 0 -61.499464789618742 35.774050605302477 0 0 0 0 246.16442088130498 -107.19906451227587 0 -107.19906451227587 -24.746275476131814 0 0 0 0 147.34588823585364 41.190932671603605 0 41.190932671603605 51.862750483652235 0 0 0 0 328.47023861297203 -81.023413078997351 0 -81.023413078997351 -81.827891452691802 0 0 0 0 142.76274499605643 -188.73018978194045 0 -188.73018978194045 51.185917681229512 0 0 0 0 214.876051619809 -199.7752643784338 0 -199.7752643784338 -95.993793578680425 0 0 0 0 282.03618905777694 -107.90543691711991 0 -107.90543691711991 27.356680246067299 0 0 0 0 -3.8265350669779963 -15.241393292013313 0 -15.241393292013313 -5.5091081667722026 0 0 0 0 3.3920340533004492 -38.752198847106229 0 -38.752198847106229 -7.0087373387295884 0 0 0 0 295.44522979546309 -120.89461758680909 0 -120.89461758680909 -33.782771220220184 0 0 0 0 35.693311582661323 -21.646879404184311 0 -21.646879404184311 2.3226408725153416 0 0 0 0 161.34174014971359 -171.33201168013647 0 -171.33201168013647 67.067450527528081 0 0 0 0 13.153590182026832 8.4345861680095453 0 8.4345861680095453 -0.12274160717989702 0 0 0 0 138.25977991442051 -152.60495431485469 0 -152.60495431485469 78.617064346138932 0 0 0 0 69.669173857640999 -149.05211837059505 0 -149.05211837059505 142.29302667436127 0 0 0 0 102.72073190564697 -243.15276537021646 0 -243.15276537021646 118.16264405977745 0 0 0 0 88.309546916396357 -253.61775406394781 0 -253.61775406394781 -27.58605676051593 0 0 0 0 142.08014466608029 -198.26600958833356 0 -198.26600958833356 6.1505856073272298 0 0 0 0 91.558588820000296 -208.48291699638889 0 -208.48291699638889 -14.246663239779082 0 0 0 0 105.16628356803903 -263.53949683326698 0 -263.53949683326698 206.70475694033667 0 0 0 0 295.90055380886042 -224.09135680093732 0 -224.09135680093732 -13.150394900359544 0 0 0 0 217.91783089916134 -274.57076314272763 0 -274.57076314272763 296.67810921777391 0 0 0 0 71.907173884290387 -168.76519149660953 0 -168.76519149660953 226.89630583219537 0 0 0 0 109.28393149128169 -134.80781426237286 0 -134.80781426237286 109.68507642077702 0 0 0 0 15.073568338833866 -12.670608851746692 0 -12.670608851746692 108.10159464814562 0 0 0 0 65.527741051697376 -46.633115704100874 0 -46.633115704100874 58.947094361338713 0 0 0 0 0.50720643107342767 80.98933274842102 0 80.98933274842102 107.63058739516418 0 0 0 0 -15.873639719920902 -49.065458396600548 0 -49.065458396600548 348.10258812855591 0 0 0 0 63.674410466279369 -10.489071171893102 0 -10.489071171893102 1.6975802289305193 0 0 0 0 51.602538901657681 -9.9488699104626903 0 -9.9488699104626903 2.1707404576927729 0 0 0 0 7.6706520864110814 8.8695401111951213 0 8.8695401111951213 -1.389832087481178 0 0 0 0 41.544558830730239 4.7906510127081674 0 4.7906510127081674 -8.8429453935773381 0 0 0 0 91.143737033067737 7.0161315166608347 0 7.0161315166608347 -12.424270669332145 0 0 0 0 63.535519431243301 1.8104228964591584 0 1.8104228964591584 -12.74387639995075 0 0 0 0 5.7866710432172113 14.123607548097425 0 14.123607548097425 10.079831464734525 0 0 0 0 67.310483726319944 6.1845524891803052 0 6.1845524891803052 -12.841219253801682 0 0 0 0 22.590932367926143 3.4685515347781575 0 3.4685515347781575 -1.1990761715751432 0 0 0 0 67.285653157930938 65.82512398144604 0 65.82512398144604 41.28606146625043 0 0 0 0 177.43898667612666 -14.580832348570084 0 -14.580832348570084 -7.8460059824033124 0 0 0 0 -10.828474783302227 -14.893497114586353 0 -14.893497114586353 -2.5784237058878716 0 0 0 0 70.824707769782435 -45.507637994641442 0 -45.507637994641442 5.3493755114359374 0 0 0 0 12.625667227774102 11.801914424459937 0 11.801914424459937 -3.6226998687393461 0 0 0 0 9.5793026148904232 7.4915328888469048 0 7.4915328888469048 -3.6470742168450414 0 0 0 0 59.775837898226655 27.951760972891407 0 27.951760972891407 1.9025181381848597 0 0 0 0 2.8763203229316332 0.81601893752884536 0 0.81601893752884536 -1.0182173821133862 0 0 0 0 16.097745135496211 -2.471283199781233 0 -2.471283199781233 -0.71551684393956094 0 0 0 0 21.560846251726616 0.022425446285524231 0 0.022425446285524231 -6.9878943435924157 0 0 0 0 41.586843572225916 -11.644481514739027 0 -11.644481514739027 -15.165749866690021 0 0 0 0 3.8589874640097306 5.7443540371521635 0 5.7443540371521635 -0.72431971754280866 0 0 0 0 167.38661042153399 -77.870106411477991 0 -77.870106411477991 537.89005999646088 0 0 0 0 24.744533937999222 -2.1326728798489967 0 -2.1326728798489967 -6.2080676811710873 0 0 0 0 1.8702462984866486 -1.0122377389215949 0 -1.0122377389215949 0.96269219738058709 0 0 0 0 2027.3021576376777 -18.773615254831384 0 -18.773615254831384 -463.96061417581768 0 0 0 0 500.17499678831518 76.411555340640007 0 76.411555340640007 13.7646034355148 0 0 0 0 3.4172204638756023 -0.0050885079494662477 0 -0.0050885079494662477 1.0128127564645375 0 0 0 0 1358.3368612600898 -502.33367678936065 0 -502.33367678936065 -66.442556940274699 0 0 0 0 1108.3389943473012 268.13327436921782 0 268.13327436921782 -159.69840318030816 0 0 0 0 1389.3810107151207 450.3539473727854 0 450.3539473727854 -166.73517661215919 0 0 0 0 1192.6265310339149 510.09680852959218 0 510.09680852959218 -106.79238809346043 0 0 0 0 1157.3462626124729 322.16409775708451 0 322.16409775708451 -206.28453042597175 0 0 0 0 958.38001017195347 745.03863659562285 0 745.03863659562285 -826.14481114216233 0 0 0 0 2061.6513092990845 126.58422722969703 0 126.58422722969703 -479.47815153672491 0 0 0 0 -148.54786239404348 31.237370369336531 0 31.237370369336531 24.289012836850816 0 0 0 0 145.82090746727772 567.95424024586964 0 567.95424024586964 -241.54568115726761 0 0 0 0 191.98812018483659 -244.92414928765083 0 -244.92414928765083 -494.50092852864145 0 0 0 0 -108.4079980354345 174.5437731025977 0 174.5437731025977 329.40944521610072 0 0 0 0 192.73074689688656 -262.66611575787283 0 -262.66611575787283 56.387046881011429 0 0 0 0 614.58166202277062 110.47181165031361 0 110.47181165031361 -119.88110804250573 0 0 0 0 676.28360580360459 -11.82988984916301 0 -11.82988984916301 21.249542811208073 0 0 0 0 13.968920414422627 4.190073062917179 0 4.190073062917179 1.9497286444486204 0 0 0 0 843.82525309674384 -219.41565866639212 0 -219.41565866639212 -161.24024726995754 0 0 0 0 1499.7160382513321 304.48896237335725 0 304.48896237335725 -137.92178732413188 0 0 0 0 33.10665656565925 148.00369593627565 0 148.00369593627565 1147.7369818133243 0 0 0 0 877.28712494896899 616.39406501459871 0 616.39406501459871 400.15076797687743 0 0 0 0 651.75779447052628 -150.60287486420248 0 -150.60287486420248 1007.3112132859733 0 0 0 0 1196.4215687355863 -242.02512277098413 0 -242.02512277098413 165.33465231174705 0 0 0 0 364.95131995218981 -98.393385854126791 0 -98.393385854126791 346.70194586208618 0 0 0 0 667.41978095153172 -240.0473317822175 0 -240.0473317822175 401.52346631592991 0 0 0 0 614.67602919788783 -205.69966093075334 0 -205.69966093075334 495.89680457356826 0 0 0 0 0.35813372467591309 0.23418848945149762 0 0.23418848945149762 1.2613119459761499 0 0 0 0 1173.5934869930643 78.736264970464163 0 78.736264970464163 -138.92537020519421 0 0 0 0 1203.9105224131126 614.13885660384165 0 614.13885660384165 574.73316665853508 0 0 0 0 4.6104431392976721 15.995373480622574 0 15.995373480622574 5.8860183205159009 0 0 0 0 224.42219933804154 -85.693787278316591 0 -85.693787278316591 -426.1417005617634 0 0 0 0 -55.529869498266635 -52.867382529014982 0 -52.867382529014982 -224.98069733996743 0 0 0 0 11.794339920746097 -77.644908827347194 0 -77.644908827347194 -577.87429648497346 0 0 0 0 -12.800557024296722 198.22755229619179 0 198.22755229619179 -456.2557959498572 0 0 0 0 65.938548038611771 146.93976350303819 0 146.93976350303819 -133.464954705727 0 0 0 0 275.33329338562544 101.34743263160408 0 101.34743263160408 -432.72805962089478 0 0 0 0 5.3831576164302533 -132.44775801928699 0 -132.44775801928699 -370.36693004060726 0 0 0 0 295.43097305733676 -66.1994715928994 0 -66.1994715928994 -553.59402391494586 0 0 0 0 296.28647479770007 197.80800151934181 0 197.80800151934181 -444.01685411488961 0 0 0 0 16.808148549426591 11.426662485516189 0 11.426662485516189 4.744900587832876 0 0 0 0 52.578496894146042 16.124645041158697 0 16.124645041158697 3.862678139342151 0 0 0 0 107.31211647647433 122.65911450341628 0 122.65911450341628 -57.747250883750667 0 0 0 0 151.48037043306977 176.65987883435901 0 176.65987883435901 -172.60919467164695 0 0 0 0 217.1939346384388 -37.225444520942347 0 -37.225444520942347 -865.77689132619525 0 0 0 0 -4.4951784652803326 89.053509534944169 0 89.053509534944169 -625.10564323935796 0 0 0 0 -210.95458300263999 41.417021562635682 0 41.417021562635682 285.95513131671032 0 0 0 0 8.1200858463403733 -1.7525004446130215 0 -1.7525004446130215 -0.74757844964313325 0 0 0 0 -111.50954330401146 -55.392257892849329 0 -55.392257892849329 -418.04478181329068 0 0 0 0 171.50276071833287 -218.6578774368777 0 -218.6578774368777 -754.02486207745642 0 0 0 0 -100.0640759626549 -154.60715011841421 0 -154.60715011841421 -351.87049523567248 0 0 0 0 11.877272041136166 -255.62240929896097 0 -255.62240929896097 -354.15439833602522 0 0 0 0 173.34081748779863 154.78783333064348 0 154.78783333064348 -217.86262006068227 0 0 0 0 2.4666286431130118 -0.99911182773223794 0 -0.99911182773223794 0.17039240921515697 0 0 0 0 36.339656369416133 12.92778886728933 0 12.92778886728933 4.1934287049771601 0 0 0 0 -78.798624260853103 106.86162932970387 0 106.86162932970387 356.99477713285194 0 0 0 0 38.185451977696175 106.98790330361331 0 106.98790330361331 320.66410528523716 0 0 0 0 -158.67060509594739 124.44865103082293 0 124.44865103082293 395.67853696584598 0 0 0 0 -88.203482909528248 241.96712717738063 0 241.96712717738063 247.9437992607518 0 0 0 0 -37.615141680485976 317.57086126837203 0 317.57086126837203 286.59897024378643 0 0 0 0 -77.153892230322526 229.46620115621408 0 229.46620115621408 260.58965138823288 0 0 0 0 -14.052884788616211 110.96693066458101 0 110.96693066458101 237.11680788105718 0 0 0 0 25.170224383859022 75.511159953586969 0 75.511159953586969 -82.471226016034905 0 0 0 0 97.100359722273424 218.60340225940058 0 218.60340225940058 112.41671854071433 0 0 0 0 202.0369223833477 182.78766860739313 0 182.78766860739313 -115.60290983043933 0 0 0 0 161.46108940359409 257.86940279631426 0 257.86940279631426 108.83568223222179 0 0 0 0 140.87711330132151 221.61853662662617 0 221.61853662662617 148.45769995342698 0 0 0 0 612.56657153719425 440.76763334348334 0 440.76763334348334 250.18123378744303 0 0 0 0 293.46014391167228 -96.09507278240271 0 -96.09507278240271 -58.566359674560772 0 0 0 0 82.39593645586865 91.687288943996236 0 91.687288943996236 -52.876241508218072 0 0 0 0 407.75990146347613 223.46409850362016 0 223.46409850362016 0.47602043139670513 0 0 0 0 38.628918081201846 161.55411584635362 0 161.55411584635362 -117.50729751421295 0 0 0 0 225.16647638348513 112.99297981063758 0 112.99297981063758 -140.75516234023291 0 0 0 0 352.97344103410796 -201.68903153038355 0 -201.68903153038355 123.37959908299399 0 0 0 0 635.59497671391182 453.61794594979449 0 453.61794594979449 96.143841919116312 0 0 0 0 46.964033249532804 254.10637797546951 0 254.10637797546951 577.97680928654108 0 0 0 0 -0.53626215913391206 125.9366919687435 0 125.9366919687435 243.64472639027554 0 0 0 0 139.67291682864743 84.947088224506388 0 84.947088224506388 -174.24582577971341 0 0 0 0 -194.34237164297519 -53.093067024678476 0 -53.093067024678476 -14.8294711603927 0 0 0 0 -10.241796479480399 249.73783134571636 0 249.73783134571636 -65.314176481799223 0 0 0 0 -115.09257620188873 262.17386483618384 0 262.17386483618384 244.9050997452066 0 0 0 0 63.767077690336009 230.3598381149468 0 230.3598381149468 -479.21011036218033 0 0 0 0 184.34467634840621 411.05660148462368 0 411.05660148462368 318.80800123338918 0 0 0 0 -31.851234581730751 -261.88164570580017 0 -261.88164570580017 -662.29048395057316 0 0 0 0 -1.2961793035076141 3.206600287811348 0 3.206600287811348 -3.1235702652202066 0 0 0 0 349.8811807910497 173.07529270719374 0 173.07529270719374 -125.74839548737964 0 0 0 0 322.44331386772683 222.85731488942019 0 222.85731488942019 40.111886648664949 0 0 0 0 20.740376204273417 12.625364617392918 0 12.625364617392918 -5.7168142108068132 0 0 0 0 176.49466750177817 -34.811245638971968 0 -34.811245638971968 -228.20804625702704 0 0 0 0 115.99221477696028 101.98260296942459 0 101.98260296942459 -20.154016125593444 0 0 0 0 -1.6330061618411662 11.144270741476312 0 11.144270741476312 -13.613948688173286 0 0 0 0 -11.678283541048586 -185.35587348207173 0 -185.35587348207173 -275.0268521211874 0 0 0 0 65.811936998475872 -3.2550639512738542 0 -3.2550639512738542 -27.216445573726354 0 0 0 0 65.607553509449644 -10.543365417365749 0 -10.543365417365749 -67.681729745222583 0 0 0 0 93.101445117601543 -58.302707120356899 0 -58.302707120356899 -89.682732662437047 0 0 0 0 37.368229821308788 -13.617448867024752 0 -13.617448867024752 2.8524179848258484 0 0 0 0 57.24467074417953 -35.93679486257588 0 -35.93679486257588 -55.414577486186317 0 0 0 0 0.032305501807883275 -0.44988498137641386 0 -0.44988498137641386 2.5159784075099694 0 0 0 0 179.7633428696663 327.78816328664152 0 327.78816328664152 -203.32904383272671 0 0 0 0 490.20707779217628 44.163094123387054 0 44.163094123387054 -105.46100885745113 0 0 0 0 467.24262604201795 108.5527595345593 0 108.5527595345593 -228.33976494271928 0 0 0 0 295.54768663893628 -172.15300341360103 0 -172.15300341360103 -40.433129898894549 0 0 0 0 209.87109786747169 -60.065762222830699 0 -60.065762222830699 -185.05041923542922 0 0 0 0 251.18015095287228 -100.48246489205155 0 -100.48246489205155 11.492383515877918 0 0 0 0 589.58669050178287 -319.65636897097124 0 -319.65636897097124 153.22485186606241 0 0 0 0 684.35433637196184 113.25134822759327 0 113.25134822759327 -81.104494878624791 0 0 0 0 150.29190053835919 86.315035667277925 0 86.315035667277925 13.989596700429502 0 0 0 0 100.99208652901871 511.30905343334985 0 511.30905343334985 163.19883674444054 0 0 0 0 284.15283406811795 354.78203923704973 0 354.78203923704973 -176.96906139689509 0 0 0 0 540.1067465528613 395.68217241457114 0 395.68217241457114 -254.57256890883809 0 0 0 0 655.45430778930313 254.37242105870121 0 254.37242105870121 -286.04457447678124 0 0 0 0 342.62806156967417 238.35066278748673 0 238.35066278748673 -215.52969600096378 0 0 0 0 413.43952368354621 243.93954123410651 0 243.93954123410651 -265.20326795726123 0 0 0 0 388.24413532610197 291.98960693807294 0 291.98960693807294 -139.29461384673459 0 0 0 0 382.94172311575676 216.6414931027407 0 216.6414931027407 -175.03365411138384 0 0 0 0 368.00915789218561 211.21019729684463 0 211.21019729684463 -156.19534646219017 0 0 0 0 379.55329503519897 197.91192349688708 0 197.91192349688708 -152.24638389250958 0 0 0 0 409.17646671315015 185.06966972897862 0 185.06966972897862 -160.26524970802757 0 0 0 0 310.93585836491184 165.9296368224152 0 165.9296368224152 -246.89211115914259 0 0 0 0 345.45470332212426 151.97740253333404 0 151.97740253333404 -261.81314986438497 0 0 0 0 189.54996171919265 108.98020846531017 0 108.98020846531017 -379.93794619545042 0 0 0 0 217.30012242338853 63.65243727156394 0 63.65243727156394 -306.13790439454147 0 0 0 0 201.17560068327657 60.522738489747098 0 60.522738489747098 -233.46434779188621 0 0 0 0 378.45896446557163 178.37563191571166 0 178.37563191571166 -332.44689862400492 0 0 0 0 3.4756188199389726 -140.57641649991001 0 -140.57641649991001 -209.74305967470309 0 0 0 0 246.98812494990489 47.398669788553207 0 47.398669788553207 -352.6892187568983 0 0 0 0 -73.642861243948573 71.067520438206429 0 71.067520438206429 -354.04730161842656 0 0 0 0 110.73291142763628 -66.94241008476979 0 -66.94241008476979 -606.69449672602514 0 0 0 0 2.1266244069749689 1.3113598452469262 0 1.3113598452469262 -1.7984314473528862 0 0 0 0 18.771394784118456 10.329912488214632 0 10.329912488214632 -491.3278961256068 0 0 0 0 70.695565351677942 158.72286150374339 0 158.72286150374339 354.53691612492867 0 0 0 0 -114.28243292716797 -312.33418507756824 0 -312.33418507756824 -515.15529865597432 0 0 0 0 214.22639736530255 61.818664342662032 0 61.818664342662032 243.8401291018954 0 0 0 0 161.98188934384962 203.96314456518758 0 203.96314456518758 44.590579064357371 0 0 0 0 131.86283578820439 126.79454194601749 0 126.79454194601749 11.863688713986448 0 0 0 0 284.10341582185356 233.71214117029831 0 233.71214117029831 -109.21910126715647 0 0 0 0 346.6712553915786 137.3221735429056 0 137.3221735429056 -3.6521928269903583 0 0 0 0 174.91042501925767 253.41190458254016 0 253.41190458254016 -106.21632993923322 0 0 0 0 61.39490599455894 211.85892656810756 0 211.85892656810756 -120.57361770242278 0 0 0 0 63.113284792147169 98.625009170389603 0 98.625009170389603 -116.53893862224504 0 0 0 0 134.25191430686391 177.56863758954478 0 177.56863758954478 -60.646108249918143 0 0 0 0 313.91628814406431 194.23826504999829 0 194.23826504999829 10.432169961908585 0 0 0 0 -13.746697171620326 -18.384998576959333 0 -18.384998576959333 -1.8776582724040054 0 0 0 0 12.920361049112415 -4.5387516820026974 0 -4.5387516820026974 -9.6830899945549351 0 0 0 0 68.070823092923092 27.667673025583554 0 27.667673025583554 -25.49321683537255 0 0 0 0 285.67642953210452 134.65489518949425 0 134.65489518949425 102.29416332454275 0 0 0 0 -0.91337687584348259 -1.2407234403216307 0 -1.2407234403216307 -2.1649883940540384 0 0 0 0 131.02140815416351 3.3415951751640023 0 3.3415951751640023 -186.60833687762477 0 0 0 0 56.230674728445592 -66.115279012315568 0 -66.115279012315568 -195.93612242656855 0 0 0 0 -45.354580097595317 -147.13627798755056 0 -147.13627798755056 -312.53514355516927 0 0 0 0 139.20603108908836 3.0076493658341406 0 3.0076493658341406 -224.74256707934546 0 0 0 0 287.02576569155644 89.047142766737124 0 89.047142766737124 -175.48376940900926 0 0 0 0 288.55693314231439 112.46673431975398 0 112.46673431975398 -61.460692228431071 0 0 0 0 83.908101760282079 33.355973899050582 0 33.355973899050582 -76.82765835902228 0 0 0 0 409.80724300131988 206.38763365371324 0 206.38763365371324 -79.250594454902966 0 0 0 0 391.68741350970231 204.2346223607783 0 204.2346223607783 -172.60750820100839 0 0 0 0 349.00151393776468 101.46303813413579 0 101.46303813413579 -130.58764579875606 0 0 0 0 383.63776407777186 155.32023762457311 0 155.32023762457311 -50.240592284270861 0 0 0 0 416.06166877138457 108.25330798460936 0 108.25330798460936 -22.739171412804353 0 0 0 0 368.7704792219447 36.409778439385263 0 36.409778439385263 8.729450992353577 0 0 0 0 402.2158780994132 32.708906333428388 0 32.708906333428388 29.441977500167923 0 0 0 0 461.6730223508348 80.850611979941277 0 80.850611979941277 -34.959691048615241 0 0 0 0 352.74928907869617 82.283602737665205 0 82.283602737665205 -107.02168259710697 0 0 0 0 256.9948249537556 46.125527814869201 0 46.125527814869201 -25.073770658076683 0 0 0 0 407.86998734388908 49.238157254965699 0 49.238157254965699 -59.832495036505861 0 0 0 0 250.67269629891962 64.318439052633948 0 64.318439052633948 -75.793906310670991 0 0 0 0 82.241226106314571 13.806848113811611 0 13.806848113811611 -17.744582502407866 0 0 0 0 309.15419653832942 103.67434867315933 0 103.67434867315933 4.6116612609857839 0 0 0 0 72.792789957649802 54.388359252675741 0 54.388359252675741 38.46111737409683 0 0 0 0 418.48451782996926 74.560937193789869 0 74.560937193789869 48.574399213166544 0 0 0 0 460.68097322895119 58.303326640750129 0 58.303326640750129 -41.502742539191786 0 0 0 0 440.30730527088599 118.2974667771216 0 118.2974667771216 -90.547100632949878 0 0 0 0 13.52417593398502 -0.66337561641519471 0 -0.66337561641519471 0.95289190424663062 0 0 0 0 404.55934504490506 71.495561525277026 0 71.495561525277026 51.625410208869653 0 0 0 0 22.407916462570142 -4.8719043193479692 0 -4.8719043193479692 -8.0500462240036939 0 0 0 0 62.982327904901467 15.626546640784454 0 15.626546640784454 -2.1452053157167938 0 0 0 0 93.158642974296981 40.58852244967278 0 40.58852244967278 29.172074175126909 0 0 0 0 128.6595830166043 113.11842911424901 0 113.11842911424901 73.849478003684453 0 0 0 0 162.81901484884293 1.1585547613130984 0 1.1585547613130984 89.076510210799825 0 0 0 0 94.701100971443793 60.068954770642819 0 60.068954770642819 49.189591542435664 0 0 0 0 210.44565379932465 29.970593261325121 0 29.970593261325121 4.5592111072346597 0 0 0 0 216.6886188046301 19.74537512316715 0 19.74537512316715 -3.6479582932315679 0 0 0 0 0.15375474570433312 -3.7900875793262898 0 -3.7900875793262898 -2.2309479910171142 0 0 0 0 217.5970663127955 19.602670819760078 0 19.602670819760078 -4.3514408199944228 0 0 0 0 -45.722031333614723 -22.302612345165926 0 -22.302612345165926 -31.414680947716079 0 0 0 0 38.259183063687686 -10.431572143808978 0 -10.431572143808978 -13.118754477349936 0 0 0 0 236.37046710046707 20.752380257858931 0 20.752380257858931 -5.5371338509339694 0 0 0 0 296.58410306165752 19.832088294844652 0 19.832088294844652 11.492862120900099 0 0 0 0 -41.492741111665964 163.53735946560482 0 163.53735946560482 -125.83763586394343 0 0 0 0 1.1167203856732328 -1.0799270203719971 0 -1.0799270203719971 0.87427824447218683 0 0 0 0 227.48200112499762 21.38860620991727 0 21.38860620991727 -3.4257859179870138 0 0 0 0 206.32510684529552 17.309145870338398 0 17.309145870338398 -3.9480704519405663 0 0 0 0 224.62857980636181 15.423124040520634 0 15.423124040520634 -4.4441859199596365 0 0 0 0 237.26602940942394 13.580360624515379 0 13.580360624515379 -5.7324454273230003 0 0 0 0 200.5354758131798 -4.0284590311963484 0 -4.0284590311963484 2.0280581949045882 0 0 0 0 235.32982227363937 23.27276565680279 0 23.27276565680279 -2.0735123639187805 0 0 0 0 -227.98050578369293 -40.260795037236676 0 -40.260795037236676 12.075779189995956 0 0 0 0 208.70047524076654 22.017197607458002 0 22.017197607458002 -4.9837631437858363 0 0 0 0 204.29367983061456 28.081703974214633 0 28.081703974214633 -6.1230051659740639 0 0 0 0 197.36709423546563 17.925444824102669 0 17.925444824102669 7.9283599589580263 0 0 0 0 -56.587888158712303 46.188272433835664 0 46.188272433835664 -151.78045187481803 0 0 0 0 320.72476939341141 61.100622005453943 0 61.100622005453943 14.92858552906182 0 0 0 0 293.3305009509495 14.766547533512494 0 14.766547533512494 3.8178704342535639 0 0 0 0 252.00449742749333 23.392287534944444 0 23.392287534944444 -5.6688794842648349 0 0 0 0 207.99634109051112 64.356395256243104 0 64.356395256243104 43.833294128723537 0 0 0 0 11.362444944591985 -6.9785464037592533 0 -6.9785464037592533 -8.7701372285549049 0 0 0 0 38.917245657481544 -31.960411848139302 0 -31.960411848139302 8.8991121115741407 0 0 0 0 208.16209491720656 47.00689130389037 0 47.00689130389037 19.910151495938408 0 0 0 0 262.13609991317207 48.753026758374062 0 48.753026758374062 1.0571530972556502 0 0 0 0 202.98722648288822 56.650050880386971 0 56.650050880386971 11.458577746433548 0 0 0 0 216.19464054133277 32.509041946245361 0 32.509041946245361 1.3638983646824272 0 0 0 0 227.5847248356331 40.003629327300359 0 40.003629327300359 0.46759498150822765 0 0 0 0 125.47331004900116 -54.456041907564213 0 -54.456041907564213 -43.956912263047343 0 0 0 0 180.36603165591805 14.909561420279374 0 14.909561420279374 -77.380970036329472 0 0 0 0 90.886788205073117 -16.075505159383255 0 -16.075505159383255 -32.132772929730656 0 0 0 0 165.31653432391704 -21.802414295288003 0 -21.802414295288003 -96.21800491606956 0 0 0 0 87.657857445043192 -19.024695453614186 0 -19.024695453614186 -46.638960695470814 0 0 0 0 108.7888024932037 0.4016449520854164 0 0.4016449520854164 -39.351017668574954 0 0 0 0 221.07685353533816 59.943237949505068 0 59.943237949505068 -28.267921812191389 0 0 0 0 187.2113908305015 59.458832306355177 0 59.458832306355177 -20.687049808795251 0 0 0 0 256.96247336388024 79.45721759948583 0 79.45721759948583 -75.116507503576372 0 0 0 0 255.57655486424937 117.70859700178673 0 117.70859700178673 4.2887781502340658 0 0 0 0 149.69480856701648 64.899275950894165 0 64.899275950894165 1.2584967788904997 0 0 0 0 221.74993182210346 67.473998933819871 0 67.473998933819871 10.295938747098091 0 0 0 0 138.42266270164691 67.535813290260194 0 67.535813290260194 -23.619488138666384 0 0 0 0 34.24120156221143 11.202711580504811 0 11.202711580504811 0.074186259563262524 0 0 0 0 566.91793460105168 122.1478177453729 0 122.1478177453729 -74.595199953175324 0 0 0 0 465.46805653448973 89.074448514409596 0 89.074448514409596 -76.254638506756237 0 0 0 0 500.77165781307849 201.74481567912562 0 201.74481567912562 66.44058055908863 0 0 0 0 800.52383987599751 -6.1764979053332354 0 -6.1764979053332354 -11.302364958781254 0 0 0 0 -26.568878834434656 12.443313307274536 0 12.443313307274536 22.263530527026766 0 0 0 0 510.71139263451187 26.971773205122645 0 26.971773205122645 10.65693466064215 0 0 0 0 237.38571869709131 92.351998396023959 0 92.351998396023959 -21.279211697930393 0 0 0 0 477.97916095006804 150.81795791251443 0 150.81795791251443 55.420185507982296 0 0 0 0 14.333858318907946 87.313002229750083 0 87.313002229750083 19.835985077626543 0 0 0 0 416.71238399220601 37.849415628078077 0 37.849415628078077 -49.752608481943753 0 0 0 0 168.86560127414052 158.27935858024981 0 158.27935858024981 -14.614500244386477 0 0 0 0 -3.8872881307969482 90.411912668377539 0 90.411912668377539 21.020850983160926 0 0 0 0 -64.798764850047519 92.781045107281102 0 92.781045107281102 201.76578818085704 0 0 0 0 24.350553961577411 87.883562819738287 0 87.883562819738287 20.453361978355893 0 0 0 0 496.06089988285385 221.49730009817813 0 221.49730009817813 12.24634463322127 0 0 0 0 302.11307280092205 169.21377666181331 0 169.21377666181331 -20.272562402657286 0 0 0 0 289.86369041167291 201.1917160632334 0 201.1917160632334 -19.39655643370023 0 0 0 0 304.07477348275506 184.73103452914273 0 184.73103452914273 30.606125653429217 0 0 0 0 379.04506107045381 175.2222238304505 0 175.2222238304505 29.361455651936211 0 0 0 0 274.63888230976045 94.688724152786165 0 94.688724152786165 -63.024246897526382 0 0 0 0 315.02912301147671 5.5093227364595663 0 5.5093227364595663 -108.02292017056402 0 0 0 0 324.95728495251421 95.742076253672707 0 95.742076253672707 -74.153761500768269 0 0 0 0 508.16614136949647 149.72853580599178 0 149.72853580599178 -58.368997531733044 0 0 0 0 338.05889259390142 8.9968257786942445 0 8.9968257786942445 -19.59753658584782 0 0 0 0 571.92762918528388 84.482528756490638 0 84.482528756490638 -28.286449665383884 0 0 0 0 423.97864622266889 -68.323870222235996 0 -68.323870222235996 -72.122273961467272 0 0 0 0 58.178147526654357 -83.268966814859425 0 -83.268966814859425 95.496576674191715 0 0 0 0 72.312872964357666 -42.643013010487152 0 -42.643013010487152 -38.860565872201846 0 0 0 0 178.32407375774073 -44.138413309582688 0 -44.138413309582688 -52.684977046897188 0 0 0 0 217.95856689170523 -61.111775076596473 0 -61.111775076596473 -69.241072235254137 0 0 0 0 102.23865916495197 67.824481319042448 0 67.824481319042448 -33.421758362572078 0 0 0 0 75.130906914959269 543.89933863929286 0 543.89933863929286 809.45960266619443 0 0 0 0 7.2938211511705795 3.7151235520146355 0 3.7151235520146355 2.0384279235226752 0 0 0 0 307.76389829405707 -194.98558815128254 0 -194.98558815128254 119.94999251105673 0 0 0 0 494.01297882385597 -119.4805506725383 0 -119.4805506725383 80.471686561248703 0 0 0 0 752.01843780758918 216.06464846526387 0 216.06464846526387 289.52717435743989 0 0 0 0 695.68671286419067 -24.424666201991272 0 -24.424666201991272 67.5306054543139 0 0 0 0 643.04515487853757 359.5996426121917 0 359.5996426121917 157.31725779754424 0 0 0 0 466.77762172337953 412.80336017206582 0 412.80336017206582 -364.34554403460834 0 0 0 0 -51.153848951570581 -31.844231294964175 0 -31.844231294964175 1201.9366578699485 0 0 0 0 -127.4156249917242 -1408.3530375834191 0 -1408.3530375834191 -497.81777912904909 0 0 0 0 -6.9366655909507244 505.63677989876936 0 505.63677989876936 -23.884587075976 0 0 0 0 2.7885856074060662 -0.57772192781574461 0 -0.57772192781574461 -3.640602690291451 0 0 0 0 1096.1690617825898 600.18189782453874 0 600.18189782453874 -318.18012906109527 0 0 0 0 90.505311721228281 -401.37781902143814 0 -401.37781902143814 -301.76781401883147 0 0 0 0 9.2804514337948198 12.109843117379821 0 12.109843117379821 7.1404023848002938 0 0 0 0 -336.76214522176815 49.114867816495462 0 49.114867816495462 -39.125843589251076 0 0 0 0 223.83615283314066 301.62843201724058 0 301.62843201724058 363.63333654195594 0 0 0 0 134.45799433581601 263.50478822536218 0 263.50478822536218 348.03742715747853 0 0 0 0 499.77803568140735 30.836631562552043 0 30.836631562552043 -63.743190887670153 0 0 0 0 -6.3183322668219262 -280.6324092820538 0 -280.6324092820538 401.49506715646203 0 0 0 0 30.633470391147853 11.063231965353729 0 11.063231965353729 0.049831329821052872 0 0 0 0 -384.35926509465696 -481.64731459238629 0 -481.64731459238629 -955.00684789758509 0 0 0 0 1205.0741767304589 966.35886356664503 0 966.35886356664503 408.71795452069892 0 0 0 0 11.615763318006614 -5.478143025489155 0 -5.478143025489155 0.79972458668952495 0 0 0 0 -239.43181451945202 -875.7106874932266 0 -875.7106874932266 -771.25351389700188 0 0 0 0 -663.82182432728769 -536.27401006762739 0 -536.27401006762739 40.108056377224159 0 0 0 0 528.0405842048367 251.08126769954958 0 251.08126769954958 178.33505012481999 0 0 0 0 543.32229595900571 487.76489220024308 0 487.76489220024308 605.1483230068809 0 0 0 0 454.67077915848131 284.63894968062914 0 284.63894968062914 164.69104221260659 0 0 0 0 503.98101810984826 277.31719184143094 0 277.31719184143094 110.40132463644659 0 0 0 0 496.78024304167775 277.59119507723199 0 277.59119507723199 173.43503557060188 0 0 0 0 73.777267968383967 -489.4085480282601 0 -489.4085480282601 -174.37920630414084 0 0 0 0 29.458579693131753 -14.088565308217534 0 -14.088565308217534 1.8153248392475376 0 0 0 0 521.51384693302407 307.29662470089499 0 307.29662470089499 175.87208714048893 0 0 0 0 271.66290457884111 499.91984278911855 0 499.91984278911855 -0.86359431659411712 0 0 0 0 8.5142816684011535 -0.056764989623658835 0 -0.056764989623658835 -12.456866277952928 0 0 0 0 233.22578363784396 -296.92237009019595 0 -296.92237009019595 -983.39307647697387 0 0 0 0 35.809642381598835 -18.231036029765722 0 -18.231036029765722 1.7648836336891662 0 0 0 0 259.87664022268655 141.46027769851162 0 141.46027769851162 161.8582039629473 0 0 0 0 279.93139736179364 88.203584583292013 0 88.203584583292013 63.975088772935123 0 0 0 0 8.1295857573512684 0.83272824598439854 0 0.83272824598439854 -16.986777155023397 0 0 0 0 244.47747691631594 -253.13921438999068 0 -253.13921438999068 -202.45537042141495 0 0 0 0 75.020209257836541 -5.1994705120523577 0 -5.1994705120523577 -171.28298808496038 0 0 0 0 43.668819428712595 261.35669740503181 0 261.35669740503181 77.530210434669243 0 0 0 0 103.71479315406395 123.42097121948336 0 123.42097121948336 -140.06605717260481 0 0 0 0 85.556610365063534 112.76850499211832 0 112.76850499211832 -61.307048055011137 0 0 0 0 115.65856661528051 77.205771528049809 0 77.205771528049809 -199.7036649806023 0 0 0 0 143.71531984836702 85.43345876252431 0 85.43345876252431 -48.827672955091202 0 0 0 0 63.205034538942172 -15.238206939548778 0 -15.238206939548778 -5.6937704934568805 0 0 0 0 4.0155009337249794 -20.438841865461995 0 -20.438841865461995 129.68507565128334 0 0 0 0 111.05778384092446 -55.380339501872413 0 -55.380339501872413 -62.729481412090877 0 0 0 0 54.374356859624029 0.11468983990956882 0 0.11468983990956882 -2.5339009991317676 0 0 0 0 61.668560455789702 2.0458154878993469 0 2.0458154878993469 -9.5984872093831655 0 0 0 0 72.799112405340566 9.6093645052831107 0 9.6093645052831107 -39.106669726067537 0 0 0 0 85.811408840932543 1.1905471499078759 0 1.1905471499078759 -8.7569130492325229 0 0 0 0 49.908750444639601 -3.7418739536583416 0 -3.7418739536583416 -11.166014589676225 0 0 0 0 49.605915129299099 -14.229839076562985 0 -14.229839076562985 -1.5720609305342192 0 0 0 0 68.504900278931018 -6.9536959355311865 0 -6.9536959355311865 -52.757484540046107 0 0 0 0 47.77104470269478 -7.6872601582847437 0 -7.6872601582847437 -75.419920319040557 0 0 0 0 209.66397383238655 77.456087924656458 0 77.456087924656458 -157.46631646174228 0 0 0 0 78.486777704203064 4.7989044876808382 0 4.7989044876808382 -5.4454736998283577 0 0 0 0 76.693589133457863 -202.6496480856058 0 -202.6496480856058 13.88683431551226 0 0 0 0 219.48476643531103 154.85834831184502 0 154.85834831184502 -78.670855528123866 0 0 0 0 116.19332719398903 42.834615882223744 0 42.834615882223744 -21.749069237034217 0 0 0 0 125.53001598986157 65.617411616319259 0 65.617411616319259 -38.180266761806706 0 0 0 0 61.058493160264334 14.730348500146647 0 14.730348500146647 -38.28647863287938 0 0 0 0 72.569957956497092 68.403458292464165 0 68.403458292464165 14.628753314991627 0 0 0 0 94.513821140855185 18.38719911634275 0 18.38719911634275 -2.0003725708212095 0 0 0 0 79.169003059159877 -9.7519730933290703 0 -9.7519730933290703 -13.728910641279072 0 0 0 0 65.693193124313822 -7.2267861402689988 0 -7.2267861402689988 -0.28963384548697135 0 0 0 0 83.395790830647456 81.389408880426345 0 81.389408880426345 -1.6526668662445445 0 0 0 0 120.87509606106323 56.131785051678889 0 56.131785051678889 -3.1192832060260116 0 0 0 0 115.02860031757812 29.03691118116064 0 29.03691118116064 8.8834507413538368 0 0 0 0 45.361551519474062 -21.532500226422357 0 -21.532500226422357 -8.7800915872680676 0 0 0 0 125.62710235707682 -0.13508627065482093 0 -0.13508627065482093 -8.9356395362400409 0 0 0 0 831.54121903058694 -136.18311673759899 0 -136.18311673759899 -313.84837196291664 0 0 0 0 10.659131609432109 -19.111765609777667 0 -19.111765609777667 -8.0065534629001256 0 0 0 0 940.87609334000445 142.50204329882382 0 142.50204329882382 -709.19855550308262 0 0 0 0 202.73660823937979 20.541887304070698 0 20.541887304070698 -3.8835302562437457 0 0 0 0 -74.823881594231352 6.5501974674771191 0 6.5501974674771191 -137.08929559260832 0 0 0 0 145.32913011524943 72.261809834273663 0 72.261809834273663 137.80180819571751 0 0 0 0 411.21265605458757 172.05758576513108 0 172.05758576513108 98.586131106792891 0 0 0 0 24.950182289350778 -27.015817124774912 0 -27.015817124774912 26.156969019313692 0 0 0 0 -52.649862547172233 -124.31661241301299 0 -124.31661241301299 48.603251756472218 0 0 0 0 -1485.5962750097642 195.64714664619382 0 195.64714664619382 -175.48471442175787 0 0 0 0 229.71443556409213 -17.361196971490131 0 -17.361196971490131 -56.759415356671994 0 0 0 0 40.34697814763058 -10.074065651287583 0 -10.074065651287583 -59.650181683353139 0 0 0 0 179.60262450505707 24.029181448030556 0 24.029181448030556 -12.782841383324811 0 0 0 0 58.006079027763036 8.0219632106543983 0 8.0219632106543983 -14.960740521516751 0 0 0 0 100.79905572081407 192.61278861032713 0 192.61278861032713 -222.49978918144006 0 0 0 0 1102.0520407990625 -1109.399421082981 0 -1109.399421082981 -220.31969983833943 0 0 0 0 1687.0249958845125 342.65292945345647 0 342.65292945345647 -266.3412937034791 0 0 0 0 28.445985796353852 143.61169210452147 0 143.61169210452147 260.50502269807134 0 0 0 0 692.11512831022264 -42.949287347269546 0 -42.949287347269546 50.745327105999422 0 0 0 0 606.84834341727765 355.62162058002741 0 355.62162058002741 374.42982118660348 0 0 0 0 46.95832070290362 206.59917805690094 0 206.59917805690094 142.94808674161482 0 0 0 0 60.562601730354601 30.925441232534375 0 30.925441232534375 5.3963728278927103 0 0 0 0 102.95096191383709 -2.672299535707225 0 -2.672299535707225 -7.1655347272920551 0 0 0 0 101.59690237462382 -19.556564116216919 0 -19.556564116216919 -2.0555998114548402 0 0 0 0 13.766323835645412 -0.24283086337859316 0 -0.24283086337859316 -3.6266437663399671 0 0 0 0 138.9342986285119 -75.004418824033564 0 -75.004418824033564 -59.852102729796343 0 0 0 0 37.287105150544448 10.811867572497704 0 10.811867572497704 -57.635989211747983 0 0 0 0 9.0911849173792714 -2.7341225035270433 0 -2.7341225035270433 1.0135821090742541 0 0 0 0 100.43371241089335 51.926241499396383 0 51.926241499396383 312.04871738479778 0 0 0 0 697.49450115439049 205.70244162881545 0 205.70244162881545 105.08304215982662 0 0 0 0 411.33844276817217 350.4890919952918 0 350.4890919952918 107.34893263361482 0 0 0 0 433.73805996990268 74.079271120522662 0 74.079271120522662 -39.50053043015464 0 0 0 0 6.9225173162766502 -3.3202805146279495 0 -3.3202805146279495 -2.4258140229676464 0 0 0 0 3.6814788634819706 -137.40307568306773 0 -137.40307568306773 -52.898854621023929 0 0 0 0 -9.9375506307173964 -15.547036300433774 0 -15.547036300433774 -43.355370841485637 0 0 0 0 70.419421717848309 24.465151067621264 0 24.465151067621264 -54.423001810495862 0 0 0 0 112.43034897403413 -27.477903943900856 0 -27.477903943900856 -72.931782456933433 0 0 0 0 107.44180213458094 50.976853451617899 0 50.976853451617899 -42.220073656157183 0 0 0 0 92.685374414340913 26.576332696353347 0 26.576332696353347 -65.909238446846757 0 0 0 0 108.98511493782917 -3.3430453920675518 0 -3.3430453920675518 -64.351389141089385 0 0 0 0 46.651115732976905 -23.861279970300529 0 -23.861279970300529 -61.132958013083226 0 0 0 0 113.90386995731114 -12.888291979845917 0 -12.888291979845917 -40.696024785795089 0 0 0 0 99.891251172346529 5.0312644386376633 0 5.0312644386376633 -24.97714675343741 0 0 0 0 142.33250527938981 -51.678498050792768 0 -51.678498050792768 -27.5965368396146 0 0 0 0 108.15821240098285 -38.557361512108173 0 -38.557361512108173 -2.9948639067010845 0 0 0 0 195.91040598707241 -38.634680395206033 0 -38.634680395206033 -35.306899772716861 0 0 0 0 130.61746780949034 -7.0709500676016432 0 -7.0709500676016432 -26.857856403591541 0 0 0 0 117.91682885036334 -33.210123562555054 0 -33.210123562555054 -0.075516493704526511 0 0 0 0 -1.4698825861776452 -3.4447109295009142 0 -3.4447109295009142 -0.17913187869992164 0 0 0 0 86.216266540397555 -5.2366173070281548 0 -5.2366173070281548 -5.1956177895822293 0 0 0 0 -6.9091111771658689 98.871582544732746 0 98.871582544732746 -84.523998809050596 0 0 0 0 22.513131060097177 -0.41368201283785311 0 -0.41368201283785311 -4.9648530501387214 0 0 0 0 105.20330895778716 -7.6768636650513145 0 -7.6768636650513145 -20.140523133556144 0 0 0 0 52.117400428311157 42.283706006893681 0 42.283706006893681 -13.841327894837377 0 0 0 0 19.558219517933058 12.841889884310888 0 12.841889884310888 -19.030504215959489 0 0 0 0 -307.74312422114735 93.05052521079449 0 93.05052521079449 56.50834136263893 0 0 0 0 84.401875438594288 21.377024401157087 0 21.377024401157087 -12.615142612542058 0 0 0 0 130.1942120728645 20.065034374263746 0 20.065034374263746 -36.162759011374874 0 0 0 0 76.752112826593432 9.1482389889883926 0 9.1482389889883926 -8.2451066285940833 0 0 0 0 681.28155626338412 -82.072668503815294 0 -82.072668503815294 -161.62300949609607 0 0 0 0 59.782109724081238 1.7484594825618842 0 1.7484594825618842 -42.120625754189405 0 0 0 0 71.649460923996671 3.8923167166799595 0 3.8923167166799595 -7.5253999035085437 0 0 0 0 -430.97541648357264 114.66431279960898 0 114.66431279960898 -116.47245705308694 0 0 0 0 2.1063220786575698 -0.61184725969773091 0 -0.61184725969773091 -0.24884141746389732 0 0 0 0 79.499043274344331 -269.7300810161662 0 -269.7300810161662 47.489388155858705 0 0 0 0 397.13296135550581 -9.1008512665503076 0 -9.1008512665503076 -189.29381855542306 0 0 0 0 297.75585122794746 111.8763365465536 0 111.8763365465536 18.549534262506768 0 0 0 0 168.33381591366833 121.29477548861951 0 121.29477548861951 111.40213573389929 0 0 0 0 187.94552730673058 22.199138415883908 0 22.199138415883908 -26.194126509100897 0 0 0 0 19.622222164611912 8.0358173381576989 0 8.0358173381576989 -25.68216418216889 0 0 0 0 106.74332325079286 -115.97940608590068 0 -115.97940608590068 -55.192617564303418 0 0 0 0 396.41529116733545 -113.56050429879406 0 -113.56050429879406 -83.102278377281436 0 0 0 0 194.12965941246307 294.93194442536122 0 294.93194442536122 -297.08768400239614 0 0 0 0 249.79288973301664 289.4577340792016 0 289.4577340792016 225.57990318447673 0 0 0 0 185.42870408540693 -201.30079704592936 0 -201.30079704592936 36.238055931808958 0 0 0 0 4.9495477246552912 -2.1056918960351849 0 -2.1056918960351849 0.98178781527409975 0 0 0 0 101.71383056115565 39.77251244534034 0 39.77251244534034 -35.661547284197468 0 0 0 0 1362.8600321892154 278.20838907636698 0 278.20838907636698 -515.67956095785848 0 0 0 0 530.13748510105052 -808.16147017338017 0 -808.16147017338017 182.6853865346568 0 0 0 0 165.32107970057768 9.7186501718649083 0 9.7186501718649083 -66.088393950034629 0 0 0 0 106.85089464123166 -28.418027580408989 0 -28.418027580408989 71.569186938065741 0 0 0 0 18.956108561397244 9.5424329913217338 0 9.5424329913217338 -12.022028725311046 0 0 0 0 -186.08674015103247 -102.43251271167071 0 -102.43251271167071 92.484955010434533 0 0 0 0 6.5809473407834957 5.358593955330889 0 5.358593955330889 44.469186122254087 0 0 0 0 206.09671035145675 63.441230514056087 0 63.441230514056087 -232.92912145419723 0 0 0 0 77.151207062131633 14.840671389156801 0 14.840671389156801 -2.1647966713378679 0 0 0 0 158.09281265946629 24.542304257351816 0 24.542304257351816 -43.622800960904328 0 0 0 0 29.906256877432725 34.45698005615337 0 34.45698005615337 -12.435325827509132 0 0 0 0 23.781858350295806 -23.228603382133201 0 -23.228603382133201 49.105312810541136 0 0 0 0 69.223746719470938 13.845544741605423 0 13.845544741605423 -0.96147263748553558 0 0 0 0 88.093529731329909 -25.260542068025245 0 -25.260542068025245 13.615407076688777 0 0 0 0 53.825361821785918 4.1339962064527072 0 4.1339962064527072 -31.600566859166292 0 0 0 0 52.505916960446328 20.740654329692912 0 20.740654329692912 -2.4690846176916574 0 0 0 0 42.546863626535924 75.670122151645046 0 75.670122151645046 48.172991163600727 0 0 0 0 0.59824469902594046 7.9925514013376873 0 7.9925514013376873 0.093741577421446065 0 0 0 0 125.79869741784933 41.983449152730373 0 41.983449152730373 -20.440628521658255 0 0 0 0 158.95519072965544 48.292535416320334 0 48.292535416320334 -68.65853109364889 0 0 0 0 128.7994804359405 24.711125345262872 0 24.711125345262872 2.8406219049429637 0 0 0 0 222.85179390280973 -17.777072479656454 0 -17.777072479656454 7.7417507267639394 0 0 0 0 166.64061350196425 3.1154341977980948 0 3.1154341977980948 30.612269641575949 0 0 0 0 160.90622379464912 33.14991669795063 0 33.14991669795063 -7.3301976186312459 0 0 0 0 161.94036679624696 27.29538458189154 0 27.29538458189154 -24.434859920194526 0 0 0 0 108.70081066255807 51.392304820836671 0 51.392304820836671 -25.250010080473658 0 0 0 0 141.89887539065967 45.865221718967177 0 45.865221718967177 -33.927749118175143 0 0 0 0 103.79148769704625 62.228562927906751 0 62.228562927906751 -44.396447934387197 0 0 0 0 67.663152643481368 21.800492676793404 0 21.800492676793404 -5.8760704282702623 0 0 0 0 110.58067898394074 52.659297794079976 0 52.659297794079976 -51.552535631259389 0 0 0 0 136.60351650248413 55.128620917500939 0 55.128620917500939 -43.73598612450769 0 0 0 0 105.05913565962692 43.893581507040381 0 43.893581507040381 -47.737014055256168 0 0 0 0 60.59974807289467 20.86344507859075 0 20.86344507859075 2.2694269533912608 0 0 0 0 126.83507366215645 120.93383287561721 0 120.93383287561721 -97.998453002825045 0 0 0 0 22.465461871935055 3.4942991699319066 0 3.4942991699319066 -6.443181808351258 0 0 0 0 35.058947738418283 89.150792162169182 0 89.150792162169182 56.755194513406423 0 0 0 0 49.415694547380554 20.046335961070326 0 20.046335961070326 -68.24530589830465 0 0 0 0 85.020643200188232 -5.7129113409565946 0 -5.7129113409565946 -14.270024156830051 0 0 0 0 57.831905970741389 27.349433955686152 0 27.349433955686152 -13.384623739388196 0 0 0 0 77.260189406395511 -30.037532980328251 0 -30.037532980328251 -51.824659413674453 0 0 0 0 84.280914431350212 13.397937278112583 0 13.397937278112583 -11.928895622886388 0 0 0 0 122.60853394098376 40.560798279368555 0 40.560798279368555 -53.330653530319069 0 0 0 0 158.73807497571397 12.712264788056018 0 12.712264788056018 -142.35773357867402 0 0 0 0 113.56564916377829 19.542641882845146 0 19.542641882845146 -64.313532040416931 0 0 0 0 62.034871118269052 9.2064849378198303 0 9.2064849378198303 -4.8578123484018789 0 0 0 0 93.140548658830994 26.267212067374317 0 26.267212067374317 -54.36650075801299 0 0 0 0 151.30317497928263 -13.247422243905021 0 -13.247422243905021 -53.523410034918925 0 0 0 0 122.40711556878523 14.517187511628435 0 14.517187511628435 -5.2479169811267639 0 0 0 0 8.7020043459477332 -5.9234754263367151 0 -5.9234754263367151 -3.2616356520988674 0 0 0 0 49.303085303860371 -0.12292377995856896 0 -0.12292377995856896 -29.47593804645021 0 0 0 0 52.481582431901188 -16.897193565644557 0 -16.897193565644557 -18.892367730455589 0 0 0 0 36.989329008725626 -2.8662356174013386 0 -2.8662356174013386 -21.850487612627226 0 0 0 0 42.571131801960291 1.3480189396805144 0 1.3480189396805144 -27.716865963255714 0 0 0 0 38.308751374484928 1.0715575897988856 0 1.0715575897988856 -25.839509400731004 0 0 0 0 33.811252937838617 1.0901868697105783 0 1.0901868697105783 -11.659784484785632 0 0 0 0 27.409440381167357 -0.74481081095592261 0 -0.74481081095592261 -19.696021972121482 0 0 0 0 142.78464385112602 -35.458531282693002 0 -35.458531282693002 -15.338441238827727 0 0 0 0 47.868051102480841 8.7036853011028548 0 8.7036853011028548 -16.093692730772609 0 0 0 0 36.858626629776836 -3.6598699430769557 0 -3.6598699430769557 -23.409634185660252 0 0 0 0 48.306822569616088 44.452055452415152 0 44.452055452415152 -41.176463901249235 0 0 0 0 54.29487437691796 10.050856352828305 0 10.050856352828305 -79.299756313485432 0 0 0 0 52.130651048739082 5.3372783003434279 0 5.3372783003434279 -32.055628660451475 0 0 0 0 44.201633369069327 10.354844083159264 0 10.354844083159264 -35.227095286571057 0 0 0 0 18.907108406634507 14.74980251953366 0 14.74980251953366 -23.621543252706488 0 0 0 0 22.228570118975995 28.551139330779108 0 28.551139330779108 9.8140599493590344 0 0 0 0 175.06971027839427 -114.95074948051433 0 -114.95074948051433 -147.78062133544154 0 0 0 0 78.968569996650331 1.6834076813256615 0 1.6834076813256615 -33.289795686357365 0 0 0 0 62.632105473127048 -3.039794860614049 0 -3.039794860614049 -9.0169636139201259 0 0 0 0 12.838644272736019 65.929280545570009 0 65.929280545570009 93.125132803185352 0 0 0 0 -11.792895297086034 8.0553262412950062 0 8.0553262412950062 6.3677211737582411 0 0 0 0 2.7953463283956528 -9.5479005442528262 0 -9.5479005442528262 -5.7303540401317239 0 0 0 0 -19.071080280604292 -10.635601216255509 0 -10.635601216255509 -112.37511263156102 0 0 0 0 15.349372102778034 -3.8751201012521506 0 -3.8751201012521506 -12.717265904038868 0 0 0 0 56.588040084275477 0.6708156283601987 0 0.6708156283601987 -23.117771003902 0 0 0 0 176.29171865057469 -3.831709841897009 0 -3.831709841897009 -327.60318995461057 0 0 0 0 104.69484641577583 49.849129152082241 0 49.849129152082241 -334.21546528750696 0 0 0 0 167.75173563871795 -38.66316331946291 0 -38.66316331946291 -453.86900927556235 0 0 0 0 81.686647471640754 -0.51518486902023142 0 -0.51518486902023142 -155.10005098824695 0 0 0 0 28.26659778937028 -186.15357215267431 0 -186.15357215267431 -301.63465808237743 0 0 0 0 49.470826480287457 -13.772720908114666 0 -13.772720908114666 -34.241330432349741 0 0 0 0 -93.115047330764355 208.00653319302364 0 208.00653319302364 -270.63577544495911 0 0 0 0 88.925887866376343 -11.053768199971046 0 -11.053768199971046 -13.411981654942792 0 0 0 0 122.96129112267954 211.9257258977068 0 211.9257258977068 -57.01487872270809 0 0 0 0 107.28069638791567 -38.706625328988594 0 -38.706625328988594 -209.50874819252931 0 0 0 0 125.78248029452834 154.76286014695643 0 154.76286014695643 -117.02510666596936 0 0 0 0 62.903940570759005 -94.903283911628023 0 -94.903283911628023 -167.55942923748444 0 0 0 0 28.953080264138123 -4.3126822094638015 0 -4.3126822094638015 -17.434550536890157 0 0 0 0 192.80804084287229 83.353028352245019 0 83.353028352245019 -223.33345536674824 0 0 0 0 137.30698403464339 62.448816109172185 0 62.448816109172185 -136.01454873919283 0 0 0 0 159.91562578233425 137.7279410313713 0 137.7279410313713 75.42819749145346 0 0 0 0 104.28029040591355 81.33704690596096 0 81.33704690596096 75.291340170795593 0 0 0 0 154.62309350692522 120.43477928391439 0 120.43477928391439 58.895415492484972 0 0 0 0 113.76597659810386 79.98023546964987 0 79.98023546964987 5.5038579477095482 0 0 0 0 70.34782958595315 16.129277208927306 0 16.129277208927306 -50.392021115374519 0 0 0 0 121.85714097554774 74.042350710843948 0 74.042350710843948 77.557372846134967 0 0 0 0 41.344453111025345 -0.55659216846406956 0 -0.55659216846406956 -6.3380092452766057 0 0 0 0 86.764321751752504 60.720679089493387 0 60.720679089493387 -103.42155713760849 0 0 0 0 -21.636638220283203 -41.892207670862263 0 -41.892207670862263 19.814377115844763 0 0 0 0 83.136948533221869 -2.2722214395476037 0 -2.2722214395476037 -8.2861662152872313 0 0 0 0 148.01315460704791 -15.629211195757307 0 -15.629211195757307 -137.29727444183118 0 0 0 0 31.226519966850901 6.8613172800505708 0 6.8613172800505708 40.251130104961703 0 0 0 0 39.218141334678876 -54.414676094235801 0 -54.414676094235801 -59.122761482698479 0 0 0 0 110.99585888751244 10.342297836377838 0 10.342297836377838 -15.034279612133105 0 0 0 0 147.56258593109578 -28.857742620346016 0 -28.857742620346016 -36.663301218526613 0 0 0 0 87.677055161061276 13.602479766368106 0 13.602479766368106 -0.93484285918384558 0 0 0 0 76.309477527027411 16.275224077728126 0 16.275224077728126 16.432825394950669 0 0 0 0 82.916126313943096 40.28226961333803 0 40.28226961333803 79.679791462946923 0 0 0 0 70.895945065952873 17.496333936471242 0 17.496333936471242 -8.4460761158501221 0 0 0 0 125.8882520931038 48.244740552054282 0 48.244740552054282 -30.239930398205615 0 0 0 0 15.868698962550653 26.619709062215549 0 26.619709062215549 -11.773303903081628 0 0 0 0 -5.4135837592220071 30.843525233554807 0 30.843525233554807 0.70838890630046425 0 0 0 0 254.7060405058146 8.8240393124251568 0 8.8240393124251568 -206.35687493459591 0 0 0 0 316.58753276779316 203.1748412187153 0 203.1748412187153 -184.46015287808041 0 0 0 0 126.67824150375782 32.173158709800191 0 32.173158709800191 7.2518208367059742 0 0 0 0 92.34097166182616 40.05672918298233 0 40.05672918298233 -3.1976325413268327 0 0 0 0 178.76817449691589 48.980053528233839 0 48.980053528233839 -92.276264140900821 0 0 0 0 114.29232344227785 81.692533362976974 0 81.692533362976974 -46.185529838781804 0 0 0 0 31.925217368872836 94.887423634529114 0 94.887423634529114 -34.137379283471091 0 0 0 0 213.48254125407675 70.87327219959684 0 70.87327219959684 -79.41316279899911 0 0 0 0 199.8870340238318 -8.9966583139394061 0 -8.9966583139394061 -47.665549361587182 0 0 0 0 134.35083415855212 23.471480684938996 0 23.471480684938996 -51.194772694656422 0 0 0 0 135.46058071902371 85.156380588090542 0 85.156380588090542 -78.688143086939817 0 0 0 0 234.98901945572652 23.490273218017137 0 23.490273218017137 -43.545378822709608 0 0 0 0 256.53420024347724 56.845809979704427 0 56.845809979704427 -53.703849817725995 0 0 0 0 161.77154435741249 73.195540936736506 0 73.195540936736506 -55.329957829202613 0 0 0 0 191.85779978767096 91.974165492458269 0 91.974165492458269 -49.180138743107818 0 0 0 0 168.3278052245696 130.09865857108889 0 130.09865857108889 30.945460261511471 0 0 0 0 69.48493095610138 57.83944735953412 0 57.83944735953412 -2.1112181886019243 0 0 0 0 44.599229170005479 2.2104130170813576 0 2.2104130170813576 -12.335932815835637 0 0 0 0 81.704797708196566 20.135235618217848 0 20.135235618217848 -46.044413316900318 0 0 0 0 39.132477686321181 3.4388233843226317 0 3.4388233843226317 -25.761231430155021 0 0 0 0 6.3486869911042731 -3.5886421510046418 0 -3.5886421510046418 -3.2924907469212457 0 0 0 0 493.82652849581791 63.590697968284985 0 63.590697968284985 -37.372179144985921 0 0 0 0 266.86530364154169 215.01673990277777 0 215.01673990277777 152.64225073103717 0 0 0 0 1.1526686438753018 -2.8840488785345784 0 -2.8840488785345784 2.2834567828275318 0 0 0 0 70.291508369067742 84.837359333115273 0 84.837359333115273 71.839659410671629 0 0 0 0 70.449773393731448 2.6394589823830756 0 2.6394589823830756 -66.792919084778987 0 0 0 0 119.04466446232072 -7.1035730454750592 0 -7.1035730454750592 -119.20764972125926 0 0 0 0 63.186158268003474 -6.3926731944679229 0 -6.3926731944679229 -4.6814432407192843 0 0 0 0 61.158112748677496 -8.4567662743129262 0 -8.4567662743129262 -8.9780864117401329 0 0 0 0 38.428869277053309 21.037412912140098 0 21.037412912140098 -8.0561357544966086 0 0 0 0 62.052050478265301 -13.705830864125346 0 -13.705830864125346 -32.551427645646982 0 0 0 0 10.249998112507456 2.2215906573001121 0 2.2215906573001121 -106.93628425691168 0 0 0 0 7.5614009362689103 4.4761683728220305 0 4.4761683728220305 -41.353931293736423 0 0 0 0 -2.5442424483953516 -4.933751274075405 0 -4.933751274075405 -0.44241054876407659 0 0 0 0 -5.4136164082585054 -23.887134275952384 0 -23.887134275952384 -24.793608550322624 0 0 0 0 -13.589180048104026 -43.178144452385823 0 -43.178144452385823 -16.565364406404115 0 0 0 0 94.304081569483969 -109.53265336969298 0 -109.53265336969298 -89.929304005722543 0 0 0 0 42.466002573310107 22.432160407497122 0 22.432160407497122 -39.278804584240788 0 0 0 0 221.11738623102428 -57.665983916283949 0 -57.665983916283949 -3.3670855646778364 0 0 0 0 297.06007982602023 -53.592988941112196 0 -53.592988941112196 -25.519753305643462 0 0 0 0 378.45274354243884 -92.857322117831245 0 -92.857322117831245 -6.5908377610903699 0 0 0 0 6.3984497216837752 -0.19949534859421192 0 -0.19949534859421192 -7.181293626941045 0 0 0 0 263.81549210903177 28.066631237265938 0 28.066631237265938 8.3491224564259028 0 0 0 0 -1.2210226104714845 -10.776801038392549 0 -10.776801038392549 -22.027054023230797 0 0 0 0 -57.326265033509117 12.768797707404246 0 12.768797707404246 -39.287292343001354 0 0 0 0 256.70958761537622 -8.3958760168011395 0 -8.3958760168011395 -27.641112969628011 0 0 0 0 230.7680235251828 43.633847799804528 0 43.633847799804528 -12.689977119689047 0 0 0 0 228.79273275380547 -14.834545509371765 0 -14.834545509371765 24.78731107016074 0 0 0 0 240.43632906419225 3.4542053074432033 0 3.4542053074432033 -31.928948064757606 0 0 0 0 -19.611607717622974 45.222246234621252 0 45.222246234621252 -14.30501867183375 0 0 0 0 -19.238353658045526 1.2415402201409051 0 1.2415402201409051 -21.051367354904585 0 0 0 0 -163.16144506772525 32.827232882559656 0 32.827232882559656 26.430182302208777 0 0 0 0 1.9518124607893608 -10.661843354888816 0 -10.661843354888816 -13.905822686094034 0 0 0 0 214.38391661603509 -24.313164718355299 0 -24.313164718355299 -16.417904828179815 0 0 0 0 263.89651138355839 -1.5777528633034308 0 -1.5777528633034308 -31.60046461911088 0 0 0 0 174.47032970246801 -176.07138049396372 0 -176.07138049396372 -101.12713166250614 0 0 0 0 535.79932841996924 -42.661544176797179 0 -42.661544176797179 -103.06665374186332 0 0 0 0 -4.627837559184627 -19.828944886618956 0 -19.828944886618956 7.4635689210717828 0 0 0 0 35.328351789929002 36.725394894774581 0 36.725394894774581 -77.628244971728236 0 0 0 0 54.639943009566196 64.264023537341018 0 64.264023537341018 -15.95739777392555 0 0 0 0 209.71044094351964 -37.959542071535907 0 -37.959542071535907 -54.477979932684775 0 0 0 0 240.1526210428492 -0.022087311649784169 0 -0.022087311649784169 -50.079957180385463 0 0 0 0 348.61788620184234 -113.87950650996231 0 -113.87950650996231 -76.200051846681163 0 0 0 0 502.52937390340776 -110.95800403784602 0 -110.95800403784602 -42.401398420803616 0 0 0 0 385.81305140862241 -30.660058226266301 0 -30.660058226266301 -56.501271410833851 0 0 0 0 350.05664464138681 -60.032454288191502 0 -60.032454288191502 -53.513394180402088 0 0 0 0 169.90841159649062 26.524649457507167 0 26.524649457507167 -41.71270434390226 0 0 0 0 321.83113043537014 4.3838602332509709 0 4.3838602332509709 -42.439528899890291 0 0 0 0 200.73548389458301 58.697112944927198 0 58.697112944927198 -40.347838867238352 0 0 0 0 129.11234448044706 83.204823664773386 0 83.204823664773386 -13.092450808762351 0 0 0 0 128.21281803014153 76.022845792255794 0 76.022845792255794 -36.260231496591132 0 0 0 0 189.20235950611391 92.038799281251571 0 92.038799281251571 -55.595294948130345 0 0 0 0 189.17030066152392 81.826476707225751 0 81.826476707225751 12.358604858779813 0 0 0 0 -18.693098420066235 51.546687359904332 0 51.546687359904332 66.687572108124186 0 0 0 0 396.36549158318314 -5.0549768781166975 0 -5.0549768781166975 18.012019138683911 0 0 0 0 391.45780695778376 122.91179622094359 0 122.91179622094359 -14.288208481378092 0 0 0 0 340.15939062733014 62.920754536345278 0 62.920754536345278 12.789129178625785 0 0 0 0 342.51284581137588 61.542591893923827 0 61.542591893923827 -46.452182063702821 0 0 0 0 447.22457336619482 64.527869061551073 0 64.527869061551073 -74.567975348507247 0 0 0 0 658.85554022018914 85.725586820027075 0 85.725586820027075 12.503314920210968 0 0 0 0 669.75074835174019 -146.05174145191083 0 -146.05174145191083 -39.911589332058668 0 0 0 0 522.87314563082327 -84.805398334805432 0 -84.805398334805432 -9.5573454021018165 0 0 0 0 376.34090503778134 -10.394555750628811 0 -10.394555750628811 -89.085421465016566 0 0 0 0 -46.399338861592696 93.504365594602064 0 93.504365594602064 -3.0400202809030361 0 0 0 0 -104.43951473508059 -0.33932600889670539 0 -0.33932600889670539 -26.132126635345685 0 0 0 0 -318.71085116028553 7.1579753444148935 0 7.1579753444148935 41.770101943522207 0 0 0 0 -163.967224433718 92.32063627437897 0 92.32063627437897 -68.051273559182277 0 0 0 0 -167.14794901606683 130.049674030641 0 130.049674030641 -8.3470936265439093 0 0 0 0 -57.152584075141931 54.97433686854113 0 54.97433686854113 -3.424814563730024 0 0 0 0 -22.739689584297594 75.094959195524183 0 75.094959195524183 -48.84653397608372 0 0 0 0 -209.22409762922325 41.646702714883531 0 41.646702714883531 28.791697814362976 0 0 0 0 -192.89624833592825 6.6463497658798758 0 6.6463497658798758 -117.15109761729479 0 0 0 0 -453.95816260810534 -42.939399722466419 0 -42.939399722466419 5.2857817612404006 0 0 0 0 5.2885279797506755 1.7318451631008429 0 1.7318451631008429 -3.083592843952768 0 0 0 0 -2.59365584632293 -12.256972613572401 0 -12.256972613572401 -7.4372155899150769 0 0 0 0 64.140461475908523 -13.249832194234614 0 -13.249832194234614 75.214366343361689 0 0 0 0 -584.04593659775855 110.27405460338593 0 110.27405460338593 -72.711844880828693 0 0 0 0 -275.06350418475267 -77.987381164310364 0 -77.987381164310364 -26.938973485548786 0 0 0 0 330.3149454595914 -180.96622710127508 0 -180.96622710127508 -37.531819395729599 0 0 0 0 1.3816270854239576 -0.57267756922517066 0 -0.57267756922517066 -0.091452096426638985 0 0 0 0 727.44532032264397 -989.39584827055569 0 -989.39584827055569 -158.47951817725743 0 0 0 0 571.66039662640287 -374.62702853991624 0 -374.62702853991624 -32.081314959915744 0 0 0 0 435.19186545301272 347.12153958007093 0 347.12153958007093 215.99819924135409 0 0 0 0 16.129645427281503 -203.32354086101157 0 -203.32354086101157 -712.40395421843914 0 0 0 0 659.36044599871093 143.54468506369017 0 143.54468506369017 -88.947247277147198 0 0 0 0 320.33504806460405 54.503085551401867 0 54.503085551401867 35.336667861009794 0 0 0 0 171.29729635072727 154.99095230653276 0 154.99095230653276 176.9933433371109 0 0 0 0 385.76194233378192 113.98073539446412 0 113.98073539446412 4.9252762429939594 0 0 0 0 51.365896522409457 -282.07883951231997 0 -282.07883951231997 -588.13502264995532 0 0 0 0 99.893003416713327 61.608267736466331 0 61.608267736466331 53.727780486208076 0 0 0 0 2.030878856060383 1.0759187396135204 0 1.0759187396135204 -3.0432805289805955 0 0 0 0 94.615692605992081 64.742956408425584 0 64.742956408425584 85.90797646708603 0 0 0 0 -275.00183885051229 269.29854161983178 0 269.29854161983178 -410.85662744695946 0 0 0 0 66.594737507031823 -94.195184065805961 0 -94.195184065805961 -62.800794170356312 0 0 0 0 -431.74611481117608 -597.52015546852999 0 -597.52015546852999 -65.476208490158115 0 0 0 0 70.874489138717763 54.080679042768679 0 54.080679042768679 357.24418545660524 0 0 0 0 205.60579813903314 104.63262762694967 0 104.63262762694967 -234.93287950697732 0 0 0 0 96.799384172678401 246.35227856044412 0 246.35227856044412 157.01193621403672 0 0 0 0 121.76083628000924 347.0485807675027 0 347.0485807675027 300.75896330704973 0 0 0 0 11.036809247897651 -1.0907882838038674 0 -1.0907882838038674 -4.679899271460922 0 0 0 0 377.62039281444595 207.67637460213041 0 207.67637460213041 148.54661261492492 0 0 0 0 91.699900278326822 240.59639128851495 0 240.59639128851495 144.77619159045258 0 0 0 0 84.495546081045177 221.42845302392197 0 221.42845302392197 265.15442728733706 0 0 0 0 148.35652202746132 205.80832979382944 0 205.80832979382944 4.9792701151054644 0 0 0 0 129.69643717260624 122.29383145306292 0 122.29383145306292 -159.16122236037791 0 0 0 0 86.437215223748353 94.387891216767116 0 94.387891216767116 -49.512721177493404 0 0 0 0 58.135792629000207 44.474607777575784 0 44.474607777575784 -250.57518892365806 0 0 0 0 -1.7191962373472052 -20.543734222022522 0 -20.543734222022522 -185.43180847689655 0 0 0 0 76.366254800639581 37.775034349179805 0 37.775034349179805 -90.17526050275228 0 0 0 0 10.542007223062683 77.995012244360851 0 77.995012244360851 -113.79798716341338 0 0 0 0 20.73030166659737 -4.693989011033409 0 -4.693989011033409 -195.24555386449993 0 0 0 0 40.880510845658137 104.9830093279752 0 104.9830093279752 -118.31447623326585 0 0 0 0 45.239730832618079 -61.34637589299291 0 -61.34637589299291 -254.03145048045639 0 0 0 0 43.136715058797563 -23.488944082681201 0 -23.488944082681201 -283.96373749291433 0 0 0 0 -120.63820959105215 -45.196151639744585 0 -45.196151639744585 -194.27069125027401 0 0 0 0 1.8021901871340162 8.2727707022139612 0 8.2727707022139612 -7.0727701181881262 0 0 0 0 13.649252284340037 42.243350699846246 0 42.243350699846246 47.485655736669742 0 0 0 0 21.658547770082805 28.955243665598218 0 28.955243665598218 4.7119078106538836 0 0 0 0 68.701481237876578 42.63663700290374 0 42.63663700290374 4.690926837063671 0 0 0 0 25.267281579610426 -32.463463436801703 0 -32.463463436801703 -279.70771594854386 0 0 0 0 -27.35096072844317 -56.60270990494223 0 -56.60270990494223 -154.59024746901559 0 0 0 0 -48.1157316773606 29.039705482681711 0 29.039705482681711 -123.83776246297202 0 0 0 0 -204.91655335662654 19.952362492616885 0 19.952362492616885 -109.42323426987423 0 0 0 0 -56.450080000911839 -67.868096096352019 0 -67.868096096352019 -147.02668426084983 0 0 0 0 17.442513385612983 2.6120441855719037 0 2.6120441855719037 -203.64169523993769 0 0 0 0 -9.4614425530307926 -59.667084064152732 0 -59.667084064152732 -246.04501279691613 0 0 0 0 3.0642033026865132 2.2565504495510567 0 2.2565504495510567 -0.31660180632561108 0 0 0 0 -51.794929386494914 -125.86842280118344 0 -125.86842280118344 -82.661388033218827 0 0 0 0 -28.310891954577528 -121.0832348197855 0 -121.0832348197855 -172.26948190095754 0 0 0 0 -58.971953563857824 -71.569016908259073 0 -71.569016908259073 -53.750748758418922 0 0 0 0 -76.175711567106191 -40.171933172234276 0 -40.171933172234276 -23.591082830411324 0 0 0 0 4.7342063855228531 2.3171514124812376 0 2.3171514124812376 0.047494443482735349 0 0 0 0 -37.187719126639422 -119.43249862514131 0 -119.43249862514131 -273.1665490327905 0 0 0 0 16.221451324180862 -69.989243910064687 0 -69.989243910064687 -332.41346681297364 0 0 0 0 -4.2472545511263888 30.86065724595278 0 30.86065724595278 7.0299811303780189 0 0 0 0 34.344587662691822 15.017953930966385 0 15.017953930966385 -10.989881699623052 0 0 0 0 44.218361671883031 -0.35354791873589875 0 -0.35354791873589875 -9.8612015846581471 0 0 0 0 -62.239486760023283 -13.068291701935777 0 -13.068291701935777 15.869767003857305 0 0 0 0 20.623172543528383 1.2394474790832675 0 1.2394474790832675 -7.6663859713378244 0 0 0 0 20.391260398057057 13.673139158212734 0 13.673139158212734 -1.2382459943091817 0 0 0 0 90.946479693520814 21.583997285966689 0 21.583997285966689 -75.29699791460007 0 0 0 0 6.7214367206257997 13.605705150611371 0 13.605705150611371 5.1844696919644742 0 0 0 0 -4.7370379251660779 -16.170596109848702 0 -16.170596109848702 -115.28888370889035 0 0 0 0 19.175221056713013 1.3552376521897926 0 1.3552376521897926 -11.947343579343013 0 0 0 0 40.751034825230875 13.710132797296993 0 13.710132797296993 -2.2412809355655501 0 0 0 0 2.0670000144164078 -77.008956597661381 0 -77.008956597661381 -75.078644199486007 0 0 0 0 18.319312560956675 -5.6245151957022799 0 -5.6245151957022799 -8.0286290113925176 0 0 0 0 -174.58058872714173 -91.918293766930219 0 -91.918293766930219 -88.284392856192426 0 0 0 0 4.7602763271970616 -113.26183050928034 0 -113.26183050928034 -116.88189786878866 0 0 0 0 83.131159573931654 7.2201611214881041 0 7.2201611214881041 -3.3740928263099477 0 0 0 0 70.530821024993202 9.8909144718957407 0 9.8909144718957407 -2.8000637600079585 0 0 0 0 23.268692307877416 -7.1161677220652706 0 -7.1161677220652706 -2.6777376592907673 0 0 0 0 52.018657814962324 27.693641801908534 0 27.693641801908534 -7.905580664715095 0 0 0 0 28.126033475286931 48.497645934293217 0 48.497645934293217 7.203595485585538 0 0 0 0 147.97326052439166 48.018120543583677 0 48.018120543583677 -28.78655165310056 0 0 0 0 31.651803542950802 66.30673651273861 0 66.30673651273861 -21.844971132833962 0 0 0 0 83.731551569420844 65.900508392642109 0 65.900508392642109 0.48431642500122507 0 0 0 0 86.766324054449797 26.228985865578352 0 26.228985865578352 -39.507191439796657 0 0 0 0 91.623707297869259 43.79111134878201 0 43.79111134878201 1.979556597971623 0 0 0 0 148.1006712080125 44.131378014219081 0 44.131378014219081 -17.282097808841627 0 0 0 0 102.71547416262911 49.813843278703871 0 49.813843278703871 -10.632320499349589 0 0 0 0 164.96108466851001 31.761016924977866 0 31.761016924977866 -17.48961591897023 0 0 0 0 136.30625065412823 31.764109586445556 0 31.764109586445556 -3.9455949825824064 0 0 0 0 228.76658567193681 -13.709479708437456 0 -13.709479708437456 -11.410319364273164 0 0 0 0 188.99804794878582 1.5493879601035587 0 1.5493879601035587 0.081651772338886985 0 0 0 0 201.74745202898339 8.6889946703340684 0 8.6889946703340684 -18.640567181818369 0 0 0 0 210.64670149943413 29.557643675022632 0 29.557643675022632 -25.166772074581786 0 0 0 0 232.11840206859051 -6.7074191828068024 0 -6.7074191828068024 -17.454029069687934 0 0 0 0 181.75188124929264 12.32831867736445 0 12.32831867736445 -11.211514718698595 0 0 0 0 146.56961561684147 41.629953056211718 0 41.629953056211718 -13.112019273437909 0 0 0 0 193.67355846212013 27.832875534223149 0 27.832875534223149 -18.294192245439262 0 0 0 0 196.8835212909762 33.291479580583314 0 33.291479580583314 -15.53406336467242 0 0 0 0 257.90184193435562 41.101445916800799 0 41.101445916800799 -20.46622821873666 0 0 0 0 217.87722192754154 51.462356939502342 0 51.462356939502342 -13.774151767624403 0 0 0 0 129.16572199657094 53.659459425443288 0 53.659459425443288 13.448481095586317 0 0 0 0 217.36732752701721 97.959826352019846 0 97.959826352019846 31.972757107095049 0 0 0 0 113.40527411631774 81.513752615100088 0 81.513752615100088 26.323862922547278 0 0 0 0 54.574025051028002 70.692684772854079 0 70.692684772854079 58.10119771368403 0 0 0 0 160.11567878018104 64.187780333696423 0 64.187780333696423 3.370013845010817 0 0 0 0 3293.5788879542824 1630.1794552090009 0 1630.1794552090009 469.80424462565389 0 0 0 0 3500.8773596523788 1415.9731267349982 0 1415.9731267349982 352.35594808035626 0 0 0 0 2754.3901118890535 1613.5764134027565 0 1613.5764134027565 438.14387987031694 0 0 0 0 2830.5927435533122 1102.7974976180994 0 1102.7974976180994 -129.94033929383713 0 0 0 0 -264.23424967506617 -84.258474819904563 0 -84.258474819904563 144.33998617197631 0 0 0 0 66.681957129545026 297.02660809721033 0 297.02660809721033 502.50849762504049 0 0 0 0 -0.24716188782941195 2.5513739241210658 0 2.5513739241210658 9.314916652551247 0 0 0 0 1719.8399518990916 447.27237984441143 0 447.27237984441143 162.86017559477295 0 0 0 0 1564.9235236512266 969.88933479638501 0 969.88933479638501 561.82293716772006 0 0 0 0 555.79877923457843 375.93388805879931 0 375.93388805879931 312.72380885178194 0 0 0 0 1467.1270507121089 826.29174477171409 0 826.29174477171409 54.803024948540326 0 0 0 0 2450.5837636288034 825.77942749144586 0 825.77942749144586 -75.920752889340235 0 0 0 0 2830.4094796436684 445.61315393783366 0 445.61315393783366 -474.44942363919387 0 0 0 0 2698.2983915266068 1371.1102894961921 0 1371.1102894961921 1031.2122473066656 0 0 0 0 2807.6715500461805 911.65716669529525 0 911.65716669529525 15.049181647063659 0 0 0 0 3499.0867125845934 896.60069996674997 0 896.60069996674997 -186.59019664192061 0 0 0 0 2962.2211615806054 532.96750316514294 0 532.96750316514294 -510.71306099829343 0 0 0 0 2674.2914280721943 272.79391602705573 0 272.79391602705573 -486.65860435688364 0 0 0 0 2475.917400258933 146.8903551125963 0 146.8903551125963 -465.07317860638159 0 0 0 0 3499.8071130324779 281.7705431991252 0 281.7705431991252 -691.2759382789252 0 0 0 0 3499.5391197051645 -34.267503689681519 0 -34.267503689681519 -576.78601762296842 0 0 0 0 3016.1955724546438 255.49641967105444 0 255.49641967105444 -665.88746478835185 0 0 0 0 2644.9985189840791 37.832107572197401 0 37.832107572197401 -283.68493224621835 0 0 0 0 2989.3586903343453 66.403985969545062 0 66.403985969545062 -435.92586876233418 0 0 0 0 2757.443039708055 -89.172297764146151 0 -89.172297764146151 -252.28295623940107 0 0 0 0 3012.7088432021915 -235.597424505292 0 -235.597424505292 -271.95182545269756 0 0 0 0 3032.0976931913447 -151.45299262178696 0 -151.45299262178696 -542.36761821711798 0 0 0 0 391.1880525844972 -81.763425526906303 0 -81.763425526906303 2.7742125186505291 0 0 0 0 444.26296793072652 -145.45818763072606 0 -145.45818763072606 -451.61709414231063 0 0 0 0 0.52013079475901058 -2.2068730703946091 0 -2.2068730703946091 -7.0287658393407746 0 0 0 0 1.9322764417420113 -9.1522708816471088 0 -9.1522708816471088 -13.121427291078158 0 0 0 0 348.53246970654072 -27.191190640040077 0 -27.191190640040077 5.6715254800219554 0 0 0 0 305.69763599772159 -119.02902172953054 0 -119.02902172953054 73.734489303462851 0 0 0 0 2596.5457289328547 -231.1930224334715 0 -231.1930224334715 -47.891689696612048 0 0 0 0 2588.0082453066298 -180.65519601151925 0 -180.65519601151925 -89.944831256426468 0 0 0 0 2599.1457209005612 -210.89860520423537 0 -210.89860520423537 -7.8226097618663744 0 0 0 0 2438.5933044388021 -70.471551139403232 0 -70.471551139403232 -28.838193283864314 0 0 0 0 2628.5115847223074 52.854957842430679 0 52.854957842430679 -240.60635884490603 0 0 0 0 2368.5184043161744 63.448522290682035 0 63.448522290682035 -239.80879240068339 0 0 0 0 1.6032746238528242 -3.2166778022626641 0 -3.2166778022626641 -4.0342094017276144 0 0 0 0 2400.5712008322243 15.336182575038606 0 15.336182575038606 -195.61988570858307 0 0 0 0 282.99928370371526 120.52098802778369 0 120.52098802778369 740.66318864371624 0 0 0 0 372.54698964200361 -43.902449004694972 0 -43.902449004694972 17.247108882316752 0 0 0 0 411.525540265171 -36.896663068745511 0 -36.896663068745511 17.307942387809817 0 0 0 0 1250.8106401362265 188.65783793210568 0 188.65783793210568 55.295355080941818 0 0 0 0 725.23178486693996 -469.4050754930272 0 -469.4050754930272 -740.7306570549913 0 0 0 0 485.96134347871657 8.0357992672905993 0 8.0357992672905993 7.3041159171953041 0 0 0 0 1.1181599919009524 -1.0961281750305059 0 -1.0961281750305059 -6.1096090576657645 0 0 0 0 1489.6606484613985 -217.13781310564093 0 -217.13781310564093 -306.5263475359136 0 0 0 0 2446.7699082371773 -57.775286048930184 0 -57.775286048930184 -396.84849357931921 0 0 0 0 1789.0203426855169 252.53071062179993 0 252.53071062179993 -218.93400012069912 0 0 0 0 2252.613143501314 408.9828287029394 0 408.9828287029394 -320.84192904297493 0 0 0 0 465.4037575250959 316.69266708372766 0 316.69266708372766 227.66807313317554 0 0 0 0 0.9179247884288424 -0.59039403588390194 0 -0.59039403588390194 -1.9526519866200918 0 0 0 0 951.57473161526298 93.995473264186842 0 93.995473264186842 7.354851814887752 0 0 0 0 662.85632603758222 357.26567274618401 0 357.26567274618401 165.49158897389566 0 0 0 0 445.0208494435683 205.22143531280187 0 205.22143531280187 148.92323386946055 0 0 0 0 322.82343857761987 301.6189373897767 0 301.6189373897767 230.48356063638744 0 0 0 0 353.75150456765459 196.54422519512536 0 196.54422519512536 160.36742747568292 0 0 0 0 448.63300419570896 49.494199151874 0 49.494199151874 10.836685948495472 0 0 0 0 462.15172453823743 68.632042016686 0 68.632042016686 37.918956457409877 0 0 0 0 419.89149115330792 -4.4587333242966452 0 -4.4587333242966452 11.821201632037628 0 0 0 0 370.26302720991043 12.887244248352545 0 12.887244248352545 11.377490652523193 0 0 0 0 332.91571532422313 52.868913530523969 0 52.868913530523969 38.913406299549933 0 0 0 0 354.0881966910938 66.801308501708263 0 66.801308501708263 42.421448724754555 0 0 0 0 254.18272068669421 111.51386385584578 0 111.51386385584578 87.846138337488355 0 0 0 0 267.27514329068049 161.76485835090955 0 161.76485835090955 32.810005377123161 0 0 0 0 234.35956734513456 127.61046715462953 0 127.61046715462953 27.781731489483718 0 0 0 0 174.89315286341025 161.16844852755457 0 161.16844852755457 41.591044960972795 0 0 0 0 111.16121550313028 136.37496267821643 0 136.37496267821643 29.045911245049865 0 0 0 0 179.71502612555832 69.155263882819327 0 69.155263882819327 14.112649168063399 0 0 0 0 252.27869605318438 -18.319446234955194 0 -18.319446234955194 26.30047807151459 0 0 0 0 222.91752962495775 -38.672676807658718 0 -38.672676807658718 44.795177485457316 0 0 0 0 331.44903893630999 -48.404661619698345 0 -48.404661619698345 29.49788380965947 0 0 0 0 280.19094639926425 5.907916435734478 0 5.907916435734478 24.555386096736584 0 0 0 0 288.97163583401107 25.695526494886963 0 25.695526494886963 24.917138559119849 0 0 0 0 202.86072356336263 87.236241985612651 0 87.236241985612651 30.195835288616308 0 0 0 0 455.03057142902435 85.135100956111273 0 85.135100956111273 70.49170874030915 0 0 0 0 348.83299599958491 62.298310145308278 0 62.298310145308278 121.18672522703218 0 0 0 0 246.47197414670859 170.18852936269332 0 170.18852936269332 -22.373868973671051 0 0 0 0 216.08585237085981 203.7620386005442 0 203.7620386005442 14.367932033231227 0 0 0 0 469.32353774081315 243.01874142130669 0 243.01874142130669 -117.95529235471804 0 0 0 0 102.56071465949265 226.07067629897938 0 226.07067629897938 12.054457304611788 0 0 0 0 -13.272693176223981 96.551526258538615 0 96.551526258538615 101.88277435942155 0 0 0 0 660.21736219169884 281.11542533365764 0 281.11542533365764 190.37256727291879 0 0 0 0 0.7697063168974172 -0.34704111779565916 0 -0.34704111779565916 1.7445351528637669 0 0 0 0 773.08787250984722 374.93313009980466 0 374.93313009980466 162.48656911819126 0 0 0 0 387.65396401478989 261.76623452644606 0 261.76623452644606 288.25256047319454 0 0 0 0 601.54642035753022 418.91935430468493 0 418.91935430468493 266.4272659047972 0 0 0 0 161.260358177147 273.59608611516728 0 273.59608611516728 239.66048791430285 0 0 0 0 362.97672799718657 345.92104770848084 0 345.92104770848084 246.36442752494065 0 0 0 0 441.11451528115265 287.67942255529022 0 287.67942255529022 189.29524426587091 0 0 0 0 8.8086966806653653 -8.740312181511511 0 -8.740312181511511 6.4171785942260513 0 0 0 0 11.60288067187912 -14.979137912093222 0 -14.979137912093222 4.5594507417117711 0 0 0 0 24.779809209801442 -9.7132171150610702 0 -9.7132171150610702 0.07606309586617499 0 0 0 0 7.3574218270182605 -7.4303951840629372 0 -7.4303951840629372 5.613906744097644 0 0 0 0 211.30378597500794 133.59857688133525 0 133.59857688133525 160.11438786087251 0 0 0 0 350.21970251353298 303.6015902553342 0 303.6015902553342 222.84382910992952 0 0 0 0 302.96667962319589 211.34549654927105 0 211.34549654927105 172.25887873085205 0 0 0 0 413.90084651037296 262.32363666901148 0 262.32363666901148 224.90137311765255 0 0 0 0 438.02150152808235 356.03563670288497 0 356.03563670288497 246.8485115057899 0 0 0 0 536.67069483018713 302.5698496807139 0 302.5698496807139 198.48618776722662 0 0 0 0 333.26169622364614 334.53444355478541 0 334.53444355478541 308.35064165116796 0 0 0 0 267.22353085538725 38.05039854787492 0 38.05039854787492 152.99379450188076 0 0 0 0 343.32548278141553 67.56379635018709 0 67.56379635018709 4.5007024129945421 0 0 0 0 -7.6325763133108921 -25.143244068917284 0 -25.143244068917284 -12.116333701792428 0 0 0 0 5.7671646895529527 -5.3987962674003125 0 -5.3987962674003125 3.0944572800066794 0 0 0 0 2.4125507406688484 -7.5916455248465127 0 -7.5916455248465127 0.3827026533181197 0 0 0 0 24.448289832537284 -3.6065363732477635 0 -3.6065363732477635 0.75552967629982959 0 0 0 0 23.344974474834089 -11.599199544054045 0 -11.599199544054045 -14.968610884880036 0 0 0 0 12.644302323484794 -5.8951942170765506 0 -5.8951942170765506 6.4988639460525519 0 0 0 0 6.8556313306557968 -17.00937099856742 0 -17.00937099856742 -2.4201510953243996 0 0 0 0 61.150920941130295 2.3463460263213562 0 2.3463460263213562 -0.22243555768454826 0 0 0 0 -0.64268965540179979 -1.133563524273987 0 -1.133563524273987 4.5648989203413635 0 0 0 0 38.18800346792068 -6.6819088880654363 0 -6.6819088880654363 -7.5553492434264626 0 0 0 0 39.562305901922628 1.3730230391183795 0 1.3730230391183795 7.2621416911101733 0 0 0 0 67.322041325146074 7.1696518390226629 0 7.1696518390226629 -4.9803914574367809 0 0 0 0 0.49652804419461527 -1.1819386547106396 0 -1.1819386547106396 2.4754193856555808 0 0 0 0 84.633521316362248 17.952713265395232 0 17.952713265395232 10.929374303633267 0 0 0 0 111.59485735434839 29.22486687798073 0 29.22486687798073 12.643586443768982 0 0 0 0 87.39012339685857 23.968773946474812 0 23.968773946474812 13.781268633328182 0 0 0 0 74.622358143583796 22.411506952593072 0 22.411506952593072 13.591642200021852 0 0 0 0 88.76134062287656 17.157624307118567 0 17.157624307118567 10.642181022741624 0 0 0 0 79.526547658425955 11.313173052758202 0 11.313173052758202 9.9486356010675081 0 0 0 0 -68.366316257521248 96.375386170350794 0 96.375386170350794 -6.3514174588005972 0 0 0 0 47.528641911272025 35.462831411283283 0 35.462831411283283 6.1977054676521632 0 0 0 0 -31.064220534131891 45.488602454426655 0 45.488602454426655 15.125378519441711 0 0 0 0 -39.489448610655018 60.385161425775991 0 60.385161425775991 -2.4191375508942201 0 0 0 0 73.695713896997404 2.6773287643500225 0 2.6773287643500225 12.954178717932564 0 0 0 0 10.448512335341109 -1.410776358774958 0 -1.410776358774958 6.5925641041871188 0 0 0 0 36.652668087226679 30.445053634648392 0 30.445053634648392 -2.5944141467129072 0 0 0 0 55.005561251699817 1.6984110596612254 0 1.6984110596612254 2.5261583412100208 0 0 0 0 33.607799029220587 -3.5102651794245503 0 -3.5102651794245503 8.5526575009180306 0 0 0 0 32.135606300936729 -0.32591304894162931 0 -0.32591304894162931 2.3445778324189632 0 0 0 0 16.760665985825653 -4.1873188039556908 0 -4.1873188039556908 8.7050058495924532 0 0 0 0 28.676553269182932 -6.4752584243777846 0 -6.4752584243777846 3.4143968017751831 0 0 0 0 20.499436702256844 -10.073384772712002 0 -10.073384772712002 7.3542136078848959 0 0 0 0 10.437816030276137 -9.5950169719662135 0 -9.5950169719662135 6.1771410040332375 0 0 0 0 31.467406446675568 -0.78503588530497836 0 -0.78503588530497836 7.657284463914948 0 0 0 0 24.915404616826891 -5.7231767382855878 0 -5.7231767382855878 6.3179842045643966 0 0 0 0 -1.6429709204157916 5.0988050700359508 0 5.0988050700359508 -18.020932067779086 0 0 0 0 29.59194129442011 0.64105321261854442 0 0.64105321261854442 11.160950371787749 0 0 0 0 29.051878015520742 -1.7877035627611519 0 -1.7877035627611519 8.4963147720827692 0 0 0 0 5.4511161445675409 9.8653822634668416 0 9.8653822634668416 3.1067296189598643 0 0 0 0 29.371005418253219 -2.5100647060426127 0 -2.5100647060426127 9.4310364897137333 0 0 0 0 0.081885329758449643 21.436151836248889 0 21.436151836248889 -37.37591800013945 0 0 0 0 26.24840180648971 -6.2833280591360108 0 -6.2833280591360108 9.1801540751688933 0 0 0 0 11.210353632020198 6.4340264190452583 0 6.4340264190452583 0.90823085353156108 0 0 0 0 -0.65312600332114812 44.594256334168861 0 44.594256334168861 22.927681012246467 0 0 0 0 24.808895828246932 49.631654955372426 0 49.631654955372426 -20.230011790130902 0 0 0 0 22.084157542577486 -3.5669261172811764 0 -3.5669261172811764 11.112580929690655 0 0 0 0 26.618741048800075 -3.7281605499930492 0 -3.7281605499930492 3.3734856053279145 0 0 0 0 13.088619709059568 -9.5512925968918925 0 -9.5512925968918925 5.3545280946259384 0 0 0 0 431.87329499907605 344.29063431507984 0 344.29063431507984 282.87141726183108 0 0 0 0 426.85444668043647 325.43358690483853 0 325.43358690483853 294.90740133760119 0 0 0 0 552.20747532759015 464.62811027657585 0 464.62811027657585 411.06202122922832 0 0 0 0 5.861906557432107 -0.46449629063817 0 -0.46449629063817 -0.44683357774023857 0 0 0 0 -23.625706075566995 5.4792526634601018 0 5.4792526634601018 122.08663886755494 0 0 0 0 -26.089562722199844 -12.526400750848552 0 -12.526400750848552 -8.9510175277839608 0 0 0 0 78.654580027279735 287.60877693204839 0 287.60877693204839 392.62467163993642 0 0 0 0 -12.083360264051407 85.79875140381688 0 85.79875140381688 286.84077368126236 0 0 0 0 21.252389296313595 169.7392228392473 0 169.7392228392473 181.18456267870897 0 0 0 0 329.3761038303137 199.79838453691582 0 199.79838453691582 293.00588430653806 0 0 0 0 122.76426573524714 288.59073565812719 0 288.59073565812719 363.2700938539856 0 0 0 0 164.31302342160234 361.53672267354887 0 361.53672267354887 323.7503224946604 0 0 0 0 73.256692660339468 245.30635704136057 0 245.30635704136057 326.97367954753076 0 0 0 0 119.80454038619223 167.58558163755788 0 167.58558163755788 202.91839354904732 0 0 0 0 247.93897651830957 259.44644171527852 0 259.44644171527852 267.67997713590466 0 0 0 0 431.54706641376367 249.80212491147557 0 249.80212491147557 273.67730744198525 0 0 0 0 341.66876934957327 125.71989258530721 0 125.71989258530721 132.72771651109838 0 0 0 0 281.20049729597213 235.46093876872965 0 235.46093876872965 461.6209347154537 0 0 0 0 -20.549334568691847 43.131469237170023 0 43.131469237170023 25.773571627010632 0 0 0 0 -39.337538671308351 13.278476950363222 0 13.278476950363222 5.3801946385241894 0 0 0 0 -20.790610235530039 43.691469405868361 0 43.691469405868361 42.503790274526182 0 0 0 0 -5.2634716765636185 13.157918300086806 0 13.157918300086806 8.3935635338220003 0 0 0 0 -33.004623519371307 212.41831751451627 0 212.41831751451627 490.62775675453304 0 0 0 0 56.68506122317649 112.27800193294274 0 112.27800193294274 50.810901294527525 0 0 0 0 58.695161262978218 212.00779378060906 0 212.00779378060906 343.39724509097778 0 0 0 0 47.959386533084398 251.35976504891005 0 251.35976504891005 325.69823236025968 0 0 0 0 50.406615601488738 204.88395014005891 0 204.88395014005891 339.36779585847034 0 0 0 0 -142.34839506949902 -3.3820416536730136 0 -3.3820416536730136 13.047735067520989 0 0 0 0 40.664156448237918 235.16080547182037 0 235.16080547182037 481.65035140253531 0 0 0 0 350.66223894711948 285.87135442842737 0 285.87135442842737 177.25840144750509 0 0 0 0 -11.269564842972104 2.6758279944467365 0 2.6758279944467365 1.111704950615783 0 0 0 0 84.042024139871501 360.02147044504227 0 360.02147044504227 254.24242788068295 0 0 0 0 77.355792138096149 394.22626043131368 0 394.22626043131368 465.22287617807058 0 0 0 0 -68.659772014483679 255.84548843001267 0 255.84548843001267 416.1996754106367 0 0 0 0 -14.707624162474886 20.074622655291289 0 20.074622655291289 16.906968451579345 0 0 0 0 -7.3572959719801609 24.067275468894014 0 24.067275468894014 -15.14373188492914 0 0 0 0 -36.183729882497573 27.530750037766211 0 27.530750037766211 -21.515277287791378 0 0 0 0 -35.320629876976454 45.321597245792191 0 45.321597245792191 -19.695958471920676 0 0 0 0 -24.800145475360296 15.641871969255845 0 15.641871969255845 62.634499935169856 0 0 0 0 -41.328889532069297 39.271829621870211 0 39.271829621870211 -11.325008927795352 0 0 0 0 3.8993690527977378 -10.663164094278955 0 -10.663164094278955 80.773921400390464 0 0 0 0 132.06241274531203 254.44825338531791 0 254.44825338531791 -157.36877294166152 0 0 0 0 -8.3824592357073584 6.6657100424446085 0 6.6657100424446085 3.7513955888456003 0 0 0 0 -60.993864684049427 5.6591320591102265 0 5.6591320591102265 31.225073285836931 0 0 0 0 -24.873693778412417 40.966034286824197 0 40.966034286824197 -18.693848759992306 0 0 0 0 -25.442076272986014 43.111574623879278 0 43.111574623879278 25.77368507994283 0 0 0 0 0.98509388944694365 33.984919259771459 0 33.984919259771459 -21.259619581063816 0 0 0 0 -20.71037308195082 42.085405952101951 0 42.085405952101951 -7.2112195585305017 0 0 0 0 -23.378510196365824 37.412100998418055 0 37.412100998418055 -11.042379122870443 0 0 0 0 -22.198445308982627 42.77913616789192 0 42.77913616789192 -7.2912425446186262 0 0 0 0 -25.019310726260301 33.674799514874394 0 33.674799514874394 -7.1953759869352609 0 0 0 0 -37.244950215685094 35.138756784658426 0 35.138756784658426 -7.3664002604755296 0 0 0 0 8.5184036111949837 21.603494208962474 0 21.603494208962474 -9.2314159089479375 0 0 0 0 -3.5055329917740892 40.837571502183337 0 40.837571502183337 -8.9649725794301958 0 0 0 0 -21.760394087083114 47.764497250453928 0 47.764497250453928 -11.281949753979632 0 0 0 0 -13.995586953678867 39.942256280404763 0 39.942256280404763 -1.8778169254362638 0 0 0 0 -19.844709596291068 38.934641119103048 0 38.934641119103048 -1.7290756508587037 0 0 0 0 -24.571612481674492 40.364462969300703 0 40.364462969300703 2.5946454763063684 0 0 0 0 -15.60829990360071 37.751730705483169 0 37.751730705483169 1.8912023213863449 0 0 0 0 1.9969346096549998 33.603872956254691 0 33.603872956254691 -3.5524697386435946 0 0 0 0 15.012093310935597 14.408454887021662 0 14.408454887021662 -5.7697000076498171 0 0 0 0 4.8498617799050407 30.488938124831975 0 30.488938124831975 -23.411943047567775 0 0 0 0 67.432213887055696 -18.469818604448903 0 -18.469818604448903 23.802743270118839 0 0 0 0 23.632205310242938 18.589833136665611 0 18.589833136665611 7.2355424704520939 0 0 0 0 77.334120529681968 -11.158311872122113 0 -11.158311872122113 -37.876823738616622 0 0 0 0 19.08317159836588 36.014776541135689 0 36.014776541135689 -22.128487281411708 0 0 0 0 -5.816377438742478 18.934539140580018 0 18.934539140580018 17.568921763483857 0 0 0 0 -23.779278512280143 44.902610598836873 0 44.902610598836873 -9.2990264257869057 0 0 0 0 -15.020588787443558 44.274948256914968 0 44.274948256914968 -9.9353207384201596 0 0 0 0 4.5467372792403502 5.7405381470239476 0 5.7405381470239476 -0.64178572029008052 0 0 0 0 16.921723598506276 20.566629085375624 0 20.566629085375624 -5.2372081395353192 0 0 0 0 9.7270302446449932 48.550238282914961 0 48.550238282914961 2.9377258291356156 0 0 0 0 61.13305922823929 25.278997494428609 0 25.278997494428609 -24.060833482859152 0 0 0 0 70.156709657952888 20.355597240081153 0 20.355597240081153 -26.211666942377235 0 0 0 0 61.044899343658471 19.371089518036115 0 19.371089518036115 -5.203865471881997 0 0 0 0 74.812422289563983 14.523061042904146 0 14.523061042904146 -33.015746163815038 0 0 0 0 73.631374972930644 24.829691928140278 0 24.829691928140278 -46.342804268615509 0 0 0 0 -34.462341640817613 170.45859297681181 0 170.45859297681181 52.446347407509165 0 0 0 0 80.971555400553399 38.06661032249837 0 38.06661032249837 10.830993700028539 0 0 0 0 91.843634756369283 184.02386832183856 0 184.02386832183856 -104.47926874640871 0 0 0 0 33.047087391169043 68.742873720391799 0 68.742873720391799 44.169527177371492 0 0 0 0 2.8563130731563433 52.406567162642204 0 52.406567162642204 24.32128774271041 0 0 0 0 -6.4093501739676695 50.469239796166029 0 50.469239796166029 32.22240474919402 0 0 0 0 -28.792803712007299 41.628164153424358 0 41.628164153424358 15.530974746551664 0 0 0 0 -1.8635761163094742 48.061050918079232 0 48.061050918079232 18.787605977141801 0 0 0 0 -84.016838120049215 241.24031895803182 0 241.24031895803182 -187.67329723591718 0 0 0 0 55.722449445194798 29.679936746399108 0 29.679936746399108 -480.44098909867262 0 0 0 0 165.61403483033428 304.37424279564857 0 304.37424279564857 -177.77015395365743 0 0 0 0 103.37920658393705 149.26748954762843 0 149.26748954762843 -67.498542229253871 0 0 0 0 37.9465555429706 317.60093715350422 0 317.60093715350422 123.13475711326464 0 0 0 0 78.523245773481904 177.84775044389517 0 177.84775044389517 -184.09529803969417 0 0 0 0 105.75852797104744 284.06407938799293 0 284.06407938799293 -411.41278823349967 0 0 0 0 -21.061541069793748 195.55892526860589 0 195.55892526860589 130.53886265024357 0 0 0 0 45.267279636565945 107.6104997811567 0 107.6104997811567 -233.733386793303 0 0 0 0 84.419284449958326 26.519767038532486 0 26.519767038532486 7.3141092479073135 0 0 0 0 94.306033231463516 -10.133244127507055 0 -10.133244127507055 -155.51397055920995 0 0 0 0 84.010318124899641 20.463829851310891 0 20.463829851310891 -103.57698418209327 0 0 0 0 224.04120406726724 223.95652034074737 0 223.95652034074737 -705.7481197224497 0 0 0 0 147.40824045793124 15.834453949270369 0 15.834453949270369 -77.220597968743306 0 0 0 0 -23.881072652897274 31.36218924453253 0 31.36218924453253 -76.730737239223515 0 0 0 0 78.65186914193373 25.398952054166301 0 25.398952054166301 5.5184930813619903 0 0 0 0 191.88584819776588 168.0735204201043 0 168.0735204201043 -79.733243473493332 0 0 0 0 141.77747580403229 49.247659577161869 0 49.247659577161869 -240.63982065885835 0 0 0 0 124.73051902936277 -83.339049758560179 0 -83.339049758560179 -57.316121640309575 0 0 0 0 66.038498660753248 -40.105761331321446 0 -40.105761331321446 -17.810775543941872 0 0 0 0 57.436249529986526 -5.8810427660224605 0 -5.8810427660224605 17.709328669802431 0 0 0 0 102.92346673901193 -82.096517249891122 0 -82.096517249891122 57.722392374633841 0 0 0 0 14.088214005385453 39.874661550857553 0 39.874661550857553 -7.2693794067849069 0 0 0 0 16.364483608309371 9.8859147302085475 0 9.8859147302085475 6.6254584758207953 0 0 0 0 629.56432123941136 -204.26356161581538 0 -204.26356161581538 151.40772596850184 0 0 0 0 96.316978417693463 -70.745538364064828 0 -70.745538364064828 121.73983651375761 0 0 0 0 -20.555936589331395 33.453016476788775 0 33.453016476788775 172.00569292771797 0 0 0 0 4.3889836002600902 4.4154228299454061 0 4.4154228299454061 3.9470108283079437 0 0 0 0 76.735723619996861 222.62671587297518 0 222.62671587297518 448.50409355462807 0 0 0 0 317.74487550542835 254.54907403694509 0 254.54907403694509 117.44340924110384 0 0 0 0 328.74101564301236 179.23914998740702 0 179.23914998740702 -139.57884665437632 0 0 0 0 97.276143773258809 86.682260133902673 0 86.682260133902673 -0.55097999329518643 0 0 0 0 46.093953623065318 28.266426116176717 0 28.266426116176717 -3.5398066885270509 0 0 0 0 4.7508335614402313 8.805331641268026 0 8.805331641268026 45.443576486361962 0 0 0 0 -10.989860518311616 31.977393344031725 0 31.977393344031725 19.754842794991873 0 0 0 0 -12.859819077712018 38.220749117947889 0 38.220749117947889 1.2509072544130504 0 0 0 0 -15.24268226723143 36.696802160002562 0 36.696802160002562 3.9710771782577012 0 0 0 0 -25.136722786162863 39.440662258247357 0 39.440662258247357 12.494170684399251 0 0 0 0 58.515569248000247 108.32530825392996 0 108.32530825392996 61.81942656884064 0 0 0 0 20.751747124275425 113.63549091065761 0 113.63549091065761 -31.399124491994826 0 0 0 0 69.48768389418467 35.044221117946336 0 35.044221117946336 26.875075661194387 0 0 0 0 -340.42160739054816 78.509595938276107 0 78.509595938276107 -4.8514128304250335 0 0 0 0 51.984894227564453 42.380172661272205 0 42.380172661272205 14.821154049708266 0 0 0 0 94.406013985339087 -192.22205179024058 0 -192.22205179024058 -405.76095931385498 0 0 0 0 212.76670691227446 118.17982878999555 0 118.17982878999555 -53.000902390402189 0 0 0 0 217.90543422024348 29.855973391396219 0 29.855973391396219 5.1401484309208172 0 0 0 0 416.76132404596137 36.062466722737554 0 36.062466722737554 5.3196555280082976 0 0 0 0 421.79626987452502 193.62945774557011 0 193.62945774557011 -73.912150279715206 0 0 0 0 288.65986727795826 154.36240705401269 0 154.36240705401269 198.4350064257178 0 0 0 0 303.46633359389671 146.13831655474223 0 146.13831655474223 -5.8106569602724676 0 0 0 0 79.373161021700071 39.148242953285489 0 39.148242953285489 -37.098226687159695 0 0 0 0 63.616837152477892 43.27656293582848 0 43.27656293582848 13.119373195184117 0 0 0 0 118.56804175927391 26.460470171537054 0 26.460470171537054 -446.748550466898 0 0 0 0 28.483418160612928 -364.40969350488558 0 -364.40969350488558 -586.61610890624797 0 0 0 0 93.02120518180466 -22.564582451141483 0 -22.564582451141483 -34.919399149691223 0 0 0 0 119.728329664591 -10.546209023371375 0 -10.546209023371375 -244.04578408481029 0 0 0 0 245.49042405380169 78.446879479057316 0 78.446879479057316 -19.806499873731809 0 0 0 0 20.740571497639458 7.8468373700540752 0 7.8468373700540752 3.8557593117930722 0 0 0 0 80.021165467820538 -159.96960157740614 0 -159.96960157740614 -16.819546876740787 0 0 0 0 145.65367755658372 -41.341616506204446 0 -41.341616506204446 -84.938202901265868 0 0 0 0 78.574033077480635 -76.828439512197292 0 -76.828439512197292 44.236050314117165 0 0 0 0 83.299130901965327 -81.417686241958563 0 -81.417686241958563 -4.6618252152620698 0 0 0 0 -267.84884778759442 -54.043043701840361 0 -54.043043701840361 510.80813467302869 0 0 0 0 452.70251016912152 613.4290288245511 0 613.4290288245511 307.53894514850845 0 0 0 0 11.059481359534345 -5.0457917295812171 0 -5.0457917295812171 3.3710498860304909 0 0 0 0 71.182073534335359 -167.14725307216031 0 -167.14725307216031 72.927529538101226 0 0 0 0 -811.21556400907866 -989.0128041754615 0 -989.0128041754615 474.35489990312772 0 0 0 0 55.328292022785767 47.096661802233058 0 47.096661802233058 19.561438377041934 0 0 0 0 645.21298876217043 513.57085882509637 0 513.57085882509637 -221.73607880000009 0 0 0 0 69.901262721290777 32.076273373617596 0 32.076273373617596 18.928837254037717 0 0 0 0 366.54762478501652 924.48224651665805 0 924.48224651665805 1323.9682853074482 0 0 0 0 557.33624389271426 262.33876213973053 0 262.33876213973053 -416.05098901949009 0 0 0 0 69.170766704146217 33.230962142215958 0 33.230962142215958 26.958501154529074 0 0 0 0 67.425866009385459 33.908356527514172 0 33.908356527514172 20.895448023025892 0 0 0 0 68.420206037939352 25.759058280811587 0 25.759058280811587 4.3399174448768463 0 0 0 0 73.501371022010517 35.522770842956561 0 35.522770842956561 19.021146549387993 0 0 0 0 93.043477593151238 45.065773598019405 0 45.065773598019405 1.1202001479296086 0 0 0 0 65.258905601444027 39.614935582030455 0 39.614935582030455 -4.1786116383445915 0 0 0 0 69.698465420971445 17.726730283140739 0 17.726730283140739 -28.884492311770373 0 0 0 0 97.13625322009193 36.929419083379798 0 36.929419083379798 -48.414092450604585 0 0 0 0 29.928839545760326 -1.5691646430717867 0 -1.5691646430717867 -31.407212575146147 0 0 0 0 77.663702749076492 13.043272062805954 0 13.043272062805954 -73.397011498531356 0 0 0 0 69.382348374083904 -2.425528928886763 0 -2.425528928886763 -54.939498179472253 0 0 0 0 11.67426155881328 7.1123421346108673 0 7.1123421346108673 -0.60232281011480637 0 0 0 0 35.867620362758316 -15.141494450421305 0 -15.141494450421305 -26.033028673864465 0 0 0 0 92.974379221573273 65.368566419354863 0 65.368566419354863 20.204428226168602 0 0 0 0 70.397301283701836 49.84428739137536 0 49.84428739137536 14.092434839218186 0 0 0 0 118.06591411829686 30.033359900485266 0 30.033359900485266 116.79477696461254 0 0 0 0 64.960532694865833 21.453320095424715 0 21.453320095424715 -11.018653984483535 0 0 0 0 75.660940768328246 9.5172042729438928 0 9.5172042729438928 -29.039946837550644 0 0 0 0 73.336233864901118 -8.6097845223502709 0 -8.6097845223502709 -18.903203776295868 0 0 0 0 80.770969272323725 -106.2193268966609 0 -106.2193268966609 -82.995109656761542 0 0 0 0 22.860900871623016 -61.695436860595294 0 -61.695436860595294 -31.199197733458959 0 0 0 0 -24.230548693516539 -47.650065632428095 0 -47.650065632428095 -20.568937076523412 0 0 0 0 80.091063275577639 -0.42515555394423288 0 -0.42515555394423288 -25.192718148393666 0 0 0 0 172.16816676348958 -97.187296100562151 0 -97.187296100562151 -61.388995433390619 0 0 0 0 36.193186631715434 -65.561445200979506 0 -65.561445200979506 -60.155377467993276 0 0 0 0 13.243753892515088 0.62517241308455596 0 0.62517241308455596 4.3684230916593805 0 0 0 0 31.196013548935298 -125.37472641983652 0 -125.37472641983652 -13.021658560875949 0 0 0 0 27.108211668100978 1.0546464189007203 0 1.0546464189007203 -15.518242106672718 0 0 0 0 7.8116600525952435 -8.4787882417339517 0 -8.4787882417339517 4.815038589382084 0 0 0 0 71.997571067595345 93.312930097093613 0 93.312930097093613 123.93209667348265 0 0 0 0 23.385758891529925 6.1868047468596163 0 6.1868047468596163 -2.2286496205566495 0 0 0 0 95.760791426550895 54.710383969179588 0 54.710383969179588 -67.108725847442201 0 0 0 0 131.89585838713447 102.71297544919457 0 102.71297544919457 -54.3930732513777 0 0 0 0 91.43918268471316 99.299335526326558 0 99.299335526326558 -54.51036881880691 0 0 0 0 120.39082214574228 96.276297140354473 0 96.276297140354473 -116.44653079275849 0 0 0 0 112.35097364864123 99.772761248578718 0 99.772761248578718 -117.67005161111865 0 0 0 0 102.76375464651665 144.75924437666964 0 144.75924437666964 -108.11116050431838 0 0 0 0 0.44482223313389113 144.08161489332178 0 144.08161489332178 -81.891752888035853 0 0 0 0 91.108823585204163 86.700541839756283 0 86.700541839756283 -46.572503859364588 0 0 0 0 65.299569576443901 64.949147595662907 0 64.949147595662907 -54.711981092731094 0 0 0 0 78.006349088478601 16.75686446430791 0 16.75686446430791 -62.915629025465023 0 0 0 0 61.850320282583198 46.463624946888558 0 46.463624946888558 2.8897506651119329 0 0 0 0 91.741780558616028 87.501648885297243 0 87.501648885297243 -124.61937645399303 0 0 0 0 49.374973504417142 17.945273101423535 0 17.945273101423535 6.6709807551688343 0 0 0 0 32.272370827968189 -10.489170826239388 0 -10.489170826239388 14.374473144175226 0 0 0 0 57.781123050677706 38.937701768525585 0 38.937701768525585 -8.9501736283013997 0 0 0 0 25.989101265429781 49.981331909422806 0 49.981331909422806 16.429923073055761 0 0 0 0 -81.209216960316553 48.22970419988178 0 48.22970419988178 8.3827806095578126 0 0 0 0 86.534704157607848 34.747272347863145 0 34.747272347863145 -6.9395568414784066 0 0 0 0 11.284443256188752 -19.20516553464995 0 -19.20516553464995 -33.609577933684704 0 0 0 0 12.687756191197746 0.62698345567761748 0 0.62698345567761748 0.11493848124706219 0 0 0 0 142.89976234345158 136.23178012750088 0 136.23178012750088 -27.464020207837166 0 0 0 0 -23.703120158507772 152.05387241343215 0 152.05387241343215 -73.944483581022268 0 0 0 0 1.4190272853609649 -1.5814609158972104 0 -1.5814609158972104 -1.2261218535484808 0 0 0 0 -123.25600261681757 121.01323434057008 0 121.01323434057008 -29.726242100593936 0 0 0 0 11.160857240550978 3.3788961026181212 0 3.3788961026181212 -1.6353015778856932 0 0 0 0 69.471704655984738 29.393505496996013 0 29.393505496996013 4.6186660421861925 0 0 0 0 -1.7318095330738288 121.35994979883321 0 121.35994979883321 -55.014867873561343 0 0 0 0 -4.053265322138941 108.46617624693076 0 108.46617624693076 -126.41597842930514 0 0 0 0 13.417567810509354 191.11562752670375 0 191.11562752670375 -49.633553238972809 0 0 0 0 17.403631154054892 296.26037525892843 0 296.26037525892843 -178.53302083165158 0 0 0 0 112.1249067007011 214.91602374387139 0 214.91602374387139 -402.98173198010613 0 0 0 0 -0.91008726838117582 99.601198063281345 0 99.601198063281345 10.25383823856464 0 0 0 0 -74.3858883252542 144.49590834899675 0 144.49590834899675 -30.195594138929209 0 0 0 0 11.7055656710927 -6.2158926283340747 0 -6.2158926283340747 459.08186968668861 0 0 0 0 -41.110935043023346 110.99184959563513 0 110.99184959563513 270.68547746073182 0 0 0 0 159.71369571414471 164.68895637977533 0 164.68895637977533 -35.124514154715825 0 0 0 0 14.13387936851359 -43.984347431684 0 -43.984347431684 132.685858238739 0 0 0 0 -10.970935073728469 112.18785311713964 0 112.18785311713964 25.325313948253552 0 0 0 0 32.530575862801925 60.455990576867634 0 60.455990576867634 84.935627023989582 0 0 0 0 34.69779507889325 10.799581735641823 0 10.799581735641823 49.180065626303531 0 0 0 0 40.978507480402186 23.552588923395433 0 23.552588923395433 68.462711253816224 0 0 0 0 16.071466200082838 7.5269363855565281 0 7.5269363855565281 9.3620196182744042 0 0 0 0 -17.166659155063826 34.741282606581194 0 34.741282606581194 25.431210622170511 0 0 0 0 4.2799106578281254 3.9779441290795496 0 3.9779441290795496 3.6861601727136541 0 0 0 0 602.8670563331616 -268.24358559220411 0 -268.24358559220411 89.767815195775256 0 0 0 0 -18.696033354954125 -60.20715693719194 0 -60.20715693719194 233.27792750631397 0 0 0 0 1109.0783964849252 -455.98259212791254 0 -455.98259212791254 154.93008227484779 0 0 0 0 -62.676431473584671 10.867341779147068 0 10.867341779147068 227.42887294075081 0 0 0 0 519.63732886042453 -85.123199647627615 0 -85.123199647627615 -45.720875828539647 0 0 0 0 9.0330933779888625 -6.3467213595385843 0 -6.3467213595385843 2.1457189099544056 0 0 0 0 389.04786341540603 -197.97176061074879 0 -197.97176061074879 69.531625166934646 0 0 0 0 66.159020802217128 4.4482462408229821 0 4.4482462408229821 -20.280623135434666 0 0 0 0 285.6576369091199 -37.2602259632813 0 -37.2602259632813 -41.716998149686333 0 0 0 0 14.696019658469595 -33.875334509399863 0 -33.875334509399863 27.826969279591282 0 0 0 0 29.324117566113088 -12.455795636247885 0 -12.455795636247885 15.355071745585734 0 0 0 0 -43.923708493479353 81.3471531873613 0 81.3471531873613 67.641852629918731 0 0 0 0 3.5215118139127668 -0.10384861880916318 0 -0.10384861880916318 -0.23986481874070931 0 0 0 0 276.65122428576433 152.46692987766164 0 152.46692987766164 -21.439845802522086 0 0 0 0 484.10197118124779 49.885073052676489 0 49.885073052676489 -4.7641708980763724 0 0 0 0 506.47337728500861 42.385755138232071 0 42.385755138232071 -54.530575981664697 0 0 0 0 818.58202530049311 -116.45697757869266 0 -116.45697757869266 -69.600472073675974 0 0 0 0 458.15883166383719 -252.48821815687779 0 -252.48821815687779 -118.28010230239488 0 0 0 0 -112.93091085294873 -21.512742525259682 0 -21.512742525259682 292.6780278477504 0 0 0 0 -59.161752797730514 174.37845565656434 0 174.37845565656434 117.53471455938188 0 0 0 0 32.955281547555387 -85.089476039437429 0 -85.089476039437429 172.74526019995074 0 0 0 0 372.75975212391859 237.0353129236662 0 237.0353129236662 417.41284604914972 0 0 0 0 42.501848732579674 -146.45196022937546 0 -146.45196022937546 566.42699998268677 0 0 0 0 699.19939747292483 -191.84530347748719 0 -191.84530347748719 -45.5799541305513 0 0 0 0 274.743458581921 381.52103092786621 0 381.52103092786621 363.15622096114782 0 0 0 0 32.560518101781781 83.985278726399628 0 83.985278726399628 -103.84271753541537 0 0 0 0 141.92908683333098 -166.68603800678792 0 -166.68603800678792 -142.75363898978139 0 0 0 0 63.536470409930757 75.864399461913763 0 75.864399461913763 30.065233837947744 0 0 0 0 133.6491742132248 37.149315263184235 0 37.149315263184235 -91.02345686995659 0 0 0 0 84.441068471040921 31.418468251915598 0 31.418468251915598 8.303658025698704 0 0 0 0 344.36128817030658 126.82563266298746 0 126.82563266298746 -615.16574409965142 0 0 0 0 88.633498163432122 25.132743702111839 0 25.132743702111839 -70.934568277881226 0 0 0 0 78.18954180829698 32.422034853076539 0 32.422034853076539 9.753385076864669 0 0 0 0 74.361772172392307 23.645426874326404 0 23.645426874326404 -4.0198303084486326 0 0 0 0 66.957894181853987 29.226275635470984 0 29.226275635470984 16.798285903123542 0 0 0 0 111.25850093607971 63.33241052219455 0 63.33241052219455 32.286409455142348 0 0 0 0 68.226286286512845 29.099687225342677 0 29.099687225342677 29.882145750947529 0 0 0 0 77.325823991993332 33.118505298074524 0 33.118505298074524 20.926648030311298 0 0 0 0 84.318701165173536 49.906439164490166 0 49.906439164490166 34.42763110429587 0 0 0 0 117.02217595591583 25.128058853932544 0 25.128058853932544 14.763051228554104 0 0 0 0 49.223707384936461 5.6948452904298392 0 5.6948452904298392 3.9618022625754747 0 0 0 0 49.10600935276905 -1.3894151821099641 0 -1.3894151821099641 -17.349297112825298 0 0 0 0 48.754526200667556 12.674480312646665 0 12.674480312646665 12.791248807575357 0 0 0 0 184.54170649653827 55.319302312245782 0 55.319302312245782 3.7501925418991959 0 0 0 0 56.633742090165015 12.794771973100524 0 12.794771973100524 0.1560026253137039 0 0 0 0 0.37607632473796804 -1.0515361163581112 0 -1.0515361163581112 0.65159955541156833 0 0 0 0 67.821675743833566 29.654239144075291 0 29.654239144075291 -20.39226978072702 0 0 0 0 38.38920610038258 -2.7685155843191751 0 -2.7685155843191751 -36.204746066178814 0 0 0 0 49.665352654230219 16.313730583645338 0 16.313730583645338 -7.1087693325816872 0 0 0 0 8.7980056104269124 -11.012006142856649 0 -11.012006142856649 -9.7003798271298365 0 0 0 0 9.2452924192937189 -12.247113765631582 0 -12.247113765631582 -17.116471058747265 0 0 0 0 -20.265360341499672 -32.809699588135118 0 -32.809699588135118 -23.669284786717071 0 0 0 0 3.2409742252917084 -2.3500403783416459 0 -2.3500403783416459 0.0017189990215662476 0 0 0 0 402.93655200339072 166.00441562171363 0 166.00441562171363 31.892039095020891 0 0 0 0 10.761892392702066 -30.44192838982508 0 -30.44192838982508 -24.209801799514139 0 0 0 0 98.366992015213327 56.232387151033436 0 56.232387151033436 -143.58220318377488 0 0 0 0 394.08024237850805 95.396555292800258 0 95.396555292800258 -313.76059038895346 0 0 0 0 75.036072878893833 27.151376105646516 0 27.151376105646516 7.2076654704620413 0 0 0 0 80.369256054065772 -26.023396193246995 0 -26.023396193246995 -36.876688733522968 0 0 0 0 134.91695052641808 -11.706430605536198 0 -11.706430605536198 -33.121801453063199 0 0 0 0 47.322307670498049 23.903597577243531 0 23.903597577243531 -6.4383325961426863 0 0 0 0 89.846300101617089 27.468949645319555 0 27.468949645319555 -190.18290322783508 0 0 0 0 47.165256915003738 4.3664320223525834 0 4.3664320223525834 -35.671701614972449 0 0 0 0 80.888542122470511 28.4195833062936 0 28.4195833062936 7.7516517767503581 0 0 0 0 35.259802608476775 -20.80623333471749 0 -20.80623333471749 -94.651010227291408 0 0 0 0 58.068224056979261 48.363574295397029 0 48.363574295397029 -50.438181282088408 0 0 0 0 84.41015632948401 29.886520522364663 0 29.886520522364663 8.016764611069167 0 0 0 0 123.80553250213416 42.542346824870293 0 42.542346824870293 -405.09328170876933 0 0 0 0 3.0563438572353334 -15.378674810955999 0 -15.378674810955999 112.1754778054119 0 0 0 0 19.511245026533288 -57.772732477275213 0 -57.772732477275213 -19.078949643657836 0 0 0 0 53.03860470359723 34.39229556518228 0 34.39229556518228 115.62860376097115 0 0 0 0 -59.032840118812601 44.259526440638183 0 44.259526440638183 308.3287341770349 0 0 0 0 17.924035542258935 37.224634127979471 0 37.224634127979471 123.258388382097 0 0 0 0 -50.905413358310398 57.416582327511861 0 57.416582327511861 134.68191067699104 0 0 0 0 103.08747986055641 114.45055569123161 0 114.45055569123161 139.4694868704496 0 0 0 0 2.4561346551636944 0.1937333379906967 0 0.1937333379906967 -0.030487848520212246 0 0 0 0 46.115450122561015 -62.475406706935019 0 -62.475406706935019 -94.530795372009607 0 0 0 0 24.121943028138048 79.141399555041517 0 79.141399555041517 -48.331297036335172 0 0 0 0 5.8806058985257152 -0.14770273450885973 0 -0.14770273450885973 -0.28193093518604218 0 0 0 0 228.46210335922297 -11.032689166709815 0 -11.032689166709815 170.02847385831933 0 0 0 0 243.17541899545358 -10.994948571223517 0 -10.994948571223517 95.637054869869644 0 0 0 0 192.25179022295742 -26.587542878635361 0 -26.587542878635361 17.359541671062971 0 0 0 0 167.82057620721207 -64.852645511287818 0 -64.852645511287818 87.875411155883512 0 0 0 0 117.79471025963721 30.337085615608999 0 30.337085615608999 88.383953506636487 0 0 0 0 50.637582380290269 -11.644580734826434 0 -11.644580734826434 68.695452202324304 0 0 0 0 114.05865204676229 3.6639729238123095 0 3.6639729238123095 -35.098674637791078 0 0 0 0 99.417689510972195 -28.231945746503612 0 -28.231945746503612 55.631599024790148 0 0 0 0 205.84076925849513 -89.411430141680285 0 -89.411430141680285 46.163315785822618 0 0 0 0 99.024902192060836 -38.300627788629583 0 -38.300627788629583 56.484286769690719 0 0 0 0 228.7684710814865 -146.74131941618737 0 -146.74131941618737 90.555285172489221 0 0 0 0 156.36179809210444 -82.228775784049503 0 -82.228775784049503 91.529643595423579 0 0 0 0 215.91714301801403 -143.9035556111221 0 -143.9035556111221 105.30643111369716 0 0 0 0 228.31142965237086 -117.66107552362132 0 -117.66107552362132 75.345994635081297 0 0 0 0 228.49865183013935 -108.92496313979746 0 -108.92496313979746 128.91047984489524 0 0 0 0 259.72536501554714 -119.35168889936233 0 -119.35168889936233 75.00058273262448 0 0 0 0 2.8764949562409328 3.6122845640090162 0 3.6122845640090162 4.2983136451508113 0 0 0 0 261.1541544903863 -164.36663829303558 0 -164.36663829303558 91.839841155587351 0 0 0 0 214.51666979362199 -139.87092110317113 0 -139.87092110317113 137.62587095163667 0 0 0 0 208.93553190816601 -104.48588783125808 0 -104.48588783125808 64.496178135458422 0 0 0 0 185.44231346779998 -98.058243167712305 0 -98.058243167712305 78.981861394468069 0 0 0 0 202.21325954393251 -122.53868822221989 0 -122.53868822221989 97.665990445473767 0 0 0 0 319.35738040283832 -57.57515249721996 0 -57.57515249721996 77.140250488388062 0 0 0 0 316.38032510129415 -143.61602884657214 0 -143.61602884657214 84.351928669735912 0 0 0 0 -94.130128962937306 13.187341944058005 0 13.187341944058005 98.343277694178141 0 0 0 0 -69.222406798635348 10.425748905752585 0 10.425748905752585 -8.6438420408344996 0 0 0 0 0.5884770150021339 0.84959601339799917 0 0.84959601339799917 2.2062876140566203 0 0 0 0 3500.3262679717336 -168.28741384907769 0 -168.28741384907769 -390.2264652895139 0 0 0 0 8.2060512669492098 23.260098431848263 0 23.260098431848263 7.8082156258789519 0 0 0 0 2135.6895961125847 285.51308762352619 0 285.51308762352619 -91.275714069881246 0 0 0 0 -68.523160990749602 66.734671036047956 0 66.734671036047956 -25.028826439754901 0 0 0 0 2763.4687607780215 -236.41870927784296 0 -236.41870927784296 -383.24864258428659 0 0 0 0 3499.333533263085 -663.34831898342622 0 -663.34831898342622 -346.48657342874469 0 0 0 0 2814.3281167921959 -759.26681244705162 0 -759.26681244705162 132.18332994292552 0 0 0 0 2088.798564377008 -438.5212603380989 0 -438.5212603380989 62.946204191266389 0 0 0 0 -73.567713079391979 26.121137556564776 0 26.121137556564776 3.4894724914925064 0 0 0 0 9.3387983786146229 16.903243151200734 0 16.903243151200734 1.6520575821843499 0 0 0 0 -286.58800102840905 35.494833358497999 0 35.494833358497999 133.10991071105104 0 0 0 0 -6.0131256119054513 0.13527259895992216 0 0.13527259895992216 2.163633855521256 0 0 0 0 224.18502036807331 -346.16696479813982 0 -346.16696479813982 32.213480742426555 0 0 0 0 -144.42144888446637 232.27558574350053 0 232.27558574350053 133.82256734833459 0 0 0 0 297.51526943023055 -114.9515855957228 0 -114.9515855957228 75.600730631912484 0 0 0 0 12.742284538834703 9.6937543628315055 0 9.6937543628315055 -2.3149000297558349 0 0 0 0 5.3813691815170728 5.1218843586247544 0 5.1218843586247544 2.7017604205976955 0 0 0 0 114.47000183505224 123.98500309047211 0 123.98500309047211 -253.25216369905223 0 0 0 0 307.07333040123558 -223.73943836822872 0 -223.73943836822872 93.560571041027856 0 0 0 0 2831.117261630694 -1048.9085718938652 0 -1048.9085718938652 181.97599607451775 0 0 0 0 2460.7489179499898 -743.93647522429035 0 -743.93647522429035 226.30737537860458 0 0 0 0 2515.9554047167185 -1004.9772015568343 0 -1004.9772015568343 250.46869250843645 0 0 0 0 118.10412790175815 -457.86050916822467 0 -457.86050916822467 132.84306757332917 0 0 0 0 9.2411292966487011 2.5044040907469665 0 2.5044040907469665 -1.5446765611753404 0 0 0 0 3498.7219935377543 -1575.9622859833164 0 -1575.9622859833164 579.39931812636826 0 0 0 0 414.6127049909669 -139.44056908221941 0 -139.44056908221941 77.309218793069888 0 0 0 0 3478.5713276646638 496.18023177229168 0 496.18023177229168 -182.16812012500989 0 0 0 0 5.4149705073930789 2.0533230439884846 0 2.0533230439884846 0.25352014537057754 0 0 0 0 13.535604680998901 6.5836264297519023 0 6.5836264297519023 1.523352473408238 0 0 0 0 408.28484749942982 -182.09550879766098 0 -182.09550879766098 -9.2367120811374264 0 0 0 0 -8.2164348782534944 13.398617197115357 0 13.398617197115357 30.898865493387092 0 0 0 0 29.88190882859999 -244.22134181757525 0 -244.22134181757525 351.87706290934403 0 0 0 0 216.76266386961652 -160.96559547554187 0 -160.96559547554187 102.00554909842606 0 0 0 0 177.66019982321814 -117.85513396084403 0 -117.85513396084403 76.957193932204561 0 0 0 0 140.07918661437725 -162.09574172202474 0 -162.09574172202474 176.02827281692294 0 0 0 0 157.63258976227371 -193.61317360821823 0 -193.61317360821823 173.8637506394532 0 0 0 0 122.35267730071064 -93.904070681872597 0 -93.904070681872597 86.447421314066744 0 0 0 0 157.55296607545824 -30.454882713565873 0 -30.454882713565873 1.5171546629050567 0 0 0 0 166.57345202429678 -87.143205705451351 0 -87.143205705451351 38.057539285790313 0 0 0 0 60.582295791977231 -31.183700851730823 0 -31.183700851730823 13.050622001064594 0 0 0 0 67.591728749786853 -70.756886554326556 0 -70.756886554326556 94.59695258044232 0 0 0 0 135.48258160883415 -17.263412073127476 0 -17.263412073127476 -71.223611345592531 0 0 0 0 118.50696726613387 27.353864400237931 0 27.353864400237931 -92.841034965628609 0 0 0 0 25.991452764996211 137.1175766518395 0 137.1175766518395 -85.735325413816099 0 0 0 0 63.980446983955218 26.767359029158325 0 26.767359029158325 8.6891683792425631 0 0 0 0 -92.615466425484556 81.493902836138659 0 81.493902836138659 71.722465476715115 0 0 0 0 224.71997955974803 -4.1598189728506441 0 -4.1598189728506441 19.770445501125323 0 0 0 0 -121.50517985901934 85.73612519523931 0 85.73612519523931 45.727651433802748 0 0 0 0 1.751250478964721 187.82223474135299 0 187.82223474135299 76.930820199769187 0 0 0 0 5.1097250218890089 10.080708894342376 0 10.080708894342376 21.438723412987912 0 0 0 0 604.64195867331182 854.56996962437438 0 854.56996962437438 1466.6065038489005 0 0 0 0 3493.6146834774754 2056.3683127125864 0 2056.3683127125864 558.51394223784416 0 0 0 0 14.848308210677303 7.3522484626241695 0 7.3522484626241695 6.7272098028406706 0 0 0 0 618.74911796423112 -377.7197567118501 0 -377.7197567118501 349.86702490933061 0 0 0 0 1562.429632101379 1885.1745868121823 0 1885.1745868121823 2071.1809849851179 0 0 0 0 3420.8129252694489 703.61349621240652 0 703.61349621240652 78.714276835705846 0 0 0 0 -32.518877037400671 -649.75501011386302 0 -649.75501011386302 915.98772633309159 0 0 0 0 3492.4574081865794 -1632.2474750278213 0 -1632.2474750278213 -148.99480723898694 0 0 0 0 2304.4604995056507 -832.91710437241272 0 -832.91710437241272 -21.042501193587253 0 0 0 0 1332.3918218788676 -367.13582610826757 0 -367.13582610826757 -231.29138196081698 0 0 0 0 1160.5631599423941 -107.18690065917676 0 -107.18690065917676 382.7075248272638 0 0 0 0 3.822347473722516 -1.3726624288456009 0 -1.3726624288456009 1.0663124014008887 0 0 0 0 101.80491501250071 -194.08211668747506 0 -194.08211668747506 527.2022032267181 0 0 0 0 382.80880601720492 95.528695655676543 0 95.528695655676543 22.271148733467953 0 0 0 0 228.35764618089161 157.36104571862245 0 157.36104571862245 -69.428911588936785 0 0 0 0 161.84306437513442 -202.29768116750682 0 -202.29768116750682 557.2843603745423 0 0 0 0 215.65372438104714 -227.0305447766693 0 -227.0305447766693 -573.42750937272876 0 0 0 0 39.015065120613372 -10.895668984022802 0 -10.895668984022802 1.8825435128554253 0 0 0 0 70.351360971973918 -29.295175098680545 0 -29.295175098680545 -340.52054760047622 0 0 0 0 10.884099246721235 144.66681506548451 0 144.66681506548451 16.501907700063043 0 0 0 0 36.655725175060127 -11.016213533944008 0 -11.016213533944008 2.1931506229853222 0 0 0 0 3.1343009526062815 -403.71808730275148 0 -403.71808730275148 -483.29400187807494 0 0 0 0 -309.26453917089384 -190.42264884503624 0 -190.42264884503624 34.793774421770308 0 0 0 0 563.99714966678584 -84.512156488695112 0 -84.512156488695112 -730.64877375665776 0 0 0 0 698.00083888902009 -393.80937618665939 0 -393.80937618665939 -124.64124415517136 0 0 0 0 3489.9273522650692 1309.2808240579946 0 1309.2808240579946 -158.68778853358103 0 0 0 0 18.529364497586243 -4.9879325339737832 0 -4.9879325339737832 2.1294355093204267 0 0 0 0 1278.6774837968405 -1686.5004538286889 0 -1686.5004538286889 991.28108199841097 0 0 0 0 1046.2612859453875 515.92281518368009 0 515.92281518368009 -290.00915415035934 0 0 0 0 1514.7891131603537 -375.68496164583451 0 -375.68496164583451 -263.27365824674217 0 0 0 0 3502.5018802557893 -152.47841478018668 0 -152.47841478018668 -446.93444081648744 0 0 0 0 298.35151367665094 137.2759724557198 0 137.2759724557198 326.83676960557557 0 0 0 0 1159.8859570209825 -658.36115969939465 0 -658.36115969939465 522.98435805654856 0 0 0 0 579.15928743090626 -22.131464393977296 0 -22.131464393977296 409.30662028771576 0 0 0 0 231.86613718187436 -210.37726407501043 0 -210.37726407501043 593.59516792961449 0 0 0 0 242.23158330147271 -13.613255326710714 0 -13.613255326710714 292.83059884309205 0 0 0 0 374.69801727673621 34.052489758086267 0 34.052489758086267 16.016694123409252 0 0 0 0 374.25464142134297 50.907820465143686 0 50.907820465143686 50.49031926729532 0 0 0 0 501.50526083476143 -74.47381078447188 0 -74.47381078447188 -222.82586773247317 0 0 0 0 445.6976582512807 -207.46470530195253 0 -207.46470530195253 -81.649392498241468 0 0 0 0 -1.4881006903873129 9.4102013421772917 0 9.4102013421772917 3.8010265326341126 0 0 0 0 450.16007780158543 -277.37915713801249 0 -277.37915713801249 111.46062678875069 0 0 0 0 3493.304873233792 -1199.6478585739658 0 -1199.6478585739658 -4.0673520442587972 0 0 0 0 1087.2239581535687 -1589.1224405487062 0 -1589.1224405487062 1686.696459052208 0 0 0 0 3492.7384875962452 2120.5902817304864 0 2120.5902817304864 545.96297900825607 0 0 0 0 15.182300911636219 -2.7281120929007061 0 -2.7281120929007061 2.095768705169736 0 0 0 0 1059.8193093990485 531.95017914881691 0 531.95017914881691 274.52790271932622 0 0 0 0 461.94956625795749 36.891304589238416 0 36.891304589238416 -2.8215180881941251 0 0 0 0 19.607463810459613 26.149905345231943 0 26.149905345231943 11.301379830037877 0 0 0 0 36.664915430520068 7.5297635072402258 0 7.5297635072402258 4.5716540108885173 0 0 0 0 -39.263276573386975 5.703871825625356 0 5.703871825625356 25.43439870955649 0 0 0 0 1450.1299479288937 224.78392183838631 0 224.78392183838631 -96.642579493517843 0 0 0 0 186.43004500956522 151.71761453490672 0 151.71761453490672 -88.941208724126682 0 0 0 0 32.840085454634391 169.0478718324548 0 169.0478718324548 67.325658678075797 0 0 0 0 19.753780680330237 -0.86353225718085014 0 -0.86353225718085014 4.7022030359389078 0 0 0 0 61.929327756139614 2.4192779457887346 0 2.4192779457887346 2.0015685440221951 0 0 0 0 110.6507301868096 72.838989269997342 0 72.838989269997342 -167.01087451087687 0 0 0 0 -28.0922437521549 104.68489211794258 0 104.68489211794258 5.6547300845109021 0 0 0 0 82.336913544171694 22.655194296109414 0 22.655194296109414 9.2977481210684179 0 0 0 0 158.5211888361664 102.13236760880682 0 102.13236760880682 -29.560274980648273 0 0 0 0 87.414417587606295 108.28612546491831 0 108.28612546491831 201.28792899450627 0 0 0 0 44.731751769908243 0.73972521369555899 0 0.73972521369555899 0.25114057426056113 0 0 0 0 -5.9245235868002055 76.20886266139587 0 76.20886266139587 258.91239057903454 0 0 0 0 84.579042675366509 -143.22077723443311 0 -143.22077723443311 497.54322849462318 0 0 0 0 13.493707672422005 2.1376063505169185 0 2.1376063505169185 1.4717280935438266 0 0 0 0 229.69995465750981 183.96600186289061 0 183.96600186289061 237.93855644582356 0 0 0 0 78.111920186784118 -9.2956455986506512 0 -9.2956455986506512 -7.2090616691541101 0 0 0 0 -14.106611032751971 156.36748076691924 0 156.36748076691924 426.60153934846278 0 0 0 0 298.58789276239446 -294.81067755869924 0 -294.81067755869924 349.28552426687355 0 0 0 0 -31.47255797116668 20.306076579367868 0 20.306076579367868 228.75693538199977 0 0 0 0 -34.867336950512254 23.515270520240506 0 23.515270520240506 225.99391295132529 0 0 0 0 -127.37571269612818 -238.11626863827109 0 -238.11626863827109 157.3081124796301 0 0 0 0 -13.929476241966768 -73.997652073176198 0 -73.997652073176198 -273.7113135828738 0 0 0 0 -134.67090065672528 -98.033715982432909 0 -98.033715982432909 18.110151555639234 0 0 0 0 -137.07604262368113 -100.14657585894224 0 -100.14657585894224 179.51281757561696 0 0 0 0 -37.321229796856642 -104.43598873571227 0 -104.43598873571227 18.039460749472202 0 0 0 0 -141.37042474648479 -103.6131022278762 0 -103.6131022278762 162.91820307674629 0 0 0 0 -52.753297180694062 -187.25423596786345 0 -187.25423596786345 -180.18105263152836 0 0 0 0 -37.833663086996239 -49.942373113165047 0 -49.942373113165047 -76.28557455898931 0 0 0 0 -46.320899141501286 27.774202978236303 0 27.774202978236303 108.51426159388656 0 0 0 0 26.560842934032593 -3.0405356268962023 0 -3.0405356268962023 -0.38914866101933088 0 0 0 0 -145.62825318244722 -88.042649940344063 0 -88.042649940344063 278.51934226021581 0 0 0 0 92.739591135483352 -52.65311458783799 0 -52.65311458783799 34.866027264571244 0 0 0 0 -67.94556741809356 -25.977661121822052 0 -25.977661121822052 93.697731604202545 0 0 0 0 -49.769685116611072 -136.03311530114843 0 -136.03311530114843 173.51276241120638 0 0 0 0 84.99269829694822 -15.308247829121683 0 -15.308247829121683 167.00476563625881 0 0 0 0 228.18092798010366 -4.673448535987859 0 -4.673448535987859 -152.54852180716171 0 0 0 0 94.188844309859263 -7.1963675456966616 0 -7.1963675456966616 -0.10591241298834914 0 0 0 0 -64.435215942557988 -106.37072918636284 0 -106.37072918636284 79.749302344450825 0 0 0 0 165.56669225892256 -162.43488913923863 0 -162.43488913923863 19.706967969902053 0 0 0 0 105.26791227248032 -39.449214153110916 0 -39.449214153110916 178.97577278187089 0 0 0 0 -20.072751470744151 -14.409712063370307 0 -14.409712063370307 28.232747032420775 0 0 0 0 48.441660833912465 -137.13937163154355 0 -137.13937163154355 109.72230746009586 0 0 0 0 125.63502022349037 -6.6698345709172848 0 -6.6698345709172848 0.102292040903323 0 0 0 0 99.237416787611437 -95.551971157451476 0 -95.551971157451476 -47.01640629585745 0 0 0 0 195.55046584951197 -3.9209141796404765 0 -3.9209141796404765 -98.60455119645394 0 0 0 0 140.01559240263668 -38.438756916913462 0 -38.438756916913462 31.488128849444593 0 0 0 0 1167.6657940549994 518.34984183699544 0 518.34984183699544 -188.52189486816724 0 0 0 0 -237.94049518746033 -398.58574977528906 0 -398.58574977528906 364.24054561764103 0 0 0 0 803.72197258929373 -131.09097512422937 0 -131.09097512422937 -75.003196234190455 0 0 0 0 419.07004867336946 -71.854006732045491 0 -71.854006732045491 -67.083077749135441 0 0 0 0 8.8579041177506781 -3.4201470583373528 0 -3.4201470583373528 -0.30705118783199226 0 0 0 0 -90.60929795615084 -69.094051951673237 0 -69.094051951673237 81.806553547548674 0 0 0 0 9.5735098107203669 -2.9980294034195794 0 -2.9980294034195794 1.2520776160524441 0 0 0 0 -12.961525772465393 -155.51343450301488 0 -155.51343450301488 131.03383675679089 0 0 0 0 415.56126129865879 -183.17954309056819 0 -183.17954309056819 97.912510801800181 0 0 0 0 461.95485664675653 747.76182527728088 0 747.76182527728088 35.190232648358318 0 0 0 0 4.6759990016994379 -3.9904868198547376 0 -3.9904868198547376 3.7003282294174009 0 0 0 0 -174.04473324159153 -107.90046602707136 0 -107.90046602707136 308.85793784552538 0 0 0 0 -176.39102329434536 -80.099100405792825 0 -80.099100405792825 307.80440735477686 0 0 0 0 604.61768767328613 291.4209411240538 0 291.4209411240538 -148.95137023953714 0 0 0 0 252.11840047634905 -222.03610552461063 0 -222.03610552461063 178.93513625489709 0 0 0 0 25.95100102697009 -7.9821076393554904 0 -7.9821076393554904 1.9514646408762095 0 0 0 0 203.97089131177927 -46.752496138513038 0 -46.752496138513038 -290.19286912288368 0 0 0 0 -30.135369368355896 119.40883512159613 0 119.40883512159613 124.09760973256721 0 0 0 0 7.183898310715449 177.81406442312186 0 177.81406442312186 449.00665124243949 0 0 0 0 5.5018773524207063 146.59761162917061 0 146.59761162917061 72.667339042991898 0 0 0 0 131.89180541652604 220.4317091562321 0 220.4317091562321 -103.16545859943926 0 0 0 0 73.733493255698704 211.19086433437104 0 211.19086433437104 92.990818620444642 0 0 0 0 83.199188843522279 273.61268124014964 0 273.61268124014964 362.01186804601389 0 0 0 0 -25.599304732575547 -42.435087509394151 0 -42.435087509394151 132.87599813160156 0 0 0 0 11.651660466109263 -3.4259883717346931 0 -3.4259883717346931 1.1377040855455713 0 0 0 0 -9.5910290295250888 -70.647929668594429 0 -70.647929668594429 -33.607901993765836 0 0 0 0 13.670525620305852 -36.155138748121374 0 -36.155138748121374 16.256419608827855 0 0 0 0 -28.336517788789934 -63.146603823497571 0 -63.146603823497571 -62.044118989391336 0 0 0 0 -27.27613208447292 -71.137396329201977 0 -71.137396329201977 -9.9853820616850726 0 0 0 0 16.859805821821794 -5.713603340557615 0 -5.713603340557615 1.3104675941556438 0 0 0 0 375.06883817862763 -147.21929809848655 0 -147.21929809848655 -338.21021545462764 0 0 0 0 165.75752804194781 359.736031681832 0 359.736031681832 160.27912960140441 0 0 0 0 -155.45805511068465 -105.83971152989699 0 -105.83971152989699 -96.366116428226633 0 0 0 0 -80.948083956558548 28.063495574764033 0 28.063495574764033 -98.446225559338018 0 0 0 0 -4.7651444069233548 43.488702660330517 0 43.488702660330517 -99.791627817269728 0 0 0 0 -16.333013305265922 -166.76058732223692 0 -166.76058732223692 -209.28818477278378 0 0 0 0 551.03968120121863 188.40300187005232 0 188.40300187005232 -539.94310447590487 0 0 0 0 16.733949353053163 -6.8581925870955658 0 -6.8581925870955658 1.7056395938386217 0 0 0 0 -52.487536444241414 -91.179762829848187 0 -91.179762829848187 -22.761480679042506 0 0 0 0 4.9861272279958939 -84.17889902258969 0 -84.17889902258969 -171.62685314658137 0 0 0 0 -28.169697858258587 -96.814423620679349 0 -96.814423620679349 -21.996746434580473 0 0 0 0 18.394097986383713 -63.7949407888255 0 -63.7949407888255 -42.265499540205099 0 0 0 0 34.223875205716467 -88.76545208988469 0 -88.76545208988469 -7.1195385899524695 0 0 0 0 39.041406279196963 -108.64641964223983 0 -108.64641964223983 -103.21165237440198 0 0 0 0 342.43245020430186 -100.528044191444 0 -100.528044191444 -84.894941421218732 0 0 0 0 70.37953049056523 -52.180976902867883 0 -52.180976902867883 -41.419627621974769 0 0 0 0 360.33914480623207 -107.78377446636023 0 -107.78377446636023 -268.42269638799507 0 0 0 0 539.31087500489957 -226.60089322692778 0 -226.60089322692778 -189.99322268589731 0 0 0 0 569.90342060512194 -366.38382818801716 0 -366.38382818801716 -131.47356897430927 0 0 0 0 580.20087398814212 -331.75921621672023 0 -331.75921621672023 -55.990339301369033 0 0 0 0 430.81031793342481 -461.16495444784016 0 -461.16495444784016 223.74689777618732 0 0 0 0 780.44676209925092 -128.91995457394182 0 -128.91995457394182 -285.69842790421285 0 0 0 0 7.0634219047078659 -4.4233831297271848 0 -4.4233831297271848 1.684590353475057 0 0 0 0 362.5454151587619 67.186557996945567 0 67.186557996945567 -233.49612708750215 0 0 0 0 -244.67178993370908 -96.09085104054725 0 -96.09085104054725 28.926127800958966 0 0 0 0 -231.26207353553036 -471.22750323642458 0 -471.22750323642458 555.53634491072785 0 0 0 0 443.83928116861352 -598.82411996480778 0 -598.82411996480778 376.98234920215282 0 0 0 0 804.29044929871452 179.83112977250687 0 179.83112977250687 -104.769039730038 0 0 0 0 152.49537813341885 106.83790588029535 0 106.83790588029535 -78.424547610097761 0 0 0 0 10.860616586001299 8.2753333307307599 0 8.2753333307307599 2.623478586621399 0 0 0 0 -84.518291859676538 -20.157495843929155 0 -20.157495843929155 -232.47337537666681 0 0 0 0 495.32802303065546 -117.8582078610325 0 -117.8582078610325 49.370828879805231 0 0 0 0 472.94536294990758 -211.56186302471031 0 -211.56186302471031 -324.55349706021298 0 0 0 0 302.95568438258488 -54.10503526148841 0 -54.10503526148841 -8.2570688531159249 0 0 0 0 249.10350058073527 66.786482551243353 0 66.786482551243353 124.80488816712659 0 0 0 0 -438.2326661691186 -413.07922862067494 0 -413.07922862067494 507.05005535013288 0 0 0 0 788.83626270523382 124.99238426860222 0 124.99238426860222 -11.250976574036486 0 0 0 0 1.3755286525547348 -2.2585427833695064 0 -2.2585427833695064 5.7391973374182559 0 0 0 0 -293.70460054945579 -410.11802619736829 0 -410.11802619736829 496.17118077453006 0 0 0 0 431.45564556041791 -264.62350957958301 0 -264.62350957958301 212.12796268536476 0 0 0 0 -122.10542143925159 -261.73331946307815 0 -261.73331946307815 287.08671027010519 0 0 0 0 332.50969518693455 -96.106631738904525 0 -96.106631738904525 -152.05165527724603 0 0 0 0 -109.21320883616863 10.516832823311177 0 10.516832823311177 125.39275857596931 0 0 0 0 700.2688514251131 79.608199589692106 0 79.608199589692106 -116.69675490422901 0 0 0 0 7.0692408917327612 -7.6451067265016377 0 -7.6451067265016377 7.2657263623301862 0 0 0 0 62.402240101710959 -820.79678431594186 0 -820.79678431594186 532.28879911067554 0 0 0 0 90.539309582134592 -231.69004807704869 0 -231.69004807704869 -93.476680684742746 0 0 0 0 393.1209707391863 67.724975236204955 0 67.724975236204955 -111.55581740488014 0 0 0 0 0.79984177391104083 -7.4649391662507014 0 -7.4649391662507014 14.134151157847461 0 0 0 0 280.52871150997817 92.605991170541984 0 92.605991170541984 -93.317785053303851 0 0 0 0 95.361884182993435 35.124336841159945 0 35.124336841159945 -18.625088889303697 0 0 0 0 2.3352830118313648 -3.1810276990087942 0 -3.1810276990087942 4.5301322026999173 0 0 0 0 -266.49993059075859 159.74015981207424 0 159.74015981207424 154.80807539201032 0 0 0 0 397.01002260723908 216.51271931617407 0 216.51271931617407 -95.834832842892865 0 0 0 0 -320.67032328771893 84.451167622380581 0 84.451167622380581 167.51276377781551 0 0 0 0 333.05130743171321 -5.0435715012195033 0 -5.0435715012195033 -494.98894972294056 0 0 0 0 151.00005073735346 -4.4594422669114335 0 -4.4594422669114335 -0.30074504832067794 0 0 0 0 55.618515481328359 5.1754444184402928 0 5.1754444184402928 75.073474009695062 0 0 0 0 -413.34807342408749 278.85777162430077 0 278.85777162430077 93.112149610260531 0 0 0 0 1026.9460888169415 -120.32191479542143 0 -120.32191479542143 -103.08840064609831 0 0 0 0 237.65372346830009 4.1663686362035151 0 4.1663686362035151 -21.175754509674789 0 0 0 0 167.67263604626419 -9.0351180654968655 0 -9.0351180654968655 0.58296114076296357 0 0 0 0 171.26394286279196 38.230092538618052 0 38.230092538618052 6.7180144941394246 0 0 0 0 304.74352713518601 99.878453483475823 0 99.878453483475823 -41.233534426730671 0 0 0 0 187.43227410153304 41.931231443755564 0 41.931231443755564 5.6569153157624896 0 0 0 0 180.92087045705739 53.92825123190363 0 53.92825123190363 12.241893075944063 0 0 0 0 170.30201389426429 49.500505516933529 0 49.500505516933529 11.457482516760592 0 0 0 0 66.158878073330925 -16.39636405357578 0 -16.39636405357578 18.65856698976404 0 0 0 0 91.89531362017442 -17.628740889186247 0 -17.628740889186247 25.614835010219394 0 0 0 0 63.050554841028749 -36.058509997924311 0 -36.058509997924311 11.101807775626991 0 0 0 0 61.913172363410467 10.711211224991217 0 10.711211224991217 2.2933461338772041 0 0 0 0 181.02463506139975 -119.56708653889882 0 -119.56708653889882 63.273233601433162 0 0 0 0 224.71895304552163 -0.92024799849491501 0 -0.92024799849491501 -15.082847880473309 0 0 0 0 345.00800272730339 -66.634022460562619 0 -66.634022460562619 20.593385293079336 0 0 0 0 110.25715649145059 -0.97343948193599772 0 -0.97343948193599772 0.38406016634780826 0 0 0 0 43.780739290850761 -79.454182063400822 0 -79.454182063400822 101.08653338152544 0 0 0 0 98.346105024834088 -17.701714093506329 0 -17.701714093506329 4.6172894644393807 0 0 0 0 105.0230930026446 -44.742173494890267 0 -44.742173494890267 20.698188385062622 0 0 0 0 45.866641864820849 -69.761810379170129 0 -69.761810379170129 12.039623724037483 0 0 0 0 56.043844142797752 13.165702646313548 0 13.165702646313548 -113.72423596604858 0 0 0 0 88.626603630094905 -35.772058103972086 0 -35.772058103972086 -59.653847695488366 0 0 0 0 18.018942325899843 35.266903181065572 0 35.266903181065572 -99.189422302009916 0 0 0 0 -57.728971258271486 70.616224408386188 0 70.616224408386188 -38.526766489485453 0 0 0 0 38.583276954377652 -48.517747147422597 0 -48.517747147422597 -14.377306292033609 0 0 0 0 70.172929552878486 -36.544893384399984 0 -36.544893384399984 -15.281823612403059 0 0 0 0 36.804464388883929 -4.8794723782342828 0 -4.8794723782342828 12.090510226185705 0 0 0 0 85.087705154262949 -558.65956683942727 0 -558.65956683942727 196.50252095920962 0 0 0 0 115.36795863525549 -72.80438969064096 0 -72.80438969064096 -189.40403893147595 0 0 0 0 117.47549305937719 -91.860251156440427 0 -91.860251156440427 -24.236400364132351 0 0 0 0 322.46324859725428 -87.090712146076839 0 -87.090712146076839 -469.81079502233479 0 0 0 0 -24.872826213249937 188.4156793318225 0 188.4156793318225 -224.43565085088085 0 0 0 0 134.66146595944883 47.672512129098322 0 47.672512129098322 -107.79718991994014 0 0 0 0 512.36440412490629 205.25141173492739 0 205.25141173492739 -351.28550289516102 0 0 0 0 134.71574650274124 81.071599431637878 0 81.071599431637878 -353.9877747800856 0 0 0 0 4.9561926679007797 3.4125458535461348 0 3.4125458535461348 0.50017247857452674 0 0 0 0 198.6742113482469 -357.2542677531892 0 -357.2542677531892 -75.942557378285528 0 0 0 0 460.86440371681238 -360.02530489434866 0 -360.02530489434866 -138.46369728435366 0 0 0 0 -259.45724042363872 475.40864422758932 0 475.40864422758932 -203.9028986556732 0 0 0 0 639.76898101958795 605.42259338879921 0 605.42259338879921 291.75080292727216 0 0 0 0 895.58298614691012 -78.424880689028214 0 -78.424880689028214 -688.84838992237565 0 0 0 0 192.22669540779316 270.09230530994319 0 270.09230530994319 -266.26904538493727 0 0 0 0 -407.96527913110913 192.79856318524912 0 192.79856318524912 76.183991624164264 0 0 0 0 -49.866500059462851 63.435855699919557 0 63.435855699919557 -2.8462325297175539 0 0 0 0 -42.037778340720251 -83.418826135612392 0 -83.418826135612392 106.01705509653402 0 0 0 0 -12.342764568136772 59.928220763542868 0 59.928220763542868 -97.60211955747036 0 0 0 0 50.536551282682922 204.09591737386563 0 204.09591737386563 139.34350669456035 0 0 0 0 401.40281624800991 227.77234106886135 0 227.77234106886135 282.59889601171312 0 0 0 0 1035.8836302889104 110.31088507007007 0 110.31088507007007 103.10362853586412 0 0 0 0 467.58559321507346 -200.35404221447789 0 -200.35404221447789 347.21980496245851 0 0 0 0 392.13131143592182 38.903776821704014 0 38.903776821704014 106.75277586616448 0 0 0 0 477.27812347764848 -101.80059595388411 0 -101.80059595388411 19.564142761832045 0 0 0 0 177.26435170823243 -46.349425385722498 0 -46.349425385722498 -25.197881604659415 0 0 0 0 204.7425535589864 34.677148092881907 0 34.677148092881907 211.5784785415126 0 0 0 0 168.82895949130761 -13.333553687461063 0 -13.333553687461063 46.86233228000583 0 0 0 0 140.86386567912996 -54.817710506949879 0 -54.817710506949879 -5.5052790078134421 0 0 0 0 228.6617817915976 -190.06315351169269 0 -190.06315351169269 157.53380079180261 0 0 0 0 43.015638401382603 -59.128263803704613 0 -59.128263803704613 142.7337594865553 0 0 0 0 747.46462238550885 371.30588543294107 0 371.30588543294107 229.80832753707364 0 0 0 0 2.6843173715565172 2.1331556054225302 0 2.1331556054225302 6.1717180988248437 0 0 0 0 568.30336377571803 209.64269358650199 0 209.64269358650199 86.056066750739774 0 0 0 0 -0.54774819262905794 2.4110326016067773 0 2.4110326016067773 5.8534256183199318 0 0 0 0 106.49976456555669 47.667901883573904 0 47.667901883573904 -4.345534770116501 0 0 0 0 153.42116601832095 22.369029676628998 0 22.369029676628998 -16.768341412855079 0 0 0 0 83.790358875587117 66.778958412411157 0 66.778958412411157 49.181511941853387 0 0 0 0 207.19037174686673 88.252457092946543 0 88.252457092946543 6.3762081393833796 0 0 0 0 5.957746847627817 20.811425653176926 0 20.811425653176926 5.0450732325694503 0 0 0 0 58.431482463261489 0.92422158314145975 0 0.92422158314145975 -4.6794750587257816 0 0 0 0 203.89378175952879 86.212188943592309 0 86.212188943592309 48.808240134556399 0 0 0 0 154.79355862815282 -4.979404195596544 0 -4.979404195596544 -32.010618999082908 0 0 0 0 144.57003821050694 103.69414902866291 0 103.69414902866291 2.571239629334741 0 0 0 0 198.80075619140553 -41.90006452728062 0 -41.90006452728062 36.599611758214451 0 0 0 0 98.154836165544111 -97.82826051345819 0 -97.82826051345819 12.929463049214974 0 0 0 0 194.23921094526304 -71.710736226998051 0 -71.710736226998051 -9.5636978919319517 0 0 0 0 323.54421958625608 37.31400532286716 0 37.31400532286716 -21.575689494811741 0 0 0 0 239.6393824130937 -87.43553232657996 0 -87.43553232657996 -2.5670762820445816 0 0 0 0 185.31934569073201 -44.724574069438859 0 -44.724574069438859 -11.178498902116189 0 0 0 0 105.74042844476935 -48.22377165107082 0 -48.22377165107082 -10.116844858225477 0 0 0 0 91.553357328166811 6.2713601058321942 0 6.2713601058321942 -0.50553748615961958 0 0 0 0 86.90178285240836 -3.7949866047338219 0 -3.7949866047338219 -12.225959545107912 0 0 0 0 187.44253520230268 -14.525988449960096 0 -14.525988449960096 -47.837480806612803 0 0 0 0 70.579097849009159 13.360633069294408 0 13.360633069294408 0.77761650226183754 0 0 0 0 74.534960979369771 56.384484582210547 0 56.384484582210547 15.085801810339944 0 0 0 0 59.690890030195817 18.950471883432709 0 18.950471883432709 0.99812266814974626 0 0 0 0 61.857821221463382 22.601400366927919 0 22.601400366927919 -12.517377614760278 0 0 0 0 80.105718263978304 22.749826229966466 0 22.749826229966466 7.5495343453346599 0 0 0 0 84.050335818938038 7.4087535703251888 0 7.4087535703251888 -6.3057002610185009 0 0 0 0 81.587865189532749 -21.996463663123535 0 -21.996463663123535 32.522589724991121 0 0 0 0 41.13675592976179 -13.085639341847909 0 -13.085639341847909 3.142988932724009 0 0 0 0 81.466689702805525 59.904776813702483 0 59.904776813702483 3.982415668558474 0 0 0 0 191.49810861856167 -35.247691302220801 0 -35.247691302220801 -85.095935352801462 0 0 0 0 22.410149641915716 8.0809196618782693 0 8.0809196618782693 -14.344100579500132 0 0 0 0 61.011187966420039 22.398828649247662 0 22.398828649247662 22.658530832468841 0 0 0 0 59.996594538982123 30.765109055259817 0 30.765109055259817 7.6412174596544631 0 0 0 0 66.797043362821569 39.543631902450215 0 39.543631902450215 -11.407521577164516 0 0 0 0 45.330919717560377 37.680852454893369 0 37.680852454893369 -1.2017361784375353 0 0 0 0 38.402129488732967 15.444366123050838 0 15.444366123050838 5.5670772423323491 0 0 0 0 34.442503709484299 26.073256097181002 0 26.073256097181002 -14.457193133162946 0 0 0 0 55.355533036815856 20.964134522504921 0 20.964134522504921 -5.7939522505912855 0 0 0 0 21.980797714629063 35.818978303310736 0 35.818978303310736 -5.2449113744856248 0 0 0 0 89.343454007714172 65.482893949201753 0 65.482893949201753 34.253867092930591 0 0 0 0 39.955500833624441 35.410835291500661 0 35.410835291500661 -1.1880979501776001 0 0 0 0 125.68847106230533 -106.16912241596947 0 -106.16912241596947 116.83519834435316 0 0 0 0 68.873247230883862 63.51066819744301 0 63.51066819744301 22.205159225606621 0 0 0 0 36.024238931880973 59.482222590320816 0 59.482222590320816 43.638686104834562 0 0 0 0 69.494012561488489 -34.325403362859106 0 -34.325403362859106 39.546640612048577 0 0 0 0 -0.3553788991321909 2.9281671799641558 0 2.9281671799641558 3.8773073851027289 0 0 0 0 16.452594360132935 13.508444944254734 0 13.508444944254734 11.538194461441094 0 0 0 0 40.61435577039083 17.263803961544909 0 17.263803961544909 3.9517263630858679 0 0 0 0 12.766881982631531 -4.7519471833692215 0 -4.7519471833692215 16.314691668494767 0 0 0 0 0.78625171275962202 -84.034954024750277 0 -84.034954024750277 261.39827281813814 0 0 0 0 -107.80115142861575 83.953743710636147 0 83.953743710636147 346.09359599608433 0 0 0 0 3.4516544149207817 3.9319820871665083 0 3.9319820871665083 6.957918765872904 0 0 0 0 152.4602303855786 36.765017841965204 0 36.765017841965204 -6.8259204697915266 0 0 0 0 142.25505967176269 64.424067933102521 0 64.424067933102521 9.0899551585102998 0 0 0 0 -103.59917223241791 260.97280211170437 0 260.97280211170437 -7.3827561066423186 0 0 0 0 39.706778276862678 60.666213380425916 0 60.666213380425916 22.533808400596172 0 0 0 0 97.427217714575818 59.045311413308809 0 59.045311413308809 29.291478024926619 0 0 0 0 27.855488980858127 33.052627355026786 0 33.052627355026786 28.803986485226602 0 0 0 0 182.01406938726723 40.018225585989057 0 40.018225585989057 -7.0198121029643517 0 0 0 0 155.94230878599046 19.067375886636455 0 19.067375886636455 -20.600168066139304 0 0 0 0 173.41183889811055 126.1895949584756 0 126.1895949584756 -86.202451722652768 0 0 0 0 163.29312449344479 76.619100082704463 0 76.619100082704463 20.88183058931325 0 0 0 0 184.75112615787657 53.657838942836861 0 53.657838942836861 -32.8812559918033 0 0 0 0 240.38370908424258 83.197259200230747 0 83.197259200230747 -80.128744619505596 0 0 0 0 222.18538486096077 78.452858703542915 0 78.452858703542915 -51.947991558921785 0 0 0 0 269.97764072734935 165.59526878056806 0 165.59526878056806 21.743897209131319 0 0 0 0 256.75511963406461 121.99369128362446 0 121.99369128362446 -11.62859178067265 0 0 0 0 318.39379438504693 92.557297471192214 0 92.557297471192214 -52.342665256410328 0 0 0 0 384.07641096768202 96.490761822911736 0 96.490761822911736 -65.500593607954215 0 0 0 0 329.81062714234577 147.56496213548007 0 147.56496213548007 14.39796837394897 0 0 0 0 275.51764274181915 181.60264926728087 0 181.60264926728087 54.049934830195525 0 0 0 0 345.3412187101203 156.04741812122393 0 156.04741812122393 -7.1461689203784999 0 0 0 0 387.10459613149578 24.530431514750035 0 24.530431514750035 -104.57069161589243 0 0 0 0 305.58742313363473 21.928052470154853 0 21.928052470154853 -76.502016102835569 0 0 0 0 422.74159573670477 145.38145202169153 0 145.38145202169153 -16.832454791510827 0 0 0 0 335.31665486293059 35.027840062925861 0 35.027840062925861 -83.157646583576934 0 0 0 0 290.71221295936266 67.709143291434884 0 67.709143291434884 -50.538629470631804 0 0 0 0 295.77821493150259 -17.714958184714078 0 -17.714958184714078 -106.71499476794997 0 0 0 0 247.62181704727118 -31.227207493760034 0 -31.227207493760034 -78.401691219925851 0 0 0 0 262.06025440288067 -12.061342809879989 0 -12.061342809879989 -71.69632613520298 0 0 0 0 248.4029869146616 -28.269499828075368 0 -28.269499828075368 -75.470558924731449 0 0 0 0 248.68063643120695 14.930483391648522 0 14.930483391648522 -73.893005888428434 0 0 0 0 203.56840112915961 36.600387988129114 0 36.600387988129114 -62.860662554474402 0 0 0 0 259.07359266934509 26.594927185310553 0 26.594927185310553 -61.082393619595678 0 0 0 0 213.07148036162471 3.3141848015449114 0 3.3141848015449114 -16.458334036566157 0 0 0 0 223.69857120307279 -23.146546839186158 0 -23.146546839186158 -43.183024925591781 0 0 0 0 202.41553444850433 -48.797862614653241 0 -48.797862614653241 -61.188517695592964 0 0 0 0 209.49643052139436 -70.075194070123871 0 -70.075194070123871 -2.2340381963390428 0 0 0 0 193.74336457160825 -54.394627002094239 0 -54.394627002094239 -61.108312971009582 0 0 0 0 244.53186585017829 -107.58932226165234 0 -107.58932226165234 -114.70465133776634 0 0 0 0 251.01421838349779 -25.93756728464632 0 -25.93756728464632 -136.29758853818998 0 0 0 0 -111.05959664862894 79.120818343230439 0 79.120818343230439 -88.898813739310299 0 0 0 0 -81.916059910814511 386.70797347963662 0 386.70797347963662 -235.61963846482109 0 0 0 0 347.34450326193473 112.51517737726135 0 112.51517737726135 -194.55667774578433 0 0 0 0 176.22071018029965 -37.361753165806022 0 -37.361753165806022 -28.508321856315888 0 0 0 0 539.61986754156533 -101.52136453917774 0 -101.52136453917774 -66.923326257194276 0 0 0 0 146.01699892549368 -29.49675549938911 0 -29.49675549938911 -195.03747480176935 0 0 0 0 139.93031410692492 -24.574187645154325 0 -24.574187645154325 -93.856513464425916 0 0 0 0 295.20848898671102 -48.090082260900999 0 -48.090082260900999 -138.58002970342568 0 0 0 0 268.63769038439204 -157.68634645380484 0 -157.68634645380484 12.803930183449665 0 0 0 0 30.980429722476401 21.525983159928501 0 21.525983159928501 -15.277589277791549 0 0 0 0 39.147262159589445 140.72727784133667 0 140.72727784133667 -158.47781021778326 0 0 0 0 531.61549801501678 -127.131538835014 0 -127.131538835014 -16.628630637341757 0 0 0 0 35.415890262884204 -65.442585747793032 0 -65.442585747793032 -140.78658065002833 0 0 0 0 11.491164215538674 8.8038665455014069 0 8.8038665455014069 3.0852933528817106 0 0 0 0 40.136553106625797 198.11182933989778 0 198.11182933989778 -321.64074032256599 0 0 0 0 161.37256324531336 45.295812780723452 0 45.295812780723452 -120.37482853390787 0 0 0 0 -135.51552849388099 -137.98556317594108 0 -137.98556317594108 -211.53115026488965 0 0 0 0 -148.52576332811395 802.89484113095386 0 802.89484113095386 -121.36824347447941 0 0 0 0 5.7504583079349629 4.0293470630897872 0 4.0293470630897872 0.71074150216558962 0 0 0 0 1156.4284433377034 616.00499324069085 0 616.00499324069085 -111.7025090231607 0 0 0 0 1136.3079312446353 -53.699641121453539 0 -53.699641121453539 -65.23928942322263 0 0 0 0 566.46261044265702 282.828893785329 0 282.828893785329 67.533057615285088 0 0 0 0 444.51720041141562 411.84159873392161 0 411.84159873392161 195.03627408880857 0 0 0 0 548.79293028012034 374.2842859824691 0 374.2842859824691 206.14168996304534 0 0 0 0 797.93384599045385 353.03248450443834 0 353.03248450443834 88.399831284830725 0 0 0 0 456.77434161488782 653.55341310835047 0 653.55341310835047 186.61234087815751 0 0 0 0 771.17133772236411 891.39120089368851 0 891.39120089368851 -28.041452596057184 0 0 0 0 19.167016875755507 -47.771160550819445 0 -47.771160550819445 -128.14451896605817 0 0 0 0 -3.0175362678486977 3.3863045906420126 0 3.3863045906420126 -5.1236628118241727 0 0 0 0 436.17851280297327 406.65369446116324 0 406.65369446116324 241.79623167810769 0 0 0 0 119.94189468480181 111.61699558264138 0 111.61699558264138 -259.98708695842083 0 0 0 0 85.724363640474621 6.7447983544464307 0 6.7447983544464307 -212.03250042095692 0 0 0 0 60.82953634246951 68.604692816662123 0 68.604692816662123 -93.015900536983509 0 0 0 0 35.357506975065917 27.395810875564848 0 27.395810875564848 -60.28675759816096 0 0 0 0 51.580545124394121 36.434380268032271 0 36.434380268032271 -59.192183641098836 0 0 0 0 403.95965480740415 270.01544527048895 0 270.01544527048895 132.77555539642344 0 0 0 0 361.07787345367251 349.76591388869315 0 349.76591388869315 339.19195300156935 0 0 0 0 350.82350310494803 225.61224707608653 0 225.61224707608653 78.478807883974696 0 0 0 0 243.36442493661889 107.02781874251377 0 107.02781874251377 182.59174711416881 0 0 0 0 372.02667191381624 139.1541206959796 0 139.1541206959796 50.960592193127013 0 0 0 0 398.44999880489195 151.21767142731278 0 151.21767142731278 12.231658504747429 0 0 0 0 503.21496415056754 266.07655115022135 0 266.07655115022135 78.001942498673429 0 0 0 0 416.36890672214213 118.155004679998 0 118.155004679998 -34.830383525025809 0 0 0 0 790.41461976801656 221.46609701180773 0 221.46609701180773 6.7475501366616299 0 0 0 0 485.78913511909195 103.22764708144769 0 103.22764708144769 -37.680674232827187 0 0 0 0 22.349887715259683 31.593730570134028 0 31.593730570134028 198.2999053181411 0 0 0 0 -40.201499690811033 136.553228461103 0 136.553228461103 538.86210525838908 0 0 0 0 19.026566447908408 27.882658121874044 0 27.882658121874044 182.4524636249381 0 0 0 0 14.422237093749573 31.489319269558791 0 31.489319269558791 204.05665766571042 0 0 0 0 5.3262155928241555 103.91233188181968 0 103.91233188181968 135.50100347799321 0 0 0 0 14.467417623018264 91.599970809011452 0 91.599970809011452 131.61204096282677 0 0 0 0 25.065837353817187 96.825998767106341 0 96.825998767106341 76.927980493987661 0 0 0 0 30.085228360825568 111.49128051430375 0 111.49128051430375 76.94772858881106 0 0 0 0 35.171043997543165 143.23262320596925 0 143.23262320596925 -33.550980585441266 0 0 0 0 62.800974097714061 106.23562510153965 0 106.23562510153965 -24.407108527589457 0 0 0 0 83.866462036778103 268.59382162691077 0 268.59382162691077 -137.2850128034172 0 0 0 0 7.75469402060844 174.31576200560505 0 174.31576200560505 151.05348183354477 0 0 0 0 -16.039591258115252 237.49421316467456 0 237.49421316467456 174.51678497022453 0 0 0 0 261.13793468112999 -118.85756727888386 0 -118.85756727888386 197.04584409743336 0 0 0 0 236.24227158221765 127.3199009180143 0 127.3199009180143 88.268367239150621 0 0 0 0 15.966184929864539 126.66253621500113 0 126.66253621500113 314.62451087686725 0 0 0 0 326.89122183820291 343.18330061570157 0 343.18330061570157 177.50811588281158 0 0 0 0 254.17257946221071 248.31187295975971 0 248.31187295975971 74.425226811614039 0 0 0 0 720.46931377492729 249.78908302521677 0 249.78908302521677 4.848908246808378 0 0 0 0 550.38654109982599 484.67623802113792 0 484.67623802113792 -92.641502807837128 0 0 0 0 524.4929767313879 618.53277743258059 0 618.53277743258059 -223.75752677231389 0 0 0 0 362.28928068315145 641.85101629468261 0 641.85101629468261 11.095419155992289 0 0 0 0 313.07925063688162 131.01661712425064 0 131.01661712425064 96.834758064588783 0 0 0 0 372.81378638264141 551.25709785916956 0 551.25709785916956 202.38216150912154 0 0 0 0 318.9522692845494 348.89989674704498 0 348.89989674704498 292.32194186601208 0 0 0 0 928.37670182919828 -45.332082668735893 0 -45.332082668735893 -115.63909284178331 0 0 0 0 1113.4978028789919 251.28269375673688 0 251.28269375673688 114.89401848501973 0 0 0 0 1402.499444072826 -490.73344553962175 0 -490.73344553962175 170.19507230240856 0 0 0 0 852.03361060156021 377.10157494152463 0 377.10157494152463 851.85802662849756 0 0 0 0 1260.8058673752093 449.85142584088896 0 449.85142584088896 381.98947383183145 0 0 0 0 1492.492561147752 -308.70416055498413 0 -308.70416055498413 793.22800729204607 0 0 0 0 61.604121813943493 290.74777965882583 0 290.74777965882583 699.21336598578364 0 0 0 0 547.33133477217052 552.77630935444654 0 552.77630935444654 464.64216659854333 0 0 0 0 670.08908749101101 138.00446808689836 0 138.00446808689836 538.57192966614264 0 0 0 0 1338.4295321252521 -370.49463478018271 0 -370.49463478018271 -116.49921661721027 0 0 0 0 577.54694964342343 -532.64734803540625 0 -532.64734803540625 293.57498347916481 0 0 0 0 8.2077870409548837 0.01051051350269816 0 0.01051051350269816 0.50657053256923434 0 0 0 0 745.19504205811972 360.72013348407614 0 360.72013348407614 516.65921740015006 0 0 0 0 927.31167410648777 289.88264811155466 0 289.88264811155466 501.31601964840905 0 0 0 0 1385.1404487795517 196.08045388859625 0 196.08045388859625 27.090677690056822 0 0 0 0 1522.2951888005773 -306.78582675782974 0 -306.78582675782974 680.62148495644738 0 0 0 0 781.06745712047268 0.24356457242571139 0 0.24356457242571139 -199.18068508217934 0 0 0 0 1082.2721318252443 -59.879400773520075 0 -59.879400773520075 -189.06918403213291 0 0 0 0 701.21635922258429 -253.97230413431464 0 -253.97230413431464 -123.71752020420413 0 0 0 0 -9.0987889838143019 -61.027055794966259 0 -61.027055794966259 176.95182867584865 0 0 0 0 725.14211856336624 -142.20708110097075 0 -142.20708110097075 -14.177656455054901 0 0 0 0 88.929801712904009 100.31305671584553 0 100.31305671584553 -20.157457749462651 0 0 0 0 4.901793880337209 34.583326161367552 0 34.583326161367552 32.220789977312961 0 0 0 0 19.490513667807591 0.54788262166431245 0 0.54788262166431245 0.14735277300406907 0 0 0 0 49.891804025697638 13.680774533200264 0 13.680774533200264 -125.91075072619287 0 0 0 0 -29.735071857037838 15.669477878104189 0 15.669477878104189 128.97516472025728 0 0 0 0 -29.025756970833754 6.7077761312865221 0 6.7077761312865221 27.74023760262719 0 0 0 0 56.268996167156729 -66.937935228255228 0 -66.937935228255228 -5.8038161209914279 0 0 0 0 -16.032465257419972 -14.112110722860272 0 -14.112110722860272 5.3115762174165226 0 0 0 0 13.34712345559015 -7.2693757167529043 0 -7.2693757167529043 1.1440919450339548 0 0 0 0 5.2788329268804262 -2.1222852733237261 0 -2.1222852733237261 -0.37711529861553872 0 0 0 0 771.51167713358882 112.19447667699619 0 112.19447667699619 -10.206227512239856 0 0 0 0 106.7444089443743 95.379422985932649 0 95.379422985932649 22.174223988865066 0 0 0 0 243.58071195389493 123.56718845467853 0 123.56718845467853 -10.434336845962946 0 0 0 0 5.4640311932971599 1.0332874145374831 0 1.0332874145374831 -1.7454252347576553 0 0 0 0 31.039523716259282 -7.7904883014379394 0 -7.7904883014379394 14.097378805639757 0 0 0 0 13.559816923193694 -6.9451869778290956 0 -6.9451869778290956 1.4520614077058918 0 0 0 0 14.401596893942042 -3.0583904439907403 0 -3.0583904439907403 10.798510528561174 0 0 0 0 -2.8457102798856795 -5.3688025995226534 0 -5.3688025995226534 3.3218721353283636 0 0 0 0 3.0276305119137419 -1.5130776571773765 0 -1.5130776571773765 0.17999085401725767 0 0 0 0 7.1008326990122441 -4.9318337738218085 0 -4.9318337738218085 3.1806808985924979 0 0 0 0 22.087948545980908 -11.267658477166522 0 -11.267658477166522 5.1822761532845325 0 0 0 0 13.68646023630572 -8.6539786693788905 0 -8.6539786693788905 4.5008420641806683 0 0 0 0 23.606281428335933 -3.9930230691679829 0 -3.9930230691679829 -0.42290300230992095 0 0 0 0 30.861089817131869 1.6830573960805428 0 1.6830573960805428 1.4796758563264021 0 0 0 0 16.307680350539158 -1.0876046538751032 0 -1.0876046538751032 1.2917446367794252 0 0 0 0 16.018691949764616 -3.981180748080356 0 -3.981180748080356 -0.33760031161928072 0 0 0 0 16.587021455881768 -3.5416640586894732 0 -3.5416640586894732 -0.0020974848212554028 0 0 0 0 15.833871248200012 -6.4499394291542291 0 -6.4499394291542291 1.2206623202397351 0 0 0 0 1613.0262630966026 1273.2437873877138 0 1273.2437873877138 178.61358011985524 0 0 0 0 11.459015847096452 -4.0446024128990787 0 -4.0446024128990787 -0.00092907936516968288 0 0 0 0 6.5113952032829161 -1.328656370997038 0 -1.328656370997038 -0.2157001620284866 0 0 0 0 14.50589586544811 -1.4887272800127349 0 -1.4887272800127349 0.90090206575780485 0 0 0 0 11.686805767309409 -5.6147554446060326 0 -5.6147554446060326 0.71993058273504729 0 0 0 0 15.990441309098969 -1.9536794873852363 0 -1.9536794873852363 0.90204179751069857 0 0 0 0 1108.1393740668718 -134.65740382998695 0 -134.65740382998695 415.41591746336951 0 0 0 0 306.6949957361503 960.80136701761649 0 960.80136701761649 -176.96829524637798 0 0 0 0 1205.4966152974548 682.6737757919077 0 682.6737757919077 -95.848366828790006 0 0 0 0 687.0348644133046 -194.2288686429581 0 -194.2288686429581 -295.05403937325036 0 0 0 0 1662.2362858848574 -223.58634413170347 0 -223.58634413170347 -302.39798555940916 0 0 0 0 8.5589724272258536 3.9956350438980337 0 3.9956350438980337 1.0734328271892166 0 0 0 0 1063.1666778019135 717.85255912976459 0 717.85255912976459 113.54026279903283 0 0 0 0 1026.3017256870808 -38.840681200194695 0 -38.840681200194695 -304.03692841034911 0 0 0 0 955.83499741420383 -223.21943804848061 0 -223.21943804848061 -260.21963343232864 0 0 0 0 246.72705682086234 377.52538588897113 0 377.52538588897113 -566.56537267717056 0 0 0 0 134.39166218711762 103.38621988323808 0 103.38621988323808 -246.73245410511973 0 0 0 0 642.08013709881925 -100.78088737837632 0 -100.78088737837632 -246.5241980083814 0 0 0 0 366.43026118099806 294.03329664643348 0 294.03329664643348 -206.95834668143573 0 0 0 0 163.79900673162774 54.44158234740172 0 54.44158234740172 -474.9863378077398 0 0 0 0 -306.47279778258962 131.76424425733259 0 131.76424425733259 -135.58607836332021 0 0 0 0 185.48155890746784 -109.48802434770839 0 -109.48802434770839 -410.76651223791805 0 0 0 0 50.468428800850234 216.30301109063015 0 216.30301109063015 -576.26595113350209 0 0 0 0 137.20626542124955 23.167572218655323 0 23.167572218655323 -555.84867432587748 0 0 0 0 17.9773217968484 8.2609805619483012 0 8.2609805619483012 1.8647342912953915 0 0 0 0 -116.76727019729151 134.04390664960886 0 134.04390664960886 -210.17210329493219 0 0 0 0 -6.1343097389235481 -218.63908518927457 0 -218.63908518927457 -45.724646386143604 0 0 0 0 123.9307947428897 129.08861269987986 0 129.08861269987986 117.42939224037907 0 0 0 0 855.01953920626329 -114.14326514795347 0 -114.14326514795347 1.7290235720265756 0 0 0 0 0.58930942187924984 -0.48412670630199273 0 -0.48412670630199273 -0.28371728049131278 0 0 0 0 250.13872020666167 -25.712274367045978 0 -25.712274367045978 -58.48337722428505 0 0 0 0 169.75301331523769 -56.838687089979672 0 -56.838687089979672 -84.910342277021016 0 0 0 0 -21.399487865870469 -137.83044793624072 0 -137.83044793624072 -0.3968034704650602 0 0 0 0 180.96021356669371 -29.271201817418273 0 -29.271201817418273 -93.516347283542643 0 0 0 0 49.457674087949272 -41.467169338833202 0 -41.467169338833202 -57.062007896375832 0 0 0 0 199.23967833799543 -84.137148514233104 0 -84.137148514233104 -149.57377928928753 0 0 0 0 80.210309166763182 -46.20218853469958 0 -46.20218853469958 -118.67215603582531 0 0 0 0 -38.399602027369838 -164.46288373162767 0 -164.46288373162767 -152.04658923387643 0 0 0 0 98.005060650437372 -53.823086420871164 0 -53.823086420871164 -263.74621536044845 0 0 0 0 0.51927857753312878 -0.5107372681946174 0 -0.5107372681946174 -0.29381947828431954 0 0 0 0 53.236157638370059 -1.8917069710039129 0 -1.8917069710039129 -184.14210567361965 0 0 0 0 -166.31509781331988 498.90197087901208 0 498.90197087901208 -421.42602938186508 0 0 0 0 14.668320130381971 7.5324249637238552 0 7.5324249637238552 2.543920121933021 0 0 0 0 60.650422952472582 30.88501426175165 0 30.88501426175165 -189.28718781528096 0 0 0 0 251.33437001245329 -68.7090934605298 0 -68.7090934605298 -138.13600904719192 0 0 0 0 45.52576328586656 1.6903224160089287 0 1.6903224160089287 -41.783342289772122 0 0 0 0 5.0767963680924595 3.3620095054469914 0 3.3620095054469914 1.9225909469452183 0 0 0 0 -328.42861303030804 87.930407927360307 0 87.930407927360307 117.34530591290229 0 0 0 0 -51.544033319696609 433.99271374044844 0 433.99271374044844 42.602649580810805 0 0 0 0 -36.206971690742648 352.44356253160294 0 352.44356253160294 152.3582205179257 0 0 0 0 213.62623338853882 113.22908301347358 0 113.22908301347358 117.5527774809089 0 0 0 0 38.428341385879321 -34.673972133697589 0 -34.673972133697589 -77.488507986836794 0 0 0 0 46.384469730022715 -4.8987550513769698 0 -4.8987550513769698 0.35162428737059681 0 0 0 0 -211.61709005897137 81.881948910565825 0 81.881948910565825 513.02718666969781 0 0 0 0 -17.634082143340493 114.82923400393878 0 114.82923400393878 -347.78242035054086 0 0 0 0 -200.94313979827712 144.91411229507702 0 144.91411229507702 263.3613239572669 0 0 0 0 159.80167143800645 220.14289597615465 0 220.14289597615465 -128.77466727374221 0 0 0 0 605.93391438253457 21.776485873436911 0 21.776485873436911 277.69258869897368 0 0 0 0 617.12730974634178 262.88135462935526 0 262.88135462935526 114.88262168891258 0 0 0 0 105.27389161027531 61.348814971213216 0 61.348814971213216 41.264080779203482 0 0 0 0 1.6991762706747977 91.390420186929077 0 91.390420186929077 597.1861459174678 0 0 0 0 4.3448268854699563 88.982826963131174 0 88.982826963131174 241.88895138269339 0 0 0 0 -92.882353576853347 -37.982384784136926 0 -37.982384784136926 301.75620392620482 0 0 0 0 672.78575309491862 286.54619277965099 0 286.54619277965099 588.23401538499627 0 0 0 0 348.50953404459869 -404.09206975572215 0 -404.09206975572215 579.0234593424542 0 0 0 0 11.211798597479287 -1.6502109786975545 0 -1.6502109786975545 1.1156228476674126 0 0 0 0 495.06650316753075 -285.70954465384887 0 -285.70954465384887 -74.939245166273622 0 0 0 0 444.71826172696456 -277.7537672216564 0 -277.7537672216564 142.53270633649055 0 0 0 0 188.87632479610329 -215.04602177145344 0 -215.04602177145344 71.75080325468042 0 0 0 0 383.90990366384722 -359.28025818921498 0 -359.28025818921498 175.58821009226321 0 0 0 0 4.091522452145 -72.727009714158385 0 -72.727009714158385 57.454769738327172 0 0 0 0 109.5745010515966 -70.537015708058561 0 -70.537015708058561 -33.550516196783519 0 0 0 0 80.024230050948972 -104.69773246075803 0 -104.69773246075803 -1.5830116364894025 0 0 0 0 -33.983100818062667 -80.039160565861238 0 -80.039160565861238 10.975269335447933 0 0 0 0 -15.354433961358154 -77.105198140561413 0 -77.105198140561413 -14.4774159765077 0 0 0 0 1.7149110893369652 -60.52330031095687 0 -60.52330031095687 -3.252397519359647 0 0 0 0 14.499846066672035 -20.838213141490581 0 -20.838213141490581 -27.498929683190113 0 0 0 0 10.458250128751388 -49.428614576668792 0 -49.428614576668792 -84.341397523660078 0 0 0 0 31.15062614379525 -3.5466171616415743 0 -3.5466171616415743 0.87151415346994043 0 0 0 0 70.473330633190926 -11.545699508166649 0 -11.545699508166649 -50.498470713668766 0 0 0 0 15.530035962467082 -10.736705508462421 0 -10.736705508462421 30.641432380725405 0 0 0 0 1.9905419025453739 -109.66730774290613 0 -109.66730774290613 -103.92101994000252 0 0 0 0 -9.6293027400024584 -103.20450120103283 0 -103.20450120103283 -41.107633227772567 0 0 0 0 30.275507485828712 -59.703665848045148 0 -59.703665848045148 -112.8827633397276 0 0 0 0 10.68616529006249 -75.324924404340237 0 -75.324924404340237 -28.56911764303328 0 0 0 0 -17.258575034560636 -78.282929102702241 0 -78.282929102702241 -6.0500339294982268 0 0 0 0 -21.429243952115939 -91.22738981011986 0 -91.22738981011986 -34.903184013824728 0 0 0 0 -25.818827058479656 -97.629129828561986 0 -97.629129828561986 -20.70775823453161 0 0 0 0 -25.21710496912624 -82.294717355439474 0 -82.294717355439474 41.655221626389107 0 0 0 0 -20.980040935974102 -136.34881063848417 0 -136.34881063848417 -17.815724300534498 0 0 0 0 3.399943860618805 -95.139032234896888 0 -95.139032234896888 -7.3446136284362638 0 0 0 0 -27.737165554150124 -145.06151838569434 0 -145.06151838569434 191.32760909461203 0 0 0 0 35.671189399661671 -16.894378639771645 0 -16.894378639771645 126.72262615767414 0 0 0 0 128.96219884202765 -268.47103274094508 0 -268.47103274094508 -22.383194343275818 0 0 0 0 109.19362363755499 -159.15790134927988 0 -159.15790134927988 -222.64828535561094 0 0 0 0 -25.910839773976477 -154.24679246393748 0 -154.24679246393748 -15.384062021303947 0 0 0 0 2.1102553438104223 -158.4280043998566 0 -158.4280043998566 -164.95955624984049 0 0 0 0 68.566143614146256 -7.0230192007946961 0 -7.0230192007946961 0.14608573487628257 0 0 0 0 88.413559407861612 -144.66191826107411 0 -144.66191826107411 -374.62617513703026 0 0 0 0 49.819728617643705 -90.788647385623904 0 -90.788647385623904 -127.83746293473104 0 0 0 0 213.21952177098137 -148.06444291020102 0 -148.06444291020102 -619.58424568624764 0 0 0 0 74.637547400986307 -6.2205767674259587 0 -6.2205767674259587 0.032412603465286655 0 0 0 0 -38.223706707634847 -120.08473033369546 0 -120.08473033369546 -220.97881143257547 0 0 0 0 70.143899788956332 -28.332257656288689 0 -28.332257656288689 -45.817445758252916 0 0 0 0 52.936965672590304 -19.008963501928022 0 -19.008963501928022 -6.1639519172767336 0 0 0 0 39.589086329593556 13.95969596116062 0 13.95969596116062 6.5434656129712039 0 0 0 0 68.749370160570834 4.8075207535417235 0 4.8075207535417235 -15.291708335836319 0 0 0 0 146.475421680414 121.27031235689174 0 121.27031235689174 90.432985200543158 0 0 0 0 219.86639169281989 62.941414130500846 0 62.941414130500846 -28.419401319838641 0 0 0 0 -59.726203562662704 -37.800909795956272 0 -37.800909795956272 128.7247512585169 0 0 0 0 45.053106612482225 84.318811484694606 0 84.318811484694606 217.93988025855566 0 0 0 0 -12.386158370733028 -323.18324637529668 0 -323.18324637529668 -111.69204501872611 0 0 0 0 22.501002628410788 -96.168653917211714 0 -96.168653917211714 -188.47031334382928 0 0 0 0 62.719023157138736 -6.1977103820969877 0 -6.1977103820969877 0.091999578110251057 0 0 0 0 15.273246062337421 -68.187019126497034 0 -68.187019126497034 -185.56147459063425 0 0 0 0 160.48187329391658 362.01876157482502 0 362.01876157482502 59.259801739921784 0 0 0 0 56.249467978745201 -7.2700120111946376 0 -7.2700120111946376 0.35303942009894063 0 0 0 0 28.089536697036237 -55.685201856958315 0 -55.685201856958315 -119.64178079626299 0 0 0 0 686.85739370214287 -75.510065101570376 0 -75.510065101570376 -643.54314136387995 0 0 0 0 462.97277311971993 235.76394859835915 0 235.76394859835915 70.563245094494363 0 0 0 0 395.05830006484757 -126.24322980191232 0 -126.24322980191232 -0.31581999872003053 0 0 0 0 269.69366608263226 34.498456793934025 0 34.498456793934025 -85.679911822327426 0 0 0 0 163.20888614597061 19.623852546862565 0 19.623852546862565 -54.025454315163415 0 0 0 0 185.87902280909475 54.46153375836721 0 54.46153375836721 -29.878194630329972 0 0 0 0 193.3282141405798 -18.034724428711016 0 -18.034724428711016 -116.08555374395362 0 0 0 0 176.15617219311389 2.0965425822580244 0 2.0965425822580244 -48.050517582533757 0 0 0 0 204.35526135456348 -57.23149986021766 0 -57.23149986021766 -64.949375651491039 0 0 0 0 152.3511748619494 -51.621236024768962 0 -51.621236024768962 -59.477375746480249 0 0 0 0 146.74073501853672 -62.547796419394423 0 -62.547796419394423 -0.059040548940322971 0 0 0 0 179.61724468051398 -93.060130617291307 0 -93.060130617291307 -0.0006672160325093407 0 0 0 0 81.877081420760078 -42.517504526492033 0 -42.517504526492033 0.027566231689327123 0 0 0 0 110.97949298211461 -36.268456613869219 0 -36.268456613869219 -16.542135969916501 0 0 0 0 110.92849521633616 -30.110210177302157 0 -30.110210177302157 -27.177943451890386 0 0 0 0 82.690829494662466 -26.247793478264228 0 -26.247793478264228 -12.439424549407306 0 0 0 0 96.646473619013705 -22.38756449467223 0 -22.38756449467223 -12.505312376282461 0 0 0 0 140.63100578116428 -27.246448813837588 0 -27.246448813837588 -26.985703906576575 0 0 0 0 100.53367036643976 -6.7077300370684405 0 -6.7077300370684405 -14.872577086866272 0 0 0 0 91.701796705514425 -8.6450606402547407 0 -8.6450606402547407 -15.11340322129589 0 0 0 0 129.67880962757772 39.324506603107196 0 39.324506603107196 1.3524690746008901 0 0 0 0 70.560540783350007 -20.254883530353496 0 -20.254883530353496 -8.1736454544595176 0 0 0 0 86.629181817057543 -6.0436977355564068 0 -6.0436977355564068 -6.7870012290719615 0 0 0 0 73.028421527851606 -24.242115852188263 0 -24.242115852188263 -9.26475323849826 0 0 0 0 64.073019979590754 -17.837996889994677 0 -17.837996889994677 -1.3555715858470307 0 0 0 0 54.538010617630789 -23.759596079377701 0 -23.759596079377701 -1.1540996935126486 0 0 0 0 68.897764752822695 -26.396495639375271 0 -26.396495639375271 -4.7296752228144783 0 0 0 0 61.160587718171882 -25.879981912008603 0 -25.879981912008603 -4.6996018016849854 0 0 0 0 79.948390360214034 -34.95807608887884 0 -34.95807608887884 -10.671732648375567 0 0 0 0 61.347835579450475 -25.306936595799936 0 -25.306936595799936 -3.0733757379632038 0 0 0 0 48.756001198307786 -40.469162894838256 0 -40.469162894838256 -0.035071666169540473 0 0 0 0 56.237185107805999 -26.460763450068821 0 -26.460763450068821 -3.4666856008369327 0 0 0 0 3499.0391105312665 -103.89165525554185 0 -103.89165525554185 -218.19893106159853 0 0 0 0 3352.6295509773336 -74.589340226417974 0 -74.589340226417974 -0.85992178131819308 0 0 0 0 4.2885027618969289 -4.4053154494505407 0 -4.4053154494505407 0.33636104374393683 0 0 0 0 3257.4759058369345 -190.76766033478643 0 -190.76766033478643 -126.42740347579519 0 0 0 0 3.5555662951810518 -22.972678070272064 0 -22.972678070272064 4.897592146692773 0 0 0 0 3462.7726680729247 -152.73744774348356 0 -152.73744774348356 -260.81880183593893 0 0 0 0 3495.6577748434938 -1364.321808245837 0 -1364.321808245837 -348.88023926980611 0 0 0 0 2273.2279274977118 -514.54951021684019 0 -514.54951021684019 -211.37607660279872 0 0 0 0 3.1661450610471249 -11.025505598519857 0 -11.025505598519857 0.48723260040757355 0 0 0 0 2547.4464722740377 -637.60385166330946 0 -637.60385166330946 -161.36406055783112 0 0 0 0 16.978536919031853 -0.41733336753042494 0 -0.41733336753042494 2.4259999512742372 0 0 0 0 1824.1401143406765 -2165.8606994442707 0 -2165.8606994442707 1566.5062175274606 0 0 0 0 3494.2073330219282 1262.3803324334235 0 1262.3803324334235 -439.47176264869489 0 0 0 0 825.01491000957321 1616.001563776349 0 1616.001563776349 1606.7117199788597 0 0 0 0 1148.3009753397491 290.10899871969741 0 290.10899871969741 -484.4644691662711 0 0 0 0 570.7891390977893 272.62162565843721 0 272.62162565843721 110.8303829250051 0 0 0 0 865.41698722170258 31.732675562410378 0 31.732675562410378 -609.78493784018679 0 0 0 0 -211.18385306722485 -228.56565085258393 0 -228.56565085258393 -206.51493739435409 0 0 0 0 15.906493212288325 -12.447110745130914 0 -12.447110745130914 -3.6341443539042144 0 0 0 0 40.660039318201711 -6.1334945011738817 0 -6.1334945011738817 -0.22799018417816563 0 0 0 0 546.47204271395458 -262.0063433126013 0 -262.0063433126013 127.84837081688738 0 0 0 0 554.0464115839859 -170.2190512067009 0 -170.2190512067009 450.49053845739923 0 0 0 0 87.18814660377393 -12.931159499981788 0 -12.931159499981788 -9.5102840508450299 0 0 0 0 75.70454360232543 -23.100556817897498 0 -23.100556817897498 -16.411458595158706 0 0 0 0 70.440900749264983 -17.385552365026911 0 -17.385552365026911 -9.9939913861191201 0 0 0 0 -31.967170791904209 -53.98467136425495 0 -53.98467136425495 -353.91735106936017 0 0 0 0 77.359079400416533 -6.3162135514617948 0 -6.3162135514617948 -2.8016851130454556 0 0 0 0 290.52886593977746 65.23091481282097 0 65.23091481282097 -617.80189355798029 0 0 0 0 21.272786841994769 -1.6560163078016785 0 -1.6560163078016785 -3.8196652945712524 0 0 0 0 -20.362826147320447 260.2124449611976 0 260.2124449611976 -711.90154440278172 0 0 0 0 181.27226794118178 -35.260866782182319 0 -35.260866782182319 102.53594595507343 0 0 0 0 437.84658983380359 -180.9163339883188 0 -180.9163339883188 -508.66187992455542 0 0 0 0 329.2552009348874 -170.48661439344252 0 -170.48661439344252 -317.64521816903556 0 0 0 0 169.75949740779288 -42.652990368440733 0 -42.652990368440733 -11.922687336905597 0 0 0 0 517.57036515949585 -244.49998884723578 0 -244.49998884723578 83.735329785723877 0 0 0 0 571.45837745234167 124.09341341349763 0 124.09341341349763 6.1150281632081942 0 0 0 0 487.39893714280333 102.86943292628527 0 102.86943292628527 324.90091311161973 0 0 0 0 3501.1158909191799 81.269365106959128 0 81.269365106959128 -547.79131803327914 0 0 0 0 1526.8597559996415 678.27355668690643 0 678.27355668690643 -487.64221424010145 0 0 0 0 1623.0337725091376 357.4464215866081 0 357.4464215866081 -265.59947886718152 0 0 0 0 171.80332677214756 660.40774217392686 0 660.40774217392686 -119.5756315315416 0 0 0 0 31.100305755644513 7.7715295899322427 0 7.7715295899322427 -6.0991584137482278 0 0 0 0 69.27812787489529 29.065527901796031 0 29.065527901796031 4.4583497992007324 0 0 0 0 -22.581179727361814 69.935623793667446 0 69.935623793667446 68.08222412845862 0 0 0 0 0.93933445525829029 2.3514851834388111 0 2.3514851834388111 2.3123420707529974 0 0 0 0 40.580309984841733 15.918033932518483 0 15.918033932518483 -46.570101954212078 0 0 0 0 31.995647263116552 50.047587169361577 0 50.047587169361577 -50.13107310172586 0 0 0 0 10.841822705762468 1.0920917486482722 0 1.0920917486482722 5.8644770909144164 0 0 0 0 23.642433807275665 39.996659764632568 0 39.996659764632568 -26.229221062431407 0 0 0 0 75.044227891165065 21.673674696167836 0 21.673674696167836 -15.453682207589736 0 0 0 0 61.956214020163316 3.13069333757403 0 3.13069333757403 -31.200380474550911 0 0 0 0 12.838613381582661 17.959457426998142 0 17.959457426998142 -11.038449668301173 0 0 0 0 91.935200691135833 8.7446481655215393 0 8.7446481655215393 -26.74232887083781 0 0 0 0 69.181704389069637 -6.0762737943446155 0 -6.0762737943446155 0.56708336804854298 0 0 0 0 100.13032409373409 -5.6698206530363677 0 -5.6698206530363677 -7.550666034500864 0 0 0 0 105.17873599396262 8.7594945765008561 0 8.7594945765008561 1.7833656334564694 0 0 0 0 4.2966970578075134 18.059685012935006 0 18.059685012935006 -1.8379746346061907 0 0 0 0 19.142004091645418 21.141788804494297 0 21.141788804494297 6.2926358193731389 0 0 0 0 113.97294906121533 4.3321553287114511 0 4.3321553287114511 -11.089350332333652 0 0 0 0 83.765592227806337 13.995813319363151 0 13.995813319363151 10.501033083034372 0 0 0 0 113.0456735694388 20.218829533387066 0 20.218829533387066 8.905185557742243 0 0 0 0 80.921754400812461 57.867952213486717 0 57.867952213486717 -41.037457107352111 0 0 0 0 91.518336463486776 20.981014327528214 0 20.981014327528214 7.3156301267035815 0 0 0 0 131.42634625434948 119.71984539344498 0 119.71984539344498 34.533317489339424 0 0 0 0 85.408232099037235 -6.1677044197147168 0 -6.1677044197147168 -20.547797074895399 0 0 0 0 84.594155906466767 136.70107322661806 0 136.70107322661806 107.56424440814135 0 0 0 0 195.46187927995925 70.641318319193942 0 70.641318319193942 -64.819730883324155 0 0 0 0 156.45760408863498 68.545176959643868 0 68.545176959643868 -45.662881441008722 0 0 0 0 293.83579295857635 -99.754050123121033 0 -99.754050123121033 -211.87500912677751 0 0 0 0 82.242142460235016 -7.0921751928555423 0 -7.0921751928555423 -20.229579978226763 0 0 0 0 3.2770740487903822 -41.354895212887641 0 -41.354895212887641 -52.850752366735833 0 0 0 0 48.284937176445965 -19.956014468021749 0 -19.956014468021749 -49.081712069441437 0 0 0 0 53.317485186718841 -59.483262715751607 0 -59.483262715751607 -140.52740613403876 0 0 0 0 24.130083237643703 -32.758354222383787 0 -32.758354222383787 -35.967357386020012 0 0 0 0 94.764608211320592 -2.2863248499052133 0 -2.2863248499052133 -39.895819358085646 0 0 0 0 77.260332842444768 26.925904238984458 0 26.925904238984458 -59.893805279923981 0 0 0 0 123.35768178851868 6.3740188699084683 0 6.3740188699084683 -50.74809415270829 0 0 0 0 77.254065378467203 2.2774652177458847 0 2.2774652177458847 103.28261312924587 0 0 0 0 95.129586752998875 108.79110745619255 0 108.79110745619255 186.71522671159619 0 0 0 0 131.5068745703029 33.328678454538021 0 33.328678454538021 62.047066491395526 0 0 0 0 77.845738431860809 -7.8361811789527565 0 -7.8361811789527565 43.766671782599587 0 0 0 0 119.02405082760379 45.25460777059925 0 45.25460777059925 50.800949130888057 0 0 0 0 52.791733882550034 -15.768497780623875 0 -15.768497780623875 25.465481269318843 0 0 0 0 104.30138322585844 4.3021826899293956 0 4.3021826899293956 16.009322688107204 0 0 0 0 90.286733694701979 2.2561467295809052 0 2.2561467295809052 61.310429783421569 0 0 0 0 158.1078622348723 19.70541855020565 0 19.70541855020565 56.915742100621173 0 0 0 0 124.82830859243404 48.66580240008625 0 48.66580240008625 105.09814378438023 0 0 0 0 106.87112524155236 -12.697755824872729 0 -12.697755824872729 95.376257259435079 0 0 0 0 75.902068079769379 -30.827988502656808 0 -30.827988502656808 52.297396148647294 0 0 0 0 113.51895056455396 -9.0263332457616343 0 -9.0263332457616343 48.837843177885588 0 0 0 0 67.749453560565598 -49.992298382901026 0 -49.992298382901026 -15.759060113916348 0 0 0 0 64.011059435797506 -9.3072726886948658 0 -9.3072726886948658 17.528340306438622 0 0 0 0 97.986340632480278 27.859554880178621 0 27.859554880178621 144.2478516766032 0 0 0 0 104.89828108320944 10.834660715911014 0 10.834660715911014 80.406619818488252 0 0 0 0 98.84990346430277 14.054877054513781 0 14.054877054513781 113.30635874101426 0 0 0 0 170.81150800705655 -10.598212508102733 0 -10.598212508102733 117.6200152293568 0 0 0 0 252.43008727582492 75.677232796586395 0 75.677232796586395 89.437441643967759 0 0 0 0 87.734221706785803 1.2158124422223935 0 1.2158124422223935 -17.994969438797376 0 0 0 0 -1.6447759714938002 -90.430615273135118 0 -90.430615273135118 -57.61959857531474 0 0 0 0 161.3759744889685 155.83962499469999 0 155.83962499469999 161.87176244689908 0 0 0 0 67.901911292028672 49.73562007176497 0 49.73562007176497 -35.270062923464138 0 0 0 0 -49.174462513647086 24.432239750896542 0 24.432239750896542 55.849976364770555 0 0 0 0 36.837401761441569 26.123557310290217 0 26.123557310290217 -19.407020090089183 0 0 0 0 169.87841660911272 -32.411196040538243 0 -32.411196040538243 -22.382558925906778 0 0 0 0 124.93861821482474 -30.955892900872442 0 -30.955892900872442 -13.637406310142701 0 0 0 0 172.86479426522783 -25.647192374413862 0 -25.647192374413862 -59.069272427492251 0 0 0 0 -30.316800782988139 -13.198334598431757 0 -13.198334598431757 238.87844293969465 0 0 0 0 68.58865777952451 33.679581299026722 0 33.679581299026722 19.856370634174709 0 0 0 0 300.84253026611987 128.23794963520595 0 128.23794963520595 30.998617986246245 0 0 0 0 359.63560581371712 -154.72666303763253 0 -154.72666303763253 66.83765563556608 0 0 0 0 186.61815290676168 -26.134753863303445 0 -26.134753863303445 -20.698321713606674 0 0 0 0 74.318859278308082 32.535684797059275 0 32.535684797059275 -27.75467815265074 0 0 0 0 135.86925851819251 81.447560113013424 0 81.447560113013424 -19.925496611126619 0 0 0 0 59.396536215383094 45.575737560859125 0 45.575737560859125 -22.338835355715219 0 0 0 0 115.48016963113332 3.8154526907637774 0 3.8154526907637774 -33.233386683825302 0 0 0 0 170.07449433398506 -13.054634985012854 0 -13.054634985012854 -32.058425324188647 0 0 0 0 179.59897968931546 13.4002158372341 0 13.4002158372341 -21.456378903722651 0 0 0 0 187.19517916150653 5.5880334407447663 0 5.5880334407447663 -13.636752588807212 0 0 0 0 14.535375954007762 30.281958612330982 0 30.281958612330982 -11.879041576052511 0 0 0 0 -11.060124815507152 74.552128477398583 0 74.552128477398583 4.8458655120030016 0 0 0 0 158.30954035398599 44.556243654906893 0 44.556243654906893 7.7643029983664746 0 0 0 0 24.067338568071222 30.384566428573706 0 30.384566428573706 -5.0011907303114356 0 0 0 0 162.98393309339008 -27.890849627806347 0 -27.890849627806347 47.451627047765214 0 0 0 0 177.2649499320687 3.3160379393575568 0 3.3160379393575568 -14.126888226945994 0 0 0 0 179.28651145308322 13.809953362852866 0 13.809953362852866 20.825994593884388 0 0 0 0 205.48215455586887 4.784152859365804 0 4.784152859365804 17.663091437123512 0 0 0 0 212.73822112350172 32.17660656327098 0 32.17660656327098 24.809554461287917 0 0 0 0 194.79678562152185 -3.5731049968230764 0 -3.5731049968230764 -9.1299589315458434 0 0 0 0 197.00168641735399 62.351336268609771 0 62.351336268609771 30.044707707300404 0 0 0 0 65.581824420376506 83.30645028995059 0 83.30645028995059 79.187363728069613 0 0 0 0 126.39254484377307 53.217476086480019 0 53.217476086480019 83.625364453182556 0 0 0 0 204.52347012425571 105.7649576641835 0 105.7649576641835 28.823802289811283 0 0 0 0 187.99759553396871 -5.5592961392667348 0 -5.5592961392667348 43.627101012862113 0 0 0 0 59.440487916993106 15.871851689752987 0 15.871851689752987 115.40660114991988 0 0 0 0 121.04774902591976 -11.863665286550997 0 -11.863665286550997 115.25306342307886 0 0 0 0 -5.1567272907617792 10.971649950752642 0 10.971649950752642 4.7932904324258025 0 0 0 0 281.00004047551556 -129.1693500072729 0 -129.1693500072729 -105.62397164825961 0 0 0 0 173.42951753523812 -125.74396221199095 0 -125.74396221199095 207.4041032855439 0 0 0 0 96.919058749466785 -285.03758152902174 0 -285.03758152902174 -235.43309006853997 0 0 0 0 45.510724967274975 -5.1761704110835645 0 -5.1761704110835645 -0.011667871370661942 0 0 0 0 -214.70415111531111 -101.3632082821814 0 -101.3632082821814 26.13641244244036 0 0 0 0 75.37790076925836 -1.2959854737988472 0 -1.2959854737988472 -1.7998468845804361 0 0 0 0 518.93326872983016 -184.82729601993651 0 -184.82729601993651 -403.77042468298259 0 0 0 0 201.76805963661172 250.49950854160579 0 250.49950854160579 -173.39525402132313 0 0 0 0 -146.6677640473572 157.41170784644146 0 157.41170784644146 28.509344759449505 0 0 0 0 580.60535334455926 81.098297753304905 0 81.098297753304905 -136.67549635739124 0 0 0 0 77.972261803268339 8.1744035993592661 0 8.1744035993592661 -23.813680897210361 0 0 0 0 -21.156193760605674 -71.09230348431538 0 -71.09230348431538 -189.09063266146359 0 0 0 0 73.328861739073005 10.918517509192952 0 10.918517509192952 -2.0183450291440757 0 0 0 0 104.21327000825841 35.533831947484487 0 35.533831947484487 -45.273959179626218 0 0 0 0 13.406962338946933 1.2323613793448303 0 1.2323613793448303 -0.83326764438161405 0 0 0 0 81.409582616823172 82.870773962445128 0 82.870773962445128 114.0804505264 0 0 0 0 103.45818466886703 -43.848486700876492 0 -43.848486700876492 -278.96728127431561 0 0 0 0 251.24608857472776 -209.72852876391335 0 -209.72852876391335 -325.25204303966348 0 0 0 0 143.4853279978488 65.865720365385641 0 65.865720365385641 89.120627220552706 0 0 0 0 176.7966791287181 -30.730451931005973 0 -30.730451931005973 315.63032501209091 0 0 0 0 197.12163799189875 555.508566404269 0 555.508566404269 719.0838064015511 0 0 0 0 -195.50470164442959 53.643715873919518 0 53.643715873919518 -258.79999106726882 0 0 0 0 15.452336640497471 -0.099615977799855315 0 -0.099615977799855315 -0.05858946590683356 0 0 0 0 101.13191268547962 181.6216749592968 0 181.6216749592968 165.16029225751299 0 0 0 0 -39.667780341791513 129.65168310678018 0 129.65168310678018 639.54485588608259 0 0 0 0 69.226933353362256 213.08682304897229 0 213.08682304897229 398.59814418532915 0 0 0 0 140.48009295052907 425.15333092840592 0 425.15333092840592 442.10712930502541 0 0 0 0 234.3556999705288 133.21416162274181 0 133.21416162274181 -4.6141580934490776 0 0 0 0 31.275585246184178 3.1441771439348756 0 3.1441771439348756 -18.396674717396969 0 0 0 0 386.49696473957738 310.4667772063367 0 310.4667772063367 78.807218021394874 0 0 0 0 -633.99759370914762 -701.13739047387708 0 -701.13739047387708 176.78869686652797 0 0 0 0 386.89604128113569 389.64057300167042 0 389.64057300167042 147.5033316775498 0 0 0 0 269.2708841969561 116.39733886830936 0 116.39733886830936 -94.888404722740233 0 0 0 0 589.16437642780784 -1325.3057995848592 0 -1325.3057995848592 -265.69363852643073 0 0 0 0 1987.0064090246278 -1355.4089719068402 0 -1355.4089719068402 -658.35136665747996 0 0 0 0 1547.0881901683169 492.3603611680046 0 492.3603611680046 -95.208221532078824 0 0 0 0 86.013879103298677 -3.0812281409962452 0 -3.0812281409962452 -30.499063703246975 0 0 0 0 73.188359433814185 -9.7601705798251714 0 -9.7601705798251714 -14.992219783855035 0 0 0 0 63.968325159814867 -0.36072250650567739 0 -0.36072250650567739 -7.4803593558601023 0 0 0 0 449.81765499194444 167.32654513647367 0 167.32654513647367 -216.20102108233596 0 0 0 0 59.673553543616435 -1.2926508356285922 0 -1.2926508356285922 -20.195057006699244 0 0 0 0 163.99322495937304 115.49571832188735 0 115.49571832188735 33.782977644048515 0 0 0 0 24.981199355028394 -10.376475966206272 0 -10.376475966206272 -11.932893887437551 0 0 0 0 21.427922092243534 -165.30154420201416 0 -165.30154420201416 37.076821487019515 0 0 0 0 87.918805079377847 9.1051602554258224 0 9.1051602554258224 -4.0451046615302371 0 0 0 0 112.32605396276631 -3.086770027237435 0 -3.086770027237435 -38.609308486713871 0 0 0 0 112.13826705986139 1.9887317697930484 0 1.9887317697930484 -22.92262710149771 0 0 0 0 1546.3386643573176 271.33233354963886 0 271.33233354963886 -276.04564140469301 0 0 0 0 118.13284351096809 -22.949348251787342 0 -22.949348251787342 -15.238591516594852 0 0 0 0 10.684539416781949 -15.251536476722549 0 -15.251536476722549 4.7960076167217274 0 0 0 0 76.123406730364877 -23.531315219200565 0 -23.531315219200565 13.598904909127668 0 0 0 0 109.3668385274068 -35.488349219837801 0 -35.488349219837801 13.92411697059697 0 0 0 0 111.20655702766817 -41.393760597632081 0 -41.393760597632081 21.707953676449506 0 0 0 0 70.924441476010543 22.824218823866431 0 22.824218823866431 -14.430538810998769 0 0 0 0 43.624349401724885 3.1022659554142251 0 3.1022659554142251 -13.814501629557633 0 0 0 0 51.997498098514214 16.469321393892599 0 16.469321393892599 -0.58077095277229063 0 0 0 0 73.640793460435816 23.399507630909284 0 23.399507630909284 -34.393392281449223 0 0 0 0 110.76288665770699 32.530500120344186 0 32.530500120344186 -24.473713231739566 0 0 0 0 67.008163089736627 -1.0780785104175266 0 -1.0780785104175266 -9.1233294826633937 0 0 0 0 57.524394415813731 0.58775791206971917 0 0.58775791206971917 19.458971223601111 0 0 0 0 14.146019378056081 2.4469176540981188 0 2.4469176540981188 5.5260166385249718 0 0 0 0 74.317990273742907 -1.6215935521527172 0 -1.6215935521527172 -9.0299503654969158 0 0 0 0 59.82795143225303 7.7403784042990083 0 7.7403784042990083 -11.39959408492814 0 0 0 0 47.806885231244564 15.181274334297868 0 15.181274334297868 -8.4067198657547486 0 0 0 0 120.36422710123588 -0.71754962429326952 0 -0.71754962429326952 -19.979381955596182 0 0 0 0 66.279563994525233 -16.176699125297546 0 -16.176699125297546 0.8799072382353188 0 0 0 0 57.100307890919794 -19.068544531580301 0 -19.068544531580301 0.28892796537547838 0 0 0 0 100.25616514570356 -42.067768238530334 0 -42.067768238530334 -34.108894184285418 0 0 0 0 16.834452626215352 -16.609345501585267 0 -16.609345501585267 12.454454711053131 0 0 0 0 50.459605540152552 -32.91608643313225 0 -32.91608643313225 -12.16083882109524 0 0 0 0 25.503512512761517 -35.495783979136831 0 -35.495783979136831 -12.390262278767523 0 0 0 0 -3.3446520322203526 -0.74957330320154369 0 -0.74957330320154369 6.0004532210026671 0 0 0 0 -24.337373614893295 62.798038643273685 0 62.798038643273685 72.225514476767785 0 0 0 0 23.822429557883879 -2.3026982963592673 0 -2.3026982963592673 18.997778311260845 0 0 0 0 -103.78391383656708 -73.08527913217813 0 -73.08527913217813 17.052814891478292 0 0 0 0 48.82569038632252 0.43968556769459965 0 0.43968556769459965 -6.3563112502697461 0 0 0 0 49.01789358323731 -21.21506547641593 0 -21.21506547641593 -127.50713510700234 0 0 0 0 54.261255567791522 -0.4277309899816828 0 -0.4277309899816828 -28.22234699962155 0 0 0 0 -133.19761807464238 5.7518505738016756 0 5.7518505738016756 100.63695506825229 0 0 0 0 2.1697984811180504 -80.8821662270052 0 -80.8821662270052 -99.978275297125037 0 0 0 0 60.286699807602417 -1.9271235720818822 0 -1.9271235720818822 -37.13197944417152 0 0 0 0 313.22542955890822 11.055477176904105 0 11.055477176904105 -83.306618559113531 0 0 0 0 68.358376155752921 -31.816589097787983 0 -31.816589097787983 -84.811053156900925 0 0 0 0 67.817944480659207 -29.964409155078556 0 -29.964409155078556 -12.930454638830724 0 0 0 0 31.858250548277283 10.070144638549209 0 10.070144638549209 -29.949923574459717 0 0 0 0 5.9882143665021639 0.93457390529739115 0 0.93457390529739115 -0.090668608368805081 0 0 0 0 61.766255041584373 -12.709707047098163 0 -12.709707047098163 -28.901331116624533 0 0 0 0 50.150444103550399 7.6022050615147236 0 7.6022050615147236 -34.455830536131543 0 0 0 0 57.563318960415216 22.061756641827053 0 22.061756641827053 -15.853769448156084 0 0 0 0 -43.151216642580493 9.3183227012074923 0 9.3183227012074923 7.7925529575168184 0 0 0 0 108.79221368920844 -68.03920952364831 0 -68.03920952364831 35.104996721126554 0 0 0 0 -1.7025082336584489 5.2118762242689769 0 5.2118762242689769 -0.50052763510665477 0 0 0 0 277.52670566908273 114.72262825476469 0 114.72262825476469 -21.98317393113166 0 0 0 0 88.327487131573434 32.112302770636234 0 32.112302770636234 -9.2405496757810397 0 0 0 0 88.053858393412156 20.507139727518279 0 20.507139727518279 -16.90252321195112 0 0 0 0 22.382376750941166 6.4576203876083298 0 6.4576203876083298 1.8043565535205026 0 0 0 0 86.430136184177172 22.231010913855926 0 22.231010913855926 2.7557391973787162 0 0 0 0 29.315712723393794 17.424055506644081 0 17.424055506644081 -9.6786930578766039 0 0 0 0 51.775827674577187 26.495576957777196 0 26.495576957777196 -2.5332633491045904 0 0 0 0 133.41672011520859 41.441019593974602 0 41.441019593974602 -26.611777033151157 0 0 0 0 105.00752897972416 14.81690388745119 0 14.81690388745119 -27.619059522937732 0 0 0 0 70.545007524332419 18.200939642485348 0 18.200939642485348 -7.1708969830436997 0 0 0 0 73.19277291507359 4.2833208197762591 0 4.2833208197762591 -6.3287813631050698 0 0 0 0 90.11945720935546 18.638000486605733 0 18.638000486605733 -17.820912046076046 0 0 0 0 64.581349724510801 -2.3655664800845955 0 -2.3655664800845955 -17.039610470823959 0 0 0 0 80.579647757102975 3.5536988232886273 0 3.5536988232886273 -23.080340836869254 0 0 0 0 18.788501347913712 8.1718306469632189 0 8.1718306469632189 -1.5742075987785462 0 0 0 0 99.445499160039617 -114.17461439205908 0 -114.17461439205908 -51.426069137560944 0 0 0 0 67.200470785774087 -2.5908169003441799 0 -2.5908169003441799 -43.98418921940538 0 0 0 0 47.479774109486243 18.904661294930975 0 18.904661294930975 -8.600611050536827 0 0 0 0 41.29718171286936 -3.9315073930673954 0 -3.9315073930673954 -12.25989492197996 0 0 0 0 45.926829513919074 -7.9581616907998978 0 -7.9581616907998978 -50.745458306724686 0 0 0 0 62.144987155087449 33.170766694271862 0 33.170766694271862 -6.3350326517732096 0 0 0 0 22.236602258254266 -44.71833663212557 0 -44.71833663212557 -27.95703487813406 0 0 0 0 -2.2846949851919618 -9.4854170358481866 0 -9.4854170358481866 -0.57123554392936882 0 0 0 0 -27.873567676026141 -26.686698986242845 0 -26.686698986242845 -36.021751020914053 0 0 0 0 108.92475762297545 77.808765771310391 0 77.808765771310391 46.064761698709844 0 0 0 0 40.154553354632299 22.177077728401855 0 22.177077728401855 -32.0270126489022 0 0 0 0 -10.092838099932123 1.9442799927332999 0 1.9442799927332999 -84.296203280744521 0 0 0 0 242.47688359655876 12.945613175084873 0 12.945613175084873 -61.513200874861468 0 0 0 0 41.314524382525633 -85.761682024398397 0 -85.761682024398397 65.313716674378156 0 0 0 0 -6.041387013900021 -18.766743501880683 0 -18.766743501880683 -58.702382313485941 0 0 0 0 92.138804040394888 -31.255315256596131 0 -31.255315256596131 -32.235028341309999 0 0 0 0 133.67203366614558 29.087310937182565 0 29.087310937182565 -95.974939572937501 0 0 0 0 228.99894149810279 124.96603786349021 0 124.96603786349021 -29.31327722249182 0 0 0 0 105.33635523851262 20.550761756423412 0 20.550761756423412 202.95523112493765 0 0 0 0 87.397291249645022 -28.032388926869451 0 -28.032388926869451 -38.281112293586752 0 0 0 0 37.847743873895524 -145.37408440127638 0 -145.37408440127638 -30.678230086244866 0 0 0 0 164.5802991254368 -230.30039942032056 0 -230.30039942032056 -73.514045214833914 0 0 0 0 368.06120924880815 227.23349301589909 0 227.23349301589909 130.85642202580681 0 0 0 0 -57.974650867297896 -108.58966618718432 0 -108.58966618718432 -59.025304603582015 0 0 0 0 3.7012954218327536 -0.64570230425766795 0 -0.64570230425766795 -0.63695169959833953 0 0 0 0 154.34561478897376 68.44838802379121 0 68.44838802379121 34.894028450204246 0 0 0 0 119.17801595519995 42.593711430172959 0 42.593711430172959 -7.1418051128630395 0 0 0 0 352.23785525523999 -49.212600135083846 0 -49.212600135083846 -1.9034633694172953 0 0 0 0 122.07112920521104 41.420559691690926 0 41.420559691690926 -8.1981788569655691 0 0 0 0 3.7555236464331827 -10.61093919471675 0 -10.61093919471675 -8.9569100367042118 0 0 0 0 -10.339632496717968 -54.613947029540647 0 -54.613947029540647 107.86260318040461 0 0 0 0 81.608276840153849 7.5377116623304801 0 7.5377116623304801 -28.218620574693432 0 0 0 0 81.758204059762647 4.838239499313886 0 4.838239499313886 5.3760059545012666 0 0 0 0 36.056716736685729 -10.680407445657629 0 -10.680407445657629 -13.277440841728991 0 0 0 0 27.549034824029942 8.7656034048649758 0 8.7656034048649758 -9.8634299401649734 0 0 0 0 89.119175575302506 7.3493325630611253 0 7.3493325630611253 -11.803497676129609 0 0 0 0 71.2714003462861 22.137104544866133 0 22.137104544866133 13.478367910325687 0 0 0 0 104.70639798228876 32.773825971949577 0 32.773825971949577 -1.6266207589615078 0 0 0 0 28.847206520273176 36.037380409398907 0 36.037380409398907 15.311413925962597 0 0 0 0 18.810411459451323 -6.5232310518036769 0 -6.5232310518036769 -13.069490238549136 0 0 0 0 104.25298410222422 37.196711193319686 0 37.196711193319686 -47.336037421312085 0 0 0 0 555.62205473721406 67.471477360762037 0 67.471477360762037 -9.6081540349559873 0 0 0 0 167.9199751252163 -27.793120805361468 0 -27.793120805361468 -14.973206898310536 0 0 0 0 382.76764387697767 65.228750479039263 0 65.228750479039263 13.873082914362385 0 0 0 0 292.84601887511963 162.45026576548207 0 162.45026576548207 65.750202045835977 0 0 0 0 36.654045313982351 45.348148511543513 0 45.348148511543513 74.314783145540787 0 0 0 0 382.85432636601399 235.00669857248749 0 235.00669857248749 127.32711436232421 0 0 0 0 321.18943171243518 153.51584604064101 0 153.51584604064101 56.625681827730659 0 0 0 0 330.2277968653234 245.47324832743379 0 245.47324832743379 112.24674855557259 0 0 0 0 375.44795049963625 243.01988760369636 0 243.01988760369636 103.05900452505557 0 0 0 0 447.75078454363211 66.973528536196227 0 66.973528536196227 -53.458993421912055 0 0 0 0 282.58531658785068 173.86906233664467 0 173.86906233664467 121.92479736142914 0 0 0 0 564.57674698469782 116.84615037682124 0 116.84615037682124 122.89598335755065 0 0 0 0 4.9442279376208873 -1.4095632915913683 0 -1.4095632915913683 -2.5332287360924468 0 0 0 0 -112.0364917360348 -100.10191814422797 0 -100.10191814422797 -19.720268752862694 0 0 0 0 720.9705512584078 350.96716971589274 0 350.96716971589274 92.962254169457083 0 0 0 0 58.002303433742782 -85.639452058471761 0 -85.639452058471761 -35.615466011929129 0 0 0 0 45.948312672462521 41.240579232431671 0 41.240579232431671 32.567026658749455 0 0 0 0 7.2162527316850742 -3.2657237859993771 0 -3.2657237859993771 0.94043077471165537 0 0 0 0 -40.48405274434208 -34.528063413215961 0 -34.528063413215961 -122.42780296085994 0 0 0 0 -28.142108508298406 -217.04502252218526 0 -217.04502252218526 -23.807937890534049 0 0 0 0 78.281787484471863 -23.941941052312835 0 -23.941941052312835 -44.070962512282541 0 0 0 0 216.30640478191708 77.405032375451356 0 77.405032375451356 -36.391778355558927 0 0 0 0 128.48368155226854 -115.18487781961858 0 -115.18487781961858 -70.019905396254217 0 0 0 0 226.82348880636528 -46.23119307617344 0 -46.23119307617344 321.91801131830289 0 0 0 0 431.29307525362674 330.87692509026419 0 330.87692509026419 175.9316620878235 0 0 0 0 477.85849995383251 -67.357581616824064 0 -67.357581616824064 -123.22715714545666 0 0 0 0 241.72512443282903 532.87635777459673 0 532.87635777459673 -121.81842934872657 0 0 0 0 92.008728904591408 68.661816321732886 0 68.661816321732886 14.994476262399075 0 0 0 0 5.1564529721646863 4.3694432971562662 0 4.3694432971562662 0.81265323635648201 0 0 0 0 220.10609877177922 244.55328946285181 0 244.55328946285181 75.760994591765098 0 0 0 0 -4.0426574957222101 14.35542781168418 0 14.35542781168418 -10.002222199814923 0 0 0 0 239.36047061174759 156.05981788568079 0 156.05981788568079 -32.787808807288457 0 0 0 0 267.16498935459822 165.3991985149305 0 165.3991985149305 23.248133935489932 0 0 0 0 125.0165976564931 198.01168976921429 0 198.01168976921429 67.050346996297776 0 0 0 0 147.61105000731186 98.06081307736531 0 98.06081307736531 -10.936627650691662 0 0 0 0 266.69814247170143 -41.48567344348794 0 -41.48567344348794 -111.59289314782109 0 0 0 0 156.90156684390968 153.81864530822168 0 153.81864530822168 -91.354854418617833 0 0 0 0 301.10167974676551 140.44959921039117 0 140.44959921039117 -299.7563845710265 0 0 0 0 183.06903964582196 92.681511565340216 0 92.681511565340216 13.351332914603134 0 0 0 0 135.57944718872386 58.515422077886655 0 58.515422077886655 -8.1861570708579166 0 0 0 0 123.40686246540281 105.22229549087695 0 105.22229549087695 26.26611849564074 0 0 0 0 84.715159986690452 80.805726479991549 0 80.805726479991549 -32.3113284396428 0 0 0 0 101.21906359282002 59.084501069923391 0 59.084501069923391 2.5007920192988422 0 0 0 0 87.247509277825884 63.070798876543449 0 63.070798876543449 10.546889042723251 0 0 0 0 125.29548380157212 44.358168268793861 0 44.358168268793861 -14.24738055094349 0 0 0 0 76.408037261790014 45.391468761195256 0 45.391468761195256 -13.160418470658612 0 0 0 0 93.808810691116491 32.610252365536191 0 32.610252365536191 4.5511831696922798 0 0 0 0 99.428555087160078 -3.1541787248919491 0 -3.1541787248919491 -45.636983801703948 0 0 0 0 16.762810246405536 -1.5825469433341297 0 -1.5825469433341297 -2.943345661652677 0 0 0 0 72.655003961743205 64.13633247035159 0 64.13633247035159 -148.60115076380589 0 0 0 0 53.572682123762206 11.106287480662559 0 11.106287480662559 -9.914918118734704 0 0 0 0 85.191569057380548 45.68742815751466 0 45.68742815751466 -0.93710286528357756 0 0 0 0 42.245024927447957 29.566693155937088 0 29.566693155937088 28.556255752371044 0 0 0 0 65.883139056299115 53.642269401160306 0 53.642269401160306 47.803619436069454 0 0 0 0 133.2680561808229 90.505692514777849 0 90.505692514777849 59.732824115683798 0 0 0 0 99.537650632206351 71.967182452961652 0 71.967182452961652 25.90228531487719 0 0 0 0 143.75440934015205 47.307838119272503 0 47.307838119272503 -4.0600967418480423 0 0 0 0 145.75752207111145 58.207277761885663 0 58.207277761885663 27.168814077909872 0 0 0 0 151.44064001640072 49.266271741410492 0 49.266271741410492 -5.0859462460532541 0 0 0 0 96.576791414954641 29.751934437586215 0 29.751934437586215 -3.2236094270851936 0 0 0 0 90.473279162442026 37.200303377792885 0 37.200303377792885 9.9273071552537502 0 0 0 0 81.15599719029251 60.491109182652046 0 60.491109182652046 4.3411946651005735 0 0 0 0 143.07848396807094 30.305043272647708 0 30.305043272647708 -4.5066186801656158 0 0 0 0 43.114175497554243 45.124878280249249 0 45.124878280249249 4.9219320933964372 0 0 0 0 204.41589969268534 312.64726497521769 0 312.64726497521769 -98.85762708789116 0 0 0 0 45.991410462936841 3.8108162925122144 0 3.8108162925122144 -8.3217476892455906 0 0 0 0 79.668628046456433 93.451096906465722 0 93.451096906465722 16.662047011073469 0 0 0 0 121.30237986212887 53.499492494262483 0 53.499492494262483 -6.5284582933557544 0 0 0 0 130.52114847811754 44.730946189735008 0 44.730946189735008 -1.583273184058811 0 0 0 0 121.21773809006845 47.104678250105138 0 47.104678250105138 9.9483519049433085 0 0 0 0 134.23434645167436 32.60925760677253 0 32.60925760677253 4.1503503376532143 0 0 0 0 108.19531514693517 33.863786671875502 0 33.863786671875502 4.1273007679655791 0 0 0 0 112.86224762594793 36.011523915817293 0 36.011523915817293 -15.585682285273833 0 0 0 0 77.829092542484432 44.50993181240063 0 44.50993181240063 -5.279769635676189 0 0 0 0 110.87327468127478 47.184171043412562 0 47.184171043412562 -12.858491121796533 0 0 0 0 115.99625522305723 43.089976655158921 0 43.089976655158921 -10.542518899853803 0 0 0 0 110.41416872479022 47.92142674812942 0 47.92142674812942 -6.4304518890039617 0 0 0 0 101.39478103889269 55.287423038952625 0 55.287423038952625 6.1811299354253606 0 0 0 0 91.076068206341006 47.343160487258729 0 47.343160487258729 0.84274320300710315 0 0 0 0 98.822204135591164 38.821967621696899 0 38.821967621696899 -9.1699302627530415 0 0 0 0 90.83357583952602 45.986945495761063 0 45.986945495761063 1.670379587844991 0 0 0 0 110.12573641963536 40.534905991693677 0 40.534905991693677 -10.730962413218549 0 0 0 0 106.2422139083501 44.805593736129708 0 44.805593736129708 -6.0447648270646539 0 0 0 0 107.51004777522758 41.186825583116118 0 41.186825583116118 -10.756971071226879 0 0 0 0 86.756348024699946 37.729252353254417 0 37.729252353254417 58.221746793697662 0 0 0 0 79.047511361539364 59.880086962969841 0 59.880086962969841 5.134574628834045 0 0 0 0 87.035046420685831 45.84739166101366 0 45.84739166101366 23.570294357099272 0 0 0 0 107.53819792543072 40.588164376362471 0 40.588164376362471 -10.358424633266829 0 0 0 0 89.412927259487333 35.076294865908366 0 35.076294865908366 1.2348570778811734 0 0 0 0 74.582768585169106 50.212162358411206 0 50.212162358411206 -9.2810847375585581 0 0 0 0 68.347827037534444 36.953137637676491 0 36.953137637676491 -33.530537686273647 0 0 0 0 70.747992370495922 54.38679725123437 0 54.38679725123437 17.27891372092256 0 0 0 0 69.711023700401711 61.327846934039016 0 61.327846934039016 -24.078687330611018 0 0 0 0 47.439424573298311 36.725699866848231 0 36.725699866848231 -50.25041194108681 0 0 0 0 57.140447070534719 82.843881749579168 0 82.843881749579168 -15.279244408304407 0 0 0 0 -22.859662616188871 -11.016117711739753 0 -11.016117711739753 -21.793656007546872 0 0 0 0 54.036720388743561 59.194672649834501 0 59.194672649834501 -11.150460801375118 0 0 0 0 1.937435847663437 35.330910628041636 0 35.330910628041636 13.899113799814131 0 0 0 0 41.451934277196415 56.535588012793596 0 56.535588012793596 24.159340656406584 0 0 0 0 75.76360376062803 32.968636069389277 0 32.968636069389277 -7.7954048465032457 0 0 0 0 68.242561279126676 64.580200858635862 0 64.580200858635862 24.123317495420199 0 0 0 0 100.17486775580619 0.38235100817882994 0 0.38235100817882994 15.070837437926002 0 0 0 0 106.80553312730626 1.8219094645855876 0 1.8219094645855876 -14.90710816212777 0 0 0 0 22.915768474279076 -7.3041893902813655 0 -7.3041893902813655 -4.6679166178031162 0 0 0 0 29.365965663555059 17.555603574278393 0 17.555603574278393 -7.5082823769991567 0 0 0 0 133.75281769247522 16.423339810769619 0 16.423339810769619 -0.98411440679547013 0 0 0 0 51.071799964608999 -27.132687017885161 0 -27.132687017885161 -14.118788177722113 0 0 0 0 48.129665696855227 12.27862015456185 0 12.27862015456185 7.5828377797005109 0 0 0 0 47.502474079192325 15.425343943789812 0 15.425343943789812 -7.5820212440513615 0 0 0 0 97.840433942506934 0.17905095827279638 0 0.17905095827279638 -13.325457585020558 0 0 0 0 52.665716366987908 -6.8877533276049689 0 -6.8877533276049689 -15.608717457613693 0 0 0 0 52.279093629884301 -8.2710523321225082 0 -8.2710523321225082 7.5814235717682212 0 0 0 0 126.3030018711288 13.999986120761378 0 13.999986120761378 -2.196010249153062 0 0 0 0 130.60037725065195 19.633773313944488 0 19.633773313944488 -1.2301313049451892 0 0 0 0 82.56003132170008 14.008138695774051 0 14.008138695774051 9.0099940595405315 0 0 0 0 35.825700198258801 -4.4493156422078783 0 -4.4493156422078783 -13.319515765701162 0 0 0 0 22.908399674368255 3.7113534563590491 0 3.7113534563590491 -9.0671304877487735 0 0 0 0 178.43978552553017 -36.395480366794146 0 -36.395480366794146 -46.502280464744388 0 0 0 0 171.25229995916015 79.900801754042845 0 79.900801754042845 26.084254081325241 0 0 0 0 234.52939345619961 47.151308806105135 0 47.151308806105135 -31.455839542904755 0 0 0 0 167.09366762495483 68.817407455579882 0 68.817407455579882 15.004696144876675 0 0 0 0 147.4420462960843 15.806069326311672 0 15.806069326311672 -30.246223070854093 0 0 0 0 158.66978097386891 26.112837228561602 0 26.112837228561602 -21.196411869159874 0 0 0 0 82.729619250261749 -33.600094305275206 0 -33.600094305275206 -9.5003354649502398 0 0 0 0 149.00362352267257 11.713312645198812 0 11.713312645198812 -19.668196789266858 0 0 0 0 131.17810450035904 4.7937385251666456 0 4.7937385251666456 -21.350531241339354 0 0 0 0 67.822961432750162 35.856095041365165 0 35.856095041365165 9.2706229230898316 0 0 0 0 54.232499206875218 -76.254772848478297 0 -76.254772848478297 27.02348765019633 0 0 0 0 46.387088407572719 -5.5022446430023564 0 -5.5022446430023564 3.572281854887045 0 0 0 0 -5.2062639523752807 -1.5137058634660292 0 -1.5137058634660292 2.9331498168786592 0 0 0 0 44.68999446010065 -19.586634403188654 0 -19.586634403188654 -17.323263428512618 0 0 0 0 89.913415811141022 1.6507979583577708 0 1.6507979583577708 12.903576369503071 0 0 0 0 39.682849296502212 -2.0937864737164773 0 -2.0937864737164773 -12.822136233552264 0 0 0 0 139.18717898264003 36.438621166938901 0 36.438621166938901 -1.240825924575347 0 0 0 0 145.91868184640043 38.129427088375678 0 38.129427088375678 6.340079722775954 0 0 0 0 137.20131440184196 19.260027820055939 0 19.260027820055939 -12.74826473948292 0 0 0 0 77.49050507804715 -15.875586920590862 0 -15.875586920590862 -13.112611076368676 0 0 0 0 20.64195139980481 0.15558907358172291 0 0.15558907358172291 2.7100417989688133 0 0 0 0 223.42943676849973 204.86217849678474 0 204.86217849678474 152.43873655146263 0 0 0 0 76.306818620651029 17.631038407979304 0 17.631038407979304 0.75018923972675111 0 0 0 0 107.72258896312343 2.555695661111713 0 2.555695661111713 -11.472744386806292 0 0 0 0 39.686779401665149 11.977496737013084 0 11.977496737013084 1.5148591814979202 0 0 0 0 -43.233843099238584 93.568548142254713 0 93.568548142254713 -46.628264797926477 0 0 0 0 -38.268262602039613 126.89359824351845 0 126.89359824351845 20.314073781171828 0 0 0 0 47.612604260779335 12.693194982946466 0 12.693194982946466 0.11689232473895572 0 0 0 0 75.25281792718306 11.129962951580296 0 11.129962951580296 2.1238155838282182 0 0 0 0 15.721169444163493 8.4789993604498477 0 8.4789993604498477 -1.4192712524922708 0 0 0 0 91.270131162105827 4.4100948639911621 0 4.4100948639911621 0.6467436639694597 0 0 0 0 76.357487152738031 -3.6709948149721185 0 -3.6709948149721185 6.4980946292134831 0 0 0 0 105.83932810274564 -15.132200003590356 0 -15.132200003590356 10.037168394945184 0 0 0 0 58.263850340503268 13.72505236335337 0 13.72505236335337 13.930497233307506 0 0 0 0 17.46441226498996 19.027138609609608 0 19.027138609609608 -4.8089870881526853 0 0 0 0 83.391444975713966 -15.215914641165227 0 -15.215914641165227 7.6015999050350729 0 0 0 0 78.331019843906688 -6.6850635413048849 0 -6.6850635413048849 1.9393613051397551 0 0 0 0 77.060870011919178 -6.5348860162930578 0 -6.5348860162930578 7.0762938138325353 0 0 0 0 78.637807055492885 -6.4956950924278942 0 -6.4956950924278942 2.0455749477528116 0 0 0 0 78.617376494735254 -6.6600981485115653 0 -6.6600981485115653 0.806012377132447 0 0 0 0 46.037012874315138 5.7697825438223447 0 5.7697825438223447 -4.747524426224853 0 0 0 0 36.960359594660986 13.221391492207431 0 13.221391492207431 -3.2120183728259235 0 0 0 0 56.987118729462964 13.915150645968424 0 13.915150645968424 -0.15027284425710263 0 0 0 0 75.176974414542201 -9.8940580955757014 0 -9.8940580955757014 1.5818437789794189 0 0 0 0 41.804571965289028 17.289945690352781 0 17.289945690352781 -2.8405902017028861 0 0 0 0 60.234572601199034 11.410633993197166 0 11.410633993197166 -9.9759721201788807 0 0 0 0 15.995752057260887 -0.1798315161016717 0 -0.1798315161016717 -1.9174057468084289 0 0 0 0 286.85998953340459 -181.15868737602727 0 -181.15868737602727 55.838743320341109 0 0 0 0 -111.96119503282534 69.103887730909605 0 69.103887730909605 94.126915907922694 0 0 0 0 -130.76469534440548 29.740533070764855 0 29.740533070764855 29.167050624698163 0 0 0 0 -25.415101507154759 6.255886686232941 0 6.255886686232941 14.424893706658168 0 0 0 0 0.062565167627042229 -0.52510171613550938 0 -0.52510171613550938 3.4156576067229061 0 0 0 0 -2.6004712504363852 -2.8786443660862915 0 -2.8786443660862915 -19.550642114650771 0 0 0 0 435.41023830351696 -40.64403464672742 0 -40.64403464672742 -62.011071104899656 0 0 0 0 34.148911982672871 20.620056803074476 0 20.620056803074476 -4.9534972469427885 0 0 0 0 5.9394519142224453 37.514404356299167 0 37.514404356299167 -12.524562916211842 0 0 0 0 -0.83769509768899297 12.712823730758771 0 12.712823730758771 22.214093497171234 0 0 0 0 12.155525701938302 2.1276897971415707 0 2.1276897971415707 -5.5367296677318061 0 0 0 0 4.6431592455483042 15.971907372406122 0 15.971907372406122 22.77914456405415 0 0 0 0 1.1239588330887145 2.2146429088560069 0 2.2146429088560069 9.8721027067585183 0 0 0 0 9.9410217138502048 12.100318844860794 0 12.100318844860794 17.068423129903294 0 0 0 0 262.07197171435473 39.281512611621963 0 39.281512611621963 -1.3195843984794919 0 0 0 0 5.1246302670624573 7.6895014005310713 0 7.6895014005310713 13.09091182258544 0 0 0 0 58.928084675208083 -68.436334644973599 0 -68.436334644973599 100.21510002737114 0 0 0 0 -29.795367276674369 -12.303500185748838 0 -12.303500185748838 -8.317444771657108 0 0 0 0 2.5842892273567415 0.44083442652953408 0 0.44083442652953408 -1.2687406245462689 0 0 0 0 356.16586271714186 100.43797294205027 0 100.43797294205027 38.085089323173442 0 0 0 0 1.9824169188175347 0.790182877654658 0 0.790182877654658 1.7392380469403728 0 0 0 0 0.22115735756233335 -32.283686721292497 0 -32.283686721292497 -23.770681722837523 0 0 0 0 -6.5627461295516696 -21.190702641701421 0 -21.190702641701421 1.5047681863542692 0 0 0 0 45.911537141102599 -4.318206487765913 0 -4.318206487765913 -7.7993769152673202 0 0 0 0 43.320306965331838 -3.8224359762992606 0 -3.8224359762992606 -9.9654754087502511 0 0 0 0 154.44507031689864 -47.836214863461805 0 -47.836214863461805 7.1023923746375885 0 0 0 0 45.91771713798471 -25.304704523459733 0 -25.304704523459733 -56.654969191382008 0 0 0 0 41.995501646000776 15.983470188143411 0 15.983470188143411 -105.06056141250815 0 0 0 0 14.67457853780661 -3.0066822911018534 0 -3.0066822911018534 -1.0672589227543794 0 0 0 0 65.113166406288656 -31.211803418319292 0 -31.211803418319292 -57.405386755899656 0 0 0 0 23.64320669459255 0.43884810136704289 0 0.43884810136704289 -4.783125397562034 0 0 0 0 14.020908475431497 48.855438371863158 0 48.855438371863158 112.07663425196688 0 0 0 0 23.580848340963712 46.592288859294058 0 46.592288859294058 103.41251126279576 0 0 0 0 26.096354554796562 71.802519484471645 0 71.802519484471645 85.82738649025373 0 0 0 0 45.296518720278982 51.368113484222818 0 51.368113484222818 100.19321717389266 0 0 0 0 26.783159620710649 66.383093631074985 0 66.383093631074985 127.21023408483063 0 0 0 0 40.491396870987955 84.204475591212372 0 84.204475591212372 67.102840351478449 0 0 0 0 23.607009287094115 98.637504365610283 0 98.637504365610283 92.613966217791813 0 0 0 0 54.128815213771304 75.978644865148453 0 75.978644865148453 -1.2307397510071496 0 0 0 0 57.626269374188269 83.748165951897477 0 83.748165951897477 12.842075445969158 0 0 0 0 38.061518219066784 111.25281021636167 0 111.25281021636167 27.574929794950549 0 0 0 0 60.335492041456746 69.942369016023605 0 69.942369016023605 38.39834352422929 0 0 0 0 56.746558622500743 83.820287028432986 0 83.820287028432986 21.300551746933138 0 0 0 0 49.350042168662185 72.174833856769965 0 72.174833856769965 77.915749141255787 0 0 0 0 41.389006122961291 89.188684685461425 0 89.188684685461425 60.463336732812877 0 0 0 0 64.011513692617882 68.5397825318787 0 68.5397825318787 58.612957049472925 0 0 0 0 49.36209181760205 72.029798853321381 0 72.029798853321381 71.45077519415031 0 0 0 0 60.223889220989804 70.153099535335599 0 70.153099535335599 57.986815155768682 0 0 0 0 84.419382528809365 45.375084521442432 0 45.375084521442432 53.596970554854806 0 0 0 0 64.482574709852997 60.52091748561589 0 60.52091748561589 89.776641787303788 0 0 0 0 80.271550229314016 76.43943958476757 0 76.43943958476757 60.527932589570355 0 0 0 0 66.706980153307086 60.772793498177009 0 60.772793498177009 44.261414830919648 0 0 0 0 44.260682946944144 57.358647560413146 0 57.358647560413146 69.736366623063759 0 0 0 0 60.143812803944456 66.613294863123031 0 66.613294863123031 74.147126729970751 0 0 0 0 52.963956273597432 36.566000830475787 0 36.566000830475787 88.649281868990101 0 0 0 0 9.8723095203930598 1.4121084057884588 0 1.4121084057884588 2.4448817715165507 0 0 0 0 -502.29035608511185 605.06740075104517 0 605.06740075104517 -206.03895001314049 0 0 0 0 57.633842308612657 44.754514910494891 0 44.754514910494891 17.429128133951963 0 0 0 0 52.96788303431822 36.859657804678363 0 36.859657804678363 56.195885857986127 0 0 0 0 -68.505473525583511 500.44066658481734 0 500.44066658481734 19.757317986599446 0 0 0 0 75.099615566665307 -220.65279622813995 0 -220.65279622813995 76.353749981134641 0 0 0 0 2.6637834339064739 -2.7639188483404808 0 -2.7639188483404808 0.75379969377420464 0 0 0 0 34.528127734128759 -11.004952263988116 0 -11.004952263988116 -8.1380247661658629 0 0 0 0 439.38225738855544 -360.80637248328094 0 -360.80637248328094 48.948431760602062 0 0 0 0 97.4204353641544 -12.414663710820605 0 -12.414663710820605 53.675631350752838 0 0 0 0 937.6492742949049 -346.79491975685534 0 -346.79491975685534 384.7969502448359 0 0 0 0 595.67434350032272 -8.5064648606130078 0 -8.5064648606130078 -433.95216692296412 0 0 0 0 83.04628417204367 186.58674494673801 0 186.58674494673801 -52.409731903966247 0 0 0 0 1.2459435331092266 -0.53925571518578863 0 -0.53925571518578863 0.35358080525118041 0 0 0 0 80.013674983662895 73.595942606597589 0 73.595942606597589 107.3155389774962 0 0 0 0 97.056515215852414 13.55355334536975 0 13.55355334536975 131.30617464830527 0 0 0 0 204.9638290659932 -4.47764445151563 0 -4.47764445151563 35.360360105788345 0 0 0 0 130.32982408424323 -93.393345501296693 0 -93.393345501296693 131.32528944879095 0 0 0 0 98.47634304210078 341.42904011410781 0 341.42904011410781 -180.50044637987301 0 0 0 0 320.96858896239428 -38.946472617797554 0 -38.946472617797554 609.67678669351517 0 0 0 0 28.360375795751395 -11.550661063958088 0 -11.550661063958088 -9.4441329076735627 0 0 0 0 153.02363584870182 89.698322655255737 0 89.698322655255737 -2.8087761534651463 0 0 0 0 -23.532055682851933 -126.49226033161762 0 -126.49226033161762 105.66998520366587 0 0 0 0 181.32191366373445 -125.89763718349434 0 -125.89763718349434 86.656366848766709 0 0 0 0 164.29193987956864 -84.612315124388005 0 -84.612315124388005 5.9042779776923453 0 0 0 0 164.89174565993017 -1.9500290697675382 0 -1.9500290697675382 47.264746243868672 0 0 0 0 283.39619116185349 16.313994816687 0 16.313994816687 0.17668785480134375 0 0 0 0 223.20073858776595 -59.741371283435853 0 -59.741371283435853 12.488085713739082 0 0 0 0 244.72642748583166 -48.33081510668606 0 -48.33081510668606 -32.570320333625716 0 0 0 0 342.48432143257014 -68.952569734039969 0 -68.952569734039969 33.158323714757969 0 0 0 0 139.1493042044749 44.454155930918688 0 44.454155930918688 111.71350580028785 0 0 0 0 200.42647840440623 -0.72183015869958922 0 -0.72183015869958922 8.8223379717394508 0 0 0 0 64.602055424344144 13.217500950899506 0 13.217500950899506 66.332175491672004 0 0 0 0 196.81365423082752 18.00984398304259 0 18.00984398304259 -75.91227454765226 0 0 0 0 139.18068473387393 47.599346182874172 0 47.599346182874172 15.915020978158275 0 0 0 0 57.407916158808803 39.142352534656929 0 39.142352534656929 -16.303603123569417 0 0 0 0 138.83036263678514 103.3085948967898 0 103.3085948967898 -200.19605414768864 0 0 0 0 -54.68552532713511 17.555361902959575 0 17.555361902959575 -6.0331056219291384 0 0 0 0 178.71720213696244 -12.593737609370635 0 -12.593737609370635 -40.8364081807606 0 0 0 0 227.67582749367284 -122.46012829924933 0 -122.46012829924933 -169.24766782232291 0 0 0 0 225.30024238611441 -49.476091210934705 0 -49.476091210934705 -117.85047550010677 0 0 0 0 212.34751790660084 -123.28813146398005 0 -123.28813146398005 -51.598492655751102 0 0 0 0 111.06280619198515 336.28940370697256 0 336.28940370697256 -519.1288026579607 0 0 0 0 372.74513003311586 -37.544147976959891 0 -37.544147976959891 -148.26919666495405 0 0 0 0 14.310353360382891 -3.827920335157998 0 -3.827920335157998 -0.63358047062533518 0 0 0 0 23.557819477180601 7.4863428939702032 0 7.4863428939702032 5.6524973184756497 0 0 0 0 -113.11537002312252 -60.631302022168107 0 -60.631302022168107 -20.915521861378977 0 0 0 0 -88.770411526478711 65.22580995712805 0 65.22580995712805 -65.311805724000749 0 0 0 0 -1.4827845902344734 -8.4071528896697902 0 -8.4071528896697902 -0.13030880345484708 0 0 0 0 -782.62276800669497 -103.54968627030655 0 -103.54968627030655 88.584021749109979 0 0 0 0 25.066404258238435 -7.8025834875244815 0 -7.8025834875244815 -5.5182902477983973 0 0 0 0 -5.7552306397410575 -9.9231404641927803 0 -9.9231404641927803 -24.448192800674683 0 0 0 0 -34.895567961437337 -4.4624220262631304 0 -4.4624220262631304 40.431692800126115 0 0 0 0 14.906221706769429 37.342155206579946 0 37.342155206579946 13.071953596103867 0 0 0 0 -31.983586397167528 -35.669752639266491 0 -35.669752639266491 0.56357651699748246 0 0 0 0 7.0102975356106469 -4.2759329225396527 0 -4.2759329225396527 -2.3071898935388031 0 0 0 0 5.822993601916977 -2.529318137005248 0 -2.529318137005248 2.0729398412695996 0 0 0 0 26.503406845818972 29.564136414412047 0 29.564136414412047 -25.743710195377304 0 0 0 0 25.289454183566818 0.37530481122260095 0 0.37530481122260095 -0.3136039541017408 0 0 0 0 41.610057391575538 -10.085620208634509 0 -10.085620208634509 16.561333661279605 0 0 0 0 7.1415535281991254 1.9808725560332334 0 1.9808725560332334 -1.0901874749155014 0 0 0 0 32.657014726428315 38.822754130047315 0 38.822754130047315 108.58670532629912 0 0 0 0 -5.3459001326264115 2.8531350886310065 0 2.8531350886310065 14.453068206829238 0 0 0 0 -0.85865530898445286 -13.312521091359818 0 -13.312521091359818 12.080311170645682 0 0 0 0 -4.3533153646567371 -5.4155721166070458 0 -5.4155721166070458 0.73495109682032123 0 0 0 0 3.3228079385171441 13.034029218941853 0 13.034029218941853 23.743622327716295 0 0 0 0 53.111581125122029 25.195615508330825 0 25.195615508330825 14.912995188941832 0 0 0 0 53.087611389506492 28.725090748868372 0 28.725090748868372 11.50117405791806 0 0 0 0 20.69946422205976 -3.0910851992369794 0 -3.0910851992369794 5.8188000542797607 0 0 0 0 65.105015266119153 10.136466858015636 0 10.136466858015636 -4.9691648384774254 0 0 0 0 50.43040488448969 27.782694886134731 0 27.782694886134731 42.341564165460554 0 0 0 0 133.76922896139149 43.888423193094866 0 43.888423193094866 2.0609882106642523 0 0 0 0 282.90882766070717 61.451514975166468 0 61.451514975166468 1.0155732298790312 0 0 0 0 141.88781755700438 11.31941962248286 0 11.31941962248286 -14.944053487643755 0 0 0 0 113.0370623023191 -5.6902209428567421 0 -5.6902209428567421 -31.347772792693931 0 0 0 0 176.73207828580053 8.9078360826758818 0 8.9078360826758818 -28.777233244397046 0 0 0 0 116.39120852400083 1.9525988081992791 0 1.9525988081992791 -18.317569275826934 0 0 0 0 99.454147191101583 -3.5065655308714918 0 -3.5065655308714918 -13.066806786960074 0 0 0 0 104.27772702358197 6.1986731951538587 0 6.1986731951538587 0.015670268102010061 0 0 0 0 120.56295404768753 -22.760479892244408 0 -22.760479892244408 -5.7126594589489272 0 0 0 0 113.94459869256025 8.0564431657249251 0 8.0564431657249251 -13.875664548537173 0 0 0 0 51.58814248147246 -14.832680339058285 0 -14.832680339058285 -6.6123932419740719 0 0 0 0 2.6761128060898045 -1.0085826492908927 0 -1.0085826492908927 0.0049559547865755888 0 0 0 0 0.35203457614562694 0.040839325863672116 0 0.040839325863672116 -0.035673628536769128 0 0 0 0 9.7344361363211647 -3.0329386401223677 0 -3.0329386401223677 0.0013691695652809721 0 0 0 0 5.0317257500646519 -4.32451322246287 0 -4.32451322246287 3.0277411322522942 0 0 0 0 17.409150110164774 10.900040510212094 0 10.900040510212094 5.4827867011792435 0 0 0 0 7.1790650982875377 -3.5489563860200484 0 -3.5489563860200484 2.7610083503514891 0 0 0 0 0.020645268024111374 0.3740872301055731 0 0.3740872301055731 0.23969287533846384 0 0 0 0 48.575959996509482 -6.7836771920078842 0 -6.7836771920078842 -3.1410049515275702 0 0 0 0 126.75472438130237 6.2948252321426104 0 6.2948252321426104 -12.226259352964814 0 0 0 0 77.998322490253486 29.096626926302267 0 29.096626926302267 17.438419752089189 0 0 0 0 59.851301047965535 -20.556190586583668 0 -20.556190586583668 7.9588293833324713 0 0 0 0 100.98252361283812 44.797659756380298 0 44.797659756380298 77.101135082304552 0 0 0 0 -7.4941422795382096 -29.322565143845328 0 -29.322565143845328 0.59916731284407376 0 0 0 0 -12.791455067141214 -17.728232373167661 0 -17.728232373167661 -7.8028204932029439 0 0 0 0 -99.928090854547918 -21.758548143822161 0 -21.758548143822161 7.4287539091708208 0 0 0 0 265.95393284694001 -75.752181341958618 0 -75.752181341958618 -22.957721957394984 0 0 0 0 -0.016603063468842549 -0.523570366800584 0 -0.523570366800584 -0.13349995580268784 0 0 0 0 178.57786503752868 -51.826620203460138 0 -51.826620203460138 -20.094777884448483 0 0 0 0 52.418297377953422 -52.975078516460357 0 -52.975078516460357 -13.545677061152361 0 0 0 0 159.18651878306991 -61.443943529730511 0 -61.443943529730511 -24.631853696649021 0 0 0 0 -5.0244203116308199 -48.06680920723641 0 -48.06680920723641 -24.946246647069731 0 0 0 0 55.612717484807945 -10.397691420755098 0 -10.397691420755098 -10.4683062801458 0 0 0 0 36.113952734784107 5.1427860772627412 0 5.1427860772627412 -10.854173295735979 0 0 0 0 42.59091438339965 -11.326426308576787 0 -11.326426308576787 3.183281479440434 0 0 0 0 120.67665559659508 -18.668454329282099 0 -18.668454329282099 -15.090936769928746 0 0 0 0 94.947484306429033 -18.620880237297762 0 -18.620880237297762 -15.043661972146797 0 0 0 0 72.240886358034913 -6.4294226548719182 0 -6.4294226548719182 -0.0042140947874287913 0 0 0 0 71.255244143023447 -6.5278171098054507 0 -6.5278171098054507 3.9545151006402648 0 0 0 0 69.901441592999618 -4.1998539414908871 0 -4.1998539414908871 0.011856255462095415 0 0 0 0 66.67036054948403 15.774742249860822 0 15.774742249860822 -0.96647909247959496 0 0 0 0 86.105346931988606 1.9083416502068853 0 1.9083416502068853 -3.8881103293655332 0 0 0 0 99.030157855828293 10.089719068701607 0 10.089719068701607 -11.219285688314475 0 0 0 0 83.280912665286451 4.7685538274362367 0 4.7685538274362367 -3.627499879012579 0 0 0 0 94.14446852196852 -6.3509215699119661 0 -6.3509215699119661 -0.015124653519333014 0 0 0 0 99.597778680516058 -8.1353268056235972 0 -8.1353268056235972 -11.571984742038044 0 0 0 0 94.236531443864806 -18.346928088428108 0 -18.346928088428108 -5.5068505759599624 0 0 0 0 100.71948574357702 -12.348554056887872 0 -12.348554056887872 -0.0026363024551129821 0 0 0 0 107.88766714077792 -16.922008120009007 0 -16.922008120009007 -11.318832348928833 0 0 0 0 119.51928984171536 -7.4930881648134395 0 -7.4930881648134395 -11.607196757500025 0 0 0 0 2.4750464279082394 -2.0056028453855959 0 -2.0056028453855959 0.78094327661185925 0 0 0 0 497.71163055562647 4.425044168068994 0 4.425044168068994 -0.25352619867196585 0 0 0 0 50.314605793479132 -62.995573139903236 0 -62.995573139903236 -1.0513839588706859 0 0 0 0 201.43202023797494 236.54664652374078 0 236.54664652374078 218.15869064847652 0 0 0 0 431.59968768027466 23.836838980722774 0 23.836838980722774 -17.647291900333244 0 0 0 0 -87.833557194120658 -52.528678553514013 0 -52.528678553514013 130.32191010723307 0 0 0 0 -0.48794420163346786 -0.8756991966598946 0 -0.8756991966598946 -1.6045779822194028 0 0 0 0 132.74643537291558 -287.78867560504943 0 -287.78867560504943 227.85200580761853 0 0 0 0 157.94061531721673 -67.258613267507712 0 -67.258613267507712 -90.036427781705129 0 0 0 0 78.770150900934823 -2.8519084577295644 0 -2.8519084577295644 19.419767150732469 0 0 0 0 203.12923540300108 80.195533983864379 0 80.195533983864379 -103.12387968136568 0 0 0 0 66.659152800706664 13.271741385760038 0 13.271741385760038 -7.10025836679017 0 0 0 0 140.61082018166053 -55.853078114001107 0 -55.853078114001107 -59.776849811019019 0 0 0 0 59.401736945175799 34.592929596249803 0 34.592929596249803 -104.70798445263495 0 0 0 0 42.964636216362123 29.548254553678703 0 29.548254553678703 -100.57022573103752 0 0 0 0 10.533125889563252 -4.2351322318985467 0 -4.2351322318985467 -0.0062336381747876146 0 0 0 0 54.529375733836787 -4.8904870651917349 0 -4.8904870651917349 -16.774607572657715 0 0 0 0 -2.8352348547653037 26.8542599264551 0 26.8542599264551 157.29515687490675 0 0 0 0 14.511007595960336 13.54958141765519 0 13.54958141765519 -6.1656944949590367 0 0 0 0 288.80833675553731 19.714657998041275 0 19.714657998041275 -120.1935594919164 0 0 0 0 176.15442126410926 -130.34071951963415 0 -130.34071951963415 2.965001539111654 0 0 0 0 117.96516431673081 -1.3362828060380494 0 -1.3362828060380494 -10.52759287789813 0 0 0 0 136.39684897226107 -17.799787918024624 0 -17.799787918024624 -13.237524792281064 0 0 0 0 69.202761070173437 -37.622991992198692 0 -37.622991992198692 19.325729618103964 0 0 0 0 1.9670312713565465 -1.9096139770092861 0 -1.9096139770092861 -5.3503854052221058 0 0 0 0 17.146975977317197 4.6755868298323549 0 4.6755868298323549 -3.5659385901271889 0 0 0 0 28.054027393470619 16.463256062889755 0 16.463256062889755 -13.871908490815869 0 0 0 0 0.61410552025449761 1.7591195739891958 0 1.7591195739891958 -1.399511501668842 0 0 0 0 235.41644712115522 1.5339774791426777 0 1.5339774791426777 -13.811526377271296 0 0 0 0 173.13916660474206 -82.845185745281469 0 -82.845185745281469 37.38529296901357 0 0 0 0 227.11166887645959 122.80769618512892 0 122.80769618512892 -107.0889068822442 0 0 0 0 364.52305682239239 214.37901632076847 0 214.37901632076847 -46.355501462393079 0 0 0 0 52.908943141577765 -46.059059219673941 0 -46.059059219673941 -64.302325337581749 0 0 0 0 175.16571086915792 -500.82953905608298 0 -500.82953905608298 96.960614561832443 0 0 0 0 0.9131025442641203 1.0081909752730951 0 1.0081909752730951 1.5687497249020428 0 0 0 0 10.323419591861239 180.6181462291533 0 180.6181462291533 -29.439601530162577 0 0 0 0 -188.8283631234226 125.42435374761651 0 125.42435374761651 -101.93098624341194 0 0 0 0 1.4365135624281606 1.2292297936017178 0 1.2292297936017178 -0.21337031784921756 0 0 0 0 328.32883655058686 -246.10880483095275 0 -246.10880483095275 204.41213169434482 0 0 0 0 10.894281880405885 -3.2491333901986934 0 -3.2491333901986934 -7.6757752123647123 0 0 0 0 51.231152160842612 -0.42746891434762802 0 -0.42746891434762802 -12.78874262762838 0 0 0 0 122.49157869261398 -30.992259389669016 0 -30.992259389669016 6.3671171129135473 0 0 0 0 19.626217965265624 24.324832706852959 0 24.324832706852959 -24.080974822568869 0 0 0 0 -170.80246212956263 106.98887165946689 0 106.98887165946689 -70.529094957400048 0 0 0 0 880.91934559261426 298.98062098442449 0 298.98062098442449 239.00372099167225 0 0 0 0 -186.54460246079179 107.82650324224818 0 107.82650324224818 -48.690549250371021 0 0 0 0 -10.415188249510265 8.3829651050966163 0 8.3829651050966163 -1.869759833050797 0 0 0 0 95.132309884516872 -29.231949963043007 0 -29.231949963043007 -23.343908797981385 0 0 0 0 57.549849002360133 -14.103650037743137 0 -14.103650037743137 -28.984181743287991 0 0 0 0 120.04099587240489 83.093131107858227 0 83.093131107858227 -16.891929175764602 0 0 0 0 80.580754226873978 -54.415243040250061 0 -54.415243040250061 -68.987881696606564 0 0 0 0 -130.59937152813654 -94.221579046155057 0 -94.221579046155057 -58.526459595858341 0 0 0 0 18.549480432973972 6.0083089857742209 0 6.0083089857742209 -7.6723780102732091 0 0 0 0 -48.035386542265769 -53.114608623662207 0 -53.114608623662207 -39.864253715283667 0 0 0 0 -177.82745912787504 28.14467191764561 0 28.14467191764561 -67.367406361961912 0 0 0 0 -7.152884557243226 2.9737161837952613 0 2.9737161837952613 -1.188989445919578 0 0 0 0 -135.67878902214579 -26.568068071654125 0 -26.568068071654125 -44.710639821449149 0 0 0 0 567.11971427900426 -62.204421696351829 0 -62.204421696351829 -175.84931989827282 0 0 0 0 43.507101237477897 15.829078476769581 0 15.829078476769581 -25.247162750769036 0 0 0 0 412.80158517530072 -124.80247991064789 0 -124.80247991064789 19.274967944866148 0 0 0 0 189.71241843202733 -32.326060142534516 0 -32.326060142534516 -16.284063758896991 0 0 0 0 -0.7425900779053336 101.91486566171079 0 101.91486566171079 46.812258739933895 0 0 0 0 146.60696886020014 -39.666158546337101 0 -39.666158546337101 -86.914717358657072 0 0 0 0 299.89681629187544 125.37060027157634 0 125.37060027157634 4.3208202512523712 0 0 0 0 4.0407474588396326 0.36669134655469549 0 0.36669134655469549 -0.74510160828572225 0 0 0 0 154.27377998441079 83.961992088125044 0 83.961992088125044 -7.105231291254313 0 0 0 0 331.79601205585641 21.771479932088369 0 21.771479932088369 -72.604495090301498 0 0 0 0 164.56554100478752 4.4825257902241447 0 4.4825257902241447 -46.200019844160124 0 0 0 0 99.298438252677443 -17.663432356706835 0 -17.663432356706835 -8.9579262799670687 0 0 0 0 203.54995432932265 62.7907314776362 0 62.7907314776362 -0.21342751998599852 0 0 0 0 134.37275038342341 -32.153901117315399 0 -32.153901117315399 -26.108648808693033 0 0 0 0 271.36987048921583 17.060544752153874 0 17.060544752153874 -72.73178064577786 0 0 0 0 227.78550083800292 -70.762164834254691 0 -70.762164834254691 -7.3131181248645589 0 0 0 0 224.59411321785592 7.7522849397219034 0 7.7522849397219034 -72.348874330581566 0 0 0 0 74.687400443079241 -7.0429167597877722 0 -7.0429167597877722 41.38067008172402 0 0 0 0 90.070066594036689 -57.591922003317791 0 -57.591922003317791 -52.2668781462271 0 0 0 0 86.3193598300698 -6.6097615447965623 0 -6.6097615447965623 -21.938123247815838 0 0 0 0 33.031552237135131 15.815278793255544 0 15.815278793255544 -4.5023995519290381 0 0 0 0 99.492024124832824 5.0607332377326202 0 5.0607332377326202 1.2917413699324243 0 0 0 0 67.846936274362434 3.8212922527345512 0 3.8212922527345512 -6.7702785882744685 0 0 0 0 104.76514077765751 2.0214118839667208 0 2.0214118839667208 -15.377936204172784 0 0 0 0 108.69275615917286 -176.01086427906566 0 -176.01086427906566 17.090144361836224 0 0 0 0 69.656955992569181 -13.606544425479171 0 -13.606544425479171 0.30894379968716829 0 0 0 0 303.54219719045796 19.007195621796278 0 19.007195621796278 -37.688982597309717 0 0 0 0 95.233071782000479 -3.514622768386289 0 -3.514622768386289 -16.158821453565906 0 0 0 0 -99.632655490539037 221.8329213551219 0 221.8329213551219 -2.0189480209542126 0 0 0 0 43.907971089185878 20.248480914386647 0 20.248480914386647 -17.414495715608815 0 0 0 0 114.41264663404581 -7.0797095233037908 0 -7.0797095233037908 -23.734549656835952 0 0 0 0 26.017314843049931 -0.16504083825685711 0 -0.16504083825685711 -23.337886126087255 0 0 0 0 54.564822853935766 -4.2651272803777829 0 -4.2651272803777829 -8.2519938759924116 0 0 0 0 6.4277016971027479 -1.8427943648848668 0 -1.8427943648848668 -5.7704917075368485 0 0 0 0 10.834890995459631 -1.376044785995262 0 -1.376044785995262 -4.9172967798772547 0 0 0 0 2.1587836604521726 -6.2279370329138146 0 -6.2279370329138146 -5.57889226957559 0 0 0 0 -0.45693565164401662 -67.850818660537698 0 -67.850818660537698 -22.947998026354298 0 0 0 0 53.8980141608954 -65.195128404732259 0 -65.195128404732259 -234.12452287284941 0 0 0 0 4.6871361396727025 -0.45607307828190358 0 -0.45607307828190358 -0.83702711518922213 0 0 0 0 -16.119122639342095 -45.796550633536754 0 -45.796550633536754 -143.20616190944202 0 0 0 0 -10.798313766223146 -47.896594848496534 0 -47.896594848496534 -101.01476930575518 0 0 0 0 83.901164888724452 20.025005073421653 0 20.025005073421653 -259.07205226446058 0 0 0 0 11.789350348059088 -13.93965029789706 0 -13.93965029789706 -8.0090505099133225 0 0 0 0 4.5067033329574997 1.2314310455879607 0 1.2314310455879607 -0.23230328334614736 0 0 0 0 2.0530562547289719 1.5527070195675634 0 1.5527070195675634 -0.14934963158092462 0 0 0 0 74.394204411415558 155.3817090830762 0 155.3817090830762 -120.38641078806177 0 0 0 0 1.2099199826843687 -32.489259469332865 0 -32.489259469332865 67.662748079336779 0 0 0 0 113.39597358538595 -75.178511823150984 0 -75.178511823150984 56.272791424553304 0 0 0 0 -4.8075933464206173 2.4033093198468123 0 2.4033093198468123 2.8098752225050703 0 0 0 0 -2.4934162842473597 3.1163399031329391 0 3.1163399031329391 2.0508223737660956 0 0 0 0 38.921094101457129 -38.955486272187954 0 -38.955486272187954 -40.747555636318793 0 0 0 0 -11.215555564951501 -3.1340582956117942 0 -3.1340582956117942 12.076734395333915 0 0 0 0 1.9043262750389829 0.26443982873500715 0 0.26443982873500715 -1.9033199223146653 0 0 0 0 144.95681700457499 11.872852712787335 0 11.872852712787335 -6.8378380922731594 0 0 0 0 7.2965385232964763 -9.3844200288031061 0 -9.3844200288031061 1.7834529159165413 0 0 0 0 5.1152268402074696 -196.1189465859843 0 -196.1189465859843 -18.3895668701266 0 0 0 0 -18.06044435442891 -148.5840265857405 0 -148.5840265857405 -250.07733580223794 0 0 0 0 33.604216024687048 -98.406186444117338 0 -98.406186444117338 -233.26576926002099 0 0 0 0 -14.967501061153598 -82.352369297186669 0 -82.352369297186669 -287.15301249009281 0 0 0 0 8.1577605184905053 -1.3842335133252419 0 -1.3842335133252419 -1.4232298794863141 0 0 0 0 -64.131037298910087 -52.635311586876014 0 -52.635311586876014 -242.58322518122441 0 0 0 0 -34.52120038132125 -24.306029339350971 0 -24.306029339350971 -53.650101195782554 0 0 0 0 -26.762767911306582 -88.091149310488618 0 -88.091149310488618 -151.43603675985651 0 0 0 0 -18.091538546781521 -57.265585162223942 0 -57.265585162223942 -52.419772000450394 0 0 0 0 -22.168301202735165 -20.448815647893639 0 -20.448815647893639 -98.609305050573312 0 0 0 0 3.2660592929460108 -50.216294157984521 0 -50.216294157984521 -160.65233921304025 0 0 0 0 -34.699455820198637 -64.400135467305518 0 -64.400135467305518 -160.93239556940966 0 0 0 0 -94.663802448310889 -85.379754967876579 0 -85.379754967876579 -151.4731248577715 0 0 0 0 4.4904381726228166 -30.709491869335579 0 -30.709491869335579 -30.005269772562315 0 0 0 0 22.485941153776366 -31.81792809001854 0 -31.81792809001854 -95.409156690022883 0 0 0 0 11.947428145213053 -62.273272280157471 0 -62.273272280157471 -153.13423378568768 0 0 0 0 -14.575897781702224 -33.293003706286981 0 -33.293003706286981 -94.850390492556016 0 0 0 0 14.171489113080497 -22.563574043439758 0 -22.563574043439758 -106.43850844699773 0 0 0 0 31.176515155137167 -46.987161035150166 0 -46.987161035150166 -213.45608135390285 0 0 0 0 8.1353962713037618 -31.996091440105374 0 -31.996091440105374 -183.61452825058586 0 0 0 0 -9.3826483816665132 -76.305054408223441 0 -76.305054408223441 -204.24081542966087 0 0 0 0 20.262966121488716 -75.565905240749998 0 -75.565905240749998 -296.66620476442404 0 0 0 0 -3.1100707075966056 -106.32254144922626 0 -106.32254144922626 -221.28282033481446 0 0 0 0 -36.575522618571995 -72.236313246728969 0 -72.236313246728969 -239.03392137573246 0 0 0 0 8.3401035121642053 -49.006126606749604 0 -49.006126606749604 -267.77816363585225 0 0 0 0 -45.505304130958393 -36.049816204700619 0 -36.049816204700619 -203.31790101811566 0 0 0 0 -3.9469296982861124 -97.166381358911167 0 -97.166381358911167 -265.55478460757479 0 0 0 0 -16.632588543667225 -57.573915297869917 0 -57.573915297869917 -346.60253441172244 0 0 0 0 -65.26774120220216 -100.38735151569927 0 -100.38735151569927 -399.96973638268537 0 0 0 0 -141.12582701450447 -119.0920522243614 0 -119.0920522243614 -332.89103458827958 0 0 0 0 -87.922156563494354 -46.631011802739522 0 -46.631011802739522 -250.0541818052352 0 0 0 0 -35.44651505650836 -101.86978730554256 0 -101.86978730554256 -361.93011415909859 0 0 0 0 -168.1535087688826 -247.9724581595292 0 -247.9724581595292 -474.69333027251196 0 0 0 0 -12.301462089177221 -15.391720937544051 0 -15.391720937544051 -7.7487709501561994 0 0 0 0 -32.607894692526315 -23.245620111147218 0 -23.245620111147218 11.505501431143784 0 0 0 0 8.5264097109611612 -134.99099470164947 0 -134.99099470164947 -339.04080512245355 0 0 0 0 -0.99807680115526409 -0.053362498007519577 0 -0.053362498007519577 -0.88313837608425594 0 0 0 0 10.662662596401589 -2.8975516240667076 0 -2.8975516240667076 -3.5290032735756185 0 0 0 0 -72.152098768856376 -81.516156292564119 0 -81.516156292564119 -322.6295349284519 0 0 0 0 -5.8777918103442062 -162.89724816521084 0 -162.89724816521084 -299.06610963377807 0 0 0 0 28.718545743991854 28.583709242378973 0 28.583709242378973 -41.490509094559457 0 0 0 0 -79.253595010435674 -146.68094784797177 0 -146.68094784797177 -221.21361158980289 0 0 0 0 -87.763733097521708 -20.956808872102954 0 -20.956808872102954 -166.26704044350481 0 0 0 0 45.005495140576386 14.927902956191247 0 14.927902956191247 -178.84858543954942 0 0 0 0 67.46956903579121 -14.055905295163029 0 -14.055905295163029 -144.03102677649076 0 0 0 0 20.180835741513874 -72.833726152855888 0 -72.833726152855888 -226.14519635383067 0 0 0 0 -26.049148404723383 -75.82075161159355 0 -75.82075161159355 -163.74034922079591 0 0 0 0 43.300101212749723 -13.837196982862224 0 -13.837196982862224 -143.16169144636388 0 0 0 0 12.612427914282307 -73.257967748484589 0 -73.257967748484589 -158.20660271341512 0 0 0 0 42.808908870589221 -35.845045675405345 0 -35.845045675405345 -100.97572548300923 0 0 0 0 71.046800567361061 16.804217714518018 0 16.804217714518018 -61.999907279983745 0 0 0 0 32.644504917800077 -30.259703814816021 0 -30.259703814816021 -38.935186543702002 0 0 0 0 48.18251194030745 -31.031572582927765 0 -31.031572582927765 -104.34417187220424 0 0 0 0 68.398133970531489 43.492050880777242 0 43.492050880777242 -68.004856041090534 0 0 0 0 143.76466800473281 35.003623743533353 0 35.003623743533353 -72.144448911694781 0 0 0 0 116.9185645076941 -10.001610287169569 0 -10.001610287169569 -46.336010795264883 0 0 0 0 101.69491178673343 32.908609253684517 0 32.908609253684517 -18.796119066519168 0 0 0 0 201.49051376996795 7.5466251045254467 0 7.5466251045254467 -13.092873205244359 0 0 0 0 179.82867072011868 -55.384644046172525 0 -55.384644046172525 175.10792302113987 0 0 0 0 110.94423361320514 -16.925635450384107 0 -16.925635450384107 79.026111443688933 0 0 0 0 139.24469658109592 8.2383318574165969 0 8.2383318574165969 76.269049140734978 0 0 0 0 108.40150564207579 -65.737899524885506 0 -65.737899524885506 137.44821774917091 0 0 0 0 36.768159876839491 -2.378650028021184 0 -2.378650028021184 88.524527817039598 0 0 0 0 81.472244233809761 -41.169308661939567 0 -41.169308661939567 37.548643520967744 0 0 0 0 102.49597171170171 11.501965504581676 0 11.501965504581676 17.719484231984097 0 0 0 0 71.587013900105376 -8.8682247312426625 0 -8.8682247312426625 16.370464215135826 0 0 0 0 81.130076439600089 -10.34793762062327 0 -10.34793762062327 -39.547125941517152 0 0 0 0 27.359500689635752 -14.895856236203144 0 -14.895856236203144 25.62390700629112 0 0 0 0 39.659799800021574 -16.587600473883867 0 -16.587600473883867 -33.768475788605883 0 0 0 0 -7.5540910576091846 -34.483198903358243 0 -34.483198903358243 51.001354446840196 0 0 0 0 -23.51738359515366 -83.800674990239031 0 -83.800674990239031 -9.4260117626381543 0 0 0 0 4.3771059130085632 -12.27525864848667 0 -12.27525864848667 -29.554921410932366 0 0 0 0 5.5381384800057276 -55.1564712148936 0 -55.1564712148936 76.452057106624125 0 0 0 0 -4.6037683435424697 -6.2955240737019267 0 -6.2955240737019267 140.38446864057369 0 0 0 0 38.633322888665134 -40.150301995888185 0 -40.150301995888185 51.687716097554812 0 0 0 0 36.416654699947685 33.34176039293834 0 33.34176039293834 204.23932036050383 0 0 0 0 19.612749786926543 -29.78580576383208 0 -29.78580576383208 158.57276505355549 0 0 0 0 15.743137242054217 -18.34735525600513 0 -18.34735525600513 170.19109285018749 0 0 0 0 96.370851148676593 -7.1658285812277427 0 -7.1658285812277427 167.24502680441037 0 0 0 0 20.022151756755193 56.482494512863013 0 56.482494512863013 175.47592192507545 0 0 0 0 956.85086754581425 524.30675949603028 0 524.30675949603028 -298.38620431875802 0 0 0 0 11.485968838038389 79.382202966382465 0 79.382202966382465 294.30807310834643 0 0 0 0 14.147255846735789 62.566938272697371 0 62.566938272697371 342.03681763398345 0 0 0 0 6.5866326707183873 -1.9575671349633339 0 -1.9575671349633339 1.0295508946622629 0 0 0 0 568.6159457450558 -179.54690451922306 0 -179.54690451922306 294.81291334569505 0 0 0 0 129.68038898575469 -54.703652205102571 0 -54.703652205102571 452.96017535671308 0 0 0 0 237.65914537984645 -37.4207468469167 0 -37.4207468469167 168.9349183004033 0 0 0 0 310.89792016538559 -132.3557534119509 0 -132.3557534119509 289.34738984960131 0 0 0 0 19.892299905148093 -9.1916630752344446 0 -9.1916630752344446 216.75850350314977 0 0 0 0 56.382488374627428 -5.95246679025513 0 -5.95246679025513 207.71184815645574 0 0 0 0 75.76476223760983 -63.780972829683378 0 -63.780972829683378 380.13492581643141 0 0 0 0 -14.404510248939914 -20.435977245183096 0 -20.435977245183096 -47.703541206910813 0 0 0 0 19.860005615642876 -127.27473243227905 0 -127.27473243227905 32.959865270567661 0 0 0 0 -27.225988583930302 -32.580856856164246 0 -32.580856856164246 94.986653305229993 0 0 0 0 13.133666518260725 -18.671998346636428 0 -18.671998346636428 26.05250133089794 0 0 0 0 42.053260316650267 -51.942638323520896 0 -51.942638323520896 212.05985013747068 0 0 0 0 20.227611943697411 -57.859121682287764 0 -57.859121682287764 108.39779774180897 0 0 0 0 10.924029264468118 -9.0846345573149847 0 -9.0846345573149847 158.76352259001669 0 0 0 0 36.988784419685544 -15.465879757348375 0 -15.465879757348375 183.69597004399293 0 0 0 0 68.433282659442938 10.373859742360075 0 10.373859742360075 -4.3618834491598069 0 0 0 0 136.87931856894284 108.72238082586659 0 108.72238082586659 -132.63728050058444 0 0 0 0 48.949617004400352 -156.36944919671373 0 -156.36944919671373 113.8913824340616 0 0 0 0 110.15334143854852 -65.466628473336186 0 -65.466628473336186 72.57458979765488 0 0 0 0 75.843288901203778 4.4001172934142829 0 4.4001172934142829 -65.882346542080228 0 0 0 0 70.994316618474841 71.575486879905426 0 71.575486879905426 137.94365442370696 0 0 0 0 32.686418821755069 102.56970240772119 0 102.56970240772119 14.073407794878108 0 0 0 0 16.440947544844164 4.8495772236026511 0 4.8495772236026511 -1.0110142481057365 0 0 0 0 69.405060786956767 7.6463686508958304 0 7.6463686508958304 -1.3688317395535816 0 0 0 0 105.90205846002164 49.290788549377517 0 49.290788549377517 -14.881374034673854 0 0 0 0 154.65747538222058 -46.850771898678403 0 -46.850771898678403 -74.818480324209304 0 0 0 0 -40.449433777001104 2.5431509710651223 0 2.5431509710651223 0.13113812479011147 0 0 0 0 57.702777892220183 -46.312484511467133 0 -46.312484511467133 -41.780995343398338 0 0 0 0 53.136347753767041 -51.738713313459819 0 -51.738713313459819 -31.53039207265963 0 0 0 0 178.11759451786929 -99.091173246035055 0 -99.091173246035055 -152.15919600445341 0 0 0 0 81.15768118879646 -20.312879009798344 0 -20.312879009798344 0.63829039761348305 0 0 0 0 9.3642087410975137 -9.1506329444192573 0 -9.1506329444192573 -5.8808639018795592 0 0 0 0 30.173377718311087 5.8776661711805573 0 5.8776661711805573 -3.6159540829513697 0 0 0 0 72.16586413969344 44.511920935723538 0 44.511920935723538 158.31650969489056 0 0 0 0 25.454849099856801 83.672433199756142 0 83.672433199756142 23.15509061641464 0 0 0 0 16.952599358337466 91.246711325402316 0 91.246711325402316 17.924861736792366 0 0 0 0 67.010291979102703 8.1338148970530142 0 8.1338148970530142 1.7035902851203044 0 0 0 0 31.28084831754677 -13.848621206563649 0 -13.848621206563649 -32.915306930752934 0 0 0 0 9.1500050146185004 6.5722966590878684 0 6.5722966590878684 -1.8690083292755049 0 0 0 0 44.45095325569855 -24.531175243239833 0 -24.531175243239833 -0.092585809457256446 0 0 0 0 100.15733628061389 -31.822316104428744 0 -31.822316104428744 -30.135407089830252 0 0 0 0 48.127763011769275 -25.336263612006135 0 -25.336263612006135 -21.972078000146929 0 0 0 0 55.174945899714658 -38.934035924996437 0 -38.934035924996437 0.030999459879513292 0 0 0 0 53.408749704656657 -37.981495841024838 0 -37.981495841024838 -11.416112266721157 0 0 0 0 76.711655514052836 -39.658119428962721 0 -39.658119428962721 -26.556943725148358 0 0 0 0 82.119134771390236 -36.954824870504495 0 -36.954824870504495 -17.682283388565889 0 0 0 0 82.572991654008092 -28.614719268548441 0 -28.614719268548441 0.82348025198768937 0 0 0 0 114.80228475987678 -48.316461651721859 0 -48.316461651721859 -0.052664856377808919 0 0 0 0 98.910607535450254 -75.512174556681089 0 -75.512174556681089 -2.3364584528516019 0 0 0 0 61.204285945481388 -38.626364286559948 0 -38.626364286559948 -28.317170969646185 0 0 0 0 18.338168595590105 -89.840754768441215 0 -89.840754768441215 0.53120505829278386 0 0 0 0 88.911503910640022 -65.004870065302811 0 -65.004870065302811 17.154982792804631 0 0 0 0 359.26514461579063 -43.365963694872292 0 -43.365963694872292 -33.446363803343218 0 0 0 0 -0.30174973663243065 0.98218931750713523 0 0.98218931750713523 1.0936987230036368 0 0 0 0 108.00916470894299 21.234824856839509 0 21.234824856839509 -18.486682096786865 0 0 0 0 -96.799738609799533 -75.076923211985189 0 -75.076923211985189 10.669763509022516 0 0 0 0 32.699511141490802 -63.31650204584102 0 -63.31650204584102 -9.9467086072271513 0 0 0 0 19.547920833807439 -28.374266721525089 0 -28.374266721525089 -37.08730567870947 0 0 0 0 6.2042555529187666 -67.4104736516299 0 -67.4104736516299 -6.7538799742268907 0 0 0 0 24.954337380471131 -3.6869021440740823 0 -3.6869021440740823 -2.4480660444045741 0 0 0 0 39.395806592350709 -38.527528548782612 0 -38.527528548782612 -1.6585128741211292 0 0 0 0 35.475468158084936 -32.910494149377591 0 -32.910494149377591 6.5573228181596068 0 0 0 0 75.0872945850424 -88.223091831184661 0 -88.223091831184661 0.73396986984398183 0 0 0 0 95.066910472515872 -39.776007664997366 0 -39.776007664997366 7.0511619065528945 0 0 0 0 110.67615971730265 18.068977533528141 0 18.068977533528141 40.354073891023745 0 0 0 0 154.83960239719818 -68.351155462914107 0 -68.351155462914107 -52.211900501921946 0 0 0 0 106.10232851585897 85.80070658242289 0 85.80070658242289 20.967338133613339 0 0 0 0 117.01793255354278 53.710689606807591 0 53.710689606807591 84.060429096757275 0 0 0 0 119.42798935601604 59.03077038353149 0 59.03077038353149 -7.8364330946251357 0 0 0 0 160.98416697607536 90.822564517915453 0 90.822564517915453 12.383592690986916 0 0 0 0 236.24218230918632 76.222397911039479 0 76.222397911039479 99.589555360065788 0 0 0 0 286.25538429219159 74.321139128926916 0 74.321139128926916 11.549189849496543 0 0 0 0 216.13149375976354 198.62825653582331 0 198.62825653582331 125.54322642318675 0 0 0 0 -280.72276372901979 -53.56351980781119 0 -53.56351980781119 544.0636047290709 0 0 0 0 480.82101246417733 161.5026832341955 0 161.5026832341955 119.93132427755882 0 0 0 0 831.9025322922098 90.45379601638524 0 90.45379601638524 132.11892137801078 0 0 0 0 -199.90473128583835 751.55676242684387 0 751.55676242684387 1549.8639360301713 0 0 0 0 73.351454391115112 -119.09238309467614 0 -119.09238309467614 -28.639801923167429 0 0 0 0 92.21215995297166 -31.763766525958275 0 -31.763766525958275 6.1763812643922984 0 0 0 0 -43.984009476014762 -145.05387010469917 0 -145.05387010469917 41.923507869392779 0 0 0 0 92.311776574671967 -52.077554652944265 0 -52.077554652944265 10.467516214832234 0 0 0 0 51.893262552478006 0.82646415109793736 0 0.82646415109793736 -33.739973308333248 0 0 0 0 91.18990222782304 -43.556450125271219 0 -43.556450125271219 8.5409333621195316 0 0 0 0 96.915171538443246 -43.605827939680431 0 -43.605827939680431 -0.0050743516011204498 0 0 0 0 91.193090918037242 -42.172350700115302 0 -42.172350700115302 1.5381336558048986 0 0 0 0 92.402462849247968 -50.74304807522752 0 -50.74304807522752 0.59241750059720211 0 0 0 0 82.809344363136915 -47.845757114975157 0 -47.845757114975157 -0.0053412107797195796 0 0 0 0 63.474935928366904 -49.453084250744908 0 -49.453084250744908 0.033606333798543997 0 0 0 0 76.326556835789233 -41.743271102616873 0 -41.743271102616873 2.2348818028565485 0 0 0 0 65.579417969391216 -51.08378312051282 0 -51.08378312051282 5.2324342168530578 0 0 0 0 67.633468306396935 -60.205154007499729 0 -60.205154007499729 22.656225683499827 0 0 0 0 68.089231994788861 -52.499912685855406 0 -52.499912685855406 -20.366603085525526 0 0 0 0 66.816007454282953 -81.864247602012085 0 -81.864247602012085 28.360157263527583 0 0 0 0 34.901628775436535 -20.209182878204899 0 -20.209182878204899 -40.998693083490558 0 0 0 0 67.752993496818817 -84.97858450630018 0 -84.97858450630018 4.7526120888257992 0 0 0 0 68.233270992117468 -73.083794567213829 0 -73.083794567213829 32.799220855121689 0 0 0 0 15.27626584829828 -16.42618279300018 0 -16.42618279300018 -6.9719549877262459 0 0 0 0 86.177953404163418 -52.557851939541344 0 -52.557851939541344 -10.399631869654002 0 0 0 0 85.450433294590766 -59.090370565783566 0 -59.090370565783566 22.660023973485181 0 0 0 0 41.543933962631229 -7.4044229037460667 0 -7.4044229037460667 -40.303229794024453 0 0 0 0 49.238198515362456 -53.675142238555054 0 -53.675142238555054 -11.899060413495135 0 0 0 0 18.85724385312642 -36.616519091821829 0 -36.616519091821829 -13.763640346436659 0 0 0 0 51.379551191676001 -67.042731178702525 0 -67.042731178702525 -59.249140906835237 0 0 0 0 48.458323674029089 -97.078815245480655 0 -97.078815245480655 4.8302510199100652 0 0 0 0 58.738437739022629 -78.664212398629388 0 -78.664212398629388 -31.020409757471498 0 0 0 0 20.74107717942934 -49.359560848468163 0 -49.359560848468163 72.194896373654046 0 0 0 0 -11.235120574929169 58.750873938484801 0 58.750873938484801 -22.262940443486514 0 0 0 0 10.81831261057232 4.8197832048608689 0 4.8197832048608689 -114.14630521804429 0 0 0 0 47.208786937851983 -24.731790691608694 0 -24.731790691608694 -112.40991078298975 0 0 0 0 74.478927447078604 -40.653619930268178 0 -40.653619930268178 -157.33883610271732 0 0 0 0 64.555362209299346 -41.206744774210165 0 -41.206744774210165 -95.534277405869943 0 0 0 0 53.653654463818384 -57.875783759415299 0 -57.875783759415299 -55.718081126782636 0 0 0 0 48.470761646574829 -14.696924279895029 0 -14.696924279895029 -83.090457639584201 0 0 0 0 68.36944558552932 -20.457772896075767 0 -20.457772896075767 -91.667416027412401 0 0 0 0 66.824290525084507 -20.606014681363376 0 -20.606014681363376 -69.237637907601311 0 0 0 0 68.498114099435043 -18.420593443570397 0 -18.420593443570397 -71.717000981549063 0 0 0 0 70.644869238283718 -30.539940370796103 0 -30.539940370796103 -62.537573343615804 0 0 0 0 96.597055484224256 -56.165647131055266 0 -56.165647131055266 -55.747451158713375 0 0 0 0 85.688580731206457 -20.159637182459846 0 -20.159637182459846 -71.704818222318863 0 0 0 0 63.121607427594427 -47.675805991747438 0 -47.675805991747438 -46.333612299909873 0 0 0 0 81.13682717165284 -9.2865129060019171 0 -9.2865129060019171 -55.339599980081402 0 0 0 0 63.084960019550635 -42.6963896115019 0 -42.6963896115019 -41.900679949823825 0 0 0 0 6.7616713212572677 0.34759415258386639 0 0.34759415258386639 -18.213981353484485 0 0 0 0 44.926283887063619 -61.006929787141416 0 -61.006929787141416 -47.743337947264081 0 0 0 0 38.476068812815356 -44.406308108037308 0 -44.406308108037308 22.076117952886761 0 0 0 0 41.036763263643991 -36.928522148838475 0 -36.928522148838475 -27.676731284707643 0 0 0 0 47.535009214252426 -33.148764600384709 0 -33.148764600384709 -27.524280823681991 0 0 0 0 35.254611526383087 -21.193764323423238 0 -21.193764323423238 -31.760119479120476 0 0 0 0 19.939207575587545 -27.139012988924236 0 -27.139012988924236 -16.965161649137954 0 0 0 0 1.2852834679360967 -15.603510191034729 0 -15.603510191034729 -45.836307104196749 0 0 0 0 26.641630074764443 -20.618631810810527 0 -20.618631810810527 -33.541317012731525 0 0 0 0 54.687915693473769 -44.704809940618361 0 -44.704809940618361 -44.583110672603652 0 0 0 0 63.002071418035484 -9.6563283432774369 0 -9.6563283432774369 -27.509303167702456 0 0 0 0 60.651630887325155 -34.785156840545824 0 -34.785156840545824 -64.336210093108093 0 0 0 0 38.069608886114736 -18.008815748133784 0 -18.008815748133784 -37.657159471797556 0 0 0 0 7.3819742623685229 2.0140794969684919 0 2.0140794969684919 -9.7528927267061079 0 0 0 0 101.87529698538128 11.403889624249132 0 11.403889624249132 -13.5548411941636 0 0 0 0 118.22302874699744 -3.4960678520546935 0 -3.4960678520546935 -97.450408928976685 0 0 0 0 18.979459144559584 -1.0005127334172528 0 -1.0005127334172528 -48.595588845407732 0 0 0 0 130.00555012659242 77.762151519288636 0 77.762151519288636 -37.308638721158786 0 0 0 0 61.383892791172769 -18.764776557576905 0 -18.764776557576905 -12.959374648367792 0 0 0 0 -139.39551762303745 -155.09841451174088 0 -155.09841451174088 -8.1223102407893748 0 0 0 0 174.62231059752958 -30.027867634920767 0 -30.027867634920767 64.178075531990544 0 0 0 0 5.2265124749072385 -6.1848308160103613 0 -6.1848308160103613 -38.732552547768087 0 0 0 0 0.59421144326553588 -1.3079425271414209 0 -1.3079425271414209 -4.0294905403229109 0 0 0 0 96.797623687773012 9.8434680234204279 0 9.8434680234204279 -53.386272613644906 0 0 0 0 94.530266175788711 58.59071397617663 0 58.59071397617663 -9.9388527313640225 0 0 0 0 172.08061976711906 54.847757187675597 0 54.847757187675597 -54.553882411571976 0 0 0 0 155.99672264756191 -35.173542341486609 0 -35.173542341486609 -105.97234857153671 0 0 0 0 138.63738294414361 -34.445754024389316 0 -34.445754024389316 -133.96987849802827 0 0 0 0 112.79237086921057 -28.638679921008588 0 -28.638679921008588 -92.498484433672274 0 0 0 0 52.900758086190564 -5.0713234495295083 0 -5.0713234495295083 -1.5572917005488804 0 0 0 0 80.778209796088049 -84.36103593122607 0 -84.36103593122607 -148.38921986033529 0 0 0 0 14.672731166589074 -82.699245775889722 0 -82.699245775889722 -87.886451272242994 0 0 0 0 81.827440085835406 -24.645508738332865 0 -24.645508738332865 -84.741239081533422 0 0 0 0 53.58451336195867 -2.9198720205567952 0 -2.9198720205567952 -44.439996663291822 0 0 0 0 56.329523523243552 11.324482828182227 0 11.324482828182227 -126.80219063012191 0 0 0 0 -206.4055904551351 150.60713843490339 0 150.60713843490339 -58.816632869689784 0 0 0 0 9.2921800653986111 2.2511767650095482 0 2.2511767650095482 1.2756923049399447 0 0 0 0 47.809699296078179 11.595565892381273 0 11.595565892381273 -80.725633973143886 0 0 0 0 246.30814313655719 -210.27722618808912 0 -210.27722618808912 -278.56528026549495 0 0 0 0 8.4112949448384882 -8.2813835828144278 0 -8.2813835828144278 -5.0810611063297699 0 0 0 0 185.29342743702 -283.44111584799248 0 -283.44111584799248 -32.310868343804032 0 0 0 0 12.364012780782705 0.68133014566343775 0 0.68133014566343775 -3.8473861501959306 0 0 0 0 121.06507749250159 -65.229763061539416 0 -65.229763061539416 -225.33952508549191 0 0 0 0 192.28921025437012 3.7488466530521691 0 3.7488466530521691 -408.81020052885287 0 0 0 0 -30.550340296125796 78.062094447079289 0 78.062094447079289 -40.392053715473594 0 0 0 0 -4.5087868825721671 -84.15606129437765 0 -84.15606129437765 -150.04235112024617 0 0 0 0 23.300339467445156 -126.59344701193913 0 -126.59344701193913 -88.692753066599835 0 0 0 0 -18.417016533130663 38.839048244813057 0 38.839048244813057 -26.247394487218116 0 0 0 0 148.99773077733698 155.78388459221242 0 155.78388459221242 101.02908052179555 0 0 0 0 65.803081374819158 -81.417654032495193 0 -81.417654032495193 -188.13873468876409 0 0 0 0 1.7116400636579385 -0.73676597205892413 0 -0.73676597205892413 0.42668011944097373 0 0 0 0 74.933747287665028 -83.976010677530212 0 -83.976010677530212 -193.63281987243681 0 0 0 0 87.94329554970318 64.911741512403751 0 64.911741512403751 32.726993838696217 0 0 0 0 53.797755812018295 14.988326956043238 0 14.988326956043238 3.0909613979365531 0 0 0 0 28.966333118186327 8.3760205628808251 0 8.3760205628808251 3.5921198814224482 0 0 0 0 383.15670380386291 -56.668249764558823 0 -56.668249764558823 -66.678641879653696 0 0 0 0 218.92860103189014 88.452044951354765 0 88.452044951354765 -41.892243792333829 0 0 0 0 29.274376672765356 -63.660929402449256 0 -63.660929402449256 -89.880276704268383 0 0 0 0 91.543931031323154 -43.832941267522983 0 -43.832941267522983 -268.4230906865514 0 0 0 0 1.0925972182537862 1.4506384493874762 0 1.4506384493874762 -1.3248585768907404 0 0 0 0 -13.287498873236473 8.2017723631488479 0 8.2017723631488479 62.15159716512062 0 0 0 0 144.73858795965862 100.45516171176223 0 100.45516171176223 6.5553654877539884 0 0 0 0 149.32480019920331 84.971649459690525 0 84.971649459690525 -91.999198721397789 0 0 0 0 64.656171191142221 60.454794895754048 0 60.454794895754048 -48.353796925772258 0 0 0 0 161.0915590135919 82.35404310270178 0 82.35404310270178 -69.917639503979444 0 0 0 0 188.22182574528415 46.145943946914485 0 46.145943946914485 -53.336003310575506 0 0 0 0 170.43000906202724 28.635186948933551 0 28.635186948933551 0.55120980768333538 0 0 0 0 147.44674314027361 -43.832771084166779 0 -43.832771084166779 12.657364835164117 0 0 0 0 204.34940447166446 19.414870161990621 0 19.414870161990621 -40.058862592738478 0 0 0 0 116.11625532913604 -148.63400674399418 0 -148.63400674399418 -236.52115772405887 0 0 0 0 39.506932972306004 -39.028365060411204 0 -39.028365060411204 -10.714075818591411 0 0 0 0 43.902578918627114 -31.114541039893084 0 -31.114541039893084 -20.252306296111783 0 0 0 0 196.64384676890768 -6.2189859904347031 0 -6.2189859904347031 -69.184151750594538 0 0 0 0 36.314509709067352 -37.114489315448736 0 -37.114489315448736 -20.41587994681322 0 0 0 0 96.008418944547884 -28.800587836207342 0 -28.800587836207342 -2.2970017935222131 0 0 0 0 40.384216834954884 -8.586304030129071 0 -8.586304030129071 -19.905627421577918 0 0 0 0 59.762642773654079 -17.644606468087659 0 -17.644606468087659 -23.775877558720822 0 0 0 0 -189.44828745010454 -93.535926499466768 0 -93.535926499466768 105.56819038679896 0 0 0 0 33.577545669068584 -18.953942203987594 0 -18.953942203987594 -27.260075619221332 0 0 0 0 110.2633686837944 -70.98690470317888 0 -70.98690470317888 -11.135289902493241 0 0 0 0 92.229174063191749 -116.90672068605454 0 -116.90672068605454 -110.02769108307803 0 0 0 0 -2.4817132741026171 -4.8638313793005779 0 -4.8638313793005779 -5.2864895688883315 0 0 0 0 -33.373388935928233 18.05808244173204 0 18.05808244173204 53.657543049539527 0 0 0 0 -204.76920772984886 -271.78510296679997 0 -271.78510296679997 -6.9471766389897311 0 0 0 0 2.6394271595926 -2.7438300648285292 0 -2.7438300648285292 -2.3642449159253474 0 0 0 0 567.58364814621018 141.29993584121257 0 141.29993584121257 -165.11988702536655 0 0 0 0 356.95913515660504 128.47705126032997 0 128.47705126032997 -126.89650304911174 0 0 0 0 643.58487008510565 273.16035178649508 0 273.16035178649508 -66.314501712059609 0 0 0 0 -0.25784102230682038 -34.757106864068191 0 -34.757106864068191 -102.76927234495088 0 0 0 0 1.2582726990222 -23.818227055444368 0 -23.818227055444368 -37.018977993604494 0 0 0 0 -32.139326539618196 22.831365697817091 0 22.831365697817091 -49.286526722673443 0 0 0 0 5.3034070237918058 -6.9563086273992667 0 -6.9563086273992667 -114.62211397570354 0 0 0 0 195.60423580206043 -44.286064324953713 0 -44.286064324953713 393.92304472425531 0 0 0 0 2.5302481839745212 -2.9361782893880672 0 -2.9361782893880672 -5.8254782511592254 0 0 0 0 -0.66313781525968807 -58.576158743724591 0 -58.576158743724591 -53.785201278367822 0 0 0 0 -0.78979706166865071 -61.914771141210622 0 -61.914771141210622 -112.03692788340709 0 0 0 0 3.988540354399305 1.7704043759462174 0 1.7704043759462174 0.044976143010471148 0 0 0 0 285.04610280747875 279.32356718904157 0 279.32356718904157 86.504076154449649 0 0 0 0 279.86864254873217 -192.33824020492011 0 -192.33824020492011 119.22921927073185 0 0 0 0 508.39711151007896 51.811865617696981 0 51.811865617696981 -111.62855505481639 0 0 0 0 515.71178319414321 -164.60470265869117 0 -164.60470265869117 -52.220589690055931 0 0 0 0 -20.900427797605516 17.040271570360346 0 17.040271570360346 35.023999483514672 0 0 0 0 60.267784478088288 -23.122798221585072 0 -23.122798221585072 -37.627625360333695 0 0 0 0 274.51584920394816 262.47188527902745 0 262.47188527902745 69.945929025750956 0 0 0 0 61.722700601741963 -6.6942259174275023 0 -6.6942259174275023 -91.912661299787942 0 0 0 0 -15.610663744300837 -55.964238778781692 0 -55.964238778781692 42.530905699977666 0 0 0 0 -32.971854141047515 -121.4304539516188 0 -121.4304539516188 -182.77881268366036 0 0 0 0 10.068572761647061 0.72845376133540185 0 0.72845376133540185 -1.3718191348014299 0 0 0 0 -11.491846825749235 18.568795635474544 0 18.568795635474544 -16.628061881845497 0 0 0 0 4.4423200703472787 0.47703267242521008 0 0.47703267242521008 -3.2690496498996353 0 0 0 0 -15.396574195314315 -48.688392762540389 0 -48.688392762540389 -149.7685223085191 0 0 0 0 -131.25479995747446 -128.19788452797729 0 -128.19788452797729 -71.281492828056798 0 0 0 0 40.2514394071477 -72.319494900053542 0 -72.319494900053542 -71.170736259096884 0 0 0 0 -4.7496517764666351 -88.426386779527093 0 -88.426386779527093 -66.450481272499019 0 0 0 0 1.5660021816490257 -0.2681034547292569 0 -0.2681034547292569 -1.2161685723580433 0 0 0 0 348.54901075930684 -41.655348982370924 0 -41.655348982370924 5.4828590547758722 0 0 0 0 -83.986665914995683 -258.34053445342397 0 -258.34053445342397 -123.93522599779317 0 0 0 0 35.566817427781643 -72.602702566409789 0 -72.602702566409789 -59.292359856329313 0 0 0 0 48.456483252870385 -220.12737461345205 0 -220.12737461345205 -127.61366964263675 0 0 0 0 70.429203965351917 -68.541418103781325 0 -68.541418103781325 39.195269283829475 0 0 0 0 241.36612104903907 -98.030685439258377 0 -98.030685439258377 -62.884308752480138 0 0 0 0 139.60771075639786 -107.27670788847263 0 -107.27670788847263 -58.117580157075281 0 0 0 0 49.469989166336745 -61.213976818377887 0 -61.213976818377887 15.440400175000832 0 0 0 0 31.237367573397933 -30.196106555456936 0 -30.196106555456936 -14.023162461511674 0 0 0 0 9.4615626422892092 -95.659897958121292 0 -95.659897958121292 1.2631802747200709 0 0 0 0 79.630826371299918 -76.338920800570122 0 -76.338920800570122 4.1574188752852024 0 0 0 0 54.788815339197754 -21.995663754472844 0 -21.995663754472844 57.118383620398163 0 0 0 0 124.92248530704819 30.899771712141956 0 30.899771712141956 96.577948307266524 0 0 0 0 75.65366436961267 -36.111237708099452 0 -36.111237708099452 66.447279893192899 0 0 0 0 124.15257477261912 -39.434357205433116 0 -39.434357205433116 28.468216457148628 0 0 0 0 141.77902700704726 -4.1823871938013326 0 -4.1823871938013326 49.692539444999966 0 0 0 0 124.80887636499392 -32.461569761573628 0 -32.461569761573628 41.989098402333184 0 0 0 0 127.82935749365424 4.3897410132376535 0 4.3897410132376535 -35.125209300246752 0 0 0 0 50.375681580073433 14.305469512455602 0 14.305469512455602 -13.851066492741666 0 0 0 0 51.202472951452364 7.6095859894267051 0 7.6095859894267051 -15.966893697579508 0 0 0 0 36.054916065636633 15.231504726330002 0 15.231504726330002 -17.41330081169022 0 0 0 0 154.71047553099925 -28.653540221401272 0 -28.653540221401272 16.69429421348832 0 0 0 0 58.627799328114904 16.839482958597031 0 16.839482958597031 -20.104659246848286 0 0 0 0 131.72807521744107 -41.730555954643933 0 -41.730555954643933 23.267419775561393 0 0 0 0 129.86277090359067 -32.707943011223762 0 -32.707943011223762 0.4907493577193236 0 0 0 0 150.38451559675741 -39.425604328382178 0 -39.425604328382178 -5.6849592398521054 0 0 0 0 134.9232991899953 -49.985093055560355 0 -49.985093055560355 -3.0146137791234651 0 0 0 0 147.7250757204456 -47.079522926831487 0 -47.079522926831487 -13.05818287755028 0 0 0 0 177.04791606828803 -60.721825225102293 0 -60.721825225102293 -21.805447311347052 0 0 0 0 142.60448620321404 -27.052421430553295 0 -27.052421430553295 -24.898162753153883 0 0 0 0 147.63232958118897 -39.935292695705357 0 -39.935292695705357 -16.980910953585408 0 0 0 0 137.79538147391577 -25.096344993329694 0 -25.096344993329694 -2.240549962480145 0 0 0 0 130.73351318720961 -26.045984746189788 0 -26.045984746189788 2.8615747816802468 0 0 0 0 129.75940207766939 -28.101456372683828 0 -28.101456372683828 -1.3755466746952152 0 0 0 0 -9.0485853038906328 7.0439729144349741 0 7.0439729144349741 2.5798618886818332 0 0 0 0 81.442474991170457 0.9437402572884821 0 0.9437402572884821 -9.835595908913092 0 0 0 0 17.639115537323406 2.68235536107602 0 2.68235536107602 -8.5853613803447359 0 0 0 0 25.148842716888538 7.408084584294798 0 7.408084584294798 -15.58914874219893 0 0 0 0 100.88959001550029 13.209625784069431 0 13.209625784069431 -18.481250135613664 0 0 0 0 131.48445046666893 2.825377928693797 0 2.825377928693797 -16.112012823403347 0 0 0 0 131.3360489327606 0.87275978348179706 0 0.87275978348179706 -36.336559962925094 0 0 0 0 166.566216397885 -32.751761052428265 0 -32.751761052428265 -25.97178902995438 0 0 0 0 166.87507427459059 -41.435932194938687 0 -41.435932194938687 -58.365058611525455 0 0 0 0 220.08439043318504 -32.447514707040682 0 -32.447514707040682 -59.709572361803794 0 0 0 0 203.32999620401824 21.049939568338232 0 21.049939568338232 -39.890813923622773 0 0 0 0 212.66944435847108 -46.48136462354114 0 -46.48136462354114 -81.535003352993954 0 0 0 0 341.03040651517222 -82.923785349945319 0 -82.923785349945319 -72.587877484344517 0 0 0 0 271.94250150313383 97.97357010438418 0 97.97357010438418 -111.5343327775845 0 0 0 0 348.76572743649706 -86.984205715390488 0 -86.984205715390488 -87.98599237759845 0 0 0 0 7.2512538536904998 -0.46791606500988792 0 -0.46791606500988792 -11.49305333986554 0 0 0 0 119.52458663864672 55.192572148801446 0 55.192572148801446 -45.204151316547723 0 0 0 0 229.59830769431574 177.25142431907307 0 177.25142431907307 -404.53033735269128 0 0 0 0 56.807984936152934 97.502155854370358 0 97.502155854370358 -110.70702218675387 0 0 0 0 -101.91135645460599 -119.44775472397941 0 -119.44775472397941 248.87274589010121 0 0 0 0 201.05347095451725 -27.26847056718907 0 -27.26847056718907 -23.589322074549273 0 0 0 0 74.210884334141156 -3.7411323656324385 0 -3.7411323656324385 -21.260130452744761 0 0 0 0 11.15355112208249 2.5763258227275543 0 2.5763258227275543 -8.1077478869702162 0 0 0 0 109.4400910132681 100.64165685209082 0 100.64165685209082 18.448341848910786 0 0 0 0 65.038916474340994 14.896120604723535 0 14.896120604723535 -5.8251652914371164 0 0 0 0 113.59253457684099 8.2633008379525563 0 8.2633008379525563 -17.912107042565822 0 0 0 0 20.202818001827048 -12.924643730332448 0 -12.924643730332448 -11.198658353052139 0 0 0 0 103.20558406661439 26.177479374661743 0 26.177479374661743 -27.674408594011766 0 0 0 0 29.492661157768453 32.067587553967314 0 32.067587553967314 -20.936207618987282 0 0 0 0 66.072684388251218 11.970495203078826 0 11.970495203078826 -67.431553391710622 0 0 0 0 14.28161820111923 -4.2767153574500014 0 -4.2767153574500014 -2.3347477839709256 0 0 0 0 37.351447585906044 -0.33084560971104793 0 -0.33084560971104793 -10.668365018707036 0 0 0 0 35.858098156633787 -5.3022587173836655 0 -5.3022587173836655 -10.798252215088723 0 0 0 0 14.503423742723044 3.8827294728625787 0 3.8827294728625787 -15.617525003810144 0 0 0 0 39.45129743817597 -3.7187648967610585 0 -3.7187648967610585 -10.581987550071062 0 0 0 0 33.682730688927236 -2.8804985262142964 0 -2.8804985262142964 -10.007732094983865 0 0 0 0 28.913709081018169 -58.057365765029317 0 -58.057365765029317 -187.59894959576923 0 0 0 0 50.179963386101008 -28.80423043724295 0 -28.80423043724295 17.953427988777548 0 0 0 0 32.605623838826631 7.7683173751885874 0 7.7683173751885874 -0.22744228952544177 0 0 0 0 40.524329085779755 -0.87381539120360685 0 -0.87381539120360685 -6.1327486025656981 0 0 0 0 134.50169911108969 18.378603906156059 0 18.378603906156059 -29.21653548559334 0 0 0 0 64.068411504886171 -14.44768045287492 0 -14.44768045287492 5.3002158961917303 0 0 0 0 13.713927789695799 -17.618444719536214 0 -17.618444719536214 -7.3764236068969211 0 0 0 0 56.989455286988232 -27.308986787960748 0 -27.308986787960748 -14.144279497850221 0 0 0 0 47.670355933638348 -9.4014424098968448 0 -9.4014424098968448 -7.7315734725380025 0 0 0 0 42.520806747983443 -20.456022851025409 0 -20.456022851025409 -28.500643337330985 0 0 0 0 156.59622481850965 -40.035812959999021 0 -40.035812959999021 -41.494164551964786 0 0 0 0 4.1620047620549414 -17.288667579571225 0 -17.288667579571225 -10.633858795098746 0 0 0 0 67.077617950002605 0.086149754570215009 0 0.086149754570215009 -33.039822007351177 0 0 0 0 112.34214800949849 13.793393351010309 0 13.793393351010309 -9.1123825802351348 0 0 0 0 151.06156499126519 -36.489646576925225 0 -36.489646576925225 -18.257972883206094 0 0 0 0 173.55106758533384 -81.001809057529499 0 -81.001809057529499 39.796341238194145 0 0 0 0 3.3068781031181516 -6.6308815477161716 0 -6.6308815477161716 -3.0849050618215301 0 0 0 0 38.194017847065396 4.7928193472919247 0 4.7928193472919247 -1.7790537425150106 0 0 0 0 19.186156811629189 31.524019579734158 0 31.524019579734158 -41.601669896323074 0 0 0 0 63.302114123252977 -8.7918754527563578 0 -8.7918754527563578 -48.66213882269949 0 0 0 0 56.983618913771352 36.323431650351267 0 36.323431650351267 -53.177641127497282 0 0 0 0 71.348831960363896 1.2592842021767865 0 1.2592842021767865 -54.73283445048196 0 0 0 0 52.90765455015935 20.00984384160256 0 20.00984384160256 -32.433219718005148 0 0 0 0 12.84438605939021 -3.8187199289958755 0 -3.8187199289958755 -4.8107443053829257 0 0 0 0 17.654948417650303 0.84525711848618812 0 0.84525711848618812 -8.7074200783317792 0 0 0 0 47.324077830387978 -11.834731993189052 0 -11.834731993189052 -27.431754325190013 0 0 0 0 24.704756976097997 26.27901879314777 0 26.27901879314777 -30.793149338023795 0 0 0 0 53.718224513155292 11.436706674445304 0 11.436706674445304 -25.908825726233772 0 0 0 0 52.561209058869281 28.659392943758576 0 28.659392943758576 -33.856895074459317 0 0 0 0 56.742430410406996 -0.51107105167284317 0 -0.51107105167284317 -28.231326797918882 0 0 0 0 65.302180100341502 15.225820244753777 0 15.225820244753777 -26.480808975698892 0 0 0 0 109.45605589397019 2.6610957676784892 0 2.6610957676784892 -52.03571404543618 0 0 0 0 115.11510702271335 7.594724105352725 0 7.594724105352725 -63.446202746061317 0 0 0 0 100.88075833076437 -4.2985181370022474 0 -4.2985181370022474 -30.709106733347653 0 0 0 0 67.143970882389112 -8.4898046831658576 0 -8.4898046831658576 2.3523746517057589 0 0 0 0 72.58891508753004 19.966788788813574 0 19.966788788813574 -23.584675377045642 0 0 0 0 -0.040490910736714625 0.57110887905146512 0 0.57110887905146512 0.047888675552798077 0 0 0 0 161.29155027467641 16.548576985824184 0 16.548576985824184 -13.419118596142653 0 0 0 0 20.618484516671742 -20.811687591813097 0 -20.811687591813097 137.79935984011536 0 0 0 0 86.916744693735382 -28.501329513954261 0 -28.501329513954261 -9.3081834030745085 0 0 0 0 171.47346983168245 -41.850502402705843 0 -41.850502402705843 -60.491115226832335 0 0 0 0 49.914590249267349 3.563835345183179 0 3.563835345183179 9.634068860555999 0 0 0 0 31.040504130025511 6.2636639834800008 0 6.2636639834800008 -10.102086215880263 0 0 0 0 81.375598617322794 14.974624875203062 0 14.974624875203062 -9.7286547378243995 0 0 0 0 54.686868879063695 0.17277944231136644 0 0.17277944231136644 -8.9456939729134319 0 0 0 0 62.22893641180417 -8.156393459692481 0 -8.156393459692481 0.0047698852904431988 0 0 0 0 82.613514668177231 7.4959102090069791 0 7.4959102090069791 -1.5534763934956572 0 0 0 0 80.605120334435924 11.819399407522269 0 11.819399407522269 16.346766473936441 0 0 0 0 -0.57864585502559152 0.28119437255176649 0 0.28119437255176649 -0.90178249183934156 0 0 0 0 123.36953511103638 16.91758344542086 0 16.91758344542086 -11.155833236254693 0 0 0 0 84.196258402495005 10.664055896160789 0 10.664055896160789 2.0530586692912038 0 0 0 0 99.016088841482997 -2.2831344387232093 0 -2.2831344387232093 8.6391860065832589 0 0 0 0 78.943898948200513 23.187427049062535 0 23.187427049062535 7.6212386775787309 0 0 0 0 52.667755763308378 -8.9812797970316751 0 -8.9812797970316751 2.786147246695009 0 0 0 0 51.040943233932964 -8.6053152188741855 0 -8.6053152188741855 -6.9560497314621799 0 0 0 0 60.862178736331771 -19.967841270364261 0 -19.967841270364261 -19.665335634312214 0 0 0 0 7.4974691986717517 32.456211721098953 0 32.456211721098953 -14.583093143050064 0 0 0 0 7.0883005125360796 34.355727084428509 0 34.355727084428509 -13.890182415601885 0 0 0 0 21.23360380482336 35.852347461404861 0 35.852347461404861 -35.653320756697212 0 0 0 0 200.13627656391327 -11.557652758592667 0 -11.557652758592667 -29.293253069041384 0 0 0 0 6.9819175826415485 1.6479007579382312 0 1.6479007579382312 -4.0079417740846992 0 0 0 0 152.96164862700243 55.361320000180058 0 55.361320000180058 22.280010487865184 0 0 0 0 205.17867915036913 22.658962033196076 0 22.658962033196076 -80.325545104828052 0 0 0 0 1.3965557394767529 25.634665994633906 0 25.634665994633906 -26.084739749476284 0 0 0 0 -98.42611875012517 51.624673265745514 0 51.624673265745514 12.687569979309046 0 0 0 0 159.63505890469969 7.1114928373990551 0 7.1114928373990551 68.134933774996171 0 0 0 0 -0.14511058923552422 1.0319187696587164 0 1.0319187696587164 -1.2586716723252636 0 0 0 0 7.602857711885008 74.31070183995871 0 74.31070183995871 -15.46748890211893 0 0 0 0 17.863680062255298 44.402719943020202 0 44.402719943020202 -17.906029417204991 0 0 0 0 51.546499657810941 17.112750253471233 0 17.112750253471233 4.1916972657761136 0 0 0 0 51.139555564343482 -60.771734328791013 0 -60.771734328791013 20.05571181727646 0 0 0 0 54.78689795826358 60.227702477775892 0 60.227702477775892 6.5897913841495779 0 0 0 0 205.00161900362582 124.3870511009336 0 124.3870511009336 -154.40237133388291 0 0 0 0 13.216291359195054 4.5381846951435989 0 4.5381846951435989 -0.25336014902252657 0 0 0 0 59.310037006604034 24.351175270504882 0 24.351175270504882 147.27512878770358 0 0 0 0 39.460262818466589 4.0110423410489755 0 4.0110423410489755 -1.211884489387387 0 0 0 0 22.719019162002951 6.1533599904360017 0 6.1533599904360017 -7.3152022982321796 0 0 0 0 44.294053548940823 3.8735078655264843 0 3.8735078655264843 -7.6885664970270184 0 0 0 0 2.4169419905501854 -6.3509051327027919 0 -6.3509051327027919 5.7898887285300589 0 0 0 0 -5.0579200560459867 -24.139082803495512 0 -24.139082803495512 -36.855509953478759 0 0 0 0 22.52291391066683 19.515080064755239 0 19.515080064755239 -14.390446801779035 0 0 0 0 6.6508313164440764 2.9160245951032664 0 2.9160245951032664 -1.9715907573043623 0 0 0 0 19.605521789977502 14.809285335823006 0 14.809285335823006 -15.65538691315669 0 0 0 0 19.52101821998076 13.11608700276156 0 13.11608700276156 3.7972834154243174 0 0 0 0 30.203009834954401 2.2967571149213626 0 2.2967571149213626 -10.37710312104462 0 0 0 0 4.3949125859926568 4.7813742960710242 0 4.7813742960710242 3.0232817953851736 0 0 0 0 78.818309795162349 12.045363790732154 0 12.045363790732154 -45.435938143560634 0 0 0 0 72.84149260596314 64.79195923214138 0 64.79195923214138 6.5122316860737328 0 0 0 0 32.701881577835593 -6.2011021464400073 0 -6.2011021464400073 -38.357578309711243 0 0 0 0 70.324543098249706 -33.690162815874828 0 -33.690162815874828 -71.383603581856732 0 0 0 0 27.911820508685196 -18.008686017336004 0 -18.008686017336004 -13.990750325953627 0 0 0 0 23.229901627361869 -56.244418071896348 0 -56.244418071896348 3.1054828634187288 0 0 0 0 49.675579363136478 -7.2922736923618299 0 -7.2922736923618299 -9.4626488473502093 0 0 0 0 34.814093969522219 -50.73173157716883 0 -50.73173157716883 -40.201053768174461 0 0 0 0 82.7805895679885 7.6107136502569119 0 7.6107136502569119 -7.7654929000455013 0 0 0 0 33.418024373637309 0.46022350218390784 0 0.46022350218390784 -71.496582083040266 0 0 0 0 22.554872950560821 -40.113199194465778 0 -40.113199194465778 6.1804289578860789 0 0 0 0 5.4161560098276453 -3.1874304503741797 0 -3.1874304503741797 -3.3791723494412302 0 0 0 0 39.703475013870047 -33.931770921748466 0 -33.931770921748466 -14.983823155942446 0 0 0 0 58.221810655995796 -17.460455426709814 0 -17.460455426709814 -66.52288016179682 0 0 0 0 86.76808475060534 -85.004634115688532 0 -85.004634115688532 71.171509020400663 0 0 0 0 35.894271091561677 -42.635543630924985 0 -42.635543630924985 48.675941140398209 0 0 0 0 81.925107653791201 -26.226818746934441 0 -26.226818746934441 -13.477154537442175 0 0 0 0 74.734209869835468 -32.961153616550291 0 -32.961153616550291 19.572075998319633 0 0 0 0 136.01424348931323 -38.531391600872666 0 -38.531391600872666 10.217983778131384 0 0 0 0 78.143153822777094 -21.588459671653254 0 -21.588459671653254 12.594147095374865 0 0 0 0 84.832287948039266 0.20035504738234522 0 0.20035504738234522 0.72893261890931171 0 0 0 0 54.073559358745115 -13.235404602187373 0 -13.235404602187373 -22.754560012817819 0 0 0 0 87.148987607641175 -18.902030089642722 0 -18.902030089642722 -23.257932940116007 0 0 0 0 84.731181757735158 -0.8066234973060773 0 -0.8066234973060773 -22.24551274183068 0 0 0 0 87.716760333994898 -8.543145963240022 0 -8.543145963240022 -28.867606396418523 0 0 0 0 81.398497169780967 -23.248566333203598 0 -23.248566333203598 5.8650985447984567 0 0 0 0 116.66505866835723 -19.249161493037718 0 -19.249161493037718 -12.632712132987763 0 0 0 0 162.32415699333797 11.980375847541836 0 11.980375847541836 31.343213116486368 0 0 0 0 29.007559195253414 -5.6394910468624886 0 -5.6394910468624886 -23.055744732111059 0 0 0 0 270.51993966949703 -103.35757893684286 0 -103.35757893684286 -39.51489103230233 0 0 0 0 -215.87327249556256 339.77806133801823 0 339.77806133801823 -160.18036861230121 0 0 0 0 30.452509338745664 -15.558662388719341 0 -15.558662388719341 -2.0740748713599544 0 0 0 0 206.88947984468905 19.332342936612804 0 19.332342936612804 -89.483288695115334 0 0 0 0 -20.537362681468949 193.82543102120326 0 193.82543102120326 -223.23951077540187 0 0 0 0 -316.87811217649869 211.02029105358815 0 211.02029105358815 35.153777736911479 0 0 0 0 -193.8203354364814 77.916801128238149 0 77.916801128238149 39.479113721715464 0 0 0 0 -35.554351729184418 51.401469094319509 0 51.401469094319509 -25.406522825887805 0 0 0 0 1.8437534828393396 1.774819781388068 0 1.774819781388068 2.5647817394629158 0 0 0 0 594.24521489899723 -204.83849963496797 0 -204.83849963496797 8.8065234182286076 0 0 0 0 233.35553299267485 -91.791046111933611 0 -91.791046111933611 82.394410829393564 0 0 0 0 350.26041681472634 41.609608460777963 0 41.609608460777963 6.2820173349155084 0 0 0 0 48.641722578231565 43.732435469216398 0 43.732435469216398 -44.460151195408343 0 0 0 0 -0.49766938245577919 -2.605750696059431 0 -2.605750696059431 -31.47695815452775 0 0 0 0 -58.970847833676089 88.900100581522565 0 88.900100581522565 -62.513446378301524 0 0 0 0 5.6119421486379153 8.228649276333087 0 8.228649276333087 3.6438507300799969 0 0 0 0 176.93332468338485 -33.213307670781433 0 -33.213307670781433 -7.2835393951691003 0 0 0 0 192.8315862657837 -42.120940557070753 0 -42.120940557070753 24.181290155911483 0 0 0 0 181.73426451900013 -57.859691213690894 0 -57.859691213690894 14.481974293851636 0 0 0 0 193.80715513574978 8.6055569343407115 0 8.6055569343407115 16.414273216994843 0 0 0 0 222.53542526246383 -23.10808830447786 0 -23.10808830447786 -6.4612475724461547 0 0 0 0 99.111588272948211 -80.817717086599032 0 -80.817717086599032 -39.925912575074108 0 0 0 0 184.07505865908388 -53.765964114058079 0 -53.765964114058079 -46.131808558728153 0 0 0 0 181.98081029730383 8.7998302643991337 0 8.7998302643991337 -17.989217090542297 0 0 0 0 146.8478062811264 -32.940953255541899 0 -32.940953255541899 -7.6959914109834244 0 0 0 0 119.25529782602462 -78.019539226103007 0 -78.019539226103007 -74.776505970854487 0 0 0 0 117.85275712870722 -21.560163729950755 0 -21.560163729950755 -14.23533118624426 0 0 0 0 4.1559273857250734 -0.49536499724785443 0 -0.49536499724785443 -0.16528008699379626 0 0 0 0 29.024468624770122 -9.5299086359647802 0 -9.5299086359647802 -28.001742924163878 0 0 0 0 -1.0438926683191312 -43.325031474192656 0 -43.325031474192656 -66.631874805276311 0 0 0 0 58.95106197393676 -5.3376974621475739 0 -5.3376974621475739 -11.917394130133772 0 0 0 0 46.72206089872634 -11.668769556599727 0 -11.668769556599727 -22.254512517503599 0 0 0 0 47.584575810738897 11.375079912242654 0 11.375079912242654 -19.568066263604123 0 0 0 0 78.750179609978659 5.0096109214400713 0 5.0096109214400713 -41.797643521818827 0 0 0 0 96.463943629634286 -3.3937366362508783 0 -3.3937366362508783 -37.496343795217399 0 0 0 0 94.491812904467224 -11.656417141512065 0 -11.656417141512065 -37.390457704503206 0 0 0 0 91.23602982898592 -5.7074661381484475 0 -5.7074661381484475 -45.92718894443351 0 0 0 0 79.937094655128021 7.5186188802526885 0 7.5186188802526885 -26.182094844595667 0 0 0 0 91.65505892431247 -16.332086140992033 0 -16.332086140992033 -39.483920636886978 0 0 0 0 91.255559782483715 -24.490805677365131 0 -24.490805677365131 1.2269319621045724 0 0 0 0 96.104120213407441 -42.558284760654715 0 -42.558284760654715 -25.683868724214335 0 0 0 0 68.564780103544763 56.468603995237572 0 56.468603995237572 -190.99647134511542 0 0 0 0 111.30317293995176 -30.665167948638555 0 -30.665167948638555 -30.514784692184548 0 0 0 0 1638.0086844624821 -568.96652557834022 0 -568.96652557834022 -39.665491539704817 0 0 0 0 20.050702005585194 13.624169220716084 0 13.624169220716084 0.44031390899245082 0 0 0 0 1678.2990819205952 -705.01659494788328 0 -705.01659494788328 370.82944154696997 0 0 0 0 1926.3027337871172 -798.97253367119265 0 -798.97253367119265 -47.934514944510738 0 0 0 0 1802.5006355877704 -629.96801829672472 0 -629.96801829672472 -172.65390410320106 0 0 0 0 1775.7251509715934 -710.97947941470738 0 -710.97947941470738 -117.96426870146388 0 0 0 0 1117.7496999612995 -518.34766539540033 0 -518.34766539540033 -121.8967450691016 0 0 0 0 2406.1551678822616 -426.16642039034014 0 -426.16642039034014 -193.28021660452214 0 0 0 0 1550.2516789328802 -607.04052449365918 0 -607.04052449365918 -102.15499403529611 0 0 0 0 1995.4126006616025 -900.40667131200462 0 -900.40667131200462 88.403605401503228 0 0 0 0 1346.0146378277059 -184.44720450180102 0 -184.44720450180102 643.64455572130555 0 0 0 0 2205.2388422040312 -865.51457053399372 0 -865.51457053399372 -257.31714517843466 0 0 0 0 -23.527677933911036 -219.0594680771901 0 -219.0594680771901 47.333339735734626 0 0 0 0 778.52793035743889 -884.23631422239123 0 -884.23631422239123 340.4906752519164 0 0 0 0 15.954472854414576 -4.0396879533205077 0 -4.0396879533205077 4.9688012589245574 0 0 0 0 31.761500228489126 14.431866258686682 0 14.431866258686682 3.4645424611133393 0 0 0 0 1531.2203180745673 426.96456976292029 0 426.96456976292029 127.4137441966559 0 0 0 0 623.88905503079877 450.04593184929854 0 450.04593184929854 208.33246416299517 0 0 0 0 81.298250576131977 0.462621882464191 0 0.462621882464191 4.7834796622373688 0 0 0 0 71.316863836432915 -16.004776653936759 0 -16.004776653936759 2.0742376331889787 0 0 0 0 37.019578234205255 -88.641381505545723 0 -88.641381505545723 -240.14797167859797 0 0 0 0 21.043979596473164 -2.3294517648101021 0 -2.3294517648101021 -9.402683841014678 0 0 0 0 -131.01294881911599 -413.54599912489357 0 -413.54599912489357 -372.53525783452278 0 0 0 0 129.37456146180921 202.22230300917363 0 202.22230300917363 -945.56582388776951 0 0 0 0 -271.31810669146944 101.80373051052629 0 101.80373051052629 -22.724641432083445 0 0 0 0 -67.75688645781338 151.53418394774781 0 151.53418394774781 -1082.9675806534324 0 0 0 0 234.40415088586451 -233.11580266754754 0 -233.11580266754754 127.2756819621336 0 0 0 0 58.87816598810241 -5.5674019083353414 0 -5.5674019083353414 56.249494281903026 0 0 0 0 160.34475391956948 138.06267167046008 0 138.06267167046008 -107.21018817790537 0 0 0 0 220.7877770109626 110.30363161346577 0 110.30363161346577 -274.01930625864043 0 0 0 0 136.01844056525806 88.304209474507843 0 88.304209474507843 -237.53524928965635 0 0 0 0 212.08059056960337 103.56680222388241 0 103.56680222388241 -271.42698995493629 0 0 0 0 132.86555380700156 166.84431652919375 0 166.84431652919375 -114.29080956508369 0 0 0 0 72.589215151983808 107.67020247834262 0 107.67020247834262 -132.75147880856821 0 0 0 0 80.160984520774946 71.304579939018367 0 71.304579939018367 -136.53341199563511 0 0 0 0 45.413586954201676 10.807634280108701 0 10.807634280108701 -11.941091683280767 0 0 0 0 101.4508249996652 19.834284045311506 0 19.834284045311506 -173.37146639687126 0 0 0 0 80.790298702632711 -19.115877485405257 0 -19.115877485405257 -1.1554409056313943 0 0 0 0 152.0961994554018 -67.877003721025176 0 -67.877003721025176 -510.60906116226761 0 0 0 0 152.58976689101837 12.708452157385182 0 12.708452157385182 -219.33956521420441 0 0 0 0 83.699560472396115 27.159093714072696 0 27.159093714072696 3.7276466879120562 0 0 0 0 86.367394611686905 -6.4923811488552019 0 -6.4923811488552019 5.0099137175957367 0 0 0 0 86.994776917505078 29.305100488938024 0 29.305100488938024 4.2329594376060413 0 0 0 0 -69.117305838499306 147.82965720995344 0 147.82965720995344 -44.736719913627894 0 0 0 0 -68.768131124343199 150.45735651307587 0 150.45735651307587 -36.796178068059817 0 0 0 0 37.106910377275412 21.16489837143817 0 21.16489837143817 -5.0586717089043134 0 0 0 0 49.841910329960228 12.103904138824873 0 12.103904138824873 4.2098829261788069 0 0 0 0 59.389356100467921 -1.0578976969040923 0 -1.0578976969040923 -13.373889070215228 0 0 0 0 62.067278172875376 4.3514323537037853 0 4.3514323537037853 -28.017880885319755 0 0 0 0 30.297266954432416 26.459348862186744 0 26.459348862186744 5.0669735118576682 0 0 0 0 54.308388708392158 23.832708307058056 0 23.832708307058056 -27.104111449586412 0 0 0 0 54.350003958701564 -18.007409785774144 0 -18.007409785774144 34.503040883944777 0 0 0 0 109.00457641659887 9.1027861757538631 0 9.1027861757538631 -18.16798463514715 0 0 0 0 46.595412360917521 16.107886636908802 0 16.107886636908802 4.5974457677046061 0 0 0 0 48.625051355382311 10.659050813632348 0 10.659050813632348 19.227244799123582 0 0 0 0 64.321195938202436 1.9073429239506368 0 1.9073429239506368 32.537720994974734 0 0 0 0 36.316364198544761 1.5077735061954627 0 1.5077735061954627 -10.890475381147553 0 0 0 0 48.349451096728444 21.486070149061561 0 21.486070149061561 29.727219567448628 0 0 0 0 53.716219535359414 20.666007946711034 0 20.666007946711034 19.436652271042476 0 0 0 0 59.03922042332124 9.5382620138916536 0 9.5382620138916536 10.21234569923763 0 0 0 0 67.832498205039883 23.256971543305553 0 23.256971543305553 19.305842177430804 0 0 0 0 80.286980299453717 12.288506624303409 0 12.288506624303409 15.926121673430316 0 0 0 0 80.115080882154871 -1.7561466147744795 0 -1.7561466147744795 24.144421093049459 0 0 0 0 65.141116459970362 4.3994710649276385 0 4.3994710649276385 21.614066379719588 0 0 0 0 72.731796341075096 16.578485230507795 0 16.578485230507795 13.51540611773089 0 0 0 0 68.289743674336933 4.5896851751931536 0 4.5896851751931536 12.67450424368144 0 0 0 0 40.680018828941684 17.033878695454405 0 17.033878695454405 -2.2546477591895382 0 0 0 0 55.448182217223803 8.7256561806680111 0 8.7256561806680111 12.729799437513691 0 0 0 0 63.820676562798326 16.262283548703635 0 16.262283548703635 -6.8086054085870273 0 0 0 0 56.692068192653096 -2.2299033393528589 0 -2.2299033393528589 -28.536653944844147 0 0 0 0 53.642185187760333 32.684433322061523 0 32.684433322061523 -27.554569820582401 0 0 0 0 54.368289644153265 11.524357511125345 0 11.524357511125345 -7.1848945229357923 0 0 0 0 20.362908081959176 36.519884387729689 0 36.519884387729689 -24.493754361690435 0 0 0 0 59.790824589850672 27.276225289142531 0 27.276225289142531 -25.562179489057598 0 0 0 0 79.221997224901088 -14.327892137128345 0 -14.327892137128345 20.143056814267766 0 0 0 0 79.317576924084278 -11.365033220030455 0 -11.365033220030455 -11.378445183632721 0 0 0 0 119.93454574282805 -25.800162548774097 0 -25.800162548774097 -24.038595118530793 0 0 0 0 121.96847801371769 -44.387214847043651 0 -44.387214847043651 2.3844898980787548 0 0 0 0 78.462287361962808 -7.7695428112765512 0 -7.7695428112765512 33.51235512963467 0 0 0 0 46.876624928732667 -1.1556344163019201 0 -1.1556344163019201 -3.4614612883769702 0 0 0 0 26.865765554450761 -4.8830559845485197 0 -4.8830559845485197 -10.479794565215855 0 0 0 0 73.112260301539209 1.9922563804175297 0 1.9922563804175297 28.821090241413913 0 0 0 0 71.883808622267679 12.743265750788851 0 12.743265750788851 15.449885438672936 0 0 0 0 59.3795378043651 1.3383881697700417 0 1.3383881697700417 28.79101254883426 0 0 0 0 104.37095092447998 19.179457326306874 0 19.179457326306874 26.827566388956257 0 0 0 0 79.910724264365854 -6.4705798772120033 0 -6.4705798772120033 -0.032870622155314777 0 0 0 0 56.187613758986117 -3.1603847121805302 0 -3.1603847121805302 -0.34366027432406554 0 0 0 0 64.108776013716124 -2.5255418393680884 0 -2.5255418393680884 -4.5802923501032637 0 0 0 0 64.941739701389452 12.105216593750811 0 12.105216593750811 -11.103468212235384 0 0 0 0 78.183087399076612 -22.444512120808213 0 -22.444512120808213 -8.4951397805161832 0 0 0 0 95.391120709005918 -28.20649971527655 0 -28.20649971527655 -29.293077566919237 0 0 0 0 80.039323447657807 -43.375328847905621 0 -43.375328847905621 -13.648818073123039 0 0 0 0 50.005118890701851 -3.0617545775075996 0 -3.0617545775075996 -34.312832210572196 0 0 0 0 63.258389597285714 -9.0545124960362955 0 -9.0545124960362955 -78.86073375599517 0 0 0 0 60.589521435453207 20.638705457626202 0 20.638705457626202 -134.91193465170363 0 0 0 0 26.058200895151458 3.80129049198014 0 3.80129049198014 0.23579918388368526 0 0 0 0 45.469101729533577 12.570313907523087 0 12.570313907523087 -50.099747042717354 0 0 0 0 45.540487746453437 45.081356389984649 0 45.081356389984649 -87.229684103127511 0 0 0 0 32.194233932003669 5.4275087316780031 0 5.4275087316780031 0.92060984885191743 0 0 0 0 23.831800003121316 12.443650777506264 0 12.443650777506264 -29.262891329054582 0 0 0 0 52.137742750543111 -0.01039263710299565 0 -0.01039263710299565 -94.350301487545948 0 0 0 0 7.7979944966646144 10.951792187521278 0 10.951792187521278 -39.851274273132731 0 0 0 0 29.046168868213499 6.614655059855977 0 6.614655059855977 -30.916236496304919 0 0 0 0 43.968574115926458 -17.965236375557652 0 -17.965236375557652 10.872834719764796 0 0 0 0 54.42016242108366 -25.067149770855394 0 -25.067149770855394 -30.01378606254417 0 0 0 0 64.11419654533529 1.5847481704131496 0 1.5847481704131496 -43.174629035482212 0 0 0 0 31.901850719121285 -12.464544423360167 0 -12.464544423360167 7.5192351785153733 0 0 0 0 61.237536551692756 -21.236483868542564 0 -21.236483868542564 8.0128727729161255 0 0 0 0 47.368908191070659 -14.307826900145301 0 -14.307826900145301 38.073836078761815 0 0 0 0 58.466956773816491 -20.765680820326452 0 -20.765680820326452 9.2065679630222803 0 0 0 0 42.13534038686339 -16.273959095267855 0 -16.273959095267855 51.313682839259855 0 0 0 0 91.082034445396857 63.64480760709921 0 63.64480760709921 12.987512699646686 0 0 0 0 28.606629649582828 76.392541441912499 0 76.392541441912499 28.905582073413825 0 0 0 0 14.219228910749734 -5.746940552042588 0 -5.746940552042588 -44.969019931631919 0 0 0 0 71.705347637056548 -24.57232374330124 0 -24.57232374330124 -0.41322218342247652 0 0 0 0 86.284987291146535 71.935943815763494 0 71.935943815763494 -0.79002977454001666 0 0 0 0 108.32611941020878 230.39228705563983 0 230.39228705563983 213.63175513053648 0 0 0 0 148.96093525936158 119.58663676847027 0 119.58663676847027 14.613963794723531 0 0 0 0 362.16672302976076 342.31081855396587 0 342.31081855396587 -28.887067526580722 0 0 0 0 276.20706321018588 443.42939915712577 0 443.42939915712577 474.71122385840863 0 0 0 0 36.785009677048947 90.098333294794429 0 90.098333294794429 106.91812268547801 0 0 0 0 60.584821547861793 -67.014048906661628 0 -67.014048906661628 4.7539240564174179 0 0 0 0 18.01337216031763 2.5765492573855653 0 2.5765492573855653 0.32567483506208461 0 0 0 0 94.177309369377326 64.689803712986759 0 64.689803712986759 -80.967741735461459 0 0 0 0 6.8197057293303374 0.78701859417489572 0 0.78701859417489572 0.52017552018629587 0 0 0 0 59.530342636102887 -78.925668436869159 0 -78.925668436869159 103.21849888211 0 0 0 0 263.39958311311057 -161.40507035660266 0 -161.40507035660266 -110.49481239723536 0 0 0 0 57.599318162881445 -46.110901471519696 0 -46.110901471519696 -24.578157835821912 0 0 0 0 2446.2515279793297 -82.930285510035901 0 -82.930285510035901 404.73089585925482 0 0 0 0 3020.9998787621735 -1189.021439565433 0 -1189.021439565433 452.21471091900275 0 0 0 0 10.285922058243642 4.7217526706746895 0 4.7217526706746895 -0.99005569626062595 0 0 0 0 -202.18239064458794 488.72669119179227 0 488.72669119179227 -24.481383496644412 0 0 0 0 332.66583876782533 -306.86150224066296 0 -306.86150224066296 282.27908598597423 0 0 0 0 1313.7512641448193 547.18946648704241 0 547.18946648704241 -42.229801425040932 0 0 0 0 2043.7353892151223 -66.22308870174129 0 -66.22308870174129 444.08132764889888 0 0 0 0 1499.4995414808 -376.09583409253355 0 -376.09583409253355 146.8700556483127 0 0 0 0 905.64493075240898 -147.22104304968707 0 -147.22104304968707 438.41489367279792 0 0 0 0 1152.4222049387536 100.80720636247315 0 100.80720636247315 77.802519321525324 0 0 0 0 417.4679098013803 318.93457903923263 0 318.93457903923263 68.000692134333008 0 0 0 0 811.09783229990171 -265.70216936737279 0 -265.70216936737279 -148.43924029511982 0 0 0 0 712.84163568883378 -149.25138509098178 0 -149.25138509098178 129.10794631842145 0 0 0 0 62.413418056254159 -21.632650977582671 0 -21.632650977582671 -195.87682077560748 0 0 0 0 -150.71369636057125 -1086.9143596312183 0 -1086.9143596312183 -1490.3928818222157 0 0 0 0 -207.83660081510607 -275.57735273995604 0 -275.57735273995604 -627.35942674024591 0 0 0 0 114.45305525293224 -247.48421486042571 0 -247.48421486042571 -838.67673142794956 0 0 0 0 66.373995686517446 -54.276640760450391 0 -54.276640760450391 -276.56019623766406 0 0 0 0 304.69873559225562 236.68123035596909 0 236.68123035596909 -249.64580580995244 0 0 0 0 401.57978672352328 178.11224125902481 0 178.11224125902481 -219.66657871914504 0 0 0 0 448.4103648091841 -91.953285536192197 0 -91.953285536192197 -779.86373259301581 0 0 0 0 342.18891423385571 46.554918579820537 0 46.554918579820537 -59.534373748174403 0 0 0 0 339.04382055979659 174.87233283526984 0 174.87233283526984 -248.06698482296997 0 0 0 0 546.9877486425903 -564.18904749455919 0 -564.18904749455919 258.27355223890845 0 0 0 0 308.82197508843092 209.82930914624376 0 209.82930914624376 -279.71961567415747 0 0 0 0 320.1743587452147 60.876896815607324 0 60.876896815607324 -503.35885407866954 0 0 0 0 -1.1194206624896879 -1.0604493238054573 0 -1.0604493238054573 -3.951068892398041 0 0 0 0 812.43022774494239 242.37799867827471 0 242.37799867827471 -384.4490625302351 0 0 0 0 655.83388738013309 -358.62340936618784 0 -358.62340936618784 -1053.3961726903854 0 0 0 0 -438.11349489973509 -882.31284428229628 0 -882.31284428229628 550.3886698988681 0 0 0 0 -268.2150413843674 280.25454461634877 0 280.25454461634877 -316.47737202665667 0 0 0 0 -52.621713089800323 90.588907859462779 0 90.588907859462779 -507.52336577017559 0 0 0 0 -203.98814719426991 -569.55490788945644 0 -569.55490788945644 -197.78044866107484 0 0 0 0 117.81610907219823 -69.375313822525271 0 -69.375313822525271 33.543141797838913 0 0 0 0 -139.97289443180489 -458.73365064453174 0 -458.73365064453174 -28.68057329029034 0 0 0 0 -252.2331793452322 -239.79027579999047 0 -239.79027579999047 208.62493886157699 0 0 0 0 1071.735102236591 -408.38503718325865 0 -408.38503718325865 -88.003588432964477 0 0 0 0 513.79316755381296 -3.6234528982076881 0 -3.6234528982076881 -181.00811598422297 0 0 0 0 129.07958241269807 -614.62165693397128 0 -614.62165693397128 -263.97263857292546 0 0 0 0 -62.728346468589734 -443.99968277342668 0 -443.99968277342668 -470.18677857591683 0 0 0 0 -11.856675778937642 -628.44806380107548 0 -628.44806380107548 -852.62251394113264 0 0 0 0 104.82627623509006 -61.224906513770065 0 -61.224906513770065 27.071107212120843 0 0 0 0 173.8446588285442 0.48653165528958198 0 0.48653165528958198 -116.31418279197533 0 0 0 0 238.27588165241468 93.114554044823308 0 93.114554044823308 -50.330249337148416 0 0 0 0 207.26116125547924 -18.179214960327954 0 -18.179214960327954 -415.44937335321083 0 0 0 0 28.042595905699272 9.9490630582638744 0 9.9490630582638744 1.4405884970082212 0 0 0 0 261.3054285535618 387.22880655270092 0 387.22880655270092 -161.44957270298619 0 0 0 0 -360.76279620447895 -88.281003224808956 0 -88.281003224808956 -67.826789335453213 0 0 0 0 69.753526479202264 -14.999787398546687 0 -14.999787398546687 37.929919364187299 0 0 0 0 54.017193775485794 -40.01056336151305 0 -40.01056336151305 58.697712404717095 0 0 0 0 -246.30749081218528 -47.602694672325015 0 -47.602694672325015 -111.9903449804915 0 0 0 0 115.05387424554283 380.83749532385991 0 380.83749532385991 -539.62059025188137 0 0 0 0 21.177113378908416 7.8752247659740249 0 7.8752247659740249 1.408733189234411 0 0 0 0 162.94354244262286 -73.956820001680171 0 -73.956820001680171 71.09686836180299 0 0 0 0 256.21885639127868 66.110794174906914 0 66.110794174906914 -0.7959872189629067 0 0 0 0 204.85957989778399 36.48855564700898 0 36.48855564700898 -13.155887027613062 0 0 0 0 266.63280637041316 -2.3090686811592604 0 -2.3090686811592604 -86.142349068813928 0 0 0 0 -36.138106910133502 393.59851708125098 0 393.59851708125098 -503.67534768726546 0 0 0 0 7.14652482405711 3.5808406644273703 0 3.5808406644273703 1.7476128791195435 0 0 0 0 -88.240236282814294 431.93809567133121 0 431.93809567133121 -46.154958530605654 0 0 0 0 190.25669689380447 -215.72600957311806 0 -215.72600957311806 -109.35310325841419 0 0 0 0 23.215491944662062 -133.45916669213693 0 -133.45916669213693 55.965642055045464 0 0 0 0 -55.63391839537644 -34.547577221443646 0 -34.547577221443646 -66.447997857299924 0 0 0 0 151.39488667952537 -140.81671811482738 0 -140.81671811482738 -241.99199701187536 0 0 0 0 370.06640358278673 18.517955789513508 0 18.517955789513508 -171.8382726829459 0 0 0 0 348.36091737298557 -191.61193572194497 0 -191.61193572194497 -385.53006205562633 0 0 0 0 23.913225032483751 -301.51071026593581 0 -301.51071026593581 430.98517665671898 0 0 0 0 227.72482753547956 -35.408153409254737 0 -35.408153409254737 -163.73322581680804 0 0 0 0 3.8016860908037984 3.009740459291308 0 3.009740459291308 2.1129346021020936 0 0 0 0 1.8814305519190384 -4.9860769225442709 0 -4.9860769225442709 -145.79232477063306 0 0 0 0 111.28006776185794 213.82827184472626 0 213.82827184472626 -314.08187339253254 0 0 0 0 83.080900804692646 -106.17539339897849 0 -106.17539339897849 -65.633291539534184 0 0 0 0 15.073913734739676 6.8219484341340575 0 6.8219484341340575 2.8302796527866008 0 0 0 0 69.496327667773585 -200.67522544047642 0 -200.67522544047642 65.674649409398626 0 0 0 0 77.423792583911563 59.032990442592563 0 59.032990442592563 -295.14797281422216 0 0 0 0 -24.113875088589339 -3.7723709601940527 0 -3.7723709601940527 278.14582732346753 0 0 0 0 178.13012902831542 -199.21623678168544 0 -199.21623678168544 90.591860257422013 0 0 0 0 343.65920135231863 -45.701730718015824 0 -45.701730718015824 -118.07622788285516 0 0 0 0 125.56121614039876 40.345321688734202 0 40.345321688734202 -141.65658647301825 0 0 0 0 4.3992555103390885 5.4219347233888229 0 5.4219347233888229 -0.67726274356188676 0 0 0 0 127.16128596905037 -260.0977474624051 0 -260.0977474624051 430.85999509102351 0 0 0 0 161.51572454647976 125.48428137531619 0 125.48428137531619 -59.794537802566992 0 0 0 0 71.755924043944106 -60.826067171576142 0 -60.826067171576142 -68.5038017505467 0 0 0 0 11.694026486778881 -11.463677751461859 0 -11.463677751461859 11.522966124925881 0 0 0 0 -8.4735525267751655 -183.0196088984394 0 -183.0196088984394 93.565275757993049 0 0 0 0 91.477257221093168 -74.509013804607093 0 -74.509013804607093 -140.62026558663638 0 0 0 0 86.502584235044196 -40.100668620627403 0 -40.100668620627403 -88.925107638875488 0 0 0 0 53.423804786725668 -1.9982580878531735 0 -1.9982580878531735 -124.66704710280101 0 0 0 0 115.76685553415155 -19.566888844745336 0 -19.566888844745336 -174.45690015486616 0 0 0 0 182.30897269422712 -79.26437498272935 0 -79.26437498272935 -140.37963518334527 0 0 0 0 119.86860180382064 -167.40075745030481 0 -167.40075745030481 -158.00333868534653 0 0 0 0 1.6969148952484829 -178.34109486502348 0 -178.34109486502348 -153.66999749343813 0 0 0 0 2.1484262055600993 -159.70362644952547 0 -159.70362644952547 -90.645851828259765 0 0 0 0 -40.490898392090457 -94.843251537529795 0 -94.843251537529795 -10.430352135379508 0 0 0 0 9.7982437140308321 -79.263892310664232 0 -79.263892310664232 -56.17100204876624 0 0 0 0 119.645555854809 -49.403622332813441 0 -49.403622332813441 -6.3265081795743914 0 0 0 0 60.149531062372262 -23.722419189911307 0 -23.722419189911307 12.584148981512044 0 0 0 0 58.667505511373946 -40.13926100099102 0 -40.13926100099102 1.2481799943176028 0 0 0 0 66.358521877904423 -68.318155569362716 0 -68.318155569362716 -75.754796103117769 0 0 0 0 96.191041696496541 -105.32722222604207 0 -105.32722222604207 -61.742168230623065 0 0 0 0 78.234754994031391 35.569946154444779 0 35.569946154444779 -38.250135798798588 0 0 0 0 37.142692130978901 -76.308582674404306 0 -76.308582674404306 42.422593527299689 0 0 0 0 183.29920797116938 -186.16153047386484 0 -186.16153047386484 -133.56810811711341 0 0 0 0 -104.50724927733245 -195.4484049903333 0 -195.4484049903333 -198.39693443034207 0 0 0 0 11.93248504049447 -7.195550860761017 0 -7.195550860761017 -3.3653667507556766 0 0 0 0 0.42820687465842866 -0.75782731245746504 0 -0.75782731245746504 1.2185614872461938 0 0 0 0 -187.38857058118447 -240.84962968743014 0 -240.84962968743014 -172.95159602292335 0 0 0 0 -79.013398079012404 -338.57826281525939 0 -338.57826281525939 -97.023694952164902 0 0 0 0 -397.63533671859477 -320.76377228644839 0 -320.76377228644839 -81.745133010006612 0 0 0 0 -118.71959980865358 -206.88391175055699 0 -206.88391175055699 83.864920785671757 0 0 0 0 139.73138188156008 -174.71981054776683 0 -174.71981054776683 -0.068474130535130462 0 0 0 0 -29.281615075058653 -314.20339171434119 0 -314.20339171434119 69.971273447808528 0 0 0 0 586.11290144710074 113.1937291900621 0 113.1937291900621 -169.24783941141322 0 0 0 0 81.848321224104922 -49.163509568404812 0 -49.163509568404812 28.754036519907487 0 0 0 0 196.99894830558333 -249.02176171530755 0 -249.02176171530755 -59.755518012706148 0 0 0 0 20.071093908359217 30.694982238817829 0 30.694982238817829 -31.961403435871034 0 0 0 0 -89.965451781878073 -222.41809644505148 0 -222.41809644505148 -12.473906103837493 0 0 0 0 76.757623500755471 -46.870285990552446 0 -46.870285990552446 23.741623632029064 0 0 0 0 51.774043134428211 -10.020035421895173 0 -10.020035421895173 -0.012664829184649985 0 0 0 0 -215.9390874607052 -77.751691581061877 0 -77.751691581061877 -61.790839523214089 0 0 0 0 17.144956727569365 -14.084191200824876 0 -14.084191200824876 7.3583099047773928 0 0 0 0 65.940098682385553 3.9875866518143539 0 3.9875866518143539 -24.43334550703117 0 0 0 0 140.93095263044233 1.218977975895847 0 1.218977975895847 -21.849943669251214 0 0 0 0 17.761117925699068 7.6605124720898345 0 7.6605124720898345 -7.4994551029638181 0 0 0 0 417.5522326650389 0.40010255230299663 0 0.40010255230299663 -114.99092121252397 0 0 0 0 61.120934391175979 82.563692162612824 0 82.563692162612824 -124.96238157539119 0 0 0 0 -214.98124981660658 -169.6900379350003 0 -169.6900379350003 664.67738095143523 0 0 0 0 -7.6585569444590078 2.4942521529334982 0 2.4942521529334982 -0.99731665467333508 0 0 0 0 106.15221615614428 -386.42146409816797 0 -386.42146409816797 -1075.6164863081553 0 0 0 0 405.814413426182 409.42549701075978 0 409.42549701075978 -252.18832784662845 0 0 0 0 598.2652253479464 -698.4729797582736 0 -698.4729797582736 -225.15707615522734 0 0 0 0 1382.0377049032177 89.077638563736855 0 89.077638563736855 -68.776385492065856 0 0 0 0 -11.192011459097557 -105.55112844630276 0 -105.55112844630276 166.0437060352815 0 0 0 0 -5.6686737065319903 14.66329214941311 0 14.66329214941311 21.074197583761702 0 0 0 0 -93.104089746106183 -202.34106476612942 0 -202.34106476612942 -182.6750157352617 0 0 0 0 571.03872810585017 -17.843338772800053 0 -17.843338772800053 -310.06740301325044 0 0 0 0 112.13033583607861 -75.962934490062707 0 -75.962934490062707 40.357720231850294 0 0 0 0 26.133130574839655 -1.3653071108987263 0 -1.3653071108987263 -18.201454058801396 0 0 0 0 -0.19544664208660834 -152.59945000567677 0 -152.59945000567677 -352.11556833508621 0 0 0 0 -86.306222344297566 -345.08713350553126 0 -345.08713350553126 112.04534902638989 0 0 0 0 -98.476692720963911 -45.347492752913467 0 -45.347492752913467 243.43367015631793 0 0 0 0 -82.730546607373981 -243.07121701309711 0 -243.07121701309711 -429.79552824962133 0 0 0 0 -23.158929110951249 -11.067697454023934 0 -11.067697454023934 6.0689158382622903 0 0 0 0 -147.18580612640653 -329.53192696758066 0 -329.53192696758066 -109.06642390422837 0 0 0 0 -120.66191267121758 -331.02826939919834 0 -331.02826939919834 -278.56097706373873 0 0 0 0 -185.62443405145314 -253.90225352270718 0 -253.90225352270718 -115.11307197222891 0 0 0 0 -226.8328001625996 -249.59832974352966 0 -249.59832974352966 -0.128007812639021 0 0 0 0 -136.08123793728009 -285.44247005853447 0 -285.44247005853447 -96.759095010651123 0 0 0 0 52.49651275020733 -356.16539265003757 0 -356.16539265003757 0.46382469788505276 0 0 0 0 -101.24525441249352 -214.3664417847971 0 -214.3664417847971 -102.985218571686 0 0 0 0 610.89454032231151 -4.5273820796548421 0 -4.5273820796548421 -194.12010405730325 0 0 0 0 -119.98825699368899 -545.54574499881801 0 -545.54574499881801 174.99870758061434 0 0 0 0 1545.6541979974136 -369.93965160035447 0 -369.93965160035447 -72.312358924697605 0 0 0 0 536.16823923546144 243.21926632324818 0 243.21926632324818 301.65787443804913 0 0 0 0 1847.0651215344551 -312.32621616198907 0 -312.32621616198907 -0.37898518716679264 0 0 0 0 2600.8346305122977 615.58258128760122 0 615.58258128760122 208.52120975840904 0 0 0 0 3673.5004943221793 -201.94898786513122 0 -201.94898786513122 1.6206038095780819 0 0 0 0 3641.6196529984263 605.30033002932646 0 605.30033002932646 440.27603005257538 0 0 0 0 3697.6775533559339 613.2899171023638 0 613.2899171023638 -94.316562693613832 0 0 0 0 2768.6134146190889 -182.07790258955038 0 -182.07790258955038 12.732821212161411 0 0 0 0 1692.9242253823213 288.24217064887154 0 288.24217064887154 229.58340762039734 0 0 0 0 2680.2501327566861 92.205216503833526 0 92.205216503833526 -393.86823987853631 0 0 0 0 2660.470561310256 88.851078633987072 0 88.851078633987072 156.57997120355253 0 0 0 0 3496.9746439926348 413.63849204706202 0 413.63849204706202 -178.2534484930402 0 0 0 0 3461.0582654880964 520.71306558931269 0 520.71306558931269 374.43546353717284 0 0 0 0 2657.3262760226498 103.57359077046431 0 103.57359077046431 126.24140454858752 0 0 0 0 3386.4895344228489 341.13691097560422 0 341.13691097560422 275.57021613548204 0 0 0 0 3382.9779656857204 102.42725401933971 0 102.42725401933971 -151.98934058395753 0 0 0 0 2645.9628665980999 248.14631871032452 0 248.14631871032452 -55.881776309763154 0 0 0 0 2505.4804766072484 -101.34108760330309 0 -101.34108760330309 -199.10054670205523 0 0 0 0 1650.275056377257 -231.94897933016546 0 -231.94897933016546 32.288642291103315 0 0 0 0 2561.4824774411099 274.67820950544137 0 274.67820950544137 -139.36728359177721 0 0 0 0 -48.316304133826634 -106.32722777762649 0 -106.32722777762649 -20.821604792884841 0 0 0 0 -9.1035788345943729 -139.06323965089777 0 -139.06323965089777 -28.19541700327818 0 0 0 0 -14.08830293941719 -117.48263569621903 0 -117.48263569621903 -50.949934973114068 0 0 0 0 -3.9255352764645579 -1.3214378628102992 0 -1.3214378628102992 8.1296560120778665 0 0 0 0 4441.3880794942088 62.923649805745299 0 62.923649805745299 250.88265451127791 0 0 0 0 5599.379353474942 1734.4698281147957 0 1734.4698281147957 355.87357546752355 0 0 0 0 3786.9179388269258 39.456579879850324 0 39.456579879850324 -181.07034303342152 0 0 0 0 3841.3007981133305 456.48156781941543 0 456.48156781941543 68.433383811781823 0 0 0 0 4106.0051295084704 446.57457258073828 0 446.57457258073828 -110.02823270612953 0 0 0 0 4028.2491333759826 763.06986117422184 0 763.06986117422184 763.52901861809278 0 0 0 0 29.140672965648989 -28.431072734004459 0 -28.431072734004459 10.958276256437802 0 0 0 0 5018.1546971687712 798.26360785724739 0 798.26360785724739 -114.92827463879894 0 0 0 0 4437.6108664900748 176.53102149497215 0 176.53102149497215 55.146540429885363 0 0 0 0 5078.1789961034738 497.58426082859688 0 497.58426082859688 73.156683664784396 0 0 0 0 -59.52466596483282 -116.936182186228 0 -116.936182186228 -5.0009215615948506 0 0 0 0 -120.07926099341421 -129.67519311195167 0 -129.67519311195167 -0.10548780613910211 0 0 0 0 -38.885576054817648 -111.38943671420822 0 -111.38943671420822 -31.112794899423363 0 0 0 0 -133.73210522506997 -58.756519644197198 0 -58.756519644197198 -2.6147449811850834 0 0 0 0 5996.7645355886052 872.29592250342034 0 872.29592250342034 -347.86122099456315 0 0 0 0 -217.20520984150062 -112.69293024916389 0 -112.69293024916389 33.878673443306809 0 0 0 0 9.2794733940218066 -9.9384516049045715 0 -9.9384516049045715 1.0611095423647996 0 0 0 0 -12.477172242914094 -100.7263623626605 0 -100.7263623626605 -31.257262290173287 0 0 0 0 119.52745769260582 -135.62427433448033 0 -135.62427433448033 0.06295476974086997 0 0 0 0 -2.9906005656521302 -142.3251083925237 0 -142.3251083925237 26.152909624333475 0 0 0 0 -2.145450277152122 -63.280468846462306 0 -63.280468846462306 21.332379171710045 0 0 0 0 301.71755809542083 -60.548546798172367 0 -60.548546798172367 -32.186605484525614 0 0 0 0 327.35003730903099 60.613520901539204 0 60.613520901539204 18.077842321817002 0 0 0 0 181.74335714194603 -19.223926901981596 0 -19.223926901981596 109.69914063401018 0 0 0 0 71.267622459403356 -84.862007550462806 0 -84.862007550462806 50.640910223112769 0 0 0 0 188.26779756762517 -55.912651732195783 0 -55.912651732195783 14.143603826781828 0 0 0 0 19.620723266009009 -68.274108048420317 0 -68.274108048420317 83.834066958582866 0 0 0 0 412.1681788964197 -42.080777552714039 0 -42.080777552714039 18.989397361453484 0 0 0 0 -37.060669860460621 -100.99673348580976 0 -100.99673348580976 5.1075165374595599 0 0 0 0 -37.416786602447246 -131.77362067943392 0 -131.77362067943392 13.479801725346874 0 0 0 0 78.053442946562427 -92.769909933955603 0 -92.769909933955603 9.6285942102383615 0 0 0 0 -14.306062297255266 -140.95399124701669 0 -140.95399124701669 39.175894059188806 0 0 0 0 20.954950258150348 -150.84921273106488 0 -150.84921273106488 -14.495478398619525 0 0 0 0 -0.42743696861725766 -147.74300337571589 0 -147.74300337571589 -22.041139787940892 0 0 0 0 -1.4590148601564579 -161.12934331699716 0 -161.12934331699716 -13.158303567234498 0 0 0 0 -2.6154667737428099 -148.87494557650257 0 -148.87494557650257 -17.996422494325088 0 0 0 0 11.461400127969682 -158.84994028066967 0 -158.84994028066967 -46.552943446294194 0 0 0 0 7.7575950903701596 -143.53982596531614 0 -143.53982596531614 -44.302073819124416 0 0 0 0 113.08918688027188 -154.6384106460373 0 -154.6384106460373 -116.14894451681539 0 0 0 0 27.900088668713579 -146.77508226432974 0 -146.77508226432974 -44.228984968677196 0 0 0 0 189.07631574344123 -28.108480428272742 0 -28.108480428272742 -25.125530718034042 0 0 0 0 -178.65353998629143 -222.78224862239438 0 -222.78224862239438 -113.29949162930825 0 0 0 0 34.359780230296494 -8.2829939922031883 0 -8.2829939922031883 -9.9112118183667199 0 0 0 0 -12.553459555841982 -226.49776688408474 0 -226.49776688408474 -116.45157170785558 0 0 0 0 -21.181641238508746 -180.29436129770829 0 -180.29436129770829 -23.224941152510837 0 0 0 0 38.173825629346538 -182.94115488587181 0 -182.94115488587181 -79.679187698697206 0 0 0 0 38.946257814939599 -158.99592688489815 0 -158.99592688489815 -46.567768553407404 0 0 0 0 -34.976289539154095 -140.18501923821799 0 -140.18501923821799 -10.719336927617405 0 0 0 0 -13.984097424632637 -182.2431409976848 0 -182.2431409976848 -51.986322881393789 0 0 0 0 -47.032690173917217 -168.00221472723604 0 -168.00221472723604 -57.5711440775749 0 0 0 0 -51.478938381915214 -201.52678006544784 0 -201.52678006544784 -35.049895010555815 0 0 0 0 -21.550095619779313 -203.8158501150134 0 -203.8158501150134 -102.57149148042981 0 0 0 0 -24.598894634225871 -194.32790647238971 0 -194.32790647238971 -162.5427487682432 0 0 0 0 -26.129792468243977 -213.61053570478543 0 -213.61053570478543 -137.40866723122917 0 0 0 0 178.22959420952247 9.1903455857632252 0 9.1903455857632252 -9.6775870466708511 0 0 0 0 77.276254600752651 -39.066323377305949 0 -39.066323377305949 7.9717975916359789 0 0 0 0 -52.481117404269753 -253.39839715342578 0 -253.39839715342578 -145.70225077862847 0 0 0 0 -80.293038054260251 -197.99714603296366 0 -197.99714603296366 -101.10782888611493 0 0 0 0 286.6570112312229 127.34843114714204 0 127.34843114714204 -32.737384369425854 0 0 0 0 36.76588573348873 -25.56076894661652 0 -25.56076894661652 23.578669510431386 0 0 0 0 -61.436206514576043 -175.32761813499246 0 -175.32761813499246 -26.016558352537686 0 0 0 0 118.45877195100184 22.921839293179801 0 22.921839293179801 -12.179538125069485 0 0 0 0 82.991628897078044 -9.3037757638803669 0 -9.3037757638803669 125.81437913367699 0 0 0 0 41.676824321817548 45.461509565940105 0 45.461509565940105 78.462850245065056 0 0 0 0 97.604565605199241 35.440201893670839 0 35.440201893670839 91.989520688960511 0 0 0 0 145.78327070048545 -121.12702659839215 0 -121.12702659839215 11.70321375882304 0 0 0 0 74.119496441810043 -129.8922527640284 0 -129.8922527640284 -7.8165640972883921 0 0 0 0 -79.927131993230432 -114.54994007348455 0 -114.54994007348455 19.593870299635 0 0 0 0 -142.55087684591126 -121.19575862398574 0 -121.19575862398574 -142.96912827858523 0 0 0 0 115.31946840000455 -122.13854761100492 0 -122.13854761100492 -249.25264741650108 0 0 0 0 -79.449023214430781 -262.70689516048242 0 -262.70689516048242 -200.26025481369106 0 0 0 0 -366.05384846840752 -410.67641141338027 0 -410.67641141338027 -257.44909532934275 0 0 0 0 -28.167465982842259 -201.33146263258777 0 -201.33146263258777 -87.269849781862376 0 0 0 0 -6.7087521712628586 1.3993885973270892 0 1.3993885973270892 -66.098624000374912 0 0 0 0 -155.51708219730062 -213.52422850280118 0 -213.52422850280118 -48.24869967100517 0 0 0 0 91.46542897283507 -124.22200211643963 0 -124.22200211643963 -191.38715472664444 0 0 0 0 192.3491443527746 -255.52709645556843 0 -255.52709645556843 -100.33382446883388 0 0 0 0 102.68728366999767 -74.01723341755725 0 -74.01723341755725 -54.91009447466422 0 0 0 0 -31.362216600857209 -258.21039713202117 0 -258.21039713202117 -86.792103990113446 0 0 0 0 101.21619439505457 -137.33839599365234 0 -137.33839599365234 -190.44338322248313 0 0 0 0 -53.35680338734528 -282.27582208183594 0 -282.27582208183594 -161.25679069163016 0 0 0 0 -173.47092803148553 -88.122880892416106 0 -88.122880892416106 -223.69414695564956 0 0 0 0 -21.081519157732146 -7.655321301643113 0 -7.655321301643113 11.846391408405504 0 0 0 0 -319.91985071434465 -383.11886078114776 0 -383.11886078114776 -264.61267299705651 0 0 0 0 -181.9270118817949 -163.27255049186147 0 -163.27255049186147 -139.7816416757405 0 0 0 0 22.401439874243366 -3.5539294708692353 0 -3.5539294708692353 -6.4753109081520428 0 0 0 0 115.45158880355302 -105.51036798722271 0 -105.51036798722271 -8.3386467451928183 0 0 0 0 80.923776412174021 -46.706982338604163 0 -46.706982338604163 6.380313422674492 0 0 0 0 71.626951323807589 -13.041625062436651 0 -13.041625062436651 45.014996380588855 0 0 0 0 147.32573616981972 -12.967869483921277 0 -12.967869483921277 -27.914616458981982 0 0 0 0 51.611055588909949 -74.367719954329914 0 -74.367719954329914 52.228132751661178 0 0 0 0 65.74159141779819 -136.98166748817334 0 -136.98166748817334 -13.376452457923733 0 0 0 0 259.58237165211904 -62.156576621957356 0 -62.156576621957356 -29.797898061842716 0 0 0 0 -399.37144910884672 -151.74963121926203 0 -151.74963121926203 25.134248539577129 0 0 0 0 52.519485389074433 -59.081077539710066 0 -59.081077539710066 14.060194754008375 0 0 0 0 199.59667830346734 -15.237708857956022 0 -15.237708857956022 14.066899400429975 0 0 0 0 127.74937627857435 -122.29797181391768 0 -122.29797181391768 -28.821119401225587 0 0 0 0 220.36745623787283 -60.090513212902806 0 -60.090513212902806 -70.320158660467314 0 0 0 0 208.85982669971418 -52.77801660818659 0 -52.77801660818659 64.498873968717817 0 0 0 0 160.94601622209302 -41.063252947367801 0 -41.063252947367801 -252.08961397345047 0 0 0 0 168.74418243061518 -85.622159881759671 0 -85.622159881759671 1.845368451817194 0 0 0 0 -413.40031864496996 -102.93928357886625 0 -102.93928357886625 142.22654835104549 0 0 0 0 -184.40554747809074 351.41902587402819 0 351.41902587402819 252.80139127119401 0 0 0 0 392.13023162592435 744.35717942437429 0 744.35717942437429 381.01283258444892 0 0 0 0 481.70810225339847 -103.47956723677402 0 -103.47956723677402 -87.253551246754796 0 0 0 0 206.37052814124036 -270.13947489707334 0 -270.13947489707334 -118.74202662986863 0 0 0 0 145.86883600891451 -229.8976509231743 0 -229.8976509231743 -117.67249739796898 0 0 0 0 -23.128877486102283 -213.21600586113118 0 -213.21600586113118 -80.165443882111504 0 0 0 0 78.14714827528951 -216.43216498899369 0 -216.43216498899369 -110.56390285191083 0 0 0 0 397.88586941501126 143.16215049797393 0 143.16215049797393 -322.88208868118681 0 0 0 0 486.60393759939325 80.734993060111719 0 80.734993060111719 -249.974750503824 0 0 0 0 330.13914481043594 -163.127837478223 0 -163.127837478223 -393.43682988530782 0 0 0 0 88.245050843033823 -74.688028364226284 0 -74.688028364226284 69.065593989100307 0 0 0 0 118.1310508644674 14.345171623104761 0 14.345171623104761 117.06274926104379 0 0 0 0 -428.87659078947036 -558.36881194643775 0 -558.36881194643775 472.68737486633836 0 0 0 0 12.546088029762558 -29.00081113417572 0 -29.00081113417572 37.744503156471616 0 0 0 0 305.20211651987483 64.672930274839018 0 64.672930274839018 0.39608880354171561 0 0 0 0 1051.7368095765887 56.873769341473235 0 56.873769341473235 -594.32285934919491 0 0 0 0 102.05986761483655 165.10459178983183 0 165.10459178983183 238.99903159970563 0 0 0 0 2.6478171672097304 4.1366439469937291 0 4.1366439469937291 7.6960303031540889 0 0 0 0 349.89303575636222 194.4650378047545 0 194.4650378047545 107.35721324085171 0 0 0 0 -158.50496420714262 -159.37390173835593 0 -159.37390173835593 643.42284400554854 0 0 0 0 977.28544836057699 908.02392011907432 0 908.02392011907432 342.81902369272575 0 0 0 0 2390.1073486978021 -9.3963446674051738 0 -9.3963446674051738 -38.617725041724043 0 0 0 0 1344.277636421597 -556.59026501018889 0 -556.59026501018889 359.43206899780489 0 0 0 0 -0.96058257845359662 -0.68697496238696942 0 -0.68697496238696942 14.920372102862842 0 0 0 0 2464.2736707850345 -825.76137360473876 0 -825.76137360473876 -219.57668861506318 0 0 0 0 2696.3844177023275 -178.49513297173507 0 -178.49513297173507 -24.982883735869109 0 0 0 0 2435.6567691027085 353.79540916904625 0 353.79540916904625 2271.2783775908702 0 0 0 0 4673.2051333101554 -1468.9215367091456 0 -1468.9215367091456 212.05388769484489 0 0 0 0 34.266713125532249 -15.874149050309363 0 -15.874149050309363 5.5798751077483288 0 0 0 0 674.22087758022099 -150.19084946866133 0 -150.19084946866133 -1201.1939000497987 0 0 0 0 -738.88506740126468 -1757.2807552401973 0 -1757.2807552401973 -24.435460665022219 0 0 0 0 81.363335149454656 -44.252593706440521 0 -44.252593706440521 16.46803166260004 0 0 0 0 2920.2094769292889 861.70005379048416 0 861.70005379048416 -102.23162962286915 0 0 0 0 6535.0859688775636 1938.1246012659299 0 1938.1246012659299 175.11447956255506 0 0 0 0 1859.8161337720521 272.6682068387463 0 272.6682068387463 -138.61425805490217 0 0 0 0 3413.3269443584577 441.1914216035093 0 441.1914216035093 -434.09875193261814 0 0 0 0 1819.3464862177352 79.225586090050456 0 79.225586090050456 -352.06135314964558 0 0 0 0 954.30738794528588 381.4215028599192 0 381.4215028599192 -118.25028971298025 0 0 0 0 2294.0604344985186 -14.782377715209805 0 -14.782377715209805 -364.029792356082 0 0 0 0 1640.6954629955144 254.1793866385583 0 254.1793866385583 -128.83053842279878 0 0 0 0 2391.5750807424047 261.04328563731906 0 261.04328563731906 -265.12004658666319 0 0 0 0 3284.5406800700439 165.14397354634195 0 165.14397354634195 -173.47309914982543 0 0 0 0 3299.1055480297018 69.055619722169467 0 69.055619722169467 -367.8835166162462 0 0 0 0 3567.4659044110886 731.90770497107815 0 731.90770497107815 -18.138569876336987 0 0 0 0 3738.030518253523 182.08687519286377 0 182.08687519286377 -576.69974378392544 0 0 0 0 3719.8485377436591 109.28036761447493 0 109.28036761447493 -345.68245711898271 0 0 0 0 3402.8352338122713 383.87019859491465 0 383.87019859491465 -249.81705010850055 0 0 0 0 25.913137644733069 -127.7587630454907 0 -127.7587630454907 -48.404735545979634 0 0 0 0 246.83978538951487 -64.451424671327914 0 -64.451424671327914 -8.8330717071112304 0 0 0 0 13.188112154412643 4.3593769792272923 0 4.3593769792272923 11.444985158390139 0 0 0 0 98.6078766007235 -46.574505320429637 0 -46.574505320429637 10.32314824663421 0 0 0 0 227.96547390415799 -51.587870289298735 0 -51.587870289298735 -11.772780473173043 0 0 0 0 234.92949234654225 -80.280340468699251 0 -80.280340468699251 16.676167507233913 0 0 0 0 2814.5767342621184 599.85408686930032 0 599.85408686930032 -311.38641136232764 0 0 0 0 162.59222685016721 -62.772415442549573 0 -62.772415442549573 100.29632560162281 0 0 0 0 3340.1984632578533 -598.73085924923907 0 -598.73085924923907 -262.76640289029638 0 0 0 0 4124.5505286291664 263.0277245315342 0 263.0277245315342 -767.81099154523872 0 0 0 0 3350.2302017523489 202.70428075414338 0 202.70428075414338 -569.70969047813014 0 0 0 0 3498.2360263193241 295.15297131925405 0 295.15297131925405 261.3414755818564 0 0 0 0 1626.6521662985033 9.3001799308032727 0 9.3001799308032727 0.30213717267214235 0 0 0 0 3912.570960918405 482.34852814702077 0 482.34852814702077 -154.46288419923005 0 0 0 0 3053.7055473673099 -1533.3342735146498 0 -1533.3342735146498 -443.90941564398156 0 0 0 0 521.6018255167437 -258.55963822774595 0 -258.55963822774595 -132.14591063528542 0 0 0 0 50.297366503291414 600.67113921001385 0 600.67113921001385 129.64806471341004 0 0 0 0 14.755301774584183 6.2675077991978299 0 6.2675077991978299 2.4352794195070695 0 0 0 0 537.43506630409684 110.24306378199469 0 110.24306378199469 -322.86790277799372 0 0 0 0 23.873943962240702 14.103586829967057 0 14.103586829967057 5.7889470228319677 0 0 0 0 518.97068056262651 -136.68882035404147 0 -136.68882035404147 141.74980501420157 0 0 0 0 908.58979794695915 -95.581535064966204 0 -95.581535064966204 -112.64695177878036 0 0 0 0 969.0254537659057 235.34754546834807 0 235.34754546834807 191.29052922652608 0 0 0 0 697.21940822699253 -127.83461133694401 0 -127.83461133694401 0.011675774227190523 0 0 0 0 438.8472757200725 -64.916898301258072 0 -64.916898301258072 31.733398178135445 0 0 0 0 928.7547063258462 -36.359944876350085 0 -36.359944876350085 -96.286312398113409 0 0 0 0 513.42153225577931 193.27951862519652 0 193.27951862519652 106.08675067452327 0 0 0 0 439.74819228252454 -43.734402959728186 0 -43.734402959728186 122.37761447680235 0 0 0 0 700.97345783729088 222.35238950108595 0 222.35238950108595 866.13308427792117 0 0 0 0 695.98952647997066 95.888340961204904 0 95.888340961204904 66.440725875826047 0 0 0 0 314.75025302716676 101.46031612017043 0 101.46031612017043 31.185802117987805 0 0 0 0 217.41369935122202 -195.90568185220855 0 -195.90568185220855 68.674715210739066 0 0 0 0 439.13372780384088 -148.37249007702894 0 -148.37249007702894 -113.62539783030115 0 0 0 0 258.90801626624307 -140.92265876723741 0 -140.92265876723741 -47.063860968811241 0 0 0 0 346.25554216632736 -251.40086908166995 0 -251.40086908166995 -106.3946648612482 0 0 0 0 166.07085375770839 -190.07520802189447 0 -190.07520802189447 -63.466801988462976 0 0 0 0 611.16415319069347 -72.84534118761303 0 -72.84534118761303 -214.18736099963462 0 0 0 0 346.97534385550534 -9.7884804844779865 0 -9.7884804844779865 -229.14738785988538 0 0 0 0 81.331774515187135 -213.25549127156592 0 -213.25549127156592 -62.768890666513471 0 0 0 0 346.26511365627812 -47.172635605667892 0 -47.172635605667892 -41.816704181113892 0 0 0 0 695.16026735804189 -137.3563898995626 0 -137.3563898995626 -304.85096932229771 0 0 0 0 457.69598011567359 -240.93297108834361 0 -240.93297108834361 347.91894873358797 0 0 0 0 842.21915312607598 -271.61664277903378 0 -271.61664277903378 -256.51609580638706 0 0 0 0 934.93740223484929 -473.00799005325985 0 -473.00799005325985 180.74511933538133 0 0 0 0 1291.351222302852 144.22254184313306 0 144.22254184313306 -307.98928613014709 0 0 0 0 -104.19949985407584 115.17601838550127 0 115.17601838550127 -244.004426696255 0 0 0 0 725.25609701501526 -177.54087827623607 0 -177.54087827623607 -420.75470986504115 0 0 0 0 13.111931883579047 12.429018990924192 0 12.429018990924192 8.4122909476993435 0 0 0 0 -437.76928139440133 999.0871826001171 0 999.0871826001171 -34.556859603050725 0 0 0 0 65.601658093923106 629.91699829911931 0 629.91699829911931 -441.75092620286068 0 0 0 0 -246.60196306993748 121.41742727888436 0 121.41742727888436 -274.47205479272179 0 0 0 0 247.80700370890554 706.56543083681618 0 706.56543083681618 342.17743353157198 0 0 0 0 605.79615573538467 -164.59388910989958 0 -164.59388910989958 -36.172703579044196 0 0 0 0 -674.75669583071431 857.26662939624316 0 857.26662939624316 319.9358393430349 0 0 0 0 9.2767414916818609 7.0673694236522948 0 7.0673694236522948 5.0039751145096947 0 0 0 0 1803.9634018425131 -198.13590999475696 0 -198.13590999475696 -36.806103079741547 0 0 0 0 3500.6884912243004 -601.45843567006125 0 -601.45843567006125 785.60263459694272 0 0 0 0 608.65999725767324 1218.7987731525934 0 1218.7987731525934 -452.03795978849007 0 0 0 0 761.51539404937648 -23.606061901184262 0 -23.606061901184262 -350.02546490581216 0 0 0 0 3010.722538806076 1468.5071222549363 0 1468.5071222549363 132.54092086120431 0 0 0 0 -724.47690281724135 427.22119620056367 0 427.22119620056367 784.12763257732536 0 0 0 0 -4.9635698355596105 727.8050875794745 0 727.8050875794745 829.22771643626356 0 0 0 0 -364.86909935605945 -76.829538221845723 0 -76.829538221845723 541.78764159248067 0 0 0 0 -49.704885571321938 -492.66922481516877 0 -492.66922481516877 -711.8824706307978 0 0 0 0 18.583965858608565 7.4601907931953946 0 7.4601907931953946 2.9922421145021527 0 0 0 0 5197.1008857415181 -1334.0904112126868 0 -1334.0904112126868 686.3879428101975 0 0 0 0 4731.2830663866625 -2396.1949854024951 0 -2396.1949854024951 1229.0819289232791 0 0 0 0 3997.8439432920568 -800.21709227146778 0 -800.21709227146778 449.94937715469678 0 0 0 0 3300.587532763544 -2145.8973069970953 0 -2145.8973069970953 1305.5761560279086 0 0 0 0 6.951350925319332 6.9093094669646575 0 6.9093094669646575 5.9521903545624681 0 0 0 0 5494.758925752365 1127.9262448180439 0 1127.9262448180439 -352.33375329379487 0 0 0 0 4128.4735604574307 -47.596694408172183 0 -47.596694408172183 1128.3155355433723 0 0 0 0 3610.5726683294233 -942.6296815932418 0 -942.6296815932418 615.68645271375613 0 0 0 0 3728.6639438954608 -1151.6196415710497 0 -1151.6196415710497 544.03195942618333 0 0 0 0 4045.536077884648 -165.88913407965319 0 -165.88913407965319 -421.64556323014727 0 0 0 0 3035.5128518550082 -662.21434931536987 0 -662.21434931536987 78.985757267328239 0 0 0 0 3500.1414473612058 -524.40972079928679 0 -524.40972079928679 -110.14425802701984 0 0 0 0 3817.8722972840587 -476.12403922793948 0 -476.12403922793948 42.946175189578334 0 0 0 0 3307.3821943862313 -1158.4840695219382 0 -1158.4840695219382 190.89165928564807 0 0 0 0 3260.0018080085792 -1053.9362284744402 0 -1053.9362284744402 363.42476337345988 0 0 0 0 1946.2534494443389 -1357.6170277246028 0 -1357.6170277246028 942.24843877221133 0 0 0 0 1918.2267472118042 -872.99634788430501 0 -872.99634788430501 501.85231804143643 0 0 0 0 2031.5345266108015 -1234.3777253588753 0 -1234.3777253588753 483.55982253718821 0 0 0 0 2367.0475749361067 -796.11690326257144 0 -796.11690326257144 179.66653083530281 0 0 0 0 2633.0107123483831 -1096.2175246459306 0 -1096.2175246459306 20.068996322641539 0 0 0 0 3060.1768645927041 -691.2302740129544 0 -691.2302740129544 87.025611354799366 0 0 0 0 2152.590975380801 -760.52015139639218 0 -760.52015139639218 2.0866977855159377 0 0 0 0 1699.9064921245517 65.442704891328773 0 65.442704891328773 -193.99901756352324 0 0 0 0 1341.8766407625226 -225.34681401401292 0 -225.34681401401292 119.07552830281264 0 0 0 0 470.58626523068961 186.51592914136279 0 186.51592914136279 268.55891198517276 0 0 0 0 199.32792731201334 -212.27822510548205 0 -212.27822510548205 304.88237574109957 0 0 0 0 1238.2527214282964 -253.84973783092585 0 -253.84973783092585 10.988420813117671 0 0 0 0 1156.2085119300973 -682.28825020397403 0 -682.28825020397403 434.27035158425815 0 0 0 0 2355.021776159354 -559.60791095288789 0 -559.60791095288789 -190.11038713706961 0 0 0 0 44.182681362919027 28.635217752747806 0 28.635217752747806 14.52601430956735 0 0 0 0 -204.22047906278749 81.472699650357754 0 81.472699650357754 -241.78991571382176 0 0 0 0 -320.47582547066486 226.09520720752494 0 226.09520720752494 78.057544024245544 0 0 0 0 4.4863620549705843 5.9296901557467123 0 5.9296901557467123 5.1880447722707075 0 0 0 0 63.903425651133773 50.058742578214066 0 50.058742578214066 30.00840122972923 0 0 0 0 64.910651617894473 535.42599450659077 0 535.42599450659077 -3.2280697506321303 0 0 0 0 394.42469219170744 -311.39698630122439 0 -311.39698630122439 -78.183613932940716 0 0 0 0 552.61566047128872 -42.585847141820977 0 -42.585847141820977 -263.69802223507577 0 0 0 0 811.44524761989669 192.03084474710965 0 192.03084474710965 -159.45705653656296 0 0 0 0 887.95248544815695 -41.167599975490702 0 -41.167599975490702 -450.80613652164311 0 0 0 0 302.74465100778616 228.79359817071327 0 228.79359817071327 132.96472581753551 0 0 0 0 69.628109659737675 -205.90582323114177 0 -205.90582323114177 303.86759392095018 0 0 0 0 -188.377668268251 -80.416555114083167 0 -80.416555114083167 41.907312769445525 0 0 0 0 -6.3948061026312644 14.769065105847403 0 14.769065105847403 -283.03266813026858 0 0 0 0 5.8974308855723621 -12.098390708709474 0 -12.098390708709474 6.2301177415705951 0 0 0 0 -70.27540208496066 -322.42924609335387 0 -322.42924609335387 4.5451053883516579 0 0 0 0 600.76496258116094 132.86408495298929 0 132.86408495298929 -126.50634610753332 0 0 0 0 402.20292244929988 144.99461198435006 0 144.99461198435006 125.79113179076739 0 0 0 0 154.10533630379359 55.677629728845204 0 55.677629728845204 -155.44915199457319 0 0 0 0 50.957128129871506 -46.793511808220998 0 -46.793511808220998 -9.1103127477452617 0 0 0 0 244.8785143008281 -49.78390948816741 0 -49.78390948816741 -101.13738952589301 0 0 0 0 76.050304008247622 -95.638826517012149 0 -95.638826517012149 -108.08812386152931 0 0 0 0 187.81321016783477 121.02980678804124 0 121.02980678804124 -239.65709313718708 0 0 0 0 251.18797022651415 44.483600064017082 0 44.483600064017082 -288.78114398539219 0 0 0 0 294.22461066757387 -75.941423222460571 0 -75.941423222460571 -85.468906159130157 0 0 0 0 86.767636115486596 57.974053556523643 0 57.974053556523643 47.121774620727791 0 0 0 0 343.39981032180185 314.67880137237967 0 314.67880137237967 124.41324730859736 0 0 0 0 -387.15457538973715 72.212726597185522 0 72.212726597185522 -76.115728050242126 0 0 0 0 35.940949265641393 -4.0083589175937959 0 -4.0083589175937959 12.264617585402448 0 0 0 0 32.315492832882143 -9.2469883123734036 0 -9.2469883123734036 17.022575762568259 0 0 0 0 206.12811723495543 91.748016446714246 0 91.748016446714246 -106.91511097423063 0 0 0 0 394.36436409171438 106.71541979280482 0 106.71541979280482 48.150252990875742 0 0 0 0 102.36930546259904 14.883378228731928 0 14.883378228731928 17.292944448248136 0 0 0 0 47.324524619361199 -0.9588693798298209 0 -0.9588693798298209 16.948104680380283 0 0 0 0 193.88436969722846 -4.8561763544775403 0 -4.8561763544775403 50.00490080883764 0 0 0 0 -79.579814021395578 -29.829288463377452 0 -29.829288463377452 -37.946650150202913 0 0 0 0 -204.5380225968911 -111.29980903659543 0 -111.29980903659543 150.32583967832761 0 0 0 0 -8.5111871432454791 113.99561247290694 0 113.99561247290694 81.936369027251203 0 0 0 0 6.5962078847587691 139.29118059248503 0 139.29118059248503 -78.424922460053494 0 0 0 0 68.755505827680736 -13.669600888295463 0 -13.669600888295463 -6.652663220598491 0 0 0 0 -8.2107005831203423 -12.391202220940613 0 -12.391202220940613 -44.080006426762679 0 0 0 0 -231.08028681948781 -11.560571814276045 0 -11.560571814276045 -44.033233416833241 0 0 0 0 -14.271736175616734 -7.0633969092250197 0 -7.0633969092250197 4.5796307403494012 0 0 0 0 5.8176540573589506 6.9547807279999105 0 6.9547807279999105 4.6721027037590019 0 0 0 0 -424.1629088515183 -286.12261279913218 0 -286.12261279913218 -13.105492870106445 0 0 0 0 -5.1655681797446391 -6.9517843390475065 0 -6.9517843390475065 7.8819824556619409 0 0 0 0 -163.60888536085713 145.51646874698054 0 145.51646874698054 9.6769401416386245 0 0 0 0 -48.570143469129107 -92.632684755451919 0 -92.632684755451919 -35.25087882540015 0 0 0 0 -29.585345886458526 107.03020365814882 0 107.03020365814882 182.13186205631064 0 0 0 0 12.166612620169737 41.573796194602018 0 41.573796194602018 36.933218221860926 0 0 0 0 275.34102504704788 132.26694243771453 0 132.26694243771453 -83.834276230738396 0 0 0 0 113.59429012122564 -190.64091417137388 0 -190.64091417137388 -227.84578742849408 0 0 0 0 36.882649327618566 4.6504971908940291 0 4.6504971908940291 -3.2321225765824764 0 0 0 0 51.411799813028267 -29.312359498079473 0 -29.312359498079473 35.956594193527231 0 0 0 0 275.44463991535525 -67.622495764465796 0 -67.622495764465796 260.38410046554782 0 0 0 0 272.50018922115851 -259.73235715481246 0 -259.73235715481246 56.934000792330721 0 0 0 0 379.01073695742525 96.440584993010361 0 96.440584993010361 -508.40262847705162 0 0 0 0 300.01451422060018 91.75878478062441 0 91.75878478062441 -154.1364695521188 0 0 0 0 942.97014327012948 -91.803886638585936 0 -91.803886638585936 -284.68402764639904 0 0 0 0 747.69241779808362 256.97264953968897 0 256.97264953968897 -26.191960389176529 0 0 0 0 279.4822210433631 14.127103970389726 0 14.127103970389726 27.343392134342139 0 0 0 0 220.89736425572482 226.61892395972427 0 226.61892395972427 -107.09692169373102 0 0 0 0 366.72971084273013 436.03396840319692 0 436.03396840319692 -121.30954295428273 0 0 0 0 264.57477080659737 288.35595674498927 0 288.35595674498927 -282.98745592271734 0 0 0 0 371.31487336216287 312.29805394234563 0 312.29805394234563 -371.00779066832183 0 0 0 0 172.55034460531169 408.52378424423569 0 408.52378424423569 5.5563982299886447 0 0 0 0 -78.885245530036627 79.824059631870114 0 79.824059631870114 36.286610668807043 0 0 0 0 11.55898055325509 50.511552541334623 0 50.511552541334623 48.41856971509619 0 0 0 0 -294.17646293432335 91.722329744246963 0 91.722329744246963 234.67550950413715 0 0 0 0 124.40826662963445 373.36511767662489 0 373.36511767662489 -12.793033540758188 0 0 0 0 -229.02654747455381 20.200344240965933 0 20.200344240965933 365.77610737865325 0 0 0 0 -46.064538666018052 164.29440646801231 0 164.29440646801231 260.82298597906993 0 0 0 0 -248.74507810290379 19.166501962234179 0 19.166501962234179 167.54043746380921 0 0 0 0 36.991294512961758 69.83358348900947 0 69.83358348900947 -51.233605519897537 0 0 0 0 -166.92212383155857 119.45682753608799 0 119.45682753608799 74.048307823679352 0 0 0 0 18.657997376386518 51.726506124739103 0 51.726506124739103 59.476865732087504 0 0 0 0 -552.88357522433216 433.27714702040032 0 433.27714702040032 797.04411660769347 0 0 0 0 103.32178410253255 179.91530998499366 0 179.91530998499366 -54.84960129148385 0 0 0 0 -6.698135353566613 207.17632391963707 0 207.17632391963707 13.263064597042103 0 0 0 0 -605.8441124240162 -307.30403404235784 0 -307.30403404235784 182.26688184819002 0 0 0 0 110.99015831755241 134.96375089994945 0 134.96375089994945 83.907982292996167 0 0 0 0 105.63442649544595 139.68779002071665 0 139.68779002071665 195.2752940105438 0 0 0 0 132.30717506675865 19.355483419007214 0 19.355483419007214 -36.181396375941858 0 0 0 0 128.11116963723907 104.97581170977355 0 104.97581170977355 -44.896273992149872 0 0 0 0 4.8500590364511638 3.8965420034050879 0 3.8965420034050879 -1.5501321728553838 0 0 0 0 653.15261861475301 5.1623248724135218 0 5.1623248724135218 -698.47634829980393 0 0 0 0 855.12653144082287 -204.15819859817111 0 -204.15819859817111 297.47534157207656 0 0 0 0 -15.44100328659988 -339.89738498574229 0 -339.89738498574229 -251.69414457016728 0 0 0 0 1041.049859857827 -622.27603952052777 0 -622.27603952052777 61.693088677945752 0 0 0 0 1404.6076105676693 -742.21295676519208 0 -742.21295676519208 516.79383605602948 0 0 0 0 1110.660689271288 -411.03527967546859 0 -411.03527967546859 424.14545205206986 0 0 0 0 1159.7282506260235 -669.39935050430631 0 -669.39935050430631 574.14464873151042 0 0 0 0 1115.4229150191841 -480.91303994603743 0 -480.91303994603743 311.5198045020843 0 0 0 0 951.54300190949652 -448.88003743889408 0 -448.88003743889408 649.29806776456633 0 0 0 0 704.32510644951867 -658.74716024458041 0 -658.74716024458041 850.9748646562125 0 0 0 0 685.18471703027171 -195.32094969374384 0 -195.32094969374384 470.88876015373398 0 0 0 0 163.43941220172564 -455.82762111088687 0 -455.82762111088687 384.51964301383714 0 0 0 0 611.16566758678528 86.023204901002373 0 86.023204901002373 -224.2352602966896 0 0 0 0 1538.3794873703882 -578.11000701733201 0 -578.11000701733201 472.47092216380452 0 0 0 0 398.98121792819256 -515.2759523611312 0 -515.2759523611312 835.33459196702188 0 0 0 0 681.38226510105596 -1542.6601046297242 0 -1542.6601046297242 1526.5623678571301 0 0 0 0 2820.3846840398619 -1725.8070941107308 0 -1725.8070941107308 666.84144663336974 0 0 0 0 1353.461711863747 -847.426288901524 0 -847.426288901524 695.62968544372188 0 0 0 0 2510.8029459415848 -1051.7643897399744 0 -1051.7643897399744 228.25150997159324 0 0 0 0 2476.6661712293717 -846.1052379605303 0 -846.1052379605303 313.64821210078662 0 0 0 0 3777.622775240081 -996.70750444302428 0 -996.70750444302428 145.14126374675948 0 0 0 0 3708.3374518238943 -298.28475140816391 0 -298.28475140816391 9.0361502569792833 0 0 0 0 4374.5643805172822 -890.33546058137063 0 -890.33546058137063 -28.110187563801219 0 0 0 0 3822.8823820157413 748.47958917182859 0 748.47958917182859 183.46595994075744 0 0 0 0 206.34170400872244 -748.08898724363644 0 -748.08898724363644 1369.7867399788893 0 0 0 0 -145.41545960473741 262.15882366954247 0 262.15882366954247 436.42378756345852 0 0 0 0 16.395483117012986 -14.684680897973713 0 -14.684680897973713 13.270219133249679 0 0 0 0 1288.4884160652327 921.37734869797714 0 921.37734869797714 176.41510528817707 0 0 0 0 153.7485714019349 -214.52501287079684 0 -214.52501287079684 305.79535017134288 0 0 0 0 2859.6767067079927 -278.24405560611649 0 -278.24405560611649 -173.9091714496378 0 0 0 0 2582.7224503640064 -634.46091564152425 0 -634.46091564152425 -28.356277598882798 0 0 0 0 3495.8237863875856 583.03367887987906 0 583.03367887987906 -587.33483959490161 0 0 0 0 2632.8837602705826 -1067.5948201519516 0 -1067.5948201519516 654.13714097482227 0 0 0 0 2886.8169927434938 -769.85570368011531 0 -769.85570368011531 -212.3034373319575 0 0 0 0 2536.2750723448407 -821.8566179965909 0 -821.8566179965909 98.556314818456457 0 0 0 0 2349.8445872554548 -517.81088001969863 0 -517.81088001969863 326.41762692029192 0 0 0 0 2624.0893390741185 -1320.3781098986283 0 -1320.3781098986283 2049.6410108637283 0 0 0 0 -418.94525204035017 141.98604141275769 0 141.98604141275769 489.8956404238038 0 0 0 0 4261.4086474796095 -432.60479911572543 0 -432.60479911572543 -284.10960463382139 0 0 0 0 3.4776079139030216 -4.2960397012372908 0 -4.2960397012372908 -4.6787415807644885 0 0 0 0 327.7413109063491 -570.6530763716039 0 -570.6530763716039 171.02691596326349 0 0 0 0 1174.0455655027508 169.26465920813322 0 169.26465920813322 -780.41859695413859 0 0 0 0 1926.8199530326456 -830.32046593829659 0 -830.32046593829659 212.84874197730204 0 0 0 0 2046.8162664292954 159.27980617289322 0 159.27980617289322 115.872271707702 0 0 0 0 1604.6811256543078 -241.39993824235921 0 -241.39993824235921 -749.76520406055272 0 0 0 0 1318.5241578257701 -186.3026457289406 0 -186.3026457289406 51.795171781539864 0 0 0 0 2892.4700514202668 -286.49367234627408 0 -286.49367234627408 13.254731261392163 0 0 0 0 2257.3606988464271 -20.354314369285685 0 -20.354314369285685 99.966009323369846 0 0 0 0 2317.9985675930293 -155.82829857751676 0 -155.82829857751676 -95.872802204472464 0 0 0 0 2303.6376127072654 -69.269915834847779 0 -69.269915834847779 -362.43554294939167 0 0 0 0 2028.3687394455192 -190.08294414981356 0 -190.08294414981356 -165.12104173404077 0 0 0 0 2011.0279428403155 -126.15611317967341 0 -126.15611317967341 -368.29176484105028 0 0 0 0 11.497040770546334 14.548654411402964 0 14.548654411402964 0.30736456401191958 0 0 0 0 1873.7784467036399 -534.42737971552924 0 -534.42737971552924 17.743412465104484 0 0 0 0 401.56086296997819 -253.87888328566805 0 -253.87888328566805 268.9150136447206 0 0 0 0 1557.6025098117607 -93.959868365820512 0 -93.959868365820512 -1.4015315858414397 0 0 0 0 850.6731279205851 -292.40652592570586 0 -292.40652592570586 -116.72825198970531 0 0 0 0 3453.8486055601825 -831.44642438132723 0 -831.44642438132723 -40.212787618580478 0 0 0 0 2924.1273098886304 615.71639785895059 0 615.71639785895059 233.02398483346769 0 0 0 0 2498.6625804406358 -77.317704439567024 0 -77.317704439567024 -234.8379438336342 0 0 0 0 2316.014534546277 152.92883609743421 0 152.92883609743421 35.425621090871573 0 0 0 0 2241.6941967502789 68.335653879485108 0 68.335653879485108 -58.186840330112318 0 0 0 0 2534.3078751537396 244.93671775748953 0 244.93671775748953 31.780046059606207 0 0 0 0 1845.799706467842 -94.461231728875646 0 -94.461231728875646 486.32307297622356 0 0 0 0 1682.806094868225 114.69524328217813 0 114.69524328217813 417.70117415613458 0 0 0 0 2023.2117899072327 146.11097668862203 0 146.11097668862203 379.09546794018752 0 0 0 0 1604.4368500205965 -40.256166947474412 0 -40.256166947474412 488.86975499309119 0 0 0 0 1983.0558079439361 -172.03666283243183 0 -172.03666283243183 659.46558276091309 0 0 0 0 2176.9606476621411 -594.94461330262129 0 -594.94461330262129 298.73155772895552 0 0 0 0 1535.9341101389946 -515.74393088437591 0 -515.74393088437591 527.12443532432007 0 0 0 0 2248.0796509644861 -238.8518458077142 0 -238.8518458077142 110.77509864163949 0 0 0 0 1921.915966270717 -336.42351013055759 0 -336.42351013055759 249.15601030948528 0 0 0 0 2214.4453185531929 -538.63294677636395 0 -538.63294677636395 -221.92423654884988 0 0 0 0 2879.0687129802936 -629.59959734862878 0 -629.59959734862878 -212.2144760692172 0 0 0 0 1239.6115091028187 -812.44784525881914 0 -812.44784525881914 253.11320050303584 0 0 0 0 2318.5032853286757 -1216.7699289935354 0 -1216.7699289935354 120.61860494542634 0 0 0 0 703.81577692560006 -1252.5016468958218 0 -1252.5016468958218 167.19052017035574 0 0 0 0 5068.8183329636086 -11.872466989051645 0 -11.872466989051645 -521.96655839047526 0 0 0 0 2934.031241042685 -1876.0167577731372 0 -1876.0167577731372 -141.64665220556253 0 0 0 0 3000.1834347550976 -42.786091960091653 0 -42.786091960091653 -467.83287382321578 0 0 0 0 2012.8140794298088 -45.786671307530924 0 -45.786671307530924 -336.99566922009944 0 0 0 0 2709.0811476551971 -379.57215829718734 0 -379.57215829718734 -579.16361538913316 0 0 0 0 714.87181900013456 556.43701595107632 0 556.43701595107632 -61.418001491991163 0 0 0 0 957.98711176207871 59.664474927823903 0 59.664474927823903 97.457317228057946 0 0 0 0 1991.5500169741572 -248.76530693961831 0 -248.76530693961831 -337.89145008769265 0 0 0 0 1272.0968687084551 -152.10385223507365 0 -152.10385223507365 -297.80793634808651 0 0 0 0 1197.1378330222942 143.9666282204962 0 143.9666282204962 502.62694059577734 0 0 0 0 2216.786720248223 657.19470306152107 0 657.19470306152107 -43.379166221464402 0 0 0 0 1330.0153429422062 -354.50288631900639 0 -354.50288631900639 -436.50325058359886 0 0 0 0 -1.4235589523183876 -0.42538337470976728 0 -0.42538337470976728 7.3312624893625298 0 0 0 0 660.09076664561871 -254.36723108387378 0 -254.36723108387378 149.76635521699791 0 0 0 0 438.81735847602249 376.1109873057685 0 376.1109873057685 -407.7267154702713 0 0 0 0 -811.52266660112946 -79.023250785385244 0 -79.023250785385244 255.95897950187646 0 0 0 0 609.56822402491525 -187.88952535751378 0 -187.88952535751378 27.821746245010218 0 0 0 0 15.192595679858641 236.97673946529903 0 236.97673946529903 359.66857322910619 0 0 0 0 8.0467761300093485 15.706839183546535 0 15.706839183546535 4.3628043889187182 0 0 0 0 357.24787741835462 -294.30390344723673 0 -294.30390344723673 295.96824699100398 0 0 0 0 6.8914737905973524 0.76473169064962576 0 0.76473169064962576 2.6603174770083058 0 0 0 0 1248.6489595264575 259.47004934138386 0 259.47004934138386 -12.103343852426406 0 0 0 0 4.5874960767081916 -5.4954898548265021 0 -5.4954898548265021 1.2118661375045754 0 0 0 0 39.852070476612354 -59.045137418113356 0 -59.045137418113356 7.2851768148801241 0 0 0 0 547.80370005447185 150.51968877332547 0 150.51968877332547 248.27421260860865 0 0 0 0 -124.48032019388575 -253.30013759188796 0 -253.30013759188796 145.12656475399126 0 0 0 0 1329.0848267785768 -220.32646545499938 0 -220.32646545499938 -374.04639745660279 0 0 0 0 -577.62558128942328 -301.98033636606215 0 -301.98033636606215 153.00784390698027 0 0 0 0 -11.550611179845873 -379.56369186666961 0 -379.56369186666961 -102.39679257771945 0 0 0 0 -140.718310483604 -23.742003783257815 0 -23.742003783257815 82.021283478294208 0 0 0 0 372.56534876665683 137.02123671230311 0 137.02123671230311 81.796935847072746 0 0 0 0 12.788066174554402 -25.628839499308356 0 -25.628839499308356 40.69046264946472 0 0 0 0 288.84034135221737 -220.12948304029851 0 -220.12948304029851 92.204012177515324 0 0 0 0 315.82185980322538 4.5693248289753683 0 4.5693248289753683 36.629963153449353 0 0 0 0 134.62978328802637 39.520286559930241 0 39.520286559930241 30.378907561364031 0 0 0 0 110.58546545048011 -186.92898906689879 0 -186.92898906689879 86.382772738314088 0 0 0 0 63.071545462211361 127.16921967928101 0 127.16921967928101 -81.599595335843333 0 0 0 0 291.64244179226807 53.078213130282165 0 53.078213130282165 -119.6756083666869 0 0 0 0 134.43017403802514 -10.581239417459983 0 -10.581239417459983 -8.3715461929350568 0 0 0 0 306.14935324357066 159.00001107652497 0 159.00001107652497 106.24177987015719 0 0 0 0 -772.89279192750291 -394.52401445529904 0 -394.52401445529904 731.49769190925872 0 0 0 0 -24.918460446344397 77.768186131017501 0 77.768186131017501 -869.28243408701746 0 0 0 0 391.4246952271078 461.64655024702211 0 461.64655024702211 729.14964219694957 0 0 0 0 1134.2424621504906 224.31657132148121 0 224.31657132148121 -243.80561252071493 0 0 0 0 703.402706398796 -155.96775920808614 0 -155.96775920808614 -36.896762710479379 0 0 0 0 272.85716555839463 -339.4916367941878 0 -339.4916367941878 207.63419363401044 0 0 0 0 37.081917414398049 -300.6963265192685 0 -300.6963265192685 2.0685255968855927 0 0 0 0 30.790073660609778 -264.54359559903241 0 -264.54359559903241 194.642283139965 0 0 0 0 191.83136019486119 -218.49840452486751 0 -218.49840452486751 91.231356536005478 0 0 0 0 75.537251780420775 -206.39933392165767 0 -206.39933392165767 191.11939144248026 0 0 0 0 64.845359085942619 -30.793874257382413 0 -30.793874257382413 172.56711598336733 0 0 0 0 46.164172774995677 -102.12470786289305 0 -102.12470786289305 -177.2202932272703 0 0 0 0 7.615259284416851 -2.4546236247988276 0 -2.4546236247988276 -0.99149641515028009 0 0 0 0 4.145332748274086 74.445212456070294 0 74.445212456070294 -9.2479893620711664 0 0 0 0 -9.5965218373748939 119.28443199832873 0 119.28443199832873 -128.46430688807277 0 0 0 0 -163.71515406040271 -53.929424851145995 0 -53.929424851145995 24.528324140323093 0 0 0 0 222.09823405841598 -242.42432566099524 0 -242.42432566099524 52.119238045132079 0 0 0 0 0.53377764122956251 -12.916484979256808 0 -12.916484979256808 6.6948537233399392 0 0 0 0 167.90690534707392 -143.39528186577627 0 -143.39528186577627 248.24887959533953 0 0 0 0 8.7070349042780464 -17.281351617402805 0 -17.281351617402805 28.571173011062037 0 0 0 0 669.09935760295775 210.78181948082056 0 210.78181948082056 -57.569836483851759 0 0 0 0 -493.24573385408803 -294.48122967263589 0 -294.48122967263589 189.32186258950969 0 0 0 0 -187.98387789396656 -280.1523968036563 0 -280.1523968036563 -76.018802106063958 0 0 0 0 -90.010856672786758 178.31497008511178 0 178.31497008511178 -6.7684484326960046 0 0 0 0 250.49440135764598 165.70689940886223 0 165.70689940886223 442.23648845406933 0 0 0 0 731.29019396088552 363.25963868400504 0 363.25963868400504 123.23325613072666 0 0 0 0 364.99033132032491 -98.877391254536633 0 -98.877391254536633 25.773442692894605 0 0 0 0 747.14257068149163 -68.074780416325666 0 -68.074780416325666 -256.92554068405479 0 0 0 0 539.69165603748843 -337.90614429702327 0 -337.90614429702327 3.4961587598663755 0 0 0 0 1.0910773574957346 0.8647099481815701 0 0.8647099481815701 0.37972730886325223 0 0 0 0 65.9954865460777 -348.22934103832972 0 -348.22934103832972 -28.517769015335944 0 0 0 0 -85.742358421266545 66.244454051862704 0 66.244454051862704 182.23551080378456 0 0 0 0 310.42752697889227 -16.974704923610261 0 -16.974704923610261 82.117010882211616 0 0 0 0 -112.55283680758293 90.892992238485022 0 90.892992238485022 446.99640851059303 0 0 0 0 382.22245668451069 36.627847727908375 0 36.627847727908375 3.6317889941583417 0 0 0 0 319.81866590504978 -274.57959700418905 0 -274.57959700418905 42.352708125334175 0 0 0 0 3.6657267401482159 2.2254354769695226 0 2.2254354769695226 -0.48552868500209456 0 0 0 0 387.41618444993946 -141.27572709705964 0 -141.27572709705964 -14.85923703192384 0 0 0 0 -443.0262547780585 -84.5728693137753 0 -84.5728693137753 300.22010813887209 0 0 0 0 -6.3367422540617895 2.0163633973266641 0 2.0163633973266641 3.0998830845382201 0 0 0 0 -615.24745560981501 -714.06778149917318 0 -714.06778149917318 220.21176653973089 0 0 0 0 178.89425733509415 334.28547449465259 0 334.28547449465259 257.463955447849 0 0 0 0 -114.43620269573148 -647.11622770618123 0 -647.11622770618123 -58.798597345899907 0 0 0 0 -146.72136214176135 129.80569126907903 0 129.80569126907903 62.505509077418083 0 0 0 0 455.17053654919619 -330.3279741544161 0 -330.3279741544161 493.34904641569301 0 0 0 0 833.01487486288897 553.09819199942194 0 553.09819199942194 944.34131865343807 0 0 0 0 3.2878238718570856 -5.3332208482735126 0 -5.3332208482735126 9.5831670573544159 0 0 0 0 1325.9061570382473 211.10037874629415 0 211.10037874629415 -317.87040115732452 0 0 0 0 -364.04835943166745 236.11951689986154 0 236.11951689986154 877.30849767181644 0 0 0 0 900.26034716157301 -775.67796623195318 0 -775.67796623195318 -189.98015532366844 0 0 0 0 -191.51490240066778 -64.079489266061955 0 -64.079489266061955 51.190120124359964 0 0 0 0 507.97443385585211 -146.77059111163908 0 -146.77059111163908 11.515417605689436 0 0 0 0 125.08225273255084 -89.581065813348687 0 -89.581065813348687 200.68321710689634 0 0 0 0 -397.64176807658441 -55.135529113407756 0 -55.135529113407756 290.81542845268632 0 0 0 0 -26.234400649431336 89.223371423429853 0 89.223371423429853 198.94036061052611 0 0 0 0 243.62314101436641 9.1617162878283125 0 9.1617162878283125 127.87521172849119 0 0 0 0 202.0560552807292 3.2377922400410171 0 3.2377922400410171 134.39207401354361 0 0 0 0 682.93001775312587 -121.04085375590148 0 -121.04085375590148 118.35305717512892 0 0 0 0 260.99898398449295 -40.959705035202205 0 -40.959705035202205 109.49678239782952 0 0 0 0 271.62644489621744 42.371736852735921 0 42.371736852735921 23.840103385933617 0 0 0 0 480.11092954259948 -33.489977387296676 0 -33.489977387296676 48.993603537448507 0 0 0 0 261.84596853278344 48.823053703043115 0 48.823053703043115 24.591524217474216 0 0 0 0 377.57046869376791 291.43118070205674 0 291.43118070205674 110.01019458256997 0 0 0 0 83.980186794098699 180.4421016489141 0 180.4421016489141 71.18294460980178 0 0 0 0 -51.336295101044016 205.64353576876647 0 205.64353576876647 215.15028784442984 0 0 0 0 653.74348510886193 614.93331585060878 0 614.93331585060878 452.53296161631079 0 0 0 0 185.54645355572575 82.758540191214706 0 82.758540191214706 -25.175474149138608 0 0 0 0 98.524181540095014 65.675962316458026 0 65.675962316458026 2.9496797026295098 0 0 0 0 243.85569869258325 123.59071404964925 0 123.59071404964925 -29.73871002076703 0 0 0 0 233.07472430125927 108.79287781914172 0 108.79287781914172 -23.606924398467527 0 0 0 0 145.45004613090714 115.43480587330487 0 115.43480587330487 3.5733738494454883 0 0 0 0 102.47645484819077 187.40989568462828 0 187.40989568462828 18.014382348250365 0 0 0 0 298.65033779537771 204.60040388614289 0 204.60040388614289 -6.3656786867213668 0 0 0 0 224.56207084590278 96.046315760435391 0 96.046315760435391 -14.502555992301495 0 0 0 0 341.30685030108725 54.612593196171474 0 54.612593196171474 -4.0687198513478506 0 0 0 0 250.6312393869448 100.03899383937824 0 100.03899383937824 -23.82794372382341 0 0 0 0 268.87220081806299 57.464946932842395 0 57.464946932842395 27.748556947830366 0 0 0 0 251.00230731227202 89.623351750102302 0 89.623351750102302 -1.4085183191200485 0 0 0 0 267.62036820687081 108.59138178154603 0 108.59138178154603 0.55840439116582274 0 0 0 0 265.89481529066688 80.72470270213671 0 80.72470270213671 -10.12400606371375 0 0 0 0 267.85554781716201 103.7672270670846 0 103.7672270670846 62.43597274347394 0 0 0 0 242.35612274019513 83.432019183390366 0 83.432019183390366 -5.6640137882641284 0 0 0 0 242.2297618786979 133.53677227720982 0 133.53677227720982 28.053212799717585 0 0 0 0 2.5630090514822683 11.670983890582654 0 11.670983890582654 1.0107215450570877 0 0 0 0 165.65494739278802 96.22863631965447 0 96.22863631965447 64.609615424182266 0 0 0 0 233.13972324036877 42.075740927459265 0 42.075740927459265 84.691813805693528 0 0 0 0 -641.31468759122072 -97.77892018161765 0 -97.77892018161765 145.67484228175817 0 0 0 0 495.78116420283914 7.7535063731047558 0 7.7535063731047558 40.210759697783942 0 0 0 0 9.8076408316028392 0.19092768128396642 0 0.19092768128396642 -6.737322745682782 0 0 0 0 241.86770652895211 98.246221260043967 0 98.246221260043967 -1.5987607846982428 0 0 0 0 -473.98829330065928 120.8892454158613 0 120.8892454158613 -90.314154236037211 0 0 0 0 118.78746203118499 12.10310796946942 0 12.10310796946942 12.922923589841957 0 0 0 0 120.15650568181081 21.780736891548258 0 21.780736891548258 21.426897661629482 0 0 0 0 -255.05352333032351 156.97195734618799 0 156.97195734618799 -87.063389027333869 0 0 0 0 67.506867316408247 39.037850886266902 0 39.037850886266902 -2.5615823896213854 0 0 0 0 306.52919649014075 162.05684426903827 0 162.05684426903827 0.64172352735658933 0 0 0 0 45.752442377894297 -26.574585253384775 0 -26.574585253384775 -10.978279743618749 0 0 0 0 142.736910792868 107.42789167478622 0 107.42789167478622 139.07575546090447 0 0 0 0 289.37806868022926 52.23469084308158 0 52.23469084308158 31.806413236205117 0 0 0 0 136.44027273668326 137.78044492139088 0 137.78044492139088 61.037038417776785 0 0 0 0 125.26081579635502 106.28592521588598 0 106.28592521588598 98.198272760797408 0 0 0 0 107.38574921664258 105.46942160463459 0 105.46942160463459 0.82475306841661222 0 0 0 0 218.61997069281642 118.8678101213045 0 118.8678101213045 -20.466858021900407 0 0 0 0 -127.7163236127235 238.83824963709412 0 238.83824963709412 675.37045245056561 0 0 0 0 287.85285143190049 -288.38696206871737 0 -288.38696206871737 383.2445630307484 0 0 0 0 -630.50508875059313 3.811941194040628 0 3.811941194040628 370.48005356841168 0 0 0 0 -431.04200656528701 218.21255795712932 0 218.21255795712932 280.34600083657733 0 0 0 0 -509.66754465735721 133.44181309745181 0 133.44181309745181 199.60666204941663 0 0 0 0 -151.49739758645592 97.796662225095133 0 97.796662225095133 120.48168798963525 0 0 0 0 -807.93592546368745 691.64761859546707 0 691.64761859546707 48.674403548875034 0 0 0 0 393.32161636326782 20.838957425642093 0 20.838957425642093 -86.29753282438287 0 0 0 0 -511.33976632113627 84.904865632081055 0 84.904865632081055 175.79192055157182 0 0 0 0 122.83126335321867 480.08276233610104 0 480.08276233610104 -387.65864550920287 0 0 0 0 -650.93483919790015 332.39867662088363 0 332.39867662088363 63.307744188890865 0 0 0 0 -228.96616239672221 466.29339218323071 0 466.29339218323071 -236.32291209114919 0 0 0 0 1151.9544815321497 264.80121947036241 0 264.80121947036241 54.310452366482423 0 0 0 0 657.80942151820636 565.61744962625562 0 565.61744962625562 -163.19042270359569 0 0 0 0 -24.082777941075619 228.36270045465494 0 228.36270045465494 216.48910519538549 0 0 0 0 2682.530496775049 -291.89495247189916 0 -291.89495247189916 -171.33977394290105 0 0 0 0 2264.5463618251852 -463.35400183215052 0 -463.35400183215052 592.65807776858492 0 0 0 0 2698.25303993532 -1072.2488602291423 0 -1072.2488602291423 32.566790404098356 0 0 0 0 2790.9702688587422 -1469.0464657212033 0 -1469.0464657212033 1341.3401072302931 0 0 0 0 3541.260585525597 -56.005888715635592 0 -56.005888715635592 102.20784810846635 0 0 0 0 1005.2690255990346 -1.5259085995348869 0 -1.5259085995348869 406.17478024987577 0 0 0 0 2379.1888062972721 697.2024209690353 0 697.2024209690353 554.84569252276196 0 0 0 0 4.0767628109186376 1.5375348767186665 0 1.5375348767186665 -1.4812972634031354 0 0 0 0 20.41045937162977 12.490727077849343 0 12.490727077849343 0.64901391162119637 0 0 0 0 -723.92044629099837 682.11308751203842 0 682.11308751203842 369.7831334323273 0 0 0 0 6469.8633377079532 -1805.4219203409721 0 -1805.4219203409721 52.571562487457413 0 0 0 0 -194.30609405555879 2295.2693468384787 0 2295.2693468384787 12.576363488318748 0 0 0 0 6914.9715472512762 -2039.3007499969099 0 -2039.3007499969099 -1131.0908518467331 0 0 0 0 1411.1234027663231 601.97381704385589 0 601.97381704385589 339.81413799960137 0 0 0 0 5299.6300388640229 1629.4022627490922 0 1629.4022627490922 -585.12613014390809 0 0 0 0 2862.2982765192573 2373.0846397013083 0 2373.0846397013083 -153.43172984633566 0 0 0 0 2412.8568506555894 1193.0538242677721 0 1193.0538242677721 645.39711371096382 0 0 0 0 1273.6829781755223 733.57819848973304 0 733.57819848973304 491.28508815432724 0 0 0 0 1958.368993426935 553.18142552860627 0 553.18142552860627 611.18924641186095 0 0 0 0 1791.8574652808747 383.03971726125201 0 383.03971726125201 490.08190317770641 0 0 0 0 3202.6306204268913 347.57264894441141 0 347.57264894441141 270.2173672948993 0 0 0 0 9.2987552676205496 6.7081485882476954 0 6.7081485882476954 -1.477921827150908 0 0 0 0 945.54136729180027 -251.40728359061268 0 -251.40728359061268 53.953808861053403 0 0 0 0 7620.8928636987985 2047.7802568279294 0 2047.7802568279294 1765.4712190454011 0 0 0 0 6139.9029625553885 -555.56596702657407 0 -555.56596702657407 -727.19672405457095 0 0 0 0 1860.6630057338116 -441.77946799015081 0 -441.77946799015081 382.68002167128725 0 0 0 0 1748.0040090762632 -231.97628973860265 0 -231.97628973860265 226.46822524451454 0 0 0 0 1709.6789973971463 65.496997329599253 0 65.496997329599253 507.48245643705013 0 0 0 0 1008.3380306341714 473.78849291405641 0 473.78849291405641 649.9842683114839 0 0 0 0 1110.8116045545321 -216.99598716124819 0 -216.99598716124819 400.5825073477281 0 0 0 0 1123.704160093359 39.065380312844354 0 39.065380312844354 49.425654780752666 0 0 0 0 224.16342796189565 -569.80879772532626 0 -569.80879772532626 -210.04745974562684 0 0 0 0 1206.3780578030201 -636.45483179730218 0 -636.45483179730218 -45.456912332825596 0 0 0 0 573.50497642454866 -307.95443345089461 0 -307.95443345089461 104.55916769462056 0 0 0 0 1621.4637793113816 -402.38603440417819 0 -402.38603440417819 -451.08484896275331 0 0 0 0 381.95626624033321 380.90571598250517 0 380.90571598250517 -750.13375676695432 0 0 0 0 46.756177850645948 34.867933812945438 0 34.867933812945438 5.9117729514919191 0 0 0 0 1296.0551410331609 -385.10111081521518 0 -385.10111081521518 -130.03602298923852 0 0 0 0 637.09042588391458 36.695922118844464 0 36.695922118844464 83.2435765541195 0 0 0 0 59.284113752001396 50.735019474472402 0 50.735019474472402 19.512007189295247 0 0 0 0 1732.540126758031 -161.68528846503068 0 -161.68528846503068 -1315.5071312972516 0 0 0 0 2777.7334182852974 -1266.3184612649516 0 -1266.3184612649516 -1141.1391520303187 0 0 0 0 4229.2435767315219 -2450.6836428930442 0 -2450.6836428930442 -212.04877488335387 0 0 0 0 1219.4929070727867 4355.6401813894263 0 4355.6401813894263 -598.33448033959394 0 0 0 0 824.97508433706116 -2055.6522727777947 0 -2055.6522727777947 3365.8449241784438 0 0 0 0 267.40426800892601 -381.38614989014275 0 -381.38614989014275 428.23731020918422 0 0 0 0 43.499835179915422 -18.352044752135548 0 -18.352044752135548 9.2364589963090413 0 0 0 0 7069.797633871337 1513.6628366159052 0 1513.6628366159052 -734.45134041085794 0 0 0 0 7463.0027931778814 -944.66726628260358 0 -944.66726628260358 -446.57418592979366 0 0 0 0 -2186.5467298741787 -1416.889889745034 0 -1416.889889745034 2951.421083545401 0 0 0 0 117.00775515899295 -48.000624050637271 0 -48.000624050637271 -11.807336783503615 0 0 0 0 121.95605855077883 -58.274342162656012 0 -58.274342162656012 -0.20041336578924529 0 0 0 0 69.221061783637992 -5.7337175548209842 0 -5.7337175548209842 -37.925304692925771 0 0 0 0 99.681382696682704 -33.419487085826859 0 -33.419487085826859 -3.2922458182174523 0 0 0 0 103.40517081809048 -47.803926098341009 0 -47.803926098341009 21.69557612286826 0 0 0 0 284.22582978768969 20.267365804812698 0 20.267365804812698 50.058095708136534 0 0 0 0 403.09371788078715 -417.07085352110607 0 -417.07085352110607 208.90515471207345 0 0 0 0 116.81536936023805 -50.17318210489438 0 -50.17318210489438 8.137370092141996 0 0 0 0 1387.0232522785591 -1597.305179585863 0 -1597.305179585863 1031.9621613491429 0 0 0 0 50.311172171589504 18.105178715061655 0 18.105178715061655 -36.741801634270665 0 0 0 0 538.74417882362468 -562.60942002511524 0 -562.60942002511524 241.556006746425 0 0 0 0 168.70052995085098 92.814679451126423 0 92.814679451126423 -239.7160831097583 0 0 0 0 973.66148816272516 -183.88876235981905 0 -183.88876235981905 -295.68847828855326 0 0 0 0 927.27042587453616 -612.98323833119093 0 -612.98323833119093 -198.55334455792581 0 0 0 0 893.12164564989871 -585.76995433493744 0 -585.76995433493744 -215.42091513696414 0 0 0 0 1977.8704641164113 -758.6617267664858 0 -758.6617267664858 44.805520462994771 0 0 0 0 2142.6069522655325 -577.94515833060223 0 -577.94515833060223 -492.31791163671824 0 0 0 0 1252.4078303703573 -103.49554972615169 0 -103.49554972615169 4.8075996495879281 0 0 0 0 1164.5778497347492 -264.6530307652074 0 -264.6530307652074 -290.64764032911989 0 0 0 0 -113.62795987743448 28.727194597902326 0 28.727194597902326 -246.10779388925584 0 0 0 0 24.849124959405444 -1.0139059277573779 0 -1.0139059277573779 -6.8398399393976277 0 0 0 0 97.625407399296819 17.009139295571003 0 17.009139295571003 15.641081386735095 0 0 0 0 60.39435693576165 37.470596128840164 0 37.470596128840164 -3.8112522506337925 0 0 0 0 28.370188654337674 5.6604603723109079 0 5.6604603723109079 4.3841130129915413 0 0 0 0 100.75411380243349 7.343025309336781 0 7.343025309336781 2.5326691112768458 0 0 0 0 104.17366170819514 0.10160177020816263 0 0.10160177020816263 17.298711673251091 0 0 0 0 184.05473842718493 -48.424526542434251 0 -48.424526542434251 6.4481081365684076 0 0 0 0 106.39168159652036 500.01532032776674 0 500.01532032776674 -360.926207514152 0 0 0 0 53.321628267829851 23.467592573126069 0 23.467592573126069 -27.829609247784681 0 0 0 0 179.17114598178887 55.142278858119539 0 55.142278858119539 -112.85191382784149 0 0 0 0 109.57875067863097 20.428800793654545 0 20.428800793654545 41.670757156756736 0 0 0 0 52.836752018227585 -12.607833963142347 0 -12.607833963142347 -1.037606836771829 0 0 0 0 177.21210297262587 136.99975683259981 0 136.99975683259981 87.350888754299376 0 0 0 0 83.430824777431553 9.0775922511893441 0 9.0775922511893441 47.454817002799246 0 0 0 0 239.41264210778172 -3.7482672513688158 0 -3.7482672513688158 -22.788098947843537 0 0 0 0 31.382156868456427 16.884241046606711 0 16.884241046606711 35.802512821117176 0 0 0 0 109.12360786694262 17.25448652840646 0 17.25448652840646 19.592872706147318 0 0 0 0 107.25428537233529 0.8909565060857858 0 0.8909565060857858 28.399128124247341 0 0 0 0 106.64606833810831 13.40652792176752 0 13.40652792176752 29.710731707304149 0 0 0 0 102.83908697326842 8.0399981657628814 0 8.0399981657628814 22.854969002550206 0 0 0 0 112.46636279413724 -6.9232281400554712 0 -6.9232281400554712 23.167262420451607 0 0 0 0 102.68355952583443 2.0397046247589969 0 2.0397046247589969 31.513525287025914 0 0 0 0 -49.583122229414585 -16.606781065323503 0 -16.606781065323503 -28.642883994049043 0 0 0 0 1653.1175523000711 -651.94385408548987 0 -651.94385408548987 -33.378910167612048 0 0 0 0 49.380503128897544 317.39085675523029 0 317.39085675523029 -159.30554072108862 0 0 0 0 19.64424056856965 22.047523091765242 0 22.047523091765242 36.383062002200148 0 0 0 0 115.99819357919841 -15.558142662013779 0 -15.558142662013779 38.254988502625793 0 0 0 0 15.155040058902451 5.13582613101606 0 5.13582613101606 0.30764447515515769 0 0 0 0 103.12990935743437 2.4878631526462414 0 2.4878631526462414 47.38134403562799 0 0 0 0 2214.9247631279759 -103.38193362316997 0 -103.38193362316997 -1057.8955716120813 0 0 0 0 1617.739780449192 -742.41603832655346 0 -742.41603832655346 -250.92621443886674 0 0 0 0 99.595439463664661 -24.547335099805423 0 -24.547335099805423 48.5442088056584 0 0 0 0 95.956807884511363 -44.263125311882504 0 -44.263125311882504 45.687812004238367 0 0 0 0 95.639462254541286 -42.425703085592772 0 -42.425703085592772 39.000945368042494 0 0 0 0 9.4965923458747099 13.760386138463161 0 13.760386138463161 11.142806498648191 0 0 0 0 113.8949384985317 -31.672433764174087 0 -31.672433764174087 22.915757815401037 0 0 0 0 3.7020435284742348 5.4190580970900442 0 5.4190580970900442 20.264023001981403 0 0 0 0 1652.9212734592984 648.01812826973583 0 648.01812826973583 127.20432281169815 0 0 0 0 3413.5405869374335 -2341.6012935573203 0 -2341.6012935573203 1410.7499605764442 0 0 0 0 34.702139163291577 55.618711231312204 0 55.618711231312204 -20.251100539413983 0 0 0 0 3.7535195243489738 7.9744720551662809 0 7.9744720551662809 -5.2531557318656787 0 0 0 0 145.84193605926703 -34.504094528121868 0 -34.504094528121868 1.3551291997930548 0 0 0 0 143.07128343581644 -69.407594053176069 0 -69.407594053176069 33.360692993866564 0 0 0 0 102.37259957411243 -29.752432472768987 0 -29.752432472768987 13.966270073873602 0 0 0 0 113.46899533752003 -30.698159469250186 0 -30.698159469250186 -12.721848487218267 0 0 0 0 119.00539322326586 -102.40459941374456 0 -102.40459941374456 75.712449870348792 0 0 0 0 86.785538677060686 -59.856535653259471 0 -59.856535653259471 19.912752188669458 0 0 0 0 66.842834043614857 -19.173813921372471 0 -19.173813921372471 26.611526366576413 0 0 0 0 64.370852702289994 -55.321896836199016 0 -55.321896836199016 72.81485342686139 0 0 0 0 27.505354471685109 -6.0535730333679894 0 -6.0535730333679894 -10.925375360730158 0 0 0 0 182.88356182449934 -208.04555218741331 0 -208.04555218741331 106.49032172441275 0 0 0 0 33.487179137628118 -12.110485259472114 0 -12.110485259472114 16.347256868647378 0 0 0 0 324.037905272231 35.665461490651523 0 35.665461490651523 -120.63105130999247 0 0 0 0 173.58176111939974 -40.942861924740555 0 -40.942861924740555 9.7199828622176483 0 0 0 0 57.585091203307456 -33.430839929600097 0 -33.430839929600097 20.711972108681266 0 0 0 0 60.882433764640687 -29.877376787740658 0 -29.877376787740658 11.960775502469842 0 0 0 0 11.075983176501094 0.45265880666148206 0 0.45265880666148206 1.7111870442918735 0 0 0 0 60.478961398039246 1.797641781806874 0 1.797641781806874 -17.698373209061174 0 0 0 0 183.80946917678759 -31.672572120795781 0 -31.672572120795781 -33.959846721115582 0 0 0 0 40.239632840915874 -32.077147913242243 0 -32.077147913242243 50.482987573956734 0 0 0 0 35.245662845787592 -11.305999604812314 0 -11.305999604812314 1.4476761431910745 0 0 0 0 36.608470713810391 -23.812629282752454 0 -23.812629282752454 9.7635057403816745 0 0 0 0 37.499826449094222 -16.401100901767773 0 -16.401100901767773 7.1382336418740699 0 0 0 0 36.673704133361824 -11.840205463907047 0 -11.840205463907047 1.2709938638490748 0 0 0 0 58.246364795610134 -17.218459690653617 0 -17.218459690653617 6.1779787680643494 0 0 0 0 65.325651427949197 -17.093193886239533 0 -17.093193886239533 1.9544649292201939 0 0 0 0 35.712985595794883 2.9323585052569001 0 2.9323585052569001 -8.6224524896101258 0 0 0 0 81.10421408268121 -31.711054551796678 0 -31.711054551796678 14.007355821413512 0 0 0 0 79.50813389394898 -35.027582666674789 0 -35.027582666674789 14.494733951140006 0 0 0 0 86.687768738858722 -37.807026000813494 0 -37.807026000813494 13.80894724524353 0 0 0 0 67.663665003228743 -38.031250669220753 0 -38.031250669220753 19.028204837521116 0 0 0 0 64.817910008299805 -34.397809872067228 0 -34.397809872067228 15.879119633887967 0 0 0 0 52.163535861676337 -38.474910290184425 0 -38.474910290184425 14.084047825819653 0 0 0 0 55.045765004104396 -32.35778446765471 0 -32.35778446765471 19.098022738542568 0 0 0 0 3953.2477107501381 464.04437586719365 0 464.04437586719365 -482.73604832644401 0 0 0 0 1309.3682762305216 -1251.0513434981706 0 -1251.0513434981706 394.73635098563409 0 0 0 0 9.2017177513046349 -7.4043344777701563 0 -7.4043344777701563 9.6100946141845718 0 0 0 0 2.562607125410068 291.70046107329949 0 291.70046107329949 545.9709204899923 0 0 0 0 68.341332957250415 -20.34305617388145 0 -20.34305617388145 25.812025298899812 0 0 0 0 97.950691867590649 -33.892147339108249 0 -33.892147339108249 17.243810782264518 0 0 0 0 92.302118771069217 -34.459746815987316 0 -34.459746815987316 29.710935099994117 0 0 0 0 19.753509285689297 6.3073493362271051 0 6.3073493362271051 -0.55138872899662017 0 0 0 0 46.439087570531768 -7.1464830779439836 0 -7.1464830779439836 -5.1917821810664133 0 0 0 0 63.123613908269199 -22.55867263650627 0 -22.55867263650627 3.0742201266116087 0 0 0 0 300.2249892406453 -112.56239932602421 0 -112.56239932602421 -258.15060294113391 0 0 0 0 778.07425812265865 -432.15364123746212 0 -432.15364123746212 -401.35709905822023 0 0 0 0 826.23862859667372 689.54989210814438 0 689.54989210814438 260.43574393638028 0 0 0 0 4175.1432896705373 1592.1250416866001 0 1592.1250416866001 92.729535764391585 0 0 0 0 2924.547914076129 -1570.8522272012679 0 -1570.8522272012679 149.40839514708659 0 0 0 0 317.81585721028023 -1145.3613056570512 0 -1145.3613056570512 1461.1878635026478 0 0 0 0 25.162480668059537 -7.7782698382844826 0 -7.7782698382844826 3.0036645381687279 0 0 0 0 181.27829015238876 -86.215027591802937 0 -86.215027591802937 752.5759013396937 0 0 0 0 571.5050412966184 60.736127107298785 0 60.736127107298785 -154.81754251397433 0 0 0 0 8.2914077453219779 -2.3249334962914463 0 -2.3249334962914463 4.3370702613949241 0 0 0 0 191.35026784260344 -169.63256997097847 0 -169.63256997097847 55.909834220799894 0 0 0 0 -10.089949696386611 178.71249596530743 0 178.71249596530743 56.770572748160703 0 0 0 0 1728.7691038385437 -488.3083841932239 0 -488.3083841932239 -101.29577031439521 0 0 0 0 1328.042637871351 -245.00646409187948 0 -245.00646409187948 -166.3598796445458 0 0 0 0 46.890255033803896 -30.235924857895611 0 -30.235924857895611 16.158655023000392 0 0 0 0 64.813705752761962 -34.33023631316064 0 -34.33023631316064 14.898987804912394 0 0 0 0 76.035387510326473 -28.69941487802771 0 -28.69941487802771 8.8485162917640992 0 0 0 0 75.575543320612269 -30.031472017618398 0 -30.031472017618398 7.9922952712859114 0 0 0 0 78.029726550911619 -22.946016556985796 0 -22.946016556985796 5.3126316132138527 0 0 0 0 11.453834589116257 -2.5103987259334062 0 -2.5103987259334062 -0.16600682717361082 0 0 0 0 66.788583357350944 -16.155168787418006 0 -16.155168787418006 1.6802463656094915 0 0 0 0 30.823683867893557 -16.497185684473365 0 -16.497185684473365 2.5890021480962879 0 0 0 0 41.601130564281902 8.0298424328259443 0 8.0298424328259443 -69.502315534590707 0 0 0 0 9.4114851055591746 5.393101362770631 0 5.393101362770631 -1.1884289705286477 0 0 0 0 102.80044326710868 -24.326682073229676 0 -24.326682073229676 -98.139258647651786 0 0 0 0 71.873868956504339 -23.259439531301268 0 -23.259439531301268 11.252031916918895 0 0 0 0 47.213043344410835 -14.6399750327314 0 -14.6399750327314 17.590942478062061 0 0 0 0 912.34553929586491 -164.50997642869334 0 -164.50997642869334 -344.17610677369339 0 0 0 0 -7.7878952806877351 -146.40824827550296 0 -146.40824827550296 26.65428001177861 0 0 0 0 30.60048104120915 -36.36430354925119 0 -36.36430354925119 23.201612948534603 0 0 0 0 18.227625982270254 -28.262824096427668 0 -28.262824096427668 18.836136349916607 0 0 0 0 47.964339036408774 -34.871557861750716 0 -34.871557861750716 18.858819373705046 0 0 0 0 -74.384113736443396 -79.650612819197704 0 -79.650612819197704 -17.18544981184823 0 0 0 0 -329.03104255468406 -220.1750464197612 0 -220.1750464197612 -180.77573345248675 0 0 0 0 2.5989081390534681 -2.8839356355161732 0 -2.8839356355161732 1.4629961238779217 0 0 0 0 -8.1006226814059534 1.1933421130367883 0 1.1933421130367883 2.4029318137837521 0 0 0 0 1235.2669570882031 67.381045735999578 0 67.381045735999578 -59.455139769252128 0 0 0 0 248.38342652217671 -104.18929035723886 0 -104.18929035723886 61.508636683266104 0 0 0 0 625.5758472004818 173.80136435125314 0 173.80136435125314 -21.609159193494634 0 0 0 0 876.26377845789466 90.119402314649051 0 90.119402314649051 -188.86146639766406 0 0 0 0 951.910635998217 152.72121346365384 0 152.72121346365384 -266.93944366559663 0 0 0 0 909.17130217530939 292.88250712986837 0 292.88250712986837 151.81520720613844 0 0 0 0 986.2465176809178 241.54076463422473 0 241.54076463422473 -193.77948545472827 0 0 0 0 2034.1570181942552 373.34226410809242 0 373.34226410809242 -260.64789212795404 0 0 0 0 2975.2539991097906 223.44726612019895 0 223.44726612019895 -613.69765201585415 0 0 0 0 1976.2165488547189 224.60730910796883 0 224.60730910796883 -369.69806043631161 0 0 0 0 2798.5262089646112 -703.83484976089778 0 -703.83484976089778 -1343.8994409561619 0 0 0 0 2956.1291136288573 -51.425627815446205 0 -51.425627815446205 -634.11159829084136 0 0 0 0 4671.5727094184385 -862.06964776818495 0 -862.06964776818495 -357.83009130008213 0 0 0 0 3772.4416283010951 1022.0929421556993 0 1022.0929421556993 283.12931075705637 0 0 0 0 1976.480817636776 229.49878605207232 0 229.49878605207232 -310.39365803533292 0 0 0 0 3202.7836766283708 371.86243126012596 0 371.86243126012596 -337.14117120124229 0 0 0 0 1497.4971871229955 552.03526049603624 0 552.03526049603624 520.64316813586811 0 0 0 0 2865.0838856143178 397.78192720125708 0 397.78192720125708 23.529583255134639 0 0 0 0 241.58213753272685 612.78390625777047 0 612.78390625777047 368.61893072743806 0 0 0 0 2617.6416400053317 149.52996136793354 0 149.52996136793354 980.67970758844604 0 0 0 0 -3.7181725493552964 -2.281527291462119 0 -2.281527291462119 5.0523683455246662 0 0 0 0 4881.720385621984 -1173.3359112306543 0 -1173.3359112306543 -499.43024671947205 0 0 0 0 5193.3319718800904 -567.57554143020388 0 -567.57554143020388 -442.31280724807766 0 0 0 0 5671.0848955050296 -1035.0210821776486 0 -1035.0210821776486 -669.89414825341419 0 0 0 0 5916.7631929213949 -444.8204513226101 0 -444.8204513226101 -641.23178383158393 0 0 0 0 3666.8065007497771 1403.7392606775813 0 1403.7392606775813 128.59900132739676 0 0 0 0 748.94958458849158 -603.82169904656394 0 -603.82169904656394 1413.4159782290235 0 0 0 0 518.03160962405741 -4.6752974350292789 0 -4.6752974350292789 16.067516553543555 0 0 0 0 131.88049463084917 -6.8500770423761423 0 -6.8500770423761423 -139.77072860174303 0 0 0 0 24.831411230477784 -23.096108147983031 0 -23.096108147983031 3.2683379603241249 0 0 0 0 91.861014526428335 -97.304191954822272 0 -97.304191954822272 1.6329583301258026 0 0 0 0 97.428463728017931 -40.512553951319248 0 -40.512553951319248 5.6546172289883865 0 0 0 0 158.72217466174015 -102.5475527757859 0 -102.5475527757859 -20.747163532065315 0 0 0 0 6.2293677864346897 -32.919874999601099 0 -32.919874999601099 11.66214390944301 0 0 0 0 138.14233424062513 -123.04185652579326 0 -123.04185652579326 15.071699397989505 0 0 0 0 56.117790158222306 -30.999068869919938 0 -30.999068869919938 16.798363723746661 0 0 0 0 38.284518324471719 -35.416289598211733 0 -35.416289598211733 20.250624723124929 0 0 0 0 -12.488648711548338 -24.135398343462946 0 -24.135398343462946 17.713321845969205 0 0 0 0 -25.770541865994346 -42.063535963498907 0 -42.063535963498907 137.85402997283018 0 0 0 0 296.25109245993008 -203.46515948651631 0 -203.46515948651631 -7.4768337501891438 0 0 0 0 761.0470545229 373.04030531759145 0 373.04030531759145 203.60787482966043 0 0 0 0 138.52490874035152 -111.08624037110619 0 -111.08624037110619 327.86525578574219 0 0 0 0 1746.6987639548643 -928.02988768548903 0 -928.02988768548903 105.15021824054855 0 0 0 0 1039.1274793893936 24.91013596746356 0 24.91013596746356 -616.67703887614721 0 0 0 0 20.890861552198899 7.0048182895425484 0 7.0048182895425484 4.9792506511546808 0 0 0 0 132.03505066782236 461.16775341742465 0 461.16775341742465 648.17459718704208 0 0 0 0 3492.9737662364896 -1895.4214335388492 0 -1895.4214335388492 532.80704847737354 0 0 0 0 1724.1839864001922 1836.5851159307858 0 1836.5851159307858 519.25757638213247 0 0 0 0 7.8643776500228455 3.290036020439711 0 3.290036020439711 -2.1108793460862758 0 0 0 0 3439.8856460141692 1456.1710815216602 0 1456.1710815216602 167.74556621236056 0 0 0 0 459.78230094720493 148.55252918460172 0 148.55252918460172 -218.90342867348238 0 0 0 0 -63.054897524196349 187.94662428960001 0 187.94662428960001 483.55576699294181 0 0 0 0 223.36026724594194 335.51513289906097 0 335.51513289906097 361.84556631439443 0 0 0 0 1608.9337178517526 -158.51207456400755 0 -158.51207456400755 -1042.7863081992546 0 0 0 0 6.3789440185246633 1.6838549997157983 0 1.6838549997157983 -1.9263808539657603 0 0 0 0 567.69357382477756 872.81525670248527 0 872.81525670248527 731.73708431301543 0 0 0 0 1340.3185144776799 136.93700215650455 0 136.93700215650455 -652.0843628960497 0 0 0 0 3459.7216744035704 -190.02494083157757 0 -190.02494083157757 -214.80534949203457 0 0 0 0 -1.2299879395286553 -69.118253889951916 0 -69.118253889951916 211.58932725601562 0 0 0 0 4.2230753154251879 -16.617553406562379 0 -16.617553406562379 -17.015795205383526 0 0 0 0 2977.8327034181166 -89.401819327301382 0 -89.401819327301382 -129.3553843165455 0 0 0 0 287.11899377222289 -15.749967753259568 0 -15.749967753259568 -115.29747128889699 0 0 0 0 927.90417818671995 -65.45819626375885 0 -65.45819626375885 -277.85992851658784 0 0 0 0 51.724050161217221 23.566852036668315 0 23.566852036668315 5.0884629951547371 0 0 0 0 125.50222335945728 32.711107676613437 0 32.711107676613437 -129.0797912038629 0 0 0 0 2730.7091036877205 -320.45636205018155 0 -320.45636205018155 -89.336654092314348 0 0 0 0 11.673646213123977 -22.332210732917929 0 -22.332210732917929 -30.253679958234976 0 0 0 0 3473.4997200585058 -724.43525264411073 0 -724.43525264411073 117.89538809474834 0 0 0 0 2429.1837240270761 -213.20819541061769 0 -213.20819541061769 171.92331462797893 0 0 0 0 4.3118687146351933 -3.1079360868072783 0 -3.1079360868072783 -10.870749996711343 0 0 0 0 1218.8091677602133 -34.643015793848463 0 -34.643015793848463 123.51058464487187 0 0 0 0 1414.318348820183 -488.22752962347113 0 -488.22752962347113 -206.5396192329199 0 0 0 0 1261.0865503671885 -494.36885496256582 0 -494.36885496256582 305.35153688431819 0 0 0 0 1988.1734080129754 -52.714443259968448 0 -52.714443259968448 40.302561421164228 0 0 0 0 2493.1329198786443 -44.519160779863114 0 -44.519160779863114 69.486458337240038 0 0 0 0 5.0014105588635935 -2.4015723253749286 0 -2.4015723253749286 -6.0787317392235778 0 0 0 0 2370.3084963943097 -326.97088130506552 0 -326.97088130506552 27.395035016810652 0 0 0 0 4.5994051804174969 0.13751104655825941 0 0.13751104655825941 -1.5693911504898228 0 0 0 0 2310.4770013754569 12.144074215743103 0 12.144074215743103 340.05910285772279 0 0 0 0 3494.3535099725759 -812.74876720387158 0 -812.74876720387158 -94.173767275248792 0 0 0 0 1770.1624246940482 -843.47343960578792 0 -843.47343960578792 464.20986057497248 0 0 0 0 2735.0062378881412 -315.5788862744389 0 -315.5788862744389 176.51727757030949 0 0 0 0 1892.5210892761679 -448.14714415556909 0 -448.14714415556909 291.76521380489794 0 0 0 0 1810.9987168791304 -358.43979504092977 0 -358.43979504092977 265.48883656793987 0 0 0 0 1316.2275020231173 -815.34309386930636 0 -815.34309386930636 447.56524309643737 0 0 0 0 1336.6187838646947 -729.01696576260883 0 -729.01696576260883 347.86827054143214 0 0 0 0 1362.7176226767733 -782.19332456830625 0 -782.19332456830625 452.0906094158936 0 0 0 0 1686.0154237767401 -638.04792618009833 0 -638.04792618009833 335.86604517112937 0 0 0 0 1382.3513406167331 -647.67707161729459 0 -647.67707161729459 474.64464525951746 0 0 0 0 1310.3182088569956 -750.42414122477567 0 -750.42414122477567 393.46037084748787 0 0 0 0 1451.731707943014 -816.25959783371445 0 -816.25959783371445 392.99491134148229 0 0 0 0 1219.9550543199803 -611.12895536629571 0 -611.12895536629571 398.75275427601719 0 0 0 0 30.897165056949589 52.026933361603341 0 52.026933361603341 55.981861083195668 0 0 0 0 -9.9391746592591517 -28.180228773755516 0 -28.180228773755516 -19.59825381085102 0 0 0 0 847.28788532067847 -298.52858545115259 0 -298.52858545115259 367.19066709969047 0 0 0 0 -9.5710216891713813 -1.5282484833257683 0 -1.5282484833257683 7.0597276926203394 0 0 0 0 -4.9537024600812387 1.2824190820926233 0 1.2824190820926233 7.3848926831049582 0 0 0 0 110.93241443081934 132.77379611232936 0 132.77379611232936 126.38820257326006 0 0 0 0 730.61149720999856 -479.33385990618842 0 -479.33385990618842 418.32026009003675 0 0 0 0 836.21709847964667 -422.36494868682234 0 -422.36494868682234 390.06516142032524 0 0 0 0 760.62255418619679 -636.0925393629534 0 -636.0925393629534 361.81181609587838 0 0 0 0 1076.0799461825081 -726.12684936415917 0 -726.12684936415917 349.5823096066739 0 0 0 0 1016.391795358184 -554.25416197660161 0 -554.25416197660161 360.24077732746446 0 0 0 0 950.62126127380179 -602.04311124223568 0 -602.04311124223568 354.5661595273732 0 0 0 0 943.57518531437381 -576.2291760818448 0 -576.2291760818448 410.9996046892611 0 0 0 0 1163.0211292282329 -618.31532310688817 0 -618.31532310688817 387.32521299205564 0 0 0 0 1154.9208248172799 -629.94857762878837 0 -629.94857762878837 371.97338138054329 0 0 0 0 1204.456903670216 -491.59221479734879 0 -491.59221479734879 311.6125883210396 0 0 0 0 1135.5091320156916 -457.39492460219401 0 -457.39492460219401 296.64060104781311 0 0 0 0 1119.251690602192 -429.58685045984294 0 -429.58685045984294 343.69428075342876 0 0 0 0 1055.4887399168219 -409.01445578290895 0 -409.01445578290895 337.84551302494583 0 0 0 0 1174.7041804074543 -257.7931003372214 0 -257.7931003372214 213.30083419229049 0 0 0 0 40.435712311971869 54.826540631907491 0 54.826540631907491 56.210864190383688 0 0 0 0 1110.0537566306302 -209.94341049903414 0 -209.94341049903414 224.5009373358771 0 0 0 0 1521.5214419722906 -331.38941977589457 0 -331.38941977589457 226.8424939268989 0 0 0 0 1037.8080796351132 -299.22240793128412 0 -299.22240793128412 276.58119077298034 0 0 0 0 1306.8370250176085 -315.93737597725703 0 -315.93737597725703 224.47221021911537 0 0 0 0 1574.0035066619457 -355.55314280628227 0 -355.55314280628227 148.41991518572468 0 0 0 0 1556.1715973286482 -513.80273741556084 0 -513.80273741556084 210.55321906727659 0 0 0 0 1648.5479179840549 -507.22733078575766 0 -507.22733078575766 88.294262369272474 0 0 0 0 1333.458649907232 -527.89193370446628 0 -527.89193370446628 310.41216209610815 0 0 0 0 1285.3077498989151 -447.76255740736451 0 -447.76255740736451 235.48718046567228 0 0 0 0 1393.9063182921964 -588.82595068205592 0 -588.82595068205592 177.78429807063821 0 0 0 0 1296.7591406155843 -718.70891719266183 0 -718.70891719266183 404.0289879598231 0 0 0 0 1233.4556846617197 -629.29808961276694 0 -629.29808961276694 289.97637049946752 0 0 0 0 1398.5432087981462 -682.66916155018043 0 -682.66916155018043 299.91512253941073 0 0 0 0 1320.2803775163702 -831.59831673130338 0 -831.59831673130338 190.1735681629325 0 0 0 0 1508.7375958044504 -821.19635553931721 0 -821.19635553931721 36.266391902419855 0 0 0 0 1574.7255942499505 -650.82427512258118 0 -650.82427512258118 60.842372986571718 0 0 0 0 1596.5411361952429 -739.60292302542985 0 -739.60292302542985 43.452482030964347 0 0 0 0 1754.4951840233116 -1114.190696339565 0 -1114.190696339565 -5.9514113180412096 0 0 0 0 1677.5749710707314 -895.05784654448325 0 -895.05784654448325 -407.66879371213781 0 0 0 0 -38.433854954673734 -1072.3276237360069 0 -1072.3276237360069 438.27213078022169 0 0 0 0 2930.3033914223779 -1023.0931214113543 0 -1023.0931214113543 -409.23648319050972 0 0 0 0 1206.2326932654905 -1187.2862934022814 0 -1187.2862934022814 388.60419789538446 0 0 0 0 749.60452758601605 -648.63102296255784 0 -648.63102296255784 245.36196371511812 0 0 0 0 860.33405329247762 -897.91927620550541 0 -897.91927620550541 438.05849194529947 0 0 0 0 1200.9519488740443 -437.33450409361194 0 -437.33450409361194 267.25056881780802 0 0 0 0 647.20043278619778 -486.12849740391312 0 -486.12849740391312 10.182701276433363 0 0 0 0 -1720.9771378590121 -696.72671722404266 0 -696.72671722404266 99.34648685504942 0 0 0 0 1094.2469268962232 -2684.0688770652273 0 -2684.0688770652273 -224.13322774632616 0 0 0 0 -2474.6580375300655 -2148.6339652137599 0 -2148.6339652137599 414.55573788545007 0 0 0 0 10.322707267995103 -16.040320081574308 0 -16.040320081574308 9.2804316805821614 0 0 0 0 6531.667969494526 985.81336423242453 0 985.81336423242453 -1565.0238573285237 0 0 0 0 3913.7965367138318 516.80407970701981 0 516.80407970701981 774.42880086628793 0 0 0 0 182.64913355532553 -315.03403160391781 0 -315.03403160391781 -730.14904402846605 0 0 0 0 268.12509530466923 -338.07852536642463 0 -338.07852536642463 -341.91517127277621 0 0 0 0 -766.57270360286566 -1013.515027549247 0 -1013.515027549247 -278.33916895026914 0 0 0 0 3077.2843779508903 -321.56706913930316 0 -321.56706913930316 -59.472622550480082 0 0 0 0 5318.7430670101821 -1667.1185192403659 0 -1667.1185192403659 579.76541863673992 0 0 0 0 21.914746350580877 -41.739728831634565 0 -41.739728831634565 28.941960453401897 0 0 0 0 2441.3918760767629 2058.9932587074454 0 2058.9932587074454 509.90452664948839 0 0 0 0 4238.1343768486013 131.87525688415758 0 131.87525688415758 -591.52224606365053 0 0 0 0 866.81285055845001 397.43030134631977 0 397.43030134631977 491.47348951529693 0 0 0 0 2220.0991921037257 394.74334955079257 0 394.74334955079257 -124.75783036806297 0 0 0 0 2192.4314737888217 -112.5008407253722 0 -112.5008407253722 -394.75497086311179 0 0 0 0 23.954668550751581 -47.299482811489021 0 -47.299482811489021 36.199437221035737 0 0 0 0 166.05152906110925 -285.56202733750149 0 -285.56202733750149 -346.26857976491829 0 0 0 0 515.96124024070377 -85.676631212061466 0 -85.676631212061466 -741.41336191377513 0 0 0 0 381.02870582192736 3.9407759474482873 0 3.9407759474482873 -61.255944672703208 0 0 0 0 598.60459321421877 144.2763378928729 0 144.2763378928729 -116.36770332527681 0 0 0 0 1808.9354170294755 523.93794282386511 0 523.93794282386511 -691.98791133574423 0 0 0 0 2.3601779729931498 -2.2386903337875097 0 -2.2386903337875097 -6.2931944898572567 0 0 0 0 1805.6271330464933 507.59930935697213 0 507.59930935697213 -734.34800410870776 0 0 0 0 1002.212914683314 -532.28915538406591 0 -532.28915538406591 -581.95941224256751 0 0 0 0 431.80417226903865 -744.21706100897404 0 -744.21706100897404 -201.12972162025653 0 0 0 0 196.53533816968502 -427.59562284123763 0 -427.59562284123763 159.53542996092074 0 0 0 0 1049.1012524826292 79.0025915201104 0 79.0025915201104 44.374058511149997 0 0 0 0 2893.6589793141684 245.98052665618525 0 245.98052665618525 444.08333122974364 0 0 0 0 2088.9262843625875 -116.78082254282526 0 -116.78082254282526 -429.75145107281969 0 0 0 0 2400.2363493361991 -290.20169845657756 0 -290.20169845657756 17.275619534006182 0 0 0 0 3037.8942748334375 824.5107600456297 0 824.5107600456297 -1675.4078156300825 0 0 0 0 -1064.0330673449957 878.74834671601275 0 878.74834671601275 -343.66104414234633 0 0 0 0 15.537143192411776 -1.7974853573323593 0 -1.7974853573323593 -9.8823098673950671 0 0 0 0 1049.895336951467 873.15036672846259 0 873.15036672846259 734.25716265518167 0 0 0 0 16.174166462938516 4.6208798033252378 0 4.6208798033252378 -8.1607999848352009 0 0 0 0 1212.6277370152966 -93.485660800896994 0 -93.485660800896994 -933.38555876533974 0 0 0 0 -326.01820214724285 474.56924329711001 0 474.56924329711001 -505.52011069546325 0 0 0 0 805.81997966278504 934.22664715689166 0 934.22664715689166 -1380.7391660524386 0 0 0 0 1388.0264725474262 166.34792991188385 0 166.34792991188385 -815.0818864463331 0 0 0 0 2669.9465905574943 -29.032555616848185 0 -29.032555616848185 -880.38821081497235 0 0 0 0 1189.2888942293757 1102.6562403838698 0 1102.6562403838698 -679.49149723781443 0 0 0 0 881.86483673787734 422.18712154041077 0 422.18712154041077 -360.62176808072218 0 0 0 0 1215.891456504276 69.387131349564356 0 69.387131349564356 -909.60182270275993 0 0 0 0 1334.2929905220244 422.58493458760728 0 422.58493458760728 -258.17514182273135 0 0 0 0 1577.7769290681681 335.52341617316142 0 335.52341617316142 -449.2788209018388 0 0 0 0 1515.167099204381 346.95441814698154 0 346.95441814698154 -74.401022038709925 0 0 0 0 1518.2120907117715 503.26980172014976 0 503.26980172014976 -598.57884900931708 0 0 0 0 2191.982199711405 391.52247497272765 0 391.52247497272765 -521.95905020474311 0 0 0 0 6.5814222390633574 -0.97954234005003826 0 -0.97954234005003826 -4.6284029108237359 0 0 0 0 3062.995475158179 1230.8331779194098 0 1230.8331779194098 -214.04022563700312 0 0 0 0 1908.1460571536172 626.38707322042819 0 626.38707322042819 282.18559465855333 0 0 0 0 1981.6412996503859 333.13883821072068 0 333.13883821072068 -498.25165894257572 0 0 0 0 1948.6832429734277 87.527957671952436 0 87.527957671952436 -1056.1084141597426 0 0 0 0 991.14745483300612 -218.00861986310542 0 -218.00861986310542 -465.16403249618588 0 0 0 0 3497.7070313237491 1422.2718426959209 0 1422.2718426959209 50.316394556055769 0 0 0 0 8.8343959324413532 -0.76526545336059826 0 -0.76526545336059826 -5.2612030261261316 0 0 0 0 1685.2664133841099 579.50310650820097 0 579.50310650820097 -277.21759795608966 0 0 0 0 3498.7926131909117 135.22357403885567 0 135.22357403885567 -1634.8663214412172 0 0 0 0 2425.3593226734811 -342.35849960959416 0 -342.35849960959416 -1369.3669579571251 0 0 0 0 2396.2383911057186 -249.15880203590967 0 -249.15880203590967 -1595.4586299911612 0 0 0 0 1281.1152579817817 -873.72137854533003 0 -873.72137854533003 -1104.859004069762 0 0 0 0 1849.9593846825937 -382.8479361947376 0 -382.8479361947376 -649.80574754112342 0 0 0 0 3501.1221154283862 -807.54492104378483 0 -807.54492104378483 -1216.3699815671123 0 0 0 0 1622.7829752854254 2381.9848338071674 0 2381.9848338071674 3186.0856108249318 0 0 0 0 3494.5897644675078 2149.8738395539026 0 2149.8738395539026 707.18025692946162 0 0 0 0 1215.5198044358222 1335.070623984074 0 1335.070623984074 1213.6624634884006 0 0 0 0 665.87450361324954 690.90712548361216 0 690.90712548361216 833.19906396142073 0 0 0 0 2500.7675077851854 1073.8355622730505 0 1073.8355622730505 -247.86853628783561 0 0 0 0 3501.1706706741206 2154.1080878021908 0 2154.1080878021908 708.1600374041609 0 0 0 0 2089.676131376862 834.95313856868006 0 834.95313856868006 -373.63435238447283 0 0 0 0 3493.1483108217594 1069.4735372907842 0 1069.4735372907842 -678.66687925971905 0 0 0 0 2423.2847211356275 379.70306636696569 0 379.70306636696569 -1032.0887080451748 0 0 0 0 1989.7893756865396 811.42366413564253 0 811.42366413564253 -287.80485171064925 0 0 0 0 1924.6840705819886 712.14896205937237 0 712.14896205937237 -257.07885387564136 0 0 0 0 1201.9286356748653 1010.6244972794791 0 1010.6244972794791 511.86577234976704 0 0 0 0 1594.4916392460891 530.6372683589409 0 530.6372683589409 -485.40858291685936 0 0 0 0 856.09979266760456 450.05315086732446 0 450.05315086732446 49.574513451951333 0 0 0 0 804.28778466381482 363.97556578247787 0 363.97556578247787 -9.9835792871040212 0 0 0 0 328.9711639395573 336.1448185333428 0 336.1448185333428 388.04129828508638 0 0 0 0 414.90483048623355 492.00217294348204 0 492.00217294348204 414.20412985227284 0 0 0 0 67.674398762325751 -5.6676072888706264 0 -5.6676072888706264 -0.44424610907738682 0 0 0 0 89.020836242941925 -6.6466711641583167 0 -6.6466711641583167 -2.01798379868419 0 0 0 0 354.44309047246543 -36.838489159385972 0 -36.838489159385972 -527.5163261078394 0 0 0 0 502.66841702408419 284.81587961683817 0 284.81587961683817 159.214238594569 0 0 0 0 14.916179647166238 1.7952753723190948 0 1.7952753723190948 0.62704816606221314 0 0 0 0 72.328068128327686 57.409162629286584 0 57.409162629286584 -72.038382111321255 0 0 0 0 871.59924135844665 524.99744627514178 0 524.99744627514178 409.96822214268423 0 0 0 0 97.182744545535854 -14.419361607920862 0 -14.419361607920862 -2.927459483380475 0 0 0 0 246.56439508674521 61.539401107996355 0 61.539401107996355 23.299941150615751 0 0 0 0 158.52773292644633 0.072114460205177977 0 0.072114460205177977 126.03227621736173 0 0 0 0 274.34985889389827 27.271515328856836 0 27.271515328856836 63.249814297580883 0 0 0 0 326.93261587670349 191.05089714937549 0 191.05089714937549 202.78780694947352 0 0 0 0 712.32615370537133 113.4547878254813 0 113.4547878254813 -146.56265958707786 0 0 0 0 324.72677464234522 63.629463922574516 0 63.629463922574516 -3.685604022437758 0 0 0 0 22.841689859145696 -46.483090619563129 0 -46.483090619563129 24.648558107178562 0 0 0 0 272.91005335154478 9.7196483697351397 0 9.7196483697351397 -56.896345635981831 0 0 0 0 1238.0758930717707 205.32216328691459 0 205.32216328691459 -122.36098024340208 0 0 0 0 1708.8220589599232 -15.541975708942573 0 -15.541975708942573 -113.43453072319471 0 0 0 0 1635.2761055312594 146.52911200212293 0 146.52911200212293 -166.70290739938764 0 0 0 0 1312.9931671990789 243.72280344214596 0 243.72280344214596 774.08141063804123 0 0 0 0 625.53327429589694 -405.69343781211427 0 -405.69343781211427 249.78476104133233 0 0 0 0 1641.9299181145161 444.63053380278893 0 444.63053380278893 105.71035716557549 0 0 0 0 35.637562506979251 -40.662849497062361 0 -40.662849497062361 9.325447989163056 0 0 0 0 3.9693485184100261 -8.2030812600557663 0 -8.2030812600557663 4.3126586139975576 0 0 0 0 1327.4363168899104 903.7330055741968 0 903.7330055741968 592.06800649152785 0 0 0 0 1737.7529803972429 275.48374044131879 0 275.48374044131879 276.51120986402384 0 0 0 0 1284.6940324173838 -28.678712458243581 0 -28.678712458243581 653.41012001671106 0 0 0 0 1127.6306463780002 402.21971539393019 0 402.21971539393019 250.29254470348633 0 0 0 0 1221.5356941104112 202.30638957185283 0 202.30638957185283 208.09779544815774 0 0 0 0 1023.8972272059154 279.97306322152076 0 279.97306322152076 177.6317852841928 0 0 0 0 1081.6654761978227 342.4226826899752 0 342.4226826899752 176.65573915268283 0 0 0 0 1002.6885535329639 632.26253204771717 0 632.26253204771717 280.39883102820386 0 0 0 0 852.75064504512125 329.97276613935185 0 329.97276613935185 110.99333893312553 0 0 0 0 950.31190757627655 207.26690807851509 0 207.26690807851509 113.60804167973492 0 0 0 0 998.16321010724573 398.19375650426355 0 398.19375650426355 142.25439615432185 0 0 0 0 833.2669021060475 289.15439771700079 0 289.15439771700079 168.33607477300325 0 0 0 0 687.93952704079948 91.430200951555946 0 91.430200951555946 58.818744290688301 0 0 0 0 652.17055921080009 186.87478139722498 0 186.87478139722498 116.0478414629581 0 0 0 0 628.7555989560924 138.89567392550555 0 138.89567392550555 247.51559601432768 0 0 0 0 790.02802243432143 371.23530162342524 0 371.23530162342524 213.72555029542218 0 0 0 0 877.76431846799585 413.29378072760932 0 413.29378072760932 226.36308257805604 0 0 0 0 732.52607797122778 198.34091896739676 0 198.34091896739676 351.63225772968053 0 0 0 0 879.11540855856606 328.60234314244258 0 328.60234314244258 164.71215087121146 0 0 0 0 778.59268179091646 134.57452883760504 0 134.57452883760504 329.63163768996515 0 0 0 0 719.34056310889173 52.698911326083419 0 52.698911326083419 521.28132655668458 0 0 0 0 583.56082897944248 166.39334221604193 0 166.39334221604193 426.12797505109245 0 0 0 0 554.82631717526488 328.06918211050163 0 328.06918211050163 311.58295937034393 0 0 0 0 718.63978838899209 217.15890841709984 0 217.15890841709984 380.85452886684834 0 0 0 0 601.86726403147941 281.57598483101708 0 281.57598483101708 273.46193796001671 0 0 0 0 579.2665699806962 473.77532372962037 0 473.77532372962037 267.25516896220154 0 0 0 0 262.04531568253606 424.48959293388998 0 424.48959293388998 217.67934318758941 0 0 0 0 5.0317104212394952 85.515884241502135 0 85.515884241502135 94.073060207499566 0 0 0 0 -36.28264948642186 222.89461729843197 0 222.89461729843197 -53.621084658023165 0 0 0 0 317.47575802245706 -95.886539663195208 0 -95.886539663195208 149.87474192711733 0 0 0 0 404.50533367977073 -358.99848466354774 0 -358.99848466354774 -561.04564222108206 0 0 0 0 206.17868475856676 103.06662912235227 0 103.06662912235227 393.3852771114918 0 0 0 0 391.65419689477875 190.62728909481822 0 190.62728909481822 495.14254668512308 0 0 0 0 787.20465984243219 65.882746352436143 0 65.882746352436143 477.67197638241032 0 0 0 0 594.58043828333632 46.462813440308324 0 46.462813440308324 586.97502600751261 0 0 0 0 782.6701930926605 114.09028317964386 0 114.09028317964386 394.23737417018651 0 0 0 0 643.34340484897677 -162.96219368454251 0 -162.96219368454251 524.03916655710782 0 0 0 0 1403.631745697272 56.247983674670607 0 56.247983674670607 357.38246857794411 0 0 0 0 1727.4733278374479 -603.41861679819624 0 -603.41861679819624 -4.3105995967732209 0 0 0 0 3499.6976233525093 -221.09359481415314 0 -221.09359481415314 -351.74590126934032 0 0 0 0 3493.9397269985548 -1808.1077183943603 0 -1808.1077183943603 169.60162495526308 0 0 0 0 1859.4451257676601 -806.45897875987339 0 -806.45897875987339 55.499936057672969 0 0 0 0 928.94348162724737 -837.58873528412641 0 -837.58873528412641 713.0942471042647 0 0 0 0 -146.41986947357418 113.65393361913698 0 113.65393361913698 326.14033391917235 0 0 0 0 27.39157173828718 -1.0628148293812796 0 -1.0628148293812796 3.6153242209038425 0 0 0 0 1057.401614388747 -1668.880074160865 0 -1668.880074160865 1589.5464848272225 0 0 0 0 1376.2703963461772 -759.04965890457697 0 -759.04965890457697 1098.709549246847 0 0 0 0 1297.6774002641068 -471.21087127528426 0 -471.21087127528426 945.52594992937884 0 0 0 0 1325.857029525635 -593.21335569201074 0 -593.21335569201074 617.52867836699443 0 0 0 0 1127.5338065946416 -83.599995337839573 0 -83.599995337839573 635.22286507538229 0 0 0 0 1135.0544772711892 -201.5175679769618 0 -201.5175679769618 1380.7971100201057 0 0 0 0 -1113.5034982096649 407.39101259017934 0 407.39101259017934 1184.5564029581801 0 0 0 0 -848.27165086964851 6.230469790432835 0 6.230469790432835 1473.0926429595311 0 0 0 0 -936.37845906417988 257.5322521079006 0 257.5322521079006 1253.110901987473 0 0 0 0 -1165.2517116242852 564.06846831022312 0 564.06846831022312 715.79796506359344 0 0 0 0 1721.7061850625369 -550.6474495043808 0 -550.6474495043808 350.75431341967851 0 0 0 0 0.51434013199162232 -3.1055735738670514 0 -3.1055735738670514 19.624882034522276 0 0 0 0 -937.16773675350578 495.78390586781825 0 495.78390586781825 552.48297445852404 0 0 0 0 -618.7872726441401 814.51829997747973 0 814.51829997747973 -590.61907314170094 0 0 0 0 -783.67434810319264 204.79856927635319 0 204.79856927635319 615.15202424478775 0 0 0 0 -101.11738492875702 47.127371610330101 0 47.127371610330101 -827.47186163351944 0 0 0 0 -479.54305117037802 -41.859614358523686 0 -41.859614358523686 -159.25968526866563 0 0 0 0 -829.50045012270402 471.58903641402412 0 471.58903641402412 -54.097993512030371 0 0 0 0 -388.6119039954865 -17.294439966219215 0 -17.294439966219215 -365.60362019989316 0 0 0 0 1377.098735163986 -166.6503670474176 0 -166.6503670474176 -55.309111665956152 0 0 0 0 1515.2501125195267 -496.12140818564876 0 -496.12140818564876 130.34587285639645 0 0 0 0 1420.7498832115616 -657.93986250173657 0 -657.93986250173657 419.74220022468944 0 0 0 0 1265.2977424900382 -554.77496684336438 0 -554.77496684336438 602.5631633288067 0 0 0 0 1403.5200544618383 -512.80876995489962 0 -512.80876995489962 114.57751248824934 0 0 0 0 1309.9296923759302 -498.49094000541299 0 -498.49094000541299 437.76869476184584 0 0 0 0 1572.0896356881367 -443.24797086944091 0 -443.24797086944091 243.46576984038438 0 0 0 0 1348.0829950238176 -597.7582841049059 0 -597.7582841049059 478.52210711712542 0 0 0 0 2020.281152856458 -364.50300699496256 0 -364.50300699496256 409.67670508589708 0 0 0 0 1582.385486389594 -503.49016595526973 0 -503.49016595526973 381.89989111596515 0 0 0 0 1524.2228073187525 -381.66411753197463 0 -381.66411753197463 614.23945964834093 0 0 0 0 1834.1836593786802 -569.23060267997243 0 -569.23060267997243 441.14720395319819 0 0 0 0 1550.1717469099312 -481.68491020750116 0 -481.68491020750116 541.0023992761644 0 0 0 0 1285.6815506262465 -401.75214693254748 0 -401.75214693254748 545.20967998436572 0 0 0 0 1591.846668903614 -394.13776901790334 0 -394.13776901790334 511.84608594370184 0 0 0 0 1662.6214865719235 -167.13071536192001 0 -167.13071536192001 165.17061384587214 0 0 0 0 1449.8612745448736 -173.28580573732143 0 -173.28580573732143 169.16676912251751 0 0 0 0 1937.0930084618267 -505.07319865279715 0 -505.07319865279715 90.527855627030931 0 0 0 0 1661.820448865767 -333.24532799554936 0 -333.24532799554936 129.63885243390541 0 0 0 0 1804.3764657456222 -199.45741167357482 0 -199.45741167357482 -540.90428382035316 0 0 0 0 2088.1727293600102 -109.69706861062423 0 -109.69706861062423 -563.17906797571231 0 0 0 0 1535.2152533219951 97.613579080161799 0 97.613579080161799 -354.86853789564293 0 0 0 0 1109.4795528592849 -59.805579401283467 0 -59.805579401283467 -285.51206588245986 0 0 0 0 1672.8175904382824 301.2908676034931 0 301.2908676034931 203.06003867043546 0 0 0 0 956.38027222937126 -427.48274426115267 0 -427.48274426115267 24.301576779489551 0 0 0 0 597.16811015944586 -1167.9247947146341 0 -1167.9247947146341 916.61551360564408 0 0 0 0 957.60679687075663 116.75149470606812 0 116.75149470606812 -372.02428891060367 0 0 0 0 -6.3466259690685547 46.050086247748368 0 46.050086247748368 10.723451138854216 0 0 0 0 10.790171361525584 6.1797614433535237 0 6.1797614433535237 10.241300167641104 0 0 0 0 57.184628388956298 -22.197168744633018 0 -22.197168744633018 16.932896078862655 0 0 0 0 20.582234531948821 -24.237689104171423 0 -24.237689104171423 19.020650213375312 0 0 0 0 -287.40852859995766 -843.74068934425441 0 -843.74068934425441 33.06668904612161 0 0 0 0 -54.120450075111535 129.61336440514242 0 129.61336440514242 189.3544686855339 0 0 0 0 -2.4768011587020737 -72.261862838390698 0 -72.261862838390698 158.50184587733747 0 0 0 0 412.60066450828253 -19.028777493128018 0 -19.028777493128018 59.736027148509493 0 0 0 0 193.2731185704497 152.88656155187959 0 152.88656155187959 63.58351684398167 0 0 0 0 118.87832426503155 -246.73682375134877 0 -246.73682375134877 93.56368329016027 0 0 0 0 611.32439579348352 92.026294712137997 0 92.026294712137997 29.278383204717102 0 0 0 0 7.7532386640794595 -11.389291026944271 0 -11.389291026944271 28.786721418508662 0 0 0 0 -201.90818048480483 -297.21206438761828 0 -297.21206438761828 -276.77740675233508 0 0 0 0 7.5032796947229858 -7.7653879649490625 0 -7.7653879649490625 1.1863845773039827 0 0 0 0 117.77130719586012 -276.33723698002814 0 -276.33723698002814 -458.25749731864926 0 0 0 0 -1684.9832391240097 -241.48548605567521 0 -241.48548605567521 32.635843845931959 0 0 0 0 1849.2912820512274 -335.7919419550783 0 -335.7919419550783 83.875843129573695 0 0 0 0 1762.2484041638727 -49.671393042746786 0 -49.671393042746786 -309.88676316998317 0 0 0 0 0.62951383975883779 -0.77354367319257822 0 -0.77354367319257822 3.1400015802316545 0 0 0 0 -64.761526617960953 -149.19635330486881 0 -149.19635330486881 206.48196924709737 0 0 0 0 370.53400416335666 -449.6233751008765 0 -449.6233751008765 326.21049339699675 0 0 0 0 1385.3387456334012 -239.25430644521884 0 -239.25430644521884 -8.1833041839236103 0 0 0 0 1072.140442063037 -447.2373622336122 0 -447.2373622336122 80.736741104723933 0 0 0 0 1373.4123164714861 -199.50315715203249 0 -199.50315715203249 50.177946883653021 0 0 0 0 1561.3653562428212 80.24982412973327 0 80.24982412973327 302.68874650182624 0 0 0 0 1377.5992364828289 -167.27189487972055 0 -167.27189487972055 73.891228935629897 0 0 0 0 1120.9291145645921 -89.618092741565988 0 -89.618092741565988 695.83761692887583 0 0 0 0 1200.9565325460035 10.805201124432642 0 10.805201124432642 292.82048965012609 0 0 0 0 910.33813555787879 -504.12411736050399 0 -504.12411736050399 1374.1223656682341 0 0 0 0 950.13343202142369 -320.23395672721676 0 -320.23395672721676 408.97414111249839 0 0 0 0 1224.6243084238395 -217.78013378143601 0 -217.78013378143601 425.01481887193631 0 0 0 0 956.04722870880096 55.388280595142987 0 55.388280595142987 375.45613520540155 0 0 0 0 1038.3325122569202 434.83609170317914 0 434.83609170317914 1166.6425224384652 0 0 0 0 928.7594847168175 213.65249523505463 0 213.65249523505463 492.47592850666297 0 0 0 0 976.60637782340518 27.457962408694812 0 27.457962408694812 762.05396706541501 0 0 0 0 1136.6614357572644 153.85175840391707 0 153.85175840391707 453.51553436325139 0 0 0 0 -401.35047878127443 234.17593537952143 0 234.17593537952143 741.23478877141451 0 0 0 0 -977.52628043357117 465.09308455421933 0 465.09308455421933 1004.9689353160538 0 0 0 0 -891.24940838614998 578.94873552307126 0 578.94873552307126 1152.3949344949788 0 0 0 0 -1114.391708740236 392.88648490276137 0 392.88648490276137 974.9151341170018 0 0 0 0 -803.71245325387224 191.32371737178823 0 191.32371737178823 1052.9609446481263 0 0 0 0 -1295.6048202136528 -323.07196263526998 0 -323.07196263526998 485.06595928038587 0 0 0 0 1374.4173308702038 -538.12581348104186 0 -538.12581348104186 95.590982450060892 0 0 0 0 1.0367666581439616 -3.3245157314498948 0 -3.3245157314498948 12.100242198092086 0 0 0 0 -233.47719534630392 647.55242989774297 0 647.55242989774297 1735.3579241244906 0 0 0 0 349.78765832940894 -794.82340023702864 0 -794.82340023702864 1641.3718436032077 0 0 0 0 1502.0347230668237 -316.71905537516704 0 -316.71905537516704 311.92044544291366 0 0 0 0 -320.51362275417205 2.4083295130958504 0 2.4083295130958504 729.87578807021305 0 0 0 0 -367.17897590390817 -121.28170391144113 0 -121.28170391144113 613.71336849942963 0 0 0 0 -866.64281581918385 255.56007404666798 0 255.56007404666798 1306.1744616660931 0 0 0 0 -544.14041182432902 44.227420343991071 0 44.227420343991071 461.07074237812412 0 0 0 0 -572.65072326915288 -67.003154580720548 0 -67.003154580720548 94.246132983062125 0 0 0 0 -783.42372760683793 -732.72240174898025 0 -732.72240174898025 -326.30710277920662 0 0 0 0 -1528.5139418942365 -368.0157843507418 0 -368.0157843507418 246.30025114620594 0 0 0 0 -539.37249397905543 -538.39397786284553 0 -538.39397786284553 220.80271999189358 0 0 0 0 -628.04114841181308 -414.21231669067447 0 -414.21231669067447 48.269076425220192 0 0 0 0 -822.46002261076046 -740.81015387789103 0 -740.81015387789103 -69.485105626061113 0 0 0 0 -693.4442297685647 -220.31892440375998 0 -220.31892440375998 40.576103534547656 0 0 0 0 -527.60768035375145 -396.01722131225165 0 -396.01722131225165 182.49187101484313 0 0 0 0 -277.42916033774827 -547.53234440561619 0 -547.53234440561619 14.502077053624362 0 0 0 0 -320.97472381399257 -390.64284111047482 0 -390.64284111047482 -130.54608181854587 0 0 0 0 -109.20759796010961 -206.74921346182032 0 -206.74921346182032 57.378861214218887 0 0 0 0 290.91686358723331 -647.32708313446528 0 -647.32708313446528 495.40319690426452 0 0 0 0 523.65450791138278 -4.3986067432533673 0 -4.3986067432533673 282.59610430407156 0 0 0 0 879.38846713489477 84.770809786037489 0 84.770809786037489 -27.276343956279561 0 0 0 0 536.71660395143704 -353.5820773155051 0 -353.5820773155051 -9.4257758794083202 0 0 0 0 267.68484084257062 -138.71992112107478 0 -138.71992112107478 -109.54313132559491 0 0 0 0 -40.337656831773643 -436.55118150523208 0 -436.55118150523208 -150.80659917641196 0 0 0 0 493.66587388125231 -239.91854585769784 0 -239.91854585769784 -85.988908316977074 0 0 0 0 455.56427815744325 -165.61774780877602 0 -165.61774780877602 -225.79792490061322 0 0 0 0 -306.63080300545721 -182.9748699261213 0 -182.9748699261213 -210.11881896480122 0 0 0 0 -456.62324492077869 -351.31110312670876 0 -351.31110312670876 -99.940885431070456 0 0 0 0 -480.37556812207083 -440.65571121958612 0 -440.65571121958612 -307.68925927116834 0 0 0 0 -1018.62638204066 -52.547726766781352 0 -52.547726766781352 -135.59720998721446 0 0 0 0 -357.32449191780734 -286.59195095400787 0 -286.59195095400787 -402.33617137534293 0 0 0 0 1013.2376613974736 222.64517840550195 0 222.64517840550195 247.38303366645687 0 0 0 0 934.79030347178377 54.334546973075476 0 54.334546973075476 350.69276614182036 0 0 0 0 1036.3552500668297 130.68675215746066 0 130.68675215746066 449.41261152494917 0 0 0 0 920.87293113946998 159.18431606739978 0 159.18431606739978 100.42634070144004 0 0 0 0 767.03887376166995 61.467352354899731 0 61.467352354899731 376.49788679289753 0 0 0 0 759.76142841864407 17.359031980136194 0 17.359031980136194 -80.497576015421146 0 0 0 0 743.95358401800263 -7.654992098418461 0 -7.654992098418461 80.946037081745544 0 0 0 0 966.11309874690846 214.97663743539681 0 214.97663743539681 75.446108260935034 0 0 0 0 839.19326548121444 146.45541806069627 0 146.45541806069627 131.77779073433965 0 0 0 0 892.11515007239382 46.947546131212675 0 46.947546131212675 -54.225064895069863 0 0 0 0 1032.2347538734448 116.69437042628056 0 116.69437042628056 121.19303047068775 0 0 0 0 769.83174956714515 39.507795704548244 0 39.507795704548244 -5.8661801255045702 0 0 0 0 429.28822962374136 -132.8290040955809 0 -132.8290040955809 -103.54630899542667 0 0 0 0 640.23746303653422 -30.495812026998237 0 -30.495812026998237 30.290165339808937 0 0 0 0 670.70862441040856 -196.29274713042889 0 -196.29274713042889 -197.52211459843829 0 0 0 0 463.95083529825206 -293.80900471022892 0 -293.80900471022892 -103.97316378554456 0 0 0 0 523.00818169716763 -281.41662175540614 0 -281.41662175540614 -138.66136497925481 0 0 0 0 500.61751423177088 -365.1035957382104 0 -365.1035957382104 66.727220196826238 0 0 0 0 528.76923583048813 -287.32252570990613 0 -287.32252570990613 -166.17362711498481 0 0 0 0 522.726068797469 -185.60753441281813 0 -185.60753441281813 115.23769045888503 0 0 0 0 449.90374071335441 -110.06314929918346 0 -110.06314929918346 37.392562479346736 0 0 0 0 -723.33611002594569 -409.0518062439524 0 -409.0518062439524 -22.356227259146181 0 0 0 0 4.2218969379905831 -10.490998511558656 0 -10.490998511558656 12.775939128397216 0 0 0 0 -69.164826111768377 -202.29758634852726 0 -202.29758634852726 -167.18380228908666 0 0 0 0 -569.45758948354012 -172.26329308264371 0 -172.26329308264371 -65.806529163870437 0 0 0 0 -25.284773789363612 -298.38553778885853 0 -298.38553778885853 -174.2885168639541 0 0 0 0 -23.673397366321012 -317.88522002823277 0 -317.88522002823277 -123.22026582998603 0 0 0 0 396.88117580978542 -264.19920223375436 0 -264.19920223375436 -217.46275761426114 0 0 0 0 -78.024735877963906 -276.61041530829993 0 -276.61041530829993 -102.54023390428165 0 0 0 0 289.77775988656549 -233.61581465025353 0 -233.61581465025353 -154.04950818638508 0 0 0 0 294.11553523840803 -214.82910434982864 0 -214.82910434982864 -76.282826207211656 0 0 0 0 496.11866823379597 -157.99792771380976 0 -157.99792771380976 -190.13003923678298 0 0 0 0 -18.672144178580623 -187.72264946320638 0 -187.72264946320638 -92.190914989700786 0 0 0 0 -229.17036977735796 9.557150529075443 0 9.557150529075443 31.191736917537128 0 0 0 0 0.94705129539956001 -7.1458120760109711 0 -7.1458120760109711 17.244215511825242 0 0 0 0 5.2133957015468422 -10.733807812365882 0 -10.733807812365882 20.468271663160902 0 0 0 0 -269.2981551263984 -278.8243228621468 0 -278.8243228621468 -30.297280693362154 0 0 0 0 -15.991610329732794 -12.183240047296749 0 -12.183240047296749 17.652479594062413 0 0 0 0 -305.23149891148205 -304.71556964026149 0 -304.71556964026149 36.693261055239418 0 0 0 0 -265.34542237925325 -92.527805784764496 0 -92.527805784764496 -0.55502956555574201 0 0 0 0 59.806379209272563 -129.54210082301142 0 -129.54210082301142 -225.45215972458391 0 0 0 0 124.98549333368464 -273.75049394772077 0 -273.75049394772077 -12.952065936569852 0 0 0 0 60.510250876010105 -270.79359996350831 0 -270.79359996350831 51.305100427545767 0 0 0 0 48.723281394308287 -379.10883212127737 0 -379.10883212127737 -168.11582818001034 0 0 0 0 374.05832652103345 -194.30277498361829 0 -194.30277498361829 -123.15191126183345 0 0 0 0 408.72023004384755 -310.90638289947856 0 -310.90638289947856 68.137195785897347 0 0 0 0 766.07126911058731 -241.66923414064331 0 -241.66923414064331 -102.08570247995522 0 0 0 0 866.18599930858545 -291.13775646569957 0 -291.13775646569957 -114.33882359945164 0 0 0 0 430.04279937438332 -276.38561194622889 0 -276.38561194622889 41.187994319561767 0 0 0 0 433.03987918278528 -206.14617155364635 0 -206.14617155364635 -68.979567051399499 0 0 0 0 587.90211708092829 -150.02358429223932 0 -150.02358429223932 -162.81228400538748 0 0 0 0 587.7103143478671 -338.36360879026688 0 -338.36360879026688 19.654403226084469 0 0 0 0 848.08620926562071 -246.08031308221507 0 -246.08031308221507 -56.603353458191123 0 0 0 0 -431.53691852413522 -240.49594614307262 0 -240.49594614307262 168.48277039395361 0 0 0 0 -39.961001593515903 5.9464698289511944 0 5.9464698289511944 -45.220515747834725 0 0 0 0 60.900091963228078 -17.67550088463031 0 -17.67550088463031 -75.681720531989413 0 0 0 0 1.6148129277145631 -1.3544164041845654 0 -1.3544164041845654 -2.2437953089806371 0 0 0 0 65.960437276222365 -230.78869650338129 0 -230.78869650338129 63.91828793264358 0 0 0 0 -25.411767268174572 83.073657896680515 0 83.073657896680515 -3.5468144899969047 0 0 0 0 277.98489690042697 8.6695212790837104 0 8.6695212790837104 -147.90580193861933 0 0 0 0 -0.75736964007834828 -11.631884072222874 0 -11.631884072222874 32.754760518761188 0 0 0 0 517.83015996598442 -280.9616032048998 0 -280.9616032048998 -62.471263066158826 0 0 0 0 3.4832029119742884 -13.036019828188635 0 -13.036019828188635 35.060584997262453 0 0 0 0 -3.5908733245759112 2.0350552367690469 0 2.0350552367690469 2.8386032440372162 0 0 0 0 -191.47993626110201 -97.788178191398515 0 -97.788178191398515 103.75009526171971 0 0 0 0 145.89786338493013 -104.41815973465123 0 -104.41815973465123 115.80988408447593 0 0 0 0 1058.0175452116473 -435.63575975593631 0 -435.63575975593631 -52.257242373718327 0 0 0 0 646.75985605659844 -112.85377845087078 0 -112.85377845087078 42.751340517104836 0 0 0 0 762.82847241990748 -350.07128276612093 0 -350.07128276612093 27.625611406390817 0 0 0 0 1199.5929449686807 -230.73497217165107 0 -230.73497217165107 -54.531716900812171 0 0 0 0 986.81370629878438 -161.31756282825881 0 -161.31756282825881 28.464852800157132 0 0 0 0 1214.9228090020588 -446.67971580922494 0 -446.67971580922494 157.97694158198647 0 0 0 0 413.25064182038113 -1114.9691448238764 0 -1114.9691448238764 -329.8368437079771 0 0 0 0 1049.4983066382697 156.68310202571047 0 156.68310202571047 -272.30365630312008 0 0 0 0 -0.89282047725852198 -2.050960238848706 0 -2.050960238848706 6.0910309659121005 0 0 0 0 -1606.0793205664313 -913.16002074055632 0 -913.16002074055632 170.48291876343865 0 0 0 0 527.32656890166254 266.26765819969296 0 266.26765819969296 3.0389293027001258 0 0 0 0 1132.7444820769961 708.08949130839756 0 708.08949130839756 -1695.6389452995736 0 0 0 0 140.7627023484747 988.33589615339952 0 988.33589615339952 -1323.5187078808158 0 0 0 0 843.41427729898032 -358.2574742716065 0 -358.2574742716065 -924.22992833242097 0 0 0 0 -566.07205910109769 -420.70583470916245 0 -420.70583470916245 -54.235145911855398 0 0 0 0 -172.82400467693515 -662.69386571366522 0 -662.69386571366522 -793.32553399178687 0 0 0 0 -580.06723310933739 -1007.4853096032857 0 -1007.4853096032857 -695.50603996764403 0 0 0 0 1572.7719820525726 -477.65462296287751 0 -477.65462296287751 171.66684432656075 0 0 0 0 1982.1167364742755 -413.60326944646795 0 -413.60326944646795 364.72415061997526 0 0 0 0 1982.9204263799877 -447.00738606645228 0 -447.00738606645228 143.33073191336734 0 0 0 0 1221.4851622206374 -529.42133205125151 0 -529.42133205125151 234.70129206296042 0 0 0 0 1576.9896598114301 -408.31220759855114 0 -408.31220759855114 -33.98805885787624 0 0 0 0 1058.6016272712368 -411.53903884382635 0 -411.53903884382635 82.578308331174412 0 0 0 0 1344.7955019042129 -327.342757765653 0 -327.342757765653 -52.525988183939262 0 0 0 0 1664.7685802865963 -479.8466272447622 0 -479.8466272447622 -44.74025563579653 0 0 0 0 2027.7804227104552 -537.33369755093736 0 -537.33369755093736 -91.358744831743024 0 0 0 0 1997.5048467730576 -706.67513601763039 0 -706.67513601763039 -20.872744759270063 0 0 0 0 1632.9995441553438 -456.08197187324731 0 -456.08197187324731 -69.131100532980781 0 0 0 0 1623.0076920313045 -590.22207531902518 0 -590.22207531902518 113.65725207285868 0 0 0 0 1121.5554447322629 -484.86810495775262 0 -484.86810495775262 -29.118686362500739 0 0 0 0 1513.8789301362376 -601.83934180817505 0 -601.83934180817505 2.2107484584266786 0 0 0 0 1195.3428540594693 -473.22455031803418 0 -473.22455031803418 129.12035696483872 0 0 0 0 1203.7697924521963 -358.48666641334603 0 -358.48666641334603 -91.407431500683742 0 0 0 0 850.16338362742999 -330.44499588028248 0 -330.44499588028248 43.373995797759562 0 0 0 0 779.59640940877739 -351.23089608062389 0 -351.23089608062389 112.89165305565984 0 0 0 0 1076.3713582747223 -375.65622095163269 0 -375.65622095163269 225.25848955991387 0 0 0 0 1049.7917771772463 -242.46981110649358 0 -242.46981110649358 -44.185279334766165 0 0 0 0 1488.4905256217035 -511.56760480458723 0 -511.56760480458723 344.60785211778784 0 0 0 0 1900.5256367384936 -609.95584580795548 0 -609.95584580795548 62.301774278015728 0 0 0 0 1491.2665559384295 -398.98328951373878 0 -398.98328951373878 5.7276938214035908 0 0 0 0 1753.4297237433639 -391.7504334664427 0 -391.7504334664427 179.04091742992205 0 0 0 0 1751.5343475988107 -453.79009918132977 0 -453.79009918132977 729.59032607691006 0 0 0 0 1907.1145344465731 -691.79514066578486 0 -691.79514066578486 289.67193222085552 0 0 0 0 2256.1848415550012 -874.20188072701785 0 -874.20188072701785 384.97789889989053 0 0 0 0 2899.8436591687605 -1457.3724347997722 0 -1457.3724347997722 1233.9801933020967 0 0 0 0 2372.6595088603926 -711.92585721847854 0 -711.92585721847854 227.83536811650265 0 0 0 0 2433.7340796922181 -924.79190890437894 0 -924.79190890437894 260.75288154453256 0 0 0 0 2907.1666702323091 -713.42212313178015 0 -713.42212313178015 -263.66214683423277 0 0 0 0 2343.9091001069974 -789.63108379000187 0 -789.63108379000187 -40.57970572391514 0 0 0 0 2358.6692586508834 -770.47270314949765 0 -770.47270314949765 -52.959388089087952 0 0 0 0 4166.8849365612878 -635.29797660101121 0 -635.29797660101121 -195.9455564298969 0 0 0 0 2600.1589687476189 1097.8165863717004 0 1097.8165863717004 158.32254181075587 0 0 0 0 20.843853580411732 -10.070453396778191 0 -10.070453396778191 4.9727648997452345 0 0 0 0 2054.7926809721812 -53.130758644703747 0 -53.130758644703747 -298.58709520712 0 0 0 0 1829.07544424357 -312.20135974917594 0 -312.20135974917594 -104.13073906901809 0 0 0 0 75.767860654632386 144.24421569446167 0 144.24421569446167 566.42445647525255 0 0 0 0 79.852021174136098 68.390464381564016 0 68.390464381564016 -131.57369856220976 0 0 0 0 1219.6244718755843 59.18228405762784 0 59.18228405762784 -158.35381211822312 0 0 0 0 29.03789221713528 22.362188954297302 0 22.362188954297302 0.22099259369991131 0 0 0 0 1729.5480714468831 -624.53433925046511 0 -624.53433925046511 7.8886987031837634 0 0 0 0 2172.9335433324886 -788.93366350770884 0 -788.93366350770884 50.605932100646896 0 0 0 0 25.943752563664681 16.513354842007217 0 16.513354842007217 -0.81937579675053485 0 0 0 0 2381.7849251367243 -744.31832339850735 0 -744.31832339850735 59.770434165518509 0 0 0 0 27.107658461313122 77.787500837445123 0 77.787500837445123 -205.15830542603362 0 0 0 0 160.91856231485781 -3.2681181595871749 0 -3.2681181595871749 -159.00619199303401 0 0 0 0 2018.5010462704199 -637.71630815956439 0 -637.71630815956439 -49.646662653114618 0 0 0 0 2124.2083375314014 -579.51259084075946 0 -579.51259084075946 -93.157699770525142 0 0 0 0 2532.2291950097679 -672.63068777729131 0 -672.63068777729131 -226.99883631213925 0 0 0 0 2316.3694763296116 -452.5230958063421 0 -452.5230958063421 -337.4885321682068 0 0 0 0 2342.5177197518824 -566.63801888068701 0 -566.63801888068701 -229.52454981107741 0 0 0 0 2455.111020636301 -732.36669129595975 0 -732.36669129595975 10.612544312483806 0 0 0 0 2527.4151309830377 -473.10563444389481 0 -473.10563444389481 -31.151255413007675 0 0 0 0 2124.8192907294269 -565.11729083699993 0 -565.11729083699993 365.65169617868378 0 0 0 0 1910.0113872150578 -158.26167688990733 0 -158.26167688990733 738.70573624866847 0 0 0 0 2858.0794914970274 50.320715619917337 0 50.320715619917337 390.74143725690556 0 0 0 0 10.994298427982855 5.9597884589915413 0 5.9597884589915413 0.14033898684555624 0 0 0 0 -540.06671889276231 1079.0486021804018 0 1079.0486021804018 -147.68300880279821 0 0 0 0 2254.8589314850415 -672.79677766106124 0 -672.79677766106124 184.65617226420181 0 0 0 0 4015.9611041604248 -1370.1752533538911 0 -1370.1752533538911 418.86543551070099 0 0 0 0 381.75770873399233 -29.921176599381397 0 -29.921176599381397 -560.16480069201066 0 0 0 0 -61.101952153122511 407.47166927484705 0 407.47166927484705 -506.00271822517607 0 0 0 0 335.67590779230068 -82.483374722972258 0 -82.483374722972258 -396.24051272739052 0 0 0 0 217.22420259210003 -100.77985824291773 0 -100.77985824291773 -120.66623998599607 0 0 0 0 512.70791522612762 -85.373650343173722 0 -85.373650343173722 -142.81725416390691 0 0 0 0 1221.4552099782304 -581.05124740245901 0 -581.05124740245901 203.31185790727068 0 0 0 0 1743.1256784158168 1038.5605852731651 0 1038.5605852731651 -163.37603508722077 0 0 0 0 380.82137078885535 -477.64166089254832 0 -477.64166089254832 803.94645431353638 0 0 0 0 -689.44772744454895 1011.789895807035 0 1011.789895807035 654.45259890681814 0 0 0 0 28.403729914654011 3.2991263764431373 0 3.2991263764431373 0.72473261788099796 0 0 0 0 650.16805660869613 -493.16054111295307 0 -493.16054111295307 676.46344058254181 0 0 0 0 1512.9749519388088 -1001.8135008226382 0 -1001.8135008226382 -384.48157022369742 0 0 0 0 1984.8717883717918 -475.19290281354915 0 -475.19290281354915 -92.597461466777531 0 0 0 0 1695.5379952573617 -949.4970229591213 0 -949.4970229591213 -1086.6688269639126 0 0 0 0 1573.4447283218933 -650.78095172642224 0 -650.78095172642224 331.19662029804203 0 0 0 0 2085.0759727188029 415.67047610326199 0 415.67047610326199 832.2696257599473 0 0 0 0 128.12278074339793 -16.52615576702101 0 -16.52615576702101 -25.992216582650144 0 0 0 0 152.90081957273105 -16.837942365275012 0 -16.837942365275012 -43.620181737750841 0 0 0 0 57.476748581520042 -71.916131132857572 0 -71.916131132857572 -20.065568905334658 0 0 0 0 32.134106911487535 -4.9486307334771613 0 -4.9486307334771613 -3.3621209459440564 0 0 0 0 -310.84337577458973 -352.21133250071398 0 -352.21133250071398 -253.80473294383046 0 0 0 0 26.264219811319876 -9.3623307356965562 0 -9.3623307356965562 -22.552932839142461 0 0 0 0 -270.62752951888251 -357.85293567123517 0 -357.85293567123517 -477.88208607730121 0 0 0 0 220.11098669177227 -43.4143394784262 0 -43.4143394784262 -42.941053091710273 0 0 0 0 -369.89987818340887 -759.19244801056357 0 -759.19244801056357 -295.27288680646961 0 0 0 0 106.31152013818651 -7.2946629130803764 0 -7.2946629130803764 -5.1107696671587677 0 0 0 0 -67.834116555855871 -593.42269272258636 0 -593.42269272258636 -892.22553441905347 0 0 0 0 -529.82694000975243 239.12792185856733 0 239.12792185856733 427.45591381939084 0 0 0 0 78.01075482270889 0.059810232388610274 0 0.059810232388610274 -0.91787073021473919 0 0 0 0 -460.48366346401417 1093.9384634794719 0 1093.9384634794719 -1027.4739506134883 0 0 0 0 2538.6890467092726 220.07959918540473 0 220.07959918540473 -1974.440447874349 0 0 0 0 2.5926911986480263 -42.87351893972118 0 -42.87351893972118 304.98817469010646 0 0 0 0 104.68164052557131 -63.686845574110521 0 -63.686845574110521 77.253143181003779 0 0 0 0 92.222781190363094 -36.00673776175563 0 -36.00673776175563 28.772764724726585 0 0 0 0 143.7361870378154 -111.86960273608565 0 -111.86960273608565 35.10466510539959 0 0 0 0 161.53626038925267 -131.17266875504538 0 -131.17266875504538 -48.093417507147024 0 0 0 0 287.03645423312787 -359.4236999781142 0 -359.4236999781142 158.93200642532793 0 0 0 0 171.30047932364596 -154.66656063510527 0 -154.66656063510527 -35.574100825077039 0 0 0 0 266.68450500395647 -185.92868822387209 0 -185.92868822387209 -82.725399137418208 0 0 0 0 219.5750644842974 -114.38906640078676 0 -114.38906640078676 -186.73932779298229 0 0 0 0 192.69663703258811 -113.96682544187388 0 -113.96682544187388 -53.280195137542705 0 0 0 0 185.66253140990784 -96.555008212750181 0 -96.555008212750181 -92.439148529279919 0 0 0 0 160.12653259768194 -59.423991962771652 0 -59.423991962771652 -69.344865377945098 0 0 0 0 178.82214176666275 -85.391103938903143 0 -85.391103938903143 -36.060849613211758 0 0 0 0 133.86241339523076 -80.475755239651335 0 -80.475755239651335 -33.765454849868547 0 0 0 0 142.85597130788847 -63.415198519253863 0 -63.415198519253863 -39.034532905545234 0 0 0 0 160.3282567950946 -37.032588887735074 0 -37.032588887735074 -75.638642924848682 0 0 0 0 126.7296774817105 -56.88399990563903 0 -56.88399990563903 -14.771327747394025 0 0 0 0 177.30848996282748 -17.409880198884821 0 -17.409880198884821 -64.322896728814158 0 0 0 0 174.75643340305396 -30.426729501874433 0 -30.426729501874433 -25.441504881250694 0 0 0 0 265.15169585862895 -43.466659187964979 0 -43.466659187964979 -95.201021213753847 0 0 0 0 196.97206526803302 -31.893533139628744 0 -31.893533139628744 -96.308879253854684 0 0 0 0 208.99558479056941 -53.497446913495878 0 -53.497446913495878 -73.466435251792063 0 0 0 0 187.06998574549198 -58.679982639459013 0 -58.679982639459013 -67.041237504463425 0 0 0 0 210.08608249946496 -79.659031807639167 0 -79.659031807639167 -50.790868840873372 0 0 0 0 149.63526104300036 -45.102735465742626 0 -45.102735465742626 -27.422680369053523 0 0 0 0 248.27245011083323 -173.50727457481571 0 -173.50727457481571 -19.969588827902953 0 0 0 0 213.31024037079624 -75.54283073489205 0 -75.54283073489205 -114.75419653675817 0 0 0 0 161.19883145219774 -5.0143418138386551 0 -5.0143418138386551 -169.97829647137542 0 0 0 0 185.72747810661713 -52.488871403542362 0 -52.488871403542362 -95.495261157004165 0 0 0 0 187.42640079791454 -50.287597256607114 0 -50.287597256607114 -92.650129205003395 0 0 0 0 159.46419798312672 -31.954539556782947 0 -31.954539556782947 -27.78204146076132 0 0 0 0 152.40686791450207 -0.80020668380529969 0 -0.80020668380529969 -79.157021507857735 0 0 0 0 126.2475781347689 -4.2536850914480056 0 -4.2536850914480056 -17.869408660955742 0 0 0 0 145.77162735115144 -22.395463189011025 0 -22.395463189011025 -18.697567692260293 0 0 0 0 47.667941398885603 14.963734232073289 0 14.963734232073289 2.2863303625606193 0 0 0 0 153.89257932481087 4.6999206015757409 0 4.6999206015757409 19.008182751485947 0 0 0 0 130.38215488676792 -31.29889760930142 0 -31.29889760930142 4.8173306746982814 0 0 0 0 137.37434559698363 -10.738615886500156 0 -10.738615886500156 -5.7212415604772104 0 0 0 0 -108.02893499816855 -500.24117808334995 0 -500.24117808334995 -657.67219282337828 0 0 0 0 49.455737779164338 -307.83221661190328 0 -307.83221661190328 -537.09762218033302 0 0 0 0 194.36821589728061 71.788663356215693 0 71.788663356215693 -666.65036979840079 0 0 0 0 59.982135072176732 -14.401257835884969 0 -14.401257835884969 6.3513961143994102 0 0 0 0 286.16130529883958 -220.28649346348175 0 -220.28649346348175 -512.25537174353303 0 0 0 0 37.666861692343531 -8.6389982155808696 0 -8.6389982155808696 -9.8284995148982759 0 0 0 0 23.199346698129375 135.90052888133141 0 135.90052888133141 -986.50747655606392 0 0 0 0 525.06789673530147 -522.36151375081499 0 -522.36151375081499 -38.314444174802986 0 0 0 0 162.05369353543665 -85.602828612093163 0 -85.602828612093163 71.887785576296665 0 0 0 0 455.20217289626817 -184.59047920569719 0 -184.59047920569719 -696.65145514406504 0 0 0 0 146.37714090313025 -34.849941740932181 0 -34.849941740932181 6.9331400134069554 0 0 0 0 274.3348114315595 46.648685860071055 0 46.648685860071055 -386.79737124870644 0 0 0 0 -155.49824511009137 -146.71629322393073 0 -146.71629322393073 -140.81820535790757 0 0 0 0 186.94848206534516 114.35425708914772 0 114.35425708914772 -305.6856046357525 0 0 0 0 388.73447308543109 402.64155273557026 0 402.64155273557026 -78.480541255707067 0 0 0 0 -1.4825792479334154 4.3474921151221793 0 4.3474921151221793 2.2148591112060245 0 0 0 0 851.1573770896357 183.37033890942075 0 183.37033890942075 -529.45473833604501 0 0 0 0 216.02347611374353 -103.13337906055403 0 -103.13337906055403 59.658424551120333 0 0 0 0 34.519929932765081 514.18519094009753 0 514.18519094009753 293.53409004822061 0 0 0 0 4.5451884133096883 -3.9152338968556677 0 -3.9152338968556677 5.233504053077418 0 0 0 0 -22.380067309961305 -111.99103170292165 0 -111.99103170292165 -204.10588892717351 0 0 0 0 22.961157463054406 8.3686348252183507 0 8.3686348252183507 -13.754047230457218 0 0 0 0 -2.5484656780026853 -1.9154030025333668 0 -1.9154030025333668 43.175790959053302 0 0 0 0 127.56958097458119 74.696278178023022 0 74.696278178023022 -131.05706975399517 0 0 0 0 -1.7797311017952069 4.6258620643536119 0 4.6258620643536119 -19.186522880962315 0 0 0 0 122.09669001827206 -5.1148203669818031 0 -5.1148203669818031 30.807801552165984 0 0 0 0 109.32436150584545 30.385675076895495 0 30.385675076895495 -42.244459028073834 0 0 0 0 231.09392315291916 -6.8437457677282509 0 -6.8437457677282509 -38.816485520248534 0 0 0 0 125.39865233350429 -22.697820129138108 0 -22.697820129138108 -30.144577654753448 0 0 0 0 131.1370701725973 12.100862668199852 0 12.100862668199852 -8.9040964129999338 0 0 0 0 109.40461177346879 -45.154418034071568 0 -45.154418034071568 -38.307752930445247 0 0 0 0 15.158835378528433 4.3878418075646977 0 4.3878418075646977 -31.017178859965021 0 0 0 0 47.069566603662679 -23.527240137104855 0 -23.527240137104855 -9.0825362495124864 0 0 0 0 104.79321925964905 -28.440576093475102 0 -28.440576093475102 -77.146123935841388 0 0 0 0 43.35574884105273 -12.405044329627216 0 -12.405044329627216 -5.2260380109387903 0 0 0 0 65.256728173277224 -11.318169520249285 0 -11.318169520249285 -11.069814343314647 0 0 0 0 57.15426007231595 -12.519392636247517 0 -12.519392636247517 -13.717451394048972 0 0 0 0 48.416268230715886 -10.099160795925911 0 -10.099160795925911 -17.308938693443697 0 0 0 0 58.738089019935614 -12.7631170143801 0 -12.7631170143801 -10.012089460564312 0 0 0 0 114.59431824323838 -5.3610258301073372 0 -5.3610258301073372 -41.195975561257001 0 0 0 0 63.786026626373371 -15.837351496703647 0 -15.837351496703647 -16.345195118448206 0 0 0 0 59.062159445285943 -16.291739658237532 0 -16.291739658237532 -25.716219232528601 0 0 0 0 50.91225849800685 -8.8972594063916404 0 -8.8972594063916404 -22.877810187950672 0 0 0 0 58.997525844430186 -12.871692522377217 0 -12.871692522377217 -17.257183970889997 0 0 0 0 53.841965131381585 4.5829695364951135 0 4.5829695364951135 -26.817073895868361 0 0 0 0 65.594853740585677 8.968864081117772 0 8.968864081117772 -64.363753727786388 0 0 0 0 12.830704277998151 2.1953609442772617 0 2.1953609442772617 -2.7914106412228694 0 0 0 0 102.08116871216771 -15.264194125337326 0 -15.264194125337326 -48.109361085957971 0 0 0 0 57.060763384611789 -12.627676369169009 0 -12.627676369169009 -11.037329821180169 0 0 0 0 67.864435265102657 -22.602015278596809 0 -22.602015278596809 -23.551710631268179 0 0 0 0 68.721785804104002 2.9071322263143884 0 2.9071322263143884 -8.2277440723410109 0 0 0 0 72.639284113902249 -4.6310828187956758 0 -4.6310828187956758 -45.189735436644696 0 0 0 0 317.26301188122488 68.943391772183531 0 68.943391772183531 -44.582263028063608 0 0 0 0 70.238035740672785 5.3354917203873811 0 5.3354917203873811 -7.3001437622588128 0 0 0 0 65.526884744057242 -25.721189590180288 0 -25.721189590180288 -16.236524139811593 0 0 0 0 46.248774359478141 -1.1281121190475858 0 -1.1281121190475858 -16.806407394445564 0 0 0 0 9.6688281085414651 8.2013795747879001 0 8.2013795747879001 1.3416709512197897 0 0 0 0 191.55043496933627 -259.64528752167962 0 -259.64528752167962 -190.38154134315118 0 0 0 0 -309.9908920797925 -119.65251853138034 0 -119.65251853138034 14.182642352070616 0 0 0 0 193.2394354048447 68.605038172913737 0 68.605038172913737 -125.66036588855786 0 0 0 0 0.00046586521787794766 -1.1347683085183409 0 -1.1347683085183409 -3.9815472670438012 0 0 0 0 257.36759046128714 -2.6390499962365084 0 -2.6390499962365084 -267.8085453939093 0 0 0 0 288.48582450577123 -162.73049860375795 0 -162.73049860375795 -218.8269810864731 0 0 0 0 342.14664245694075 21.839986288416185 0 21.839986288416185 -310.34741851299077 0 0 0 0 -205.36504932720254 152.8854323320229 0 152.8854323320229 162.52393023915829 0 0 0 0 20.971175619627076 16.162643047172693 0 16.162643047172693 -13.016999093594706 0 0 0 0 155.39659889375051 -37.762454100524494 0 -37.762454100524494 2.1732025061884634 0 0 0 0 258.9958078986092 63.61430867076524 0 63.61430867076524 -128.71549865231285 0 0 0 0 377.57209721141407 18.73226266079098 0 18.73226266079098 -132.77349644743344 0 0 0 0 526.87522601077944 229.86932113723753 0 229.86932113723753 60.363531187995704 0 0 0 0 243.10254498289942 99.521297699997831 0 99.521297699997831 10.053769513644966 0 0 0 0 525.52291788508035 -36.852455918927049 0 -36.852455918927049 -30.180679966885236 0 0 0 0 140.79179274132912 49.787712005617379 0 49.787712005617379 8.3961022429998593 0 0 0 0 260.16362852925522 -28.367101427062835 0 -28.367101427062835 -25.447951704842183 0 0 0 0 216.2969306920786 2.8294861045642392 0 2.8294861045642392 -68.212783631630984 0 0 0 0 248.45045663807286 -4.7718265751950071 0 -4.7718265751950071 -67.839836693590769 0 0 0 0 96.292099649994952 44.448937319912993 0 44.448937319912993 -51.881509358614721 0 0 0 0 96.379898391605821 -1.6050084057064851 0 -1.6050084057064851 -46.85645036441656 0 0 0 0 145.28563283482254 33.916954104315096 0 33.916954104315096 -57.80175606976627 0 0 0 0 140.1205602288901 46.981256392414707 0 46.981256392414707 -49.731196283423742 0 0 0 0 105.45507413055748 -38.008527106538963 0 -38.008527106538963 32.696457719572436 0 0 0 0 218.03588444639172 -41.741391117921921 0 -41.741391117921921 -31.130438626050818 0 0 0 0 26.463695530872748 43.29785959717951 0 43.29785959717951 -32.023003841342842 0 0 0 0 -43.012200984197989 43.066449436630478 0 43.066449436630478 19.528082798572086 0 0 0 0 24.832873179302545 -4.0398307320145506 0 -4.0398307320145506 -0.46428696814952275 0 0 0 0 1.1471946541150828 15.524521356202769 0 15.524521356202769 -2.2280569621534596 0 0 0 0 15.710792750608626 13.719828451775669 0 13.719828451775669 -20.075723078914454 0 0 0 0 71.765965881579177 8.1891376139994634 0 8.1891376139994634 -18.571010187855279 0 0 0 0 23.7711865859103 22.81569907645428 0 22.81569907645428 -22.217095129454371 0 0 0 0 40.67387359667579 6.2087416643154754 0 6.2087416643154754 -22.412906554665675 0 0 0 0 46.882517946520238 7.6447572199878095 0 7.6447572199878095 -23.21780320021935 0 0 0 0 47.444315486168733 3.5954156387082925 0 3.5954156387082925 -21.355468412915641 0 0 0 0 2.9777929626634432 -12.241876377786468 0 -12.241876377786468 -40.176189649682783 0 0 0 0 43.658193990093423 4.4612702474078105 0 4.4612702474078105 -26.008185561190658 0 0 0 0 75.960650622666435 -4.8332113165809005 0 -4.8332113165809005 -50.069022320532895 0 0 0 0 29.493768333020853 9.2109654202513411 0 9.2109654202513411 -23.307854223821181 0 0 0 0 28.452544115355863 4.288261423081174 0 4.288261423081174 -11.70503339780943 0 0 0 0 78.671587076838478 0.16570518477601581 0 0.16570518477601581 -46.566976563576873 0 0 0 0 49.909140093281167 -34.541599597720051 0 -34.541599597720051 -33.108205714039286 0 0 0 0 27.891235176037299 9.9594847467396903 0 9.9594847467396903 -93.994099924344027 0 0 0 0 71.148549165052827 15.919347053566526 0 15.919347053566526 -7.5607826291948186 0 0 0 0 16.777601183767814 -5.8508156640561939 0 -5.8508156640561939 -3.8424517115294803 0 0 0 0 2.0326629375046394 1.2040041465469358 0 1.2040041465469358 -3.0279834147023275 0 0 0 0 -42.901864957573707 -32.892229676984243 0 -32.892229676984243 38.612579786129572 0 0 0 0 68.994845349931893 72.097137764528497 0 72.097137764528497 102.0283282032342 0 0 0 0 100.1425447466936 35.742022015770772 0 35.742022015770772 -18.67378851848116 0 0 0 0 83.240882885074825 50.903607550035758 0 50.903607550035758 -7.8380290674664721 0 0 0 0 152.23834342417831 55.076193749730464 0 55.076193749730464 -45.236245705123565 0 0 0 0 268.86114191701927 36.861043047915018 0 36.861043047915018 -95.723910366098607 0 0 0 0 162.46389790117973 39.429853907844063 0 39.429853907844063 -60.520436588287339 0 0 0 0 246.31590843823687 58.310569822984704 0 58.310569822984704 -108.67674439097391 0 0 0 0 320.75206240820262 132.93491568526861 0 132.93491568526861 -34.220109686926889 0 0 0 0 153.0105389736309 95.565499406684239 0 95.565499406684239 14.64137143554035 0 0 0 0 245.34117567452631 74.201295435148495 0 74.201295435148495 -52.359955502537105 0 0 0 0 101.53842428819917 83.60886760831454 0 83.60886760831454 17.695390082885297 0 0 0 0 196.82605605034041 169.44703627863055 0 169.44703627863055 94.814940678643325 0 0 0 0 89.183636844456487 154.23747242805575 0 154.23747242805575 272.32316785267176 0 0 0 0 -17.443381374716409 56.7736194541028 0 56.7736194541028 183.24161527851538 0 0 0 0 223.21464725556871 225.11077885972009 0 225.11077885972009 162.13092201034851 0 0 0 0 343.71419076868915 148.9971727378138 0 148.9971727378138 -51.412720148777225 0 0 0 0 455.94157730008374 301.20670675530687 0 301.20670675530687 152.231795429464 0 0 0 0 566.0242704259399 157.40661553074824 0 157.40661553074824 -64.369195233565733 0 0 0 0 325.73461225903884 -9.7240451432826376 0 -9.7240451432826376 -157.7930003468 0 0 0 0 657.76985441214492 -31.912090265685038 0 -31.912090265685038 -299.90296238001611 0 0 0 0 183.57356212102559 29.477552652872419 0 29.477552652872419 -87.808145381798568 0 0 0 0 0.52764754382187107 -0.72724488425619427 0 -0.72724488425619427 -0.16499295242458167 0 0 0 0 0.6458020700315199 1.2647013131831386 0 1.2647013131831386 1.1832803978678896 0 0 0 0 27.007944985391077 584.39247179835615 0 584.39247179835615 308.04116035576226 0 0 0 0 607.01476037581597 141.35865108439566 0 141.35865108439566 -215.50399728734101 0 0 0 0 459.156657118976 65.320482751511008 0 65.320482751511008 -148.35359663886447 0 0 0 0 423.17476878756133 98.724267250966477 0 98.724267250966477 -142.71033320042238 0 0 0 0 520.54816488072538 27.567263496535816 0 27.567263496535816 -336.05806953075898 0 0 0 0 1.0905846163724338 0.85336222725638322 0 0.85336222725638322 0.98043946616022026 0 0 0 0 363.67696546919615 -115.1591051070518 0 -115.1591051070518 674.32718301152272 0 0 0 0 494.81370481669728 -428.53109723548141 0 -428.53109723548141 125.84940074469432 0 0 0 0 914.7487001587142 -375.07812121702455 0 -375.07812121702455 -301.82200408178505 0 0 0 0 692.29869350018271 -135.59053722144381 0 -135.59053722144381 -434.68209677243703 0 0 0 0 429.38052999204956 -284.92766908164549 0 -284.92766908164549 31.439766224541017 0 0 0 0 6.5125543732545452 -1.1425455108242701 0 -1.1425455108242701 1.0419257766493395 0 0 0 0 213.45031095301965 -106.20978788486809 0 -106.20978788486809 -64.758778277188867 0 0 0 0 269.35395804488508 305.50373525580562 0 305.50373525580562 292.86765315372793 0 0 0 0 155.93271254956198 -187.76128888877247 0 -187.76128888877247 176.92491261117175 0 0 0 0 -58.651246434361383 -46.868855128746873 0 -46.868855128746873 102.03790906306767 0 0 0 0 195.3398276052958 -128.36479929084658 0 -128.36479929084658 40.237672511916571 0 0 0 0 401.48672377481853 -67.750918824162909 0 -67.750918824162909 -61.449477259496689 0 0 0 0 172.81554393765691 15.663236375097767 0 15.663236375097767 -30.795900845286269 0 0 0 0 159.05943264549569 -37.117010547362042 0 -37.117010547362042 -3.8058064163387826 0 0 0 0 30.783785977699154 -34.115536162627677 0 -34.115536162627677 2.2550259873551113 0 0 0 0 45.636885864822943 -32.626700183921855 0 -32.626700183921855 -9.9814031761643491 0 0 0 0 38.837385216240364 -52.800086733876924 0 -52.800086733876924 35.085471786253947 0 0 0 0 -5.3333800754444383 5.4821006453680639 0 5.4821006453680639 21.107451823236715 0 0 0 0 -3.661997225959567 55.829404819245951 0 55.829404819245951 -59.637025324596834 0 0 0 0 9.9093354100114084 3.7704921395934434 0 3.7704921395934434 -51.149845011071193 0 0 0 0 8.6819658681237097 -7.7628955236875115 0 -7.7628955236875115 -29.628181443158073 0 0 0 0 75.177322555353385 0.98690707226853647 0 0.98690707226853647 -24.077034427690023 0 0 0 0 83.922677753489552 -6.9009973958030741 0 -6.9009973958030741 -19.104586728301229 0 0 0 0 94.520879240539216 19.60287722057889 0 19.60287722057889 -7.4147271859076227 0 0 0 0 16.26662940055423 -7.3002928472504891 0 -7.3002928472504891 -15.824837762752409 0 0 0 0 37.295447318612787 -55.519427384801929 0 -55.519427384801929 -69.921177380723748 0 0 0 0 36.764052113032776 -23.075264402704153 0 -23.075264402704153 -37.70398684235014 0 0 0 0 70.363079745675222 -22.277034771087035 0 -22.277034771087035 -46.157069605628621 0 0 0 0 41.255370561119769 -38.50122783989093 0 -38.50122783989093 -6.5350540609164876 0 0 0 0 75.576271610802905 -68.828808902409946 0 -68.828808902409946 -47.19014809584678 0 0 0 0 6.1694333350288844 -50.668561520945104 0 -50.668561520945104 -65.866774424928735 0 0 0 0 34.777769224202984 -48.570072247214966 0 -48.570072247214966 19.070223251537982 0 0 0 0 55.353975862202788 -22.020636160664139 0 -22.020636160664139 -71.391321894951659 0 0 0 0 16.232868905063313 -33.992729388149606 0 -33.992729388149606 3.5516736729741805 0 0 0 0 43.4141700241873 -9.439393262017866 0 -9.439393262017866 -4.6381223987959777 0 0 0 0 -22.142458468151744 -46.810865369599924 0 -46.810865369599924 5.4676820489056883 0 0 0 0 41.024076789606625 -45.610885292935677 0 -45.610885292935677 -26.488828670561816 0 0 0 0 7.3648323965480813 -35.091574790477807 0 -35.091574790477807 -12.416893664303643 0 0 0 0 32.817077317979056 -20.597641503904924 0 -20.597641503904924 -4.8961006135432399 0 0 0 0 6.6160168601031444 -14.081766011820328 0 -14.081766011820328 -1.5405468552539223 0 0 0 0 -4.5828719737381931 -62.801343823786858 0 -62.801343823786858 -4.1762963847041812 0 0 0 0 5.5589056148647344 -2.1557405110773686 0 -2.1557405110773686 -5.3691723723716063 0 0 0 0 58.309836187137989 -32.183503454820311 0 -32.183503454820311 -97.258498827000949 0 0 0 0 69.571518465607369 -61.316399587021351 0 -61.316399587021351 -128.43246274013882 0 0 0 0 49.572377102231258 -64.715241616610911 0 -64.715241616610911 -68.549372831824257 0 0 0 0 46.292955863333191 -18.431116647463114 0 -18.431116647463114 -41.583225336651594 0 0 0 0 28.960896514828228 -28.624667156248414 0 -28.624667156248414 -13.286039071552532 0 0 0 0 49.432604693865869 -45.729041339864125 0 -45.729041339864125 -58.115499616593297 0 0 0 0 49.099315523795667 -40.720500850207372 0 -40.720500850207372 2.8937686237659364 0 0 0 0 52.794115560296632 -33.716327094384951 0 -33.716327094384951 -34.541336502614286 0 0 0 0 97.694296543959354 55.607741086749229 0 55.607741086749229 22.790864599622182 0 0 0 0 80.436153792499681 -47.815535927035853 0 -47.815535927035853 -36.367780258191488 0 0 0 0 288.82661532327984 152.34909987347078 0 152.34909987347078 -17.701862862240887 0 0 0 0 231.38304925055854 27.547328339585874 0 27.547328339585874 -32.265883791395026 0 0 0 0 103.87319415438469 126.55054450016996 0 126.55054450016996 -3.5234408517917473 0 0 0 0 -23.401864147213928 -14.130344622941266 0 -14.130344622941266 -11.439378001346086 0 0 0 0 21.448094115592539 -87.275850897487544 0 -87.275850897487544 -77.891225821928401 0 0 0 0 58.559974402563967 -37.913464071165208 0 -37.913464071165208 -40.766411966760643 0 0 0 0 -150.39428596951075 60.040140997787375 0 60.040140997787375 135.49166800616513 0 0 0 0 116.94437729677156 -107.11276276738181 0 -107.11276276738181 -41.717119532451761 0 0 0 0 27.471357377824589 -2.0596492890760043 0 -2.0596492890760043 1.358086736479946 0 0 0 0 482.38339621588602 -264.32268289779131 0 -264.32268289779131 175.77723364682672 0 0 0 0 85.441013833744364 -89.962042699385762 0 -89.962042699385762 -70.717340421070361 0 0 0 0 3.2046006293521927 -0.27804564494389439 0 -0.27804564494389439 0.90493878692206131 0 0 0 0 605.72711278486895 -551.17776024236105 0 -551.17776024236105 399.44338416800201 0 0 0 0 2.5987816482558799 -1.9278366926432646 0 -1.9278366926432646 1.8463181955396233 0 0 0 0 168.54770394600928 27.222157126514503 0 27.222157126514503 -143.09006463063383 0 0 0 0 -170.24657399574426 -16.741361987191112 0 -16.741361987191112 218.3281236251114 0 0 0 0 6.2587128561897245 1.5241965298432447 0 1.5241965298432447 1.910097092794345 0 0 0 0 -268.49520153777121 219.06449442220992 0 219.06449442220992 -120.2743189247376 0 0 0 0 274.72588135000842 323.22136911399684 0 323.22136911399684 161.88887179221695 0 0 0 0 500.75420148732519 275.75427393772679 0 275.75427393772679 -61.64085414856163 0 0 0 0 294.39012311167608 120.50357693820479 0 120.50357693820479 -53.611979372044516 0 0 0 0 75.361201233359679 -48.224467605909012 0 -48.224467605909012 -20.361731813034567 0 0 0 0 -11.866218411192676 -81.334368385398193 0 -81.334368385398193 -28.679601117171842 0 0 0 0 -1.3691039362225994 -0.51992025956160504 0 -0.51992025956160504 -11.907802312692191 0 0 0 0 151.76106000319032 -24.521881022422349 0 -24.521881022422349 8.7016122893037391 0 0 0 0 238.08987436187908 -20.262593053467754 0 -20.262593053467754 -43.242268650028564 0 0 0 0 178.98769767257772 -4.9462771489394299 0 -4.9462771489394299 8.5455841061921092 0 0 0 0 68.16532311350511 -97.300700589918733 0 -97.300700589918733 -41.626998043506319 0 0 0 0 132.65753157032668 -79.448428690511719 0 -79.448428690511719 -102.8783733103246 0 0 0 0 152.62675892023981 -100.76315875119872 0 -100.76315875119872 -97.647180283000125 0 0 0 0 68.689945995515473 -99.768608157264225 0 -99.768608157264225 -66.52142394306793 0 0 0 0 333.22832445889253 35.798402807932916 0 35.798402807932916 -56.790633372042066 0 0 0 0 110.40123889951428 -68.36405728912996 0 -68.36405728912996 -57.887576926816109 0 0 0 0 89.583657661940379 6.0849069869466916 0 6.0849069869466916 -25.323874578646496 0 0 0 0 83.682408344161445 -1.5137432776124342 0 -1.5137432776124342 -25.824719423573697 0 0 0 0 85.930145861788333 16.213237766523434 0 16.213237766523434 -20.464943468308434 0 0 0 0 43.912663275115698 -20.175045163550315 0 -20.175045163550315 -30.43241555576175 0 0 0 0 145.75051844969164 -26.839019462343003 0 -26.839019462343003 -69.353289526106892 0 0 0 0 73.653809963860112 2.8032676522477686 0 2.8032676522477686 -18.149665592882229 0 0 0 0 91.3290072472264 -36.101012582371368 0 -36.101012582371368 -60.012443662810256 0 0 0 0 67.400765643197701 -69.064615846968081 0 -69.064615846968081 -44.275062354834517 0 0 0 0 86.419605035913264 -73.383319062702867 0 -73.383319062702867 -58.811525612457217 0 0 0 0 70.730512408882532 -52.023908527976801 0 -52.023908527976801 -54.950959264167977 0 0 0 0 77.537732773272182 -39.360579883996706 0 -39.360579883996706 -31.681813076074832 0 0 0 0 43.25402223380388 -37.377910193462412 0 -37.377910193462412 -44.953785044853703 0 0 0 0 6.1679414253703726 -78.655809796173799 0 -78.655809796173799 22.581583520889581 0 0 0 0 66.025001246912339 -28.392871788935089 0 -28.392871788935089 0.64821143576694074 0 0 0 0 132.98546154513315 -56.725103506245659 0 -56.725103506245659 -160.37612572626495 0 0 0 0 47.649780885922155 -103.48910791828143 0 -103.48910791828143 19.212254446660154 0 0 0 0 192.56283124692345 -75.21619250858339 0 -75.21619250858339 -66.288655615772313 0 0 0 0 89.470899251876673 -30.35437405690271 0 -30.35437405690271 -6.5415164015492318 0 0 0 0 140.8127163906629 20.328906624951401 0 20.328906624951401 -184.62782358831646 0 0 0 0 77.927014530158885 -46.760673380565095 0 -46.760673380565095 -5.6394088611268671 0 0 0 0 99.941209529949447 -47.143835016302091 0 -47.143835016302091 -28.344898780911535 0 0 0 0 25.282201769694609 -10.491919581080435 0 -10.491919581080435 -18.666044407255754 0 0 0 0 135.18808182362864 -33.281874086504104 0 -33.281874086504104 -24.747187332564863 0 0 0 0 183.90804754178862 -39.061672592433752 0 -39.061672592433752 -66.447753054382702 0 0 0 0 154.57449171348708 3.6951170365559847 0 3.6951170365559847 -53.018375504877028 0 0 0 0 95.796668634945902 -23.202350321861985 0 -23.202350321861985 -10.964339516600472 0 0 0 0 19.084605908613483 -3.6093407131892619 0 -3.6093407131892619 -23.100278705909666 0 0 0 0 57.047745713663971 -46.623747537905047 0 -46.623747537905047 37.390068027644702 0 0 0 0 115.10957884738855 -114.67324048981482 0 -114.67324048981482 58.485410227754983 0 0 0 0 -2.8078415342737277 2.7059726531136299 0 2.7059726531136299 -5.5626982107445624 0 0 0 0 358.86550106992945 120.17890521356048 0 120.17890521356048 -189.77405605498689 0 0 0 0 -0.50572512760975386 -6.261897861641252 0 -6.261897861641252 -10.510304924565999 0 0 0 0 94.013961401615234 175.80048527467602 0 175.80048527467602 -222.75027170657245 0 0 0 0 314.34122696240229 -367.58780468922623 0 -367.58780468922623 410.38715476316565 0 0 0 0 6.6556601710091527 -2.4159641765445921 0 -2.4159641765445921 -1.9729174131807667 0 0 0 0 228.6407363838116 83.594542439561337 0 83.594542439561337 -162.71753186970864 0 0 0 0 16.278049436393644 103.24222478077907 0 103.24222478077907 3.7145241016664841 0 0 0 0 70.398896839280496 -36.523010000558827 0 -36.523010000558827 136.44912590648681 0 0 0 0 344.62779980364758 -398.32383430339451 0 -398.32383430339451 402.65167218911074 0 0 0 0 655.50420495755316 46.31938404282505 0 46.31938404282505 -469.89668676998781 0 0 0 0 150.73963040168928 -72.323323820682788 0 -72.323323820682788 23.086362517736084 0 0 0 0 43.81718822139328 -138.74046872415721 0 -138.74046872415721 202.27004512951692 0 0 0 0 92.186971664516022 58.436427826686781 0 58.436427826686781 -245.60321489590797 0 0 0 0 13.748833879305501 0.50470201192709041 0 0.50470201192709041 -1.3769066060097856 0 0 0 0 88.838133878145527 -47.635438147167974 0 -47.635438147167974 30.362679413088358 0 0 0 0 142.39037684559662 3.9912516728365972 0 3.9912516728365972 -29.957908708867308 0 0 0 0 72.277582618418819 -80.181294831090781 0 -80.181294831090781 -112.8186842637856 0 0 0 0 -63.205843872819969 60.237311634382991 0 60.237311634382991 -69.170498388059514 0 0 0 0 180.96488114564636 -34.228928965748764 0 -34.228928965748764 -54.506764885791029 0 0 0 0 60.253074641059357 -51.091730471301616 0 -51.091730471301616 118.5174882465185 0 0 0 0 3.6915453633196975 1.832815701884158 0 1.832815701884158 0.3186960960745111 0 0 0 0 52.250907920785721 -41.064397179076877 0 -41.064397179076877 23.763583041431048 0 0 0 0 228.83345571261452 -195.77523844376401 0 -195.77523844376401 104.39916003944739 0 0 0 0 169.46131205172924 -61.01750859076958 0 -61.01750859076958 68.200803875905876 0 0 0 0 -327.21399003513216 -303.74443084079667 0 -303.74443084079667 202.1254038163263 0 0 0 0 340.96746458681082 -401.89893012965376 0 -401.89893012965376 171.14517335900257 0 0 0 0 0.20854243807457529 -2.261557353153492 0 -2.261557353153492 -2.5721527309667778 0 0 0 0 637.93796309119716 61.670803744318277 0 61.670803744318277 -763.69253003438644 0 0 0 0 -1803.9960722076194 -368.18017603328644 0 -368.18017603328644 334.70240999901944 0 0 0 0 142.66790185508194 27.940335650418348 0 27.940335650418348 397.75320012795601 0 0 0 0 88.956698030867301 -24.658432619686934 0 -24.658432619686934 38.663000006802577 0 0 0 0 111.68111380648406 76.607069822927542 0 76.607069822927542 -133.75595123643507 0 0 0 0 220.0024367599417 -105.0023464280423 0 -105.0023464280423 -316.87040351832229 0 0 0 0 215.62969694010462 -84.388239495478956 0 -84.388239495478956 -25.397506984126721 0 0 0 0 482.7164947448382 -177.266382751028 0 -177.266382751028 2.2244194037307352 0 0 0 0 410.67580449067827 -140.57482891582777 0 -140.57482891582777 57.416483250533929 0 0 0 0 500.75473713203246 -222.76837822635775 0 -222.76837822635775 73.664851700805173 0 0 0 0 620.28244775464464 -291.71220684362675 0 -291.71220684362675 70.331420371421927 0 0 0 0 -48.344259127406985 -7.5257640341972092 0 -7.5257640341972092 64.168868894659681 0 0 0 0 -20.18007224131361 15.262143254750413 0 15.262143254750413 -32.746052392044476 0 0 0 0 -2.0649756627062743 48.616937408482443 0 48.616937408482443 24.522925790779937 0 0 0 0 6.3031831242697081 -51.798320250235747 0 -51.798320250235747 20.279517924496531 0 0 0 0 1.0932565582690899 0.36574593236851172 0 0.36574593236851172 -1.5261468573040391 0 0 0 0 -131.02567329316662 -27.039528251537831 0 -27.039528251537831 40.528773316177194 0 0 0 0 -44.269646210788778 29.741272626291902 0 29.741272626291902 1.0099308573435337 0 0 0 0 12.96680597176778 -44.398639735318483 0 -44.398639735318483 3.3814670632737682 0 0 0 0 43.864891353877738 -99.739919341185896 0 -99.739919341185896 16.912937600292935 0 0 0 0 -59.701994734968139 -37.073413231432482 0 -37.073413231432482 -12.208973622188978 0 0 0 0 27.698212758070213 -90.782700455671829 0 -90.782700455671829 63.644837001870656 0 0 0 0 29.146787174608509 -10.876392931841632 0 -10.876392931841632 -3.779162999996986 0 0 0 0 77.046935557083998 -20.519731250183384 0 -20.519731250183384 -87.292969917536311 0 0 0 0 9.706695617155674 -77.09909210039811 0 -77.09909210039811 19.193212517026382 0 0 0 0 7.9585435564722502 -65.697029610590334 0 -65.697029610590334 2.9078761878568002 0 0 0 0 2.8835033518388649 0.57072470908236639 0 0.57072470908236639 -1.9915215991456261 0 0 0 0 203.19139288333531 -180.74671270095158 0 -180.74671270095158 -13.50297728735211 0 0 0 0 -13.776681464142712 -20.55060220901396 0 -20.55060220901396 39.449576793018878 0 0 0 0 47.359104324763393 -16.045727930707471 0 -16.045727930707471 7.0642176490700876 0 0 0 0 12.972793654344059 -43.359485179515104 0 -43.359485179515104 -1.4684380763546869 0 0 0 0 -40.996281055606232 -45.059006645190038 0 -45.059006645190038 34.759557524760794 0 0 0 0 -271.90811897991489 -104.9115900681943 0 -104.9115900681943 16.240255973702006 0 0 0 0 -262.98611660298002 -32.594999133960073 0 -32.594999133960073 14.47810217899314 0 0 0 0 1.9210794485247433 1.1758412813507064 0 1.1758412813507064 -2.2750883705688523 0 0 0 0 -294.22995525570059 -38.32561150046763 0 -38.32561150046763 8.01106697348132 0 0 0 0 11.23038210837432 -46.052672005563387 0 -46.052672005563387 4.7059828959738148 0 0 0 0 331.53121732209547 -109.98568296027088 0 -109.98568296027088 23.122670816297614 0 0 0 0 359.006186119841 -67.500013326558928 0 -67.500013326558928 21.187636224273319 0 0 0 0 326.62124174916744 -79.199394131527981 0 -79.199394131527981 18.57643529809593 0 0 0 0 250.33567160738312 -134.31401876997552 0 -134.31401876997552 27.715673615048217 0 0 0 0 339.02714919309801 -16.807856234786414 0 -16.807856234786414 12.310164123677168 0 0 0 0 264.93243835774319 -45.291201948858088 0 -45.291201948858088 20.583488586298699 0 0 0 0 342.13550311679683 -17.304727066260511 0 -17.304727066260511 -16.256604749240068 0 0 0 0 438.07726124072724 75.95905418721577 0 75.95905418721577 74.318168011144735 0 0 0 0 469.98385869549929 -105.86695427217728 0 -105.86695427217728 -74.959567611661441 0 0 0 0 427.12843726545907 -37.01730230617909 0 -37.01730230617909 -41.476900911924531 0 0 0 0 403.75985774429137 -25.978505109367688 0 -25.978505109367688 -16.399961933817949 0 0 0 0 237.01669332649908 -66.72044381732394 0 -66.72044381732394 -9.3287919641279586 0 0 0 0 303.06443284613488 10.398062554393618 0 10.398062554393618 -67.702336504011328 0 0 0 0 283.80241502078934 -72.799167600829605 0 -72.799167600829605 -42.316998304830122 0 0 0 0 277.18882415437838 -48.263971571525872 0 -48.263971571525872 134.32290059521756 0 0 0 0 410.51029816633763 -135.23601631679458 0 -135.23601631679458 9.9014138956044917 0 0 0 0 65.45771618148683 -120.91448140507146 0 -120.91448140507146 47.485931528941364 0 0 0 0 229.47525140042853 -112.6165255408132 0 -112.6165255408132 -31.428806216428256 0 0 0 0 227.83500436052418 -125.9030110984686 0 -125.9030110984686 33.482120311113022 0 0 0 0 232.78255940186 -52.314080684365081 0 -52.314080684365081 -36.60288940850478 0 0 0 0 8.3828626759672993 -45.961800145124336 0 -45.961800145124336 4.1696172662095634 0 0 0 0 7.2625847601168516 -30.430932659717996 0 -30.430932659717996 11.017062676774003 0 0 0 0 27.708381030028249 -18.528431987470867 0 -18.528431987470867 6.9539339734192254 0 0 0 0 38.57989637549872 -24.175567274511195 0 -24.175567274511195 2.4630735425798775 0 0 0 0 38.714578821837222 -16.977115502701622 0 -16.977115502701622 8.77858963430117 0 0 0 0 35.495299982494544 -31.27899692723895 0 -31.27899692723895 3.2830255579310688 0 0 0 0 55.392320128726169 -12.11301542394267 0 -12.11301542394267 7.8679116067687573 0 0 0 0 47.641344033412679 -25.208156138653976 0 -25.208156138653976 3.1903187994576001 0 0 0 0 79.69565926755422 -35.572590153554302 0 -35.572590153554302 1.4116381605763308 0 0 0 0 108.88125080869213 -2.036678749602288 0 -2.036678749602288 23.724373970380839 0 0 0 0 47.470844696908898 -23.233901944500758 0 -23.233901944500758 40.016953168051259 0 0 0 0 60.748607871151066 -19.050239983332254 0 -19.050239983332254 3.0615539137694459 0 0 0 0 46.393120128825103 -26.565444933507024 0 -26.565444933507024 2.034213523786093 0 0 0 0 32.915287885082151 -45.517794455476576 0 -45.517794455476576 1.3546014970178604 0 0 0 0 44.25539002537198 -26.662742503713162 0 -26.662742503713162 4.4445022007985244 0 0 0 0 44.880410842853962 -25.681923895257569 0 -25.681923895257569 5.9696917263354408 0 0 0 0 238.57399081543554 -64.246289326254555 0 -64.246289326254555 -36.303708277673735 0 0 0 0 216.00533976841689 -59.968818731750616 0 -59.968818731750616 -25.235064890141075 0 0 0 0 210.86758282196024 -38.571079154492509 0 -38.571079154492509 18.217523211049411 0 0 0 0 161.07096699541088 -34.278925690425751 0 -34.278925690425751 -4.0311398956257865 0 0 0 0 207.40882192182471 -25.247776406549747 0 -25.247776406549747 -29.700753224820346 0 0 0 0 95.64981258568946 12.398235606397382 0 12.398235606397382 -7.7806151652744191 0 0 0 0 216.13260338233522 -32.034356089787252 0 -32.034356089787252 -27.711665015539438 0 0 0 0 237.76910599178598 -42.344280851841489 0 -42.344280851841489 -62.253886675302056 0 0 0 0 36.29902863377356 -13.766020429797209 0 -13.766020429797209 18.112480933918164 0 0 0 0 29.354029116809215 -1.9304932979709974 0 -1.9304932979709974 19.235864301068432 0 0 0 0 -230.69218647355592 -22.722272537203025 0 -22.722272537203025 183.06894260649187 0 0 0 0 10.933239293422957 -63.870365879464771 0 -63.870365879464771 154.03929133211295 0 0 0 0 10.14059994924844 7.7613781445655121 0 7.7613781445655121 9.6671759111015767 0 0 0 0 -128.77395848514789 82.037123370460449 0 82.037123370460449 215.56238743058566 0 0 0 0 -456.95436214685833 55.442067673470774 0 55.442067673470774 241.21289065669407 0 0 0 0 -447.21694671358273 122.27527254285917 0 122.27527254285917 170.35080149767418 0 0 0 0 99.04695412057481 -67.748235118707498 0 -67.748235118707498 90.794541592678797 0 0 0 0 126.95844332877823 -235.1203824135273 0 -235.1203824135273 149.91477361817556 0 0 0 0 45.708797318720826 -21.465782636675613 0 -21.465782636675613 17.392269117046453 0 0 0 0 4.4744993068076013 4.6197886995596562 0 4.6197886995596562 4.9976359876582777 0 0 0 0 40.413865232654643 -18.368407461633296 0 -18.368407461633296 12.910297339407407 0 0 0 0 45.47807879523134 -16.026430074911332 0 -16.026430074911332 13.416871518072185 0 0 0 0 45.916003726480994 -13.402168730417543 0 -13.402168730417543 8.5396843814942258 0 0 0 0 45.489704820767201 -11.584900357304377 0 -11.584900357304377 13.159969765554706 0 0 0 0 45.960053753973625 -11.360583577837133 0 -11.360583577837133 12.294463334692409 0 0 0 0 47.987715074576045 -9.4815086290809631 0 -9.4815086290809631 12.99072595196958 0 0 0 0 47.488864388527873 -8.6699736499322171 0 -8.6699736499322171 14.13149419851743 0 0 0 0 45.056051698129522 -17.594327130153033 0 -17.594327130153033 5.7895548013439111 0 0 0 0 46.583909289831354 -10.746186092479547 0 -10.746186092479547 11.713728531542074 0 0 0 0 0.73345156731150496 -0.14425791925836506 0 -0.14425791925836506 -0.41173382498171662 0 0 0 0 50.670743824865085 -10.281449351433849 0 -10.281449351433849 1.923104948860427 0 0 0 0 106.26558391554863 -22.04544779306525 0 -22.04544779306525 -36.094005445878793 0 0 0 0 38.867369722524018 78.690632560446829 0 78.690632560446829 -69.614647475031234 0 0 0 0 31.401353296794696 49.474953203935002 0 49.474953203935002 5.1588700517568213 0 0 0 0 132.38479748634563 34.382199517889603 0 34.382199517889603 -45.258852424929501 0 0 0 0 -24.056477713638742 18.907532439880015 0 18.907532439880015 -46.694174037871562 0 0 0 0 39.17483555166109 -117.32984782946096 0 -117.32984782946096 40.889552753471435 0 0 0 0 40.339339770209335 -54.950777665224905 0 -54.950777665224905 -18.360315729365539 0 0 0 0 -0.39694006985986974 1.4991293911228709 0 1.4991293911228709 -0.30721058305004334 0 0 0 0 -82.959530072163034 -47.96184063209148 0 -47.96184063209148 5.8355560109148428 0 0 0 0 37.30484317968876 -2.2388565271339758 0 -2.2388565271339758 18.070877021473279 0 0 0 0 40.046068761172293 -5.939414917447543 0 -5.939414917447543 4.321003431630924 0 0 0 0 -134.48340940980415 52.089995336791617 0 52.089995336791617 47.949000308757377 0 0 0 0 -77.510594158370623 127.68062649946319 0 127.68062649946319 -6.8646444284986501 0 0 0 0 166.77781519099517 81.028003915558656 0 81.028003915558656 -65.257980065189258 0 0 0 0 175.92251698317341 -58.227467666540406 0 -58.227467666540406 -5.722284839986969 0 0 0 0 -31.718911300376931 47.686683868198543 0 47.686683868198543 6.9401305926730856 0 0 0 0 69.823202321298595 40.149181306640457 0 40.149181306640457 -7.1189884803779933 0 0 0 0 89.32401972894877 20.486414067459918 0 20.486414067459918 -40.900391370616489 0 0 0 0 42.814145746875695 25.293350402456312 0 25.293350402456312 1.7806045556051942 0 0 0 0 -38.263265343910462 18.488398780719763 0 18.488398780719763 -0.64616644424495462 0 0 0 0 64.731342315710208 17.322736168534902 0 17.322736168534902 34.96314145321594 0 0 0 0 -4.9514030434002052 150.28107533994626 0 150.28107533994626 -48.249904602807874 0 0 0 0 -140.44212481051727 96.658376449993739 0 96.658376449993739 -52.336113407010089 0 0 0 0 -26.558269419358112 213.14404262734752 0 213.14404262734752 39.989090904609839 0 0 0 0 -103.0444687974159 172.18365594880561 0 172.18365594880561 18.996212927730085 0 0 0 0 -496.56533234203562 342.31932911165086 0 342.31932911165086 11.894904667500668 0 0 0 0 -278.66865801584026 -27.107330731762886 0 -27.107330731762886 128.36890221813701 0 0 0 0 -6.1793496438429116 -2.0537866320411133 0 -2.0537866320411133 1.224230888711844 0 0 0 0 -35.527277667844828 84.306175217546297 0 84.306175217546297 18.569938160941092 0 0 0 0 -11.531115727662808 9.3510679305380187 0 9.3510679305380187 5.3798872527742141 0 0 0 0 -64.332415357192076 183.8980699338149 0 183.8980699338149 107.07950662405528 0 0 0 0 -279.13135104534012 239.39376447332234 0 239.39376447332234 97.318974322690337 0 0 0 0 -414.44305010270182 472.76768482125635 0 472.76768482125635 231.0837478299045 0 0 0 0 56.358138257886822 -148.73738488889694 0 -148.73738488889694 -55.933191310798065 0 0 0 0 -112.93095661616826 386.88486595743234 0 386.88486595743234 -572.86259311836329 0 0 0 0 -185.59316970679356 181.78283083186125 0 181.78283083186125 393.27818777773518 0 0 0 0 -366.16961948251264 344.54292133684839 0 344.54292133684839 421.50435385911078 0 0 0 0 58.634879623983579 164.95836548461739 0 164.95836548461739 316.27085776156218 0 0 0 0 -66.724864484034697 341.52426865225152 0 341.52426865225152 348.34224450536931 0 0 0 0 -443.23228337180626 242.78681997642798 0 242.78681997642798 565.54944288889237 0 0 0 0 -536.46072632541109 2.7231738393365958 0 2.7231738393365958 225.61008932818049 0 0 0 0 -371.89244499718188 230.50381745042614 0 230.50381745042614 372.96039912996457 0 0 0 0 -365.11590791055642 325.08242104586589 0 325.08242104586589 236.63523454209098 0 0 0 0 1552.9151187098214 -480.10658551366032 0 -480.10658551366032 155.76103817472904 0 0 0 0 912.86331077155774 -213.88225833227352 0 -213.88225833227352 392.53371740018974 0 0 0 0 2899.4997143379551 -104.65630278707886 0 -104.65630278707886 387.81485900356506 0 0 0 0 1135.2143223716739 -1.4944417196511495 0 -1.4944417196511495 163.28252575496026 0 0 0 0 116.63669693920201 327.9816519944095 0 327.9816519944095 767.90412607962026 0 0 0 0 271.25515082271158 83.482575391753926 0 83.482575391753926 185.31269678631656 0 0 0 0 1025.3791342180812 -152.08826916857106 0 -152.08826916857106 -117.29562055775023 0 0 0 0 755.06682771850683 -316.95906380834094 0 -316.95906380834094 200.27888287345195 0 0 0 0 974.84480088264536 -426.97756275523443 0 -426.97756275523443 147.36784432816967 0 0 0 0 331.26405054787756 11.473165390132635 0 11.473165390132635 52.008147535578246 0 0 0 0 780.28530191575192 -81.764077508809805 0 -81.764077508809805 -56.270196984225549 0 0 0 0 580.61842221993356 -205.50963755833709 0 -205.50963755833709 164.07649236260295 0 0 0 0 392.4131143149898 7.1272019782427378 0 7.1272019782427378 -73.563090270026805 0 0 0 0 216.98697784748219 351.65523553945422 0 351.65523553945422 -548.81023881712918 0 0 0 0 370.39243634531886 7.5833872022867581 0 7.5833872022867581 -6.075708447742727 0 0 0 0 405.57691144360797 203.70861799106569 0 203.70861799106569 -254.45710856230289 0 0 0 0 73.257005774763456 219.96617384279125 0 219.96617384279125 -30.722671926456314 0 0 0 0 -24.491786324826535 217.5386006849958 0 217.5386006849958 -26.238098792440724 0 0 0 0 211.02258560065093 153.36819089141864 0 153.36819089141864 -115.67213106209294 0 0 0 0 560.88368400351101 -229.04411456880371 0 -229.04411456880371 150.86934859081521 0 0 0 0 461.53816301540792 53.117592039314331 0 53.117592039314331 -49.460279381790315 0 0 0 0 194.59132436524669 136.90900581348251 0 136.90900581348251 -0.7601433233685384 0 0 0 0 359.35777218509247 43.68649550612281 0 43.68649550612281 -76.039050655257597 0 0 0 0 413.66101699321007 -192.05618583397518 0 -192.05618583397518 123.65881695746066 0 0 0 0 246.42895194330777 7.7343186820426126 0 7.7343186820426126 71.488341651223891 0 0 0 0 827.09033520633966 -428.40338222692026 0 -428.40338222692026 165.43711872672429 0 0 0 0 269.50050684418602 -193.5409741049989 0 -193.5409741049989 151.54978814213973 0 0 0 0 304.56891808056389 -311.01074632252494 0 -311.01074632252494 303.20485502656447 0 0 0 0 553.00389207123226 -817.20610675273019 0 -817.20610675273019 376.58380738848882 0 0 0 0 1323.6651075110785 -608.86412277469663 0 -608.86412277469663 9.7967938327838056 0 0 0 0 1333.3834625271502 -547.5770614662805 0 -547.5770614662805 4.8467655707572703 0 0 0 0 804.87112667442125 -479.69798552624343 0 -479.69798552624343 185.79781413275668 0 0 0 0 793.79344220846542 -392.70722295600854 0 -392.70722295600854 400.96943286118676 0 0 0 0 1282.373221137479 -284.38001031004978 0 -284.38001031004978 226.43801406331659 0 0 0 0 1493.4191333095478 -554.16791516169042 0 -554.16791516169042 -12.353110808035126 0 0 0 0 539.02197238405643 -225.13575252674673 0 -225.13575252674673 184.53430379460588 0 0 0 0 825.22670612616275 -446.37050587354497 0 -446.37050587354497 233.16489282501607 0 0 0 0 801.15626145913848 -419.85433011579016 0 -419.85433011579016 303.15987457074789 0 0 0 0 2235.2110562919261 -84.372030724378419 0 -84.372030724378419 -92.65518148647061 0 0 0 0 1721.963690940589 -263.8320542547317 0 -263.8320542547317 -155.02376794138218 0 0 0 0 1705.537765708923 -326.95043875564397 0 -326.95043875564397 6.1666514365515468 0 0 0 0 2071.5536718106232 -234.87160785437027 0 -234.87160785437027 29.322008621536952 0 0 0 0 1543.834539699259 -314.77580258017315 0 -314.77580258017315 66.883487935643984 0 0 0 0 52.628506700878212 52.40018540613184 0 52.40018540613184 32.481979363975469 0 0 0 0 1596.6964338041762 -440.31977239265507 0 -440.31977239265507 21.212127262606373 0 0 0 0 1636.5688405537549 -512.50187748407393 0 -512.50187748407393 445.69351612815444 0 0 0 0 2439.3693944334445 -992.70515184983924 0 -992.70515184983924 621.46186722554489 0 0 0 0 1217.76759784569 -77.732677399375916 0 -77.732677399375916 405.1082838034954 0 0 0 0 2760.6134172895108 334.95499675844894 0 334.95499675844894 306.02874453832374 0 0 0 0 4687.9966324421548 -1237.484676962255 0 -1237.484676962255 -115.11874275438436 0 0 0 0 1074.055843121685 357.30855119371836 0 357.30855119371836 510.47698837953885 0 0 0 0 4063.0039241044506 1199.2737342047094 0 1199.2737342047094 -300.49555821538206 0 0 0 0 19.68407710357107 21.56366469662661 0 21.56366469662661 21.456106938274946 0 0 0 0 -3689.5288324371359 1401.2636615527376 0 1401.2636615527376 2072.9646541893048 0 0 0 0 523.63779448127752 -665.14707378836238 0 -665.14707378836238 561.54718328781814 0 0 0 0 831.64635021164213 -617.93445230329939 0 -617.93445230329939 568.11245248686282 0 0 0 0 1218.3048926961492 -135.70849590174566 0 -135.70849590174566 539.6842158153604 0 0 0 0 3.7761059828480938 -124.96685418151583 0 -124.96685418151583 811.62809230806897 0 0 0 0 -1903.7983224838899 -1527.9705184483073 0 -1527.9705184483073 571.25249449779403 0 0 0 0 -1963.0287450280157 418.36116356296384 0 418.36116356296384 1254.6100429989933 0 0 0 0 1081.1763348708482 311.96013360118468 0 311.96013360118468 648.12609783549306 0 0 0 0 15.145896596896719 1.7699575592487875 0 1.7699575592487875 -1.9526644342515418 0 0 0 0 494.91536960857411 -685.39522000379179 0 -685.39522000379179 709.15382752754704 0 0 0 0 972.75666554515556 -1064.0055456883038 0 -1064.0055456883038 871.56024369591069 0 0 0 0 523.1134633417314 -877.92265695817059 0 -877.92265695817059 913.23219071160452 0 0 0 0 203.83434895617393 24.28553173012142 0 24.28553173012142 -137.24115589986388 0 0 0 0 977.90012093713085 -214.43744231873535 0 -214.43744231873535 37.398290587128031 0 0 0 0 46.367494672809869 -2.5032861042981063 0 -2.5032861042981063 -3.3148888645026009 0 0 0 0 413.21312078304618 1749.2160337188504 0 1749.2160337188504 294.69380774684123 0 0 0 0 14.558487626387304 7.450615360027701 0 7.450615360027701 -16.562598500799336 0 0 0 0 39.661279284841839 -136.47767699869405 0 -136.47767699869405 35.044535485400047 0 0 0 0 1433.8787397060441 215.78088357514753 0 215.78088357514753 -62.392605149692827 0 0 0 0 95.878961771566537 69.037015850258513 0 69.037015850258513 355.78802624111813 0 0 0 0 2708.5331208625703 -1119.8410758733075 0 -1119.8410758733075 419.13210015545201 0 0 0 0 318.20859923787066 1291.3342046699258 0 1291.3342046699258 -709.22877193775457 0 0 0 0 37.225556701019606 6.5756617247026421 0 6.5756617247026421 0.013243855563503715 0 0 0 0 -4646.6162577207942 -439.89079719925985 0 -439.89079719925985 1013.1586335386387 0 0 0 0 -315.44300990460397 -551.39662602037788 0 -551.39662602037788 734.22676319972197 0 0 0 0 -848.65191588999551 205.28662956164817 0 205.28662956164817 561.32685684363605 0 0 0 0 -362.15451846089854 474.04186722809845 0 474.04186722809845 -342.77199613228498 0 0 0 0 70.396168107633798 0.32936366450045362 0 0.32936366450045362 -2.4381844136011748 0 0 0 0 5427.1967740730761 -925.7478669680122 0 -925.7478669680122 -1648.651212027158 0 0 0 0 -139.59451781927419 69.970074132264926 0 69.970074132264926 -22.623512477222903 0 0 0 0 -383.92106901911211 -424.85333072197318 0 -424.85333072197318 284.06081144288135 0 0 0 0 -497.7861506148256 189.60402607781816 0 189.60402607781816 264.62021025217655 0 0 0 0 3458.6512090635515 187.03391136853224 0 187.03391136853224 -326.25989357938124 0 0 0 0 701.07255034164336 489.67445449670868 0 489.67445449670868 -208.82058544465144 0 0 0 0 178.07378170777156 -124.49909348415167 0 -124.49909348415167 383.0614846004637 0 0 0 0 432.67742471967358 -932.74090433483434 0 -932.74090433483434 638.04712809299735 0 0 0 0 26.489228655560876 9.3422157601576714 0 9.3422157601576714 -2.0294320464734685 0 0 0 0 3045.5527348380615 -1638.7512370808163 0 -1638.7512370808163 833.16472680979678 0 0 0 0 1979.4096683863763 -1087.3059929179999 0 -1087.3059929179999 674.82316280368013 0 0 0 0 -8.2051257647653983 82.52628810269016 0 82.52628810269016 -52.69368088623105 0 0 0 0 58.638304109456044 15.118041602388992 0 15.118041602388992 -5.5860421961842874 0 0 0 0 11.651231182152891 13.446383869362762 0 13.446383869362762 -22.691737465954901 0 0 0 0 664.543442506573 178.35925394647916 0 178.35925394647916 -2122.8942225036226 0 0 0 0 -155.48678161655471 -1350.2765172303446 0 -1350.2765172303446 -1169.5125393445705 0 0 0 0 14.54983068609215 6.7308735951157708 0 6.7308735951157708 -8.9940294179119675 0 0 0 0 459.08203098685408 24.145828697775187 0 24.145828697775187 -67.585555264042341 0 0 0 0 344.31039044733461 -113.27839793045518 0 -113.27839793045518 -44.880137165209817 0 0 0 0 10.261909803264643 137.94096356483487 0 137.94096356483487 113.39480721005214 0 0 0 0 1220.4977430177332 -825.51903766553369 0 -825.51903766553369 -968.91300898909685 0 0 0 0 1072.5064886875546 1454.8518193299885 0 1454.8518193299885 -1880.3075422227403 0 0 0 0 279.57614307237964 168.20903924890717 0 168.20903924890717 -231.65512291592586 0 0 0 0 46.816726232950629 14.620008888963344 0 14.620008888963344 1.8768258515546652 0 0 0 0 190.28262773532424 -236.47710730596623 0 -236.47710730596623 94.317427062447678 0 0 0 0 17.094987958075095 7.9286521898892843 0 7.9286521898892843 2.815747677363639 0 0 0 0 1382.5218114421477 -987.64348584719755 0 -987.64348584719755 452.45608885872753 0 0 0 0 2253.6652973851305 -447.42908515261433 0 -447.42908515261433 -380.1494647525742 0 0 0 0 1379.603903559655 -244.79252573503527 0 -244.79252573503527 -117.10581981908808 0 0 0 0 1502.3716810019832 -115.28674914627072 0 -115.28674914627072 -337.25706656989769 0 0 0 0 1377.4693351201895 -217.92696632848333 0 -217.92696632848333 -421.5491623326252 0 0 0 0 698.98141197680525 -45.991619176272252 0 -45.991619176272252 -107.59494530873275 0 0 0 0 1502.6248496229055 -368.72706301196422 0 -368.72706301196422 -228.72706328111326 0 0 0 0 1737.6454415020071 615.77355654941152 0 615.77355654941152 -116.50977707558013 0 0 0 0 376.00284610176095 -229.33405990866777 0 -229.33405990866777 -95.65880054153422 0 0 0 0 -309.93552825594816 -386.29361673786661 0 -386.29361673786661 188.56806357182904 0 0 0 0 -270.78103600239319 -603.33061352266475 0 -603.33061352266475 -231.46910856849718 0 0 0 0 -44.263762474500254 -461.39790881140561 0 -461.39790881140561 -106.33389678946151 0 0 0 0 180.19903587866065 -66.209629324982416 0 -66.209629324982416 46.753107174682327 0 0 0 0 -408.74339522747323 -393.50257633548063 0 -393.50257633548063 25.695986908493978 0 0 0 0 -405.82766483755609 -372.71084234487205 0 -372.71084234487205 -172.10362842112772 0 0 0 0 -639.86471064556827 -147.82225062384805 0 -147.82225062384805 -79.191176482598394 0 0 0 0 -1208.2779937804826 -536.58262753546046 0 -536.58262753546046 107.87367857998834 0 0 0 0 -631.30888996818612 -453.63495348112292 0 -453.63495348112292 143.8098853427864 0 0 0 0 -493.57080949111878 -432.75678955371677 0 -432.75678955371677 41.729387909061188 0 0 0 0 17.003177944898198 -329.23023375587763 0 -329.23023375587763 -121.48152180943089 0 0 0 0 111.39334401896485 -497.77456725522825 0 -497.77456725522825 103.5309098859816 0 0 0 0 531.32200036141148 -236.64351404007357 0 -236.64351404007357 -73.90124988628213 0 0 0 0 83.195034961914644 -123.68715529729707 0 -123.68715529729707 89.202650549652844 0 0 0 0 -82.154609381948831 -431.54618128783113 0 -431.54618128783113 267.18010064722694 0 0 0 0 -1090.3154297937726 38.71568303487129 0 38.71568303487129 -152.36811077941024 0 0 0 0 -628.46594380760507 -446.99664321163618 0 -446.99664321163618 -348.64937579535581 0 0 0 0 -205.74705146747874 -190.42315141861764 0 -190.42315141861764 -126.76960059746807 0 0 0 0 -728.08918172011545 -416.98063434775167 0 -416.98063434775167 193.04457683823694 0 0 0 0 -367.40104285553753 48.646378970947808 0 48.646378970947808 -57.946640493239101 0 0 0 0 -1009.4956279812395 -577.77281986166236 0 -577.77281986166236 -40.678229876925798 0 0 0 0 -432.57309009997698 -209.04730236306887 0 -209.04730236306887 545.86102912472052 0 0 0 0 -539.65448531725269 18.062751773160926 0 18.062751773160926 65.839190871268784 0 0 0 0 315.22142354936295 -551.35000343665865 0 -551.35000343665865 815.13807343764347 0 0 0 0 -35.662506187065446 45.519909836691113 0 45.519909836691113 297.2687383862949 0 0 0 0 -15.138317424994057 165.55640971377005 0 165.55640971377005 792.68470310488919 0 0 0 0 636.08090652875035 -114.86904702220954 0 -114.86904702220954 619.80426534224887 0 0 0 0 885.92485913956261 394.37336572777861 0 394.37336572777861 1610.4012955236803 0 0 0 0 1434.4003909688836 -1090.2608872389887 0 -1090.2608872389887 1228.7596549512873 0 0 0 0 1652.9996517477011 -1881.7934170703122 0 -1881.7934170703122 1625.8519748841391 0 0 0 0 18.133553548706544 -1.1808419297700432 0 -1.1808419297700432 0.69696504201537546 0 0 0 0 1229.032591336043 1011.2632680226243 0 1011.2632680226243 365.92259462761035 0 0 0 0 1240.4782529730301 -145.98337354291448 0 -145.98337354291448 -204.76941816368071 0 0 0 0 3011.9979526188235 -54.34388278248548 0 -54.34388278248548 -329.37094967195844 0 0 0 0 606.29989983096038 -400.44923956040634 0 -400.44923956040634 166.09091011354849 0 0 0 0 917.71298377642961 -303.36664384533833 0 -303.36664384533833 99.26101458753601 0 0 0 0 
</DataArray>
<DataArray type="Float64" Name="cross_section_updated" format="ascii">
1 1 1 1 1 1 1 0.013766113458389517 1 0.011521730760031634 1 1 1 1 1 1 1 1 1 0.0099452045059055007 1 1 1 1 1 1 1 1 1 1 1 0.0096611478973732158 1 1 0.0089815280848098006 1 1 0.014751560940579051 1 1 1 1 1 1 1 1 1 1 1 0.01192744508411696 1 1 1 1 1 1 1 1 1 1 1 1 1 0.018232610368968415 1 1 1 1 1 1 1 1 1 1 1 1 1 1 1 0.010017669603819794 1 1 1 0.010052225730807305 1 1 1 1 1 0.011967704047605856 1 1 1 1 1 1 1 1 1 1 1 1 1 1 1 1 1 1 1 1 1 0.0087615582719332667 1 0.0097254957323527191 1 1 1 1 1 1 1 1 1 1 1 1 1 0.010010033613536508 1 0.0099537726645323749 1 0.010996040977832017 1 1 1 0.01161467760919504 1 1 1 1 1 1 1 0.011671945174644295 1 1 1 1 1 1 1 1 1 1 1 1 1 1 1 1 1 1 1 1 1 1 1 1 1 1 1 1 1 1 1 1 1 0.019619662651940113 1 0.019657082816808918 1 0.011414162527073344 1 1 0.010342396093852544 1 1 1 1 1 1 1 0.011629356717451371 1 1 1 1 1 1 1 0.010609784510570217 1 1 1 1 1 1 1 1 1 1 1 0.010110100116855295 1 1 0.0093286375954711055 1 1 1 1 1 1 1 1 1 1 1 1 1 1 1 1 1 1 1 1 1 1 1 1 1 1 1 1 1 1 1 1 1 1 1 0.0081256693212653098 1 1 1 1 1 0.0066004545400948286 1 1 1 1 1 1 1 1 1 1 1 1 1 1 1 1 0.010343970633320418 1 1 1 1 1 1 1 1 0.010117080557687249 1 1 1 1 1 0.010062136894121282 1 1 1 1 1 1 1 1 1 1 1 1 0.010380402194411753 1 1 1 1 0.010496697065253661 1 1 1 0.010152726431933238 1 1 1 1 1 1 1 1 1 1 1 1 1 1 1 1 1 1 1 1 1 1 1 1 1 1 1 1 1 1 1 1 1 1 1 0.0050495459007592934 1 0.0037539695544652977 1 1 1 1 1 1 1 1 1 1 1 1 1 1 1 1 1 1 0.0094378678346003931 1 1 1 1 1 1 1 1 1 1 1 1 1 1 1 1 1 1 1 0.012203810956706805 0.015749746360262263 1 1 0.008070309125554417 1 1 1 1 1 1 0.01060183197680239 1 1 1 1 1 1 0.011370193780003791 1 1 0.01208497367678547 1 0.010466544131039372 1 1 1 1 1 1 0.010741653756175737 1 1 0.010361251561763974 1 1 1 1 1 1 1 1 1 1 1 1 1 1 1 1 1 1 1 1 1 1 0.0097399691093969648 1 1 1 1 1 0.009643901990355884 1 1 1 1 1 1 1 1 1 1 1 1 1 1 1 1 1 1 1 1 1 1 0.011476032247623341 1 1 1 0.0138810584455764 1 1 1 1 1 1 1 1 1 0.01530553139272086 1 0.015782123342968614 1 1 0.015021470493027725 1 1 1 0.010984026558281366 1 0.01068823771868483 1 1 1 1 1 0.011565074587879016 1 1 1 1 0.01211553673352056 1 0.010411342330917568 0.012508748019191412 1 1 1 1 1 1 1 1 1 0.010004649788825589 1 1 0.018142893888936022 1 1 1 1 1 0.010887364138864366 1 1 1 1 0.010414510812414395 1 1 1 0.011735882085585209 1 0.015242195180218623 1 0.011009238547428015 1 1 1 1 1 1 1 1 1 1 1 1 0.012603164229216975 1 1 1 0.010230889432022524 1 1 1 1 1 1 1 1 1 1 1 1 0.010528263492576555 1 1 1 1 1 0.022188118209258017 1 1 0.0089544240721856974 1 1 0.0099603565223845732 1 1 1 1 1 1 1 1 1 1 1 1 1 1 1 1 1 0.0087287792782248744 1 0.01158895661273854 1 0.016202716277678504 1 0.0080479267632785727 1 1 1 1 0.0088817454439682371 1 1 1 1 0.010919756622514454 1 1 1 1 0.009300823027913319 1 1 1 1 1 0.0098491477974092575 1 1 0.010134060572162679 1 0.010495482761858518 0.011828491869428201 0.010279784597794016 1 1 1 1 1 1 1 1 1 1 1 1 1 1 1 1 1 1 0.010052911467796164 1 1 1 1 1 1 1 1 1 0.0033831311742266558 1 1 1 1 1 0.0099083433330528752 1 1 1 1 1 1 1 0.010607047080672763 1 1 0.010321622385989264 0.010947086024605321 1 1 1 1 1 0.013317889898480813 1 0.014247214019427417 1 1 1 1 1 1 1 0.010021468484993726 1 1 0.019099884051585875 1 1 1 1 1 1 0.0026579187948749146 1 0.020333633281048917 1 1 0.0029046926211178641 1 1 1 1 1 1 1 1 1 1 1 1 1 1 1 1 1 1 1 1 1 1 0.010516790999599575 1 1 1 1 1 1 1 0.019100473420830894 1 1 1 0.012041539685197946 1 0.011140053473316074 1 1 1 0.021081913515779399 1 1 1 0.011401994198213349 1 1 1 1 1 1 1 1 1 0.010023398062036105 1 1 1 1 1 1 1 1 0.00940694289863616 1 0.0091802437098039008 0.0083788616073745062 0.01159638144867153 1 1 0.012773804027041161 1 0.014373854531698647 1 1 1 1 1 1 1 1 1 1 1 1 1 1 1 1 1 1 1 1 1 1 1 1 1 0.014703648931229886 0.009938041900363655 0.016201524948206744 1 1 1 1 1 1 1 1 1 1 1 1 1 1 1 1 1 1 1 1 1 1 1 1 1 1 1 1 1 0.010236986129392073 1 1 1 1 1 0.0095325970516221426 1 1 1 0.0092456057562155351 1 1 0.0058749701306802845 0.0079544418877885922 1 0.011684841746423858 1 1 1 1 1 1 0.0059599142650960555 1 1 1 1 1 0.006277827389680201 1 0.013225003388215591 1 1 1 0.0099919294993643937 1 0.014368151620076212 1 0.0085860344279369873 1 1 1 1 1 0.0089505485890613509 1 1 1 0.013851494791518745 1 1 1 1 1 1 1 1 0.010627192995818937 1 1 1 1 1 1 0.010709163499552032 1 1 1 1 1 1 1 1 0.0087437201789963854 1 1 0.014906145631179967 1 1 1 1 1 1 0.012016017728179611 1 0.010395127102427522 1 0.013758987978836961 1 1 1 1 1 1 1 1 1 1 1 0.011511875394682278 0.012811868104160327 0.013743378727578734 1 1 0.010042610229805132 1 1 1 1 1 0.0099992540303069123 0.012804882619723349 1 1 0.01550746299280514 0.0092598884362391602 0.0120691213167037 1 1 1 1 1 1 1 1 1 1 1 1 1 1 1 1 1 1 1 1 1 1 1 1 1 1 1 1 1 1 1 1 1 0.016167431001141534 1 1 1 1 1 1 1 0.015017266435118474 1 1 1 1 1 1 0.012147946703676702 1 1 1 1 1 1 1 1 1 1 1 1 1 1 1 1 1 1 1 1 1 1 1 1 1 1 1 1 1 1 1 1 1 1 1 1 1 1 1 1 1 1 1 1 1 1 1 1 1 1 1 1 1 1 0.012431332355462366 1 1 1 0.0099704161177915675 1 1 0.013078606661316683 1 1 1 1 1 1 0.010889925132088949 1 1 1 1 1 1 1 1 1 1 0.012036276154951312 1 1 1 1 0.01073156365058146 1 1 1 1 1 1 1 1 1 1 1 1 1 1 1 1 1 1 1 1 1 1 1 1 0.010943641183053991 1 1 1 1 0.0098106698113565854 1 1 1 1 1 1 1 1 1 1 1 1 1 1 1 1 1 1 1 1 1 1 1 1 1 1 1 1 1 1 1 1 1 1 1 1 1 1 0.012206471842102599 1 1 1 1 1 0.008616344712353818 1 1 1 0.017501156080403382 0.0064708541045824207 1 1 1 1 1 1 1 1 1 0.0090070649212099837 1 1 1 0.010363162981493569 1 1 1 1 1 1 0.010192603022742495 1 1 1 1 1 1 1 1 1 1 0.016333934522855906 0.012166520197872911 1 1 1 1 1 1 1 1 1 0.017002120711597828 1 1 0.016964765051295284 1 1 1 0.01356177299508686 0.0092552545627142355 1 1 0.010168235381232696 1 1 0.014330471636783096 0.021898443790303437 1 1 1 0.0092410256688402158 1 1 1 1 1 0.010092772111209663 1 1 1 1 1 1 1 1 1 0.012736151400026475 1 1 1 1 1 1 1 1 1 1 1 1 1 1 1 0.010708299815745111 1 1 1 1 1 1 0.010449623335729052 1 1 1 1 1 1 1 1 1 1 1 1 1 1 1 1 0.0096448122542186487 0.011117076355947176 1 1 1 1 1 1 1 1 1 1 1 1 1 1 1 1 1 1 1 1 1 1 1 1 1 1 1 1 1 1 1 1 1 1 1 1 1 1 1 1 1 1 1 1 0.0097781565795083542 1 0.0093560012063716655 1 1 1 0.010043765912616815 1 1 1 1 1 1 1 1 1 0.021233804760264239 1 1 0.022090528985001183 1 1 1 1 1 0.010348057144929838 1 1 1 1 1 1 1 0.011361326113323061 1 1 0.010025636391826184 1 1 1 1 1 1 0.0093001657642816735 1 1 1 1 1 1 1 1 1 1 1 1 0.010258676480016059 1 1 1 1 1 1 1 1 1 1 1 1 1 1 1 1 1 1 1 1 1 1 1 1 1 1 1 1 1 1 1 1 1 1 1 1 1 1 1 1 1 1 1 1 1 1 1 1 1 1 1 1 1 1 1 1 1 1 1 1 1 1 1 1 1 1 1 1 1 1 1 1 1 1 1 1 1 1 1 1 1 1 1 1 1 1 1 1 1 0.010731983269351597 1 1 1 1 1 1 1 1 1 1 1 0.010362774351253741 1 1 1 0.011094757620605342 1 1 1 1 1 1 1 1 1 1 1 1 1 1 1 1 1 1 1 1 1 1 1 1 1 1 1 1 1 1 1 1 1 1 1 1 1 1 1 1 1 1 1 1 1 1 1 1 1 1 1 1 1 1 1 1 1 1 1 1 1 1 1 1 1 1 1 1 1 1 1 1 1 1 1 1 1 1 1 1 1 1 1 1 1 1 1 1 1 1 1 1 1 1 1 1 1 1 1 1 1 1 1 1 1 1 1 1 1 1 1 1 0.010627666316384281 1 1 1 1 1 1 1 1 1 1 0.011462885796952095 1 1 1 1 0.011683396617981505 1 1 1 0.016215520650905028 0.015344058594894574 1 1 1 1 1 1 1 1 1 1 1 1 1 1 1 1 1 1 1 0.0096294165074287154 0.019850279096220773 1 1 0.010499662583047055 1 1 1 1 1 1 0.016359149221434326 1 1 1 1 1 0.010279453455017722 1 1 1 1 1 1 0.011110812899905516 1 1 1 1 1 1 0.013240484509171754 1 0.012941817056791146 1 1 1 1 1 1 1 1 1 1 1 1 1 1 1 1 1 0.012557677333884928 1 1 1 1 1 1 1 0.011978260849018775 1 1 1 1 1 0.014284669389530635 1 1 1 1 1 1 1 0.01412954660725191 1 1 1 0.010122025810462752 1 1 0.010287432007396579 1 1 1 1 1 1 1 1 1 1 1 1 1 1 0.010885577335682035 1 1 1 1 1 1 1 1 0.010530122037889203 1 1 1 1 1 1 0.010760736201812164 1 1 1 1 1 0.011358881530097616 1 1 1 1 1 1 1 1 1 1 1 1 1 1 1 1 1 1 1 0.0099576427458201444 1 1 1 0.011473703966528222 1 0.011229595144323982 1 1 1 1 1 1 1 1 1 1 1 1 1 1 1 1 1 1 1 1 1 1 1 1 1 0.010308891305434454 1 1 0.010186865494971702 1 1 1 1 1 1 1 1 0.011127106821810319 1 1 1 1 1 1 1 1 1 1 1 0.012950244888550365 1 1 1 1 1 1 1 1 1 1 1 1 1 1 1 1 1 0.010660588152321017 1 1 1 1 1 1 1 1 1 1 0.011297125893583945 1 1 1 1 1 1 1 1 0.01052969379599049 1 1 1 1 1 1 0.01312909991950151 1 1 1 1 1 1 1 1 1 1 1 1 1 1 1 1 1 1 1 1 1 1 1 1 1 1 1 1 1 0.01148248245050097 1 0.010821894298179964 1 1 1 1 1 1 1 0.012856677041024866 1 0.011257869532420738 1 1 1 1 1 1 1 1 1 1 1 1 1 1 0.0091741318913775467 1 0.01004024458297792 1 1 1 1 1 1 0.010319698037995635 1 1 1 1 1 1 1 1 1 0.011013576427753066 1 0.011807260448101733 1 1 1 1 1 1 1 1 0.010793684020348667 1 1 0.0095947251313801673 1 1 1 1 1 0.0097860231782399207 1 1 1 1 0.011597132042674305 0.0090454778260425917 1 0.014553627283124286 0.0095637134899602665 1 1 1 1 0.0085471929474600274 1 1 1 1 1 1 1 1 1 1 1 1 1 1 1 1 1 1 1 1 1 0.0083138750578901615 0.0085927023658373021 1 1 1 1 1 0.010176248474226126 1 1 1 0.010094824137856293 1 1 1 1 1 1 1 0.010081424336369844 1 1 1 1 1 0.0090639388836477007 1 1 1 0.0092995924597123573 1 1 1 1 1 1 1 1 1 0.010999245568846563 1 1 1 1 1 1 0.010434914133720996 0.012588485444014525 1 1 1 1 1 1 0.010845590113923713 1 1 1 1 1 1 1 1 1 1 1 1 1 0.010146725575545077 1 1 1 1 1 0.010476154324730681 1 1 0.010795506542548152 1 1 1 1 1 1 1 0.0095875972474716645 1 1 1 1 0.0098991341121922056 1 1 1 1 1 1 1 1 1 1 1 1 1 1 1 1 1 1 1 1 1 1 1 1 1 1 1 1 1 1 1 0.0098345781756407624 1 1 1 0.013929393087785347 1 1 0.0093266053558101435 1 1 1 1 1 1 0.010017265472159188 0.0098132668693188315 1 1 1 1 0.0099867611460602111 1 1 1 1 1 1 1 0.0095958065883785474 1 1 1 1 1 1 1 0.0097612284127377765 1 1 1 1 1 1 1 1 1 1 1 1 1 1 1 0.010796577344265678 1 1 0.010302241563085386 1 1 1 1 1 1 1 1 1 0.010494642109125421 1 0.013750119792764283 1 1 0.011413257337669814 1 1 1 1 1 1 1 1 1 1 1 1 1 1 1 1 0.0098858495707414371 1 1 1 1 1 0.009969023342256831 1 1 1 1 1 1 1 1 1 1 1 0.009883717014254681 1 1 1 1 1 1 1 0.0096132611821409496 1 1 1 1 0.0097850030396647598 1 1 1 1 1 0.015413888528758132 1 1 0.0099886983756891819 1 1 1 1 1 1 0.0093449297992695482 1 0.011980340846392502 0.01234919184838832 1 0.0093422184833064394 1 1 0.0084387362579572325 0.01382235547296299 1 0.011231158588429789 1 0.009675400124462101 1 1 1 1 1 1 1 0.014631625569754277 1 1 1 1 1 1 1 1 1 1 1 1 1 1 1 1 1 1 1 1 1 1 1 0.015167655978906085 1 1 1 1 1 1 1 1 1 1 1 1 1 1 0.0095513379049274767 1 0.010083783846449651 1 1 1 1 1 1 1 1 1 1 1 1 1 1 1 1 1 1 1 1 1 1 1 1 1 1 1 1 1 1 1 1 1 1 1 1 1 1 1 0.010348799745836676 1 1 1 1 1 1 1 1 1 1 1 0.0099898711536130658 1 1 1 1 1 1 1 1 1 1 1 1 1 1 1 1 1 1 1 1 1 1 1 1 1 1 1 0.0099103405473699308 1 1 1 1 1 1 1 1 1 0.010004735900778381 1 1 1 1 0.010004739943979213 1 1 1 1 1 1 1 1 1 1 1 1 1 1 0.0095817669640642263 1 1 1 1 0.0098723466544203622 1 1 1 1 1 1 1 1 1 1 1 1 0.0099515062379164944 1 1 1 1 1 1 0.010039879969485773 1 1 1 1 1 1 1 1 1 1 0.010039864466143394 1 1 1 1 1 1 1 1 1 1 1 1 1 1 1 1 1 1 1 1 1 1 1 1 1 1 1 1 1 1 1 1 1 1 0.0096420106299940703 1 1 1 1 0.0096749005518453075 0.010927597941807775 1 1 0.011222017464448376 1 1 1 1 0.010510998907806345 1 1 1 1 1 1 1 1 1 1 1 1 1 1 1 1 0.010313605177859477 1 1 1 0.0097997912831290709 1 1 1 1 1 0.010221048960153786 1 1 0.010084228185712411 1 1 1 1 1 1 1 1 1 1 1 1 1 1 1 1 1 0.0093801065375238614 1 1 1 1 1 1 1 1 1 1 1 0.0085422785803044941 1 1 1 0.015275601240870466 1 1 1 1 0.015689435143665477 0.015635476246552406 1 1 1 1 1 1 1 1 1 1 1 1 1 1 1 0.010810800692156754 1 1 1 1 1 1 1 1 1 1 1 0.011821642765063166 1 1 1 1 1 0.010775709667358965 1 1 1 1 1 1 1 1 1 0.011010842072906413 1 1 1 1 1 1 1 1 1 1 1 1 1 1 1 1 1 1 1 1 1 1 1 1 1 0.011108620038389572 1 1 1 1 1 1 0.010385347160137764 1 1 1 1 1 1 1 1 1 1 1 1 1 1 1 1 1 1 1 1 1 1 1 1 1 1 1 1 1 1 1 1 1 1 1 1 1 1 1 1 1 1 1 1 1 1 1 1 1 1 1 1 1 1 1 1 1 1 1 0.0099862051648232364 1 1 1 1 1 1 1 0.0098237087461152291 1 1 1 0.0097692881700800534 1 0.010264580193421019 1 1 1 1 1 0.0099052792819489914 0.016600253030856396 1 1 1 1 1 1 1 1 0.010229409116616985 1 1 1 1 1 1 1 0.015717102769895908 1 0.0085502528869431244 1 1 0.010585819246160817 0.010276758470372113 1 1 1 0.015378371601069639 1 1 1 1 1 1 1 1 0.010240905205638877 1 1 1 1 0.010505485399059889 1 1 1 1 1 1 1 1 1 1 1 1 1 1 1 0.011000461457455207 1 1 1 1 0.010302056517140923 0.010228948226173092 1 1 1 1 0.010347250077327287 1 1 1 1 1 0.015052457229266167 1 1 1 1 1 1 1 1 1 1 1 1 0.012145063545965461 1 1 1 1 1 1 1 1 0.0098036524102266508 1 0.0098033574830328034 1 1 1 1 1 1 1 1 1 1 1 1 1 1 1 1 0.015966455169659735 1 1 1 1 1 1 1 0.01046183480976931 1 0.0099257092501040811 1 1 1 0.0097896518071245598 1 1 1 1 1 1 1 1 1 1 1 1 1 1 1 1 1 1 1 1 1 1 1 1 1 1 1 1 1 1 1 0.01015200560772013 1 1 1 1 1 1 1 0.014555287306953758 1 1 1 0.014964370374209592 1 1 1 1 1 0.014755076625700334 1 1 1 1 1 0.0089089081696676758 1 1 1 1 0.0089032831791543681 1 1 1 0.010757672059713582 1 1 0.01001602734720101 1 1 1 1 0.0104138127463256 1 1 0.0098248633129788959 1 1 1 0.011322428114149217 1 1 1 1 1 0.0099677850250048106 1 1 1 1 1 1 1 0.0098718483848676125 1 1 1 1 1 1 1 1 1 1 1 1 0.011919293690593028 1 1 1 0.012477681827394586 1 1 0.010010867609478696 1 1 0.014203672201084988 1 1 1 0.0084276700096449914 1 1 0.011170192685198029 0.012953690619498252 1 1 1 1 0.011866259309927961 1 1 1 1 1 1 1 1 0.0090049329786502774 1 1 1 1 1 0.01050425969447516 0.0095987900784490036 1 1 1 1 0.011150646780986592 1 1 1 1 1 1 1 0.010647254817369552 1 1 1 1 1 1 1 1 1 0.011685992960113299 1 1 0.011474347268415617 1 1 1 1 0.010183931350604854 0.011286003064308348 1 0.010697523927457663 1 1 1 1 1 0.0099794627640430247 1 1 0.0099950000800577126 1 1 0.010219833252952353 1 0.010370994551113717 1 1 1 1 1 1 0.01098112942071346 1 1 1 1 1 1 1 1 1 1 1 1 1 1 0.010080566022083482 1 1 1 1 1 1 1 1 0.013775886072639651 1 1 1 1 1 1 1 1 1 1 1 1 1 0.012903945193852722 1 1 1 1 1 1 1 1 1 1 0.014406717651170074 1 1 1 0.0087402046737064462 1 0.010550784249055655 1 1 1 1 0.0080445074530347896 1 1 1 1 1 0.010302514013346096 1 1 1 1 1 1 1 1 1 1 1 1 1 1 1 1 1 1 1 1 1 0.01204803546977001 1 1 1 1 1 1 1 1 1 1 1 1 1 1 0.0099717977609872308 1 0.012405743350836562 1 1 0.009977042976001594 1 1 0.0095558392660144605 1 0.01239558185372238 1 1 1 1 1 0.010077443884266122 1 0.011860076222956574 1 1 0.010504204124085863 1 0.014031438421677239 1 1 1 1 0.010087988788983877 0.0099955067480505984 1 1 1 1 1 1 1 1 0.015607186049888607 1 1 1 1 0.011322050510527619 1 0.017169760079797685 1 1 1 1 1 1 1 1 1 1 0.010827312978808859 1 1 0.0096661034723153644 0.010587845470909768 1 1 1 1 0.010231053033895323 1 1 1 1 1 1 1 1 1 1 1 1 1 0.010017020004440789 1 0.010011165391153997 1 1 1 0.0074358526336612465 1 1 1 0.021634124118450549 1 1 1 1 1 1 0.010168552151447031 1 1 1 1 1 1 1 0.011142457112072618 1 1 1 0.010518843983078684 1 1 1 1 1 1 1 1 1 1 1 1 1 1 1 1 1 1 1 0.0099949378603337406 1 1 0.0094122000836444741 1 1 1 1 1 1 1 1 1 1 1 1 1 1 1 1 1 1 1 1 1 1 1 1 0.010928932374781786 1 0.010029759600764961 0.013171404355107734 1 1 1 0.0146387828630052 1 0.010019417147181726 1 1 0.0082361015383369436 1 1 1 1 1 0.010163972394907619 1 1 1 1 1 0.0093791536565344721 1 0.010126406834685077 1 1 1 1 1 0.010294958986132119 1 1 1 1 1 1 1 1 1 0.018086193313360442 1 1 0.014141565574711114 1 1 0.009641212868160649 1 1 0.011843406738799538 1 0.011172211077262495 1 1 1 1 1 1 0.012816569992090906 0.0091867254998561215 1 1 1 0.0099990596463078799 0.0091689896302211502 0.014513086469287605 0.010143564186879245 1 1 1 0.015634599363262655 1 1 1 1 1 1 1 0.010054059987957093 1 1 1 1 1 1 1 1 1 0.011623924617330063 1 1 1 0.01410086059891529 1 1 1 1 1 1 1 1 1 0.010042352416097709 1 1 0.0094116594915178049 1 1 0.010380054101577737 1 1 1 1 1 1 1 1 1 1 1 1 1 1 1 1 1 1 1 1 1 1 1 1 1 1 1 1 1 1 1 1 1 1 1 1 1 1 1 1 1 0.014850990113484293 1 0.0098387405409740922 1 1 1 1 1 1 1 0.011842891907023863 0.014245456570550574 1 1 1 1 1 1 0.010691206695412797 1 1 1 1 1 1 1 1 1 1 1 1 1 1 1 1 1 1 0.0051383028958661156 1 0.0095519071757221782 0.014218226230683162 1 1 1 1 1 0.009661919940213223 1 1 1 1 0.0098787921987207143 1 1 1 1 1 1 1 1 1 1 0.010580434509837505 1 1 0.0099413059966238053 1 0.012690399504819932 1 1 0.014208376289457885 0.009162668471916012 1 1 0.015385224124722081 1 1 1 1 1 1 1 1 0.009614086639127703 1 1 0.01214991806766721 1 0.013209741284473943 1 0.012240340925135963 1 1 1 0.013625293763530643 1 1 0.0095193248876850236 1 0.0090682740090364412 1 1 1 1 1 1 1 1 1 1 1 1 0.011878547788269229 0.0099974704483065582 1 0.012661868153828713 1 1 1 1 1 1 1 1 1 1 1 1 1 1 1 1 1 1 1 1 1 0.010165490813166598 1 1 1 1 1 1 1 1 1 0.01033579927179923 1 1 1 1 0.0099048991610949655 1 1 1 1 1 1 1 1 1 1 1 1 1 1 1 1 1 1 1 1 1 1 1 1 1 1 1 1 1 1 1 0.011475538612825504 1 1 1 0.0099995536043292477 1 0.0098940643395054872 1 1 1 1 0.0085554529520761088 1 0.01034331582025342 1 1 0.0053382771792957681 0.013895511583155357 0.0082695098777279177 0.010000394412072356 1 1 1 0.014951516398299945 0.0094528337645647127 1 1 1 1 1 1 1 0.0097046897228351223 1 1 1 1 1 1 1 1 1 1 0.010188315904093354 1 1 1 1 1 1 1 1 1 1 1 1 1 1 1 1 1 1 1 1 1 1 1 0.0097071107291337964 1 0.01066570568554715 1 1 1 1 1 1 0.010968050365500854 1 1 1 1 1 1 1 0.0098946065404274912 1 0.010300440560125272 0.011090812350779232 1 1 1 0.0090818436824952609 1 0.010022570493572568 0.010306787308352008 1 0.010064506883324368 1 1 1 1 1 1 1 1 1 1 1 1 1 1 1 1 1 1 1 1 1 1 1 1 1 1 1 1 1 1 1 1 1 1 1 1 1 0.017856548327182361 1 0.010001095736091356 1 0.012241659932204461 1 1 1 1 0.010421409212939043 1 1 1 0.0092541887409235517 1 0.0097383795935474804 0.013811906898679194 0.012504794042351263 1 1 0.013348183903261052 1 1 1 1 0.0079020175484591157 1 1 0.0099782649318815534 1 0.0091998371901443037 0.0092580346322727186 1 1 1 1 1 1 1 1 1 1 1 1 1 1 1 0.010321923827197233 1 1 1 1 0.011119759942700896 1 1 1 0.00999799686042388 1 1 0.012025415415283626 1 0.01087455532161659 1 0.013383392626148271 0.01046928671440794 1 0.012688182067193299 1 0.010139474877931612 1 1 1 1 0.01000028335895657 0.0090573534617962269 1 0.012084905734261785 0.0099990313539053046 1 1 1 1 1 0.010300542751660452 1 1 1 1 0.010565782900308605 1 1 0.0095864803928214816 1 0.011993678742019375 1 1 0.0090700326493255122 1 1 1 0.011664869581751379 1 0.0092349960675630616 0.011569010814793255 0.0099710051720409802 1 0.013133048180589217 1 1 0.010078876223072054 1 1 1 1 1 1 1 1 1 0.012589785242247587 1 1 1 1 1 1 1 1 1 1 1 0.010111591977451661 1 1 1 0.011315298066102205 1 1 1 0.0098651387167026476 0.011969499663265 1 0.010723406148458597 1 0.010499369713083493 1 0.0097060498323836633 1 1 0.0096543267873873059 1 0.012486001897934975 1 1 0.011598709064914383 1 1 1 0.010547693531510192 1 0.011101151579646544 1 1 1 1 1 1 1 1 1 1 0.01002636224896717 0.011569848979247335 0.013545307875735622 0.011310776044644774 1 1 0.011132971127287226 1 1 1 1 1 1 1 1 1 1 1 1 1 0.0099606873804898577 1 1 1 1 1 0.010186081756621234 1 1 1 1 1 1 1 1 1 0.011337664878039973 0.01196772448077124 1 1 1 1 1 0.011988717479340601 1 1 1 1 0.0099408177270197112 1 0.012498831371032465 1 1 1 0.010112247398087857 0.014116088171586655 1 1 1 1 1 1 1 1 1 1 1 1 1 1 1 1 1 1 1 1 1 1 1 1 1 1 1 1 1 0.0089657028876551446 0.010839044332058057 1 1 1 1 1 1 1 1 1 1 0.015206063343808926 1 1 0.0059219026560681717 1 1 0.0086622449103064113 1 1 0.012405650138296455 1 1 1 1 0.013863838759062516 0.0098165261895234376 1 1 1 1 1 0.011460999173083767 1 1 1 1 1 1 1 1 1 1 0.018702540702600173 1 1 1 0.026875293931317421 1 1 1 1 1 1 0.025844515273489174 0.00993096464347408 1 1 1 1 1 1 1 1 1 1 1 1 1 1 1 1 1 1 1 1 1 1 1 1 1 1 1 1 1 1 1 1 1 1 1 0.0099240034813109397 1 1 1 1 1 1 1 1 1 1 1 1 1 1 1 1 1 1 1 1 1 1 1 0.01637293041566848 1 1 1 1 1 1 1 1 0.012949699891323592 1 1 1 1 1 1 1 0.012982249865706737 0.011390328042134596 1 0.01025491825229264 1 1 1 0.014262200277790267 1 1 1 0.013167996705640724 1 1 1 1 1 1 1 0.010106121316640904 1 1 1 1 1 1 1 1 1 1 1 1 1 1 1 1 1 1 1 1 1 1 1 1 1 1 1 1 1 1 0.013494459125678853 1 1 1 1 0.013273596685253882 1 1 1 0.010000938174200207 1 1 1 1 1 1 1 0.010227066290082102 1 0.010530290146203769 1 1 1 1 1 1 1 1 1 0.010407374996866238 1 1 1 1 1 1 1 1 1 1 1 1 1 1 1 1 1 0.0099710009067877602 1 1 1 1 1 0.0099502294867662121 1 1 0.011074244125216888 1 0.011271806706800828 1 1 1 0.013387470870097165 1 1 1 0.017967341543112088 1 1 1 1 0.016455838264677482 1 1 1 0.0067155015285971639 1 1 1 1 0.015071190834817828 1 1 1 1 1 1 1 1 0.0096774718469960861 1 0.0075320992416278527 1 1 1 1 1 1 1 1 1 1 1 1 1 1 1 1 1 1 1 1 1 1 1 1 1 1 1 1 1 1 1 1 1 1 1 1 1 1 0.011910780448423008 1 1 0.0098822247326416299 1 1 1 0.015293033496077331 0.010702354575592713 1 1 1 1 1 1 1 0.011515643872413765 1 1 1 1 0.011606633733287328 1 1 1 1 1 1 1 1 1 1 1 1 1 1 1 1 1 1 1 1 1 1 1 1 1 1 1 1 1 1 1 1 1 1 1 1 0.0096744517827495984 1 1 0.0092146514524390211 1 1 1 1 1 1 1 1 1 1 1 1 1 0.0099352083309323606 1 1 1 1 1 1 1 0.009816963536961449 1 0.009824391234500577 1 1 1 1 1 1 1 1 1 1 1 1 1 1 1 1 1 1 1 1 1 1 1 1 1 1 1 1 1 1 1 1 1 1 1 1 1 1 1 1 1 1 1 1 1 1 1 1 1 1 1 1 1 1 1 1 1 1 1 1 1 1 1 1 1 1 1 1 1 1 1 1 1 1 1 1 1 1 1 0.010013067763300585 0.0099769816429215018 1 1 1 1 1 1 1 1 1 1 1 1 1 1 1 0.010118943554152798 1 0.010210597365627544 1 1 0.010004860710153402 1 1 1 1 1 0.010143267189347946 1 1 1 1 1 1 1 1 1 1 1 1 1 1 1 1 1 1 1 1 1 1 1 1 1 1 1 1 1 1 1 1 1 1 1 1 1 1 1 1 1 1 1 1 1 1 1 1 0.011164483930058203 1 1 1 1 0.01007664998543637 0.011482805183321201 1 1 1 1 1 1 1 1 0.011276022527681503 1 1 1 1 1 1 0.010560461686956676 1 1 1 1 1 1 1 1 1 1 1 1 1 1 1 1 1 1 1 1 1 1 1 0.010611611542625316 1 1 1 1 1 1 1 1 1 1 1 1 1 0.0097120113257288341 0.0089045368993601222 1 1 1 1 1 1 0.0097519169386311912 1 0.010068330489693788 1 1 1 1 1 1 1 1 1 1 1 1 1 1 1 1 1 1 1 1 1 1 1 1 1 1 1 1 0.0159603920326872 1 0.0099698062921939109 1 1 1 1 1 1 1 1 1 1 1 1 0.014313382814061981 1 1 1 1 1 1 1 1 1 1 1 1 1 1 1 1 1 1 1 1 1 1 1 1 1 1 1 1 1 1 1 1 1 1 1 1 1 1 1 1 1 1 1 1 1 1 1 1 1 1 1 1 1 1 1 1 1 0.0099240159471429192 1 0.016528017934706346 1 1 1 1 1 1 1 1 1 1 0.01304209791970239 1 1 1 1 1 1 1 1 1 1 1 1 1 1 1 1 1 1 1 1 1 1 1 1 1 1 1 1 1 1 1 1 1 1 1 1 1 1 1 1 1 0.013835236944593319 1 1 1 0.011511443510172345 1 1 1 1 1 1 1 1 1 1 1 1 1 1 1 1 1 1 1 1 1 1 1 1 1 1 1 1 1 1 1 1 1 1 1 1 1 1 1 0.0098825201189336864 1 1 1 1 1 0.010253825028501966 0.01070504525964216 1 1 1 1 1 1 1 1 1 1 1 1 0.009166104337418152 1 1 1 0.0095904398510733395 1 1 1 1 1 1 1 1 1 1 1 1 1 1 1 1 1 1 1 1 1 1 1 1 1 1 1 1 1 1 1 1 1 1 1 1 1 1 1 1 1 1 1 1 1 1 1 1 1 1 1 1 1 1 1 1 1 1 1 1 1 1 1 1 1 1 1 1 1 1 1 1 1 1 1 0.010951348867042457 1 1 1 1 1 0.010211194367358763 1 1 1 1 1 1 1 1 1 1 1 1 1 1 0.0098432675706129936 1 1 0.010017896680012997 1 1 0.010029673927397783 0.010215866853498587 1 1 0.0099958793311477421 0.010169419544974937 1 1 1 1 1 1 1 1 0.011103062431804943 1 1 1 1 1 1 1 1 1 1 1 1 1 1 1 1 1 1 1 1 1 1 1 1 1 1 1 1 1 1 1 1 1 1 1 1 1 1 1 1 1 1 1 1 1 1 1 1 1 0.012190045623769869 1 1 1 0.011238696756727406 1 1 1 1 1 1 1 0.01071916228365789 1 1 0.0093074858416824467 1 1 1 0.0095296906829104473 1 1 1 1 1 1 1 0.0091874045299284602 1 0.011112455659188074 1 0.010088118069386108 1 1 1 1 1 1 1 1 1 1 1 0.014173479346862061 1 1 1 0.011454051857195112 1 0.0131206001141884 1 1 1 0.0086613813151216069 1 1 1 1 1 1 1 1 1 0.0097097817033217071 1 1 1 1 1 1 0.0092320992602216798 1 1 1 1 0.014594365664995874 1 1 1 1 1 1 1 1 0.0099148540146753589 1 1 1 1 1 1 1 1 1 1 1 1 0.01056564852526686 1 1 1 1 1 1 1 1 1 1 1 1 1 1 1 1 1 1 1 1 1 1 1 0.011339074433235586 1 1 1 1 1 1 1 1 1 1 1 1 1 1 1 1 1 1 1 1 1 1 1 1 1 1 1 1 1 1 1 1 1 1 1 1 1 1 1 1 1 1 1 1 1 1 1 1 1 1 1 1 1 1 1 0.0092524405405725978 1 1 1 1 1 1 1 0.0088738213131813841 1 1 1 1 1 1 1 1 0.011793320696267538 0.0076093396585906539 1 1 0.010295893446547379 1 1 0.011377276114182922 1 1 1 0.01033913978446175 1 0.0097604517263718844 1 0.010691907309398362 1 1 0.0098995688521040341 1 1 1 1 1 1 1 1 1 1 1 1 1 1 1 1 0.014295879721104778 1 1 1 1 1 1 1 0.0093458952905583065 1 1 1 1 1 1 1 1 0.0099491263970871227 1 0.0098687068801096133 1 1 0.0080790297823418213 0.015606475439777353 1 0.0090974992031775115 1 1 1 1 1 1 1 1 1 0.011587446390644254 0.010550106806032883 1 1 1 1 1 1 1 1 1 1 1 1 1 0.011795495137418448 1 0.0071589099905167708 1 1 1 0.01008815175860691 1 1 1 1 0.010987828070727682 1 0.0074141646049101255 1 0.015889969935618455 1 1 1 1 0.010037456904374673 1 1 1 1 1 1 0.015026615323153886 1 1 1 1 1 0.0079904297690634278 1 1 1 0.0094247467822168932 1 1 1 1 1 1 1 1 1 1 1 0.010335749959635002 1 1 1 1 1 1 0.010923450289373261 1 1 1 1 1 1 1 1 1 0.0077342198526854002 0.01128320620261394 1 1 1 0.0099333825334521949 0.0082773750188629789 1 1 1 1 1 1 1 1 1 1 1 1 1 1 1 1 1 1 1 1 1 1 1 1 1 1 1 1 1 1 1 1 1 1 1 1 1 1 1 1 1 1 0.01024276248696007 1 1 1 1 0.010392673778249234 1 1 1 1 1 1 1 1 1 0.0083310543766352847 1 1 0.014020145063706769 1 0.010848883504468101 1 1 1 1 1 1 1 1 1 1 1 1 1 1 1 1 1 0.010682960400154066 1 1 1 1 1 1 1 1 1 1 1 0.010424643474303011 1 0.010213726729062556 0.011611509757263161 1 1 0.0099395477808187013 1 1 0.010234152111581185 1 1 0.0101012966382982 1 1 1 1 1 1 1 1 1 1 1 1 1 1 0.01151949108540451 1 1 1 1 1 1 1 1 1 0.010126607835010567 1 1 0.010023396236073283 1 1 1 1 1 1 1 1 1 0.011343131325783596 0.015717310009231038 1 1 1 1 1 0.010843114535735344 1 1 1 1 1 0.010269721719923479 0.014036960724044704 1 1 1 1 1 1 1 1 1 1 1 1 1 1 1 1 1 1 1 1 1 1 1 1 1 1 1 1 1 0.0095520185121770462 1 1 0.0098320156759998927 1 1 0.0085945340046168616 1 0.013374623677297094 1 1 0.01406968510668914 1 0.010039088487574377 1 1 1 1 1 1 1 1 1 1 1 1 1 1 1 1 1 1 1 1 1 1 1 1 1 1 1 1 1 1 0.0098112311669839129 1 1 1 1 1 1 1 1 1 1 1 1 1 1 0.010061146363485332 1 1 0.0099841580129919755 1 1 1 1 1 1 1 1 1 1 1 1 1 1 1 1 1 1 1 1 1 1 1 1 1 0.010147663713823567 1 0.010470966089289175 1 1 1 1 1 1 1 0.010289348707512223 1 1 0.011856411179219026 1 1 1 0.0099916242692496913 1 1 1 1 1 1 1 1 1 1 1 1 1 1 1 0.010302371661437758 1 1 1 1 1 1 1 1 0.015935598086033259 1 1 0.015160477962578758 1 1 1 1 0.026349494952431649 1 1 0.0099802753202888166 1 1 1 1 0.010021222680997897 1 1 1 0.011767901620089075 1 1 0.0118784397878608 1 0.011828373669014148 1 1 1 1 1 1 1 1 1 1 1 1 1 1 1 1 1 1 0.010850617694797679 1 1 1 1 1 1 1 1 1 0.0099472076175460659 1 1 0.010892671426005364 1 1 1 1 1 0.0099781296244168365 1 1 0.011219736362467826 1 1 1 1 1 1 1 1 0.013103229544916644 1 1 0.0095908371071234347 1 0.013862331813698454 1 1 0.0092150848537662089 1 1 1 1 1 1 1 0.013802527941882118 1 1 0.015435890019351885 1 1 0.01835031815673455 0.011795967401541062 0.014339790274378511 1 1 1 0.017832891689252582 1 1 0.0093468324775075277 1 1 1 0.011386535899675372 1 0.012437777446990275 1 1 0.021415891436386607 0.012734883169809526 0.022560240656585864 1 0.010375356231595015 1 0.030209336615624346 1 1 1 1 1 1 1 1 0.011882152591198717 0.0098001904944099629 1 1 1 1 1 1 1 0.01247638039043018 1 1 0.010385658991943221 1 1 0.010018588615159797 1 1 1 1 0.010474120484164375 1 1 1 1 1 1 1 1 1 1 1 1 1 1 1 0.0098597652566634695 1 1 0.0095729890286134229 1 1 0.0082395519141673715 1 1 1 0.017218024889323148 1 1 0.016875262398036616 1 0.010225348123111133 1 1 1 1 1 1 1 1 1 1 1 0.010582027416125602 1 1 1 1 1 0.0089043740123171903 1 1 1 0.017983006316543731 1 1 1 0.01718320269788887 1 1 0.0099814493902715667 1 0.010036496978046511 1 1 1 1 1 1 1 1 1 1 0.014947947953940749 1 1 1 0.016588682371812099 1 0.011738045940392031 1 1 0.012545019008114406 0.013393356023622724 1 0.018599553026276083 1 1 1 0.014958838999372391 1 1 1 0.010001834302499353 1 1 0.010220513253613828 1 1 1 0.0083122756186104329 1 0.012183231705859797 1 1 1 1 1 1 1 1 1 0.016194109167903811 1 1 0.010708665199964393 1 1 0.015061111905647505 1 1 1 1 1 0.0076685534310049399 1 1 1 1 1 1 0.0099484665870101571 1 1 1 1 1 1 1 1 0.013945449449123831 1 1 0.017784039987207102 1 1 1 1 1 1 1 1 0.01563206908305817 1 0.010027101333188402 0.0099707116340127088 1 1 1 0.018958203042044992 1 1 1 1 1 1 1 1 1 1 1 1 1 0.012142238831694149 1 1 0.010753735681030692 1 1 0.010301856593373217 1 1 1 0.015911355410345097 0.015909634434927603 1 1 1 1 0.010019345777212686 0.0062203660233909799 1 1 1 1 1 1 0.010014808218664965 1 0.0079470817278841695 1 1 1 1 1 1 1 1 0.0087555796037478689 1 1 1 1 1 1 1 1 1 1 1 1 1 1 1 1 1 1 1 1 1 1 1 1 1 1 1 1 1 1 1 1 1 1 1 1 1 1 1 1 0.0099648054016790652 0.0094185654538663146 1 1 1 1 0.010148063132338372 1 1 1 1 1 1 1 1 1 1 0.0099625271368713793 1 1 1 1 1 1 1 1 0.010839790536623092 1 1 1 1 1 1 1 1 1 1 1 1 1 1 1 0.009183667258745901 1 1 1 1 1 1 1 1 1 1 0.0099924926411088539 1 1 1 1 0.0099714818605196355 1 1 1 0.0090678332589089663 1 1 0.010289360228540509 1 1 0.010659057985809526 1 0.010914493198199423 0.012254521436112963 1 0.00995920541138068 1 1 1 1 0.0096658029029954157 0.014709460636775015 1 1 1 1 1 1 1 1 1 1 1 1 1 1 1 1 1 1 1 1 1 1 1 1 1 1 1 1 1 1 1 1 0.010783636128370001 1 1 1 1 1 1 1 1 1 1 1 1 1 1 1 1 1 1 1 1 1 1 0.0092559900847574445 0.0085637053569756413 1 1 1 1 1 1 1 1 0.009553125644663641 1 1 1 1 1 1 1 0.0093734280168669658 1 1 1 1 1 0.0097949097791056091 1 1 1 1 1 1 1 1 1 1 1 1 1 1 1 1 1 1 1 1 1 1 1 1 1 1 1 1 1 1 1 0.010181246880984346 1 1 1 1 1 1 0.011479605871041893 1 1 0.011265954264729223 1 1 1 1 1 1 1 1 1 1 0.010858992504228858 1 1 1 1 1 1 0.010473451436249694 1 1 1 0.01026846008421186 1 1 1 1 1 1 1 0.015328703946380992 1 1 1 0.010690049437197459 0.013907988592703629 1 1 1 1 1 1 0.011581300053369664 1 1 1 1 1 0.011317215582599131 1 1 1 0.011045859881160086 1 1 1 1 0.011588118936107644 1 1 1 0.010165271649405278 1 1 1 1 1 1 1 1 1 1 1 1 1 1 1 0.0061457887248985892 1 0.010116173683800488 1 1 1 1 1 1 1 1 0.010048017886992007 1 1 1 0.010917401457660321 0.0080292265934336932 1 1 1 1 1 1 0.0099915610604514073 0.0064486408047535661 1 1 1 1 1 1 1 1 0.0086772603547498779 1 1 1 1 1 1 1 1 1 1 0.013546890936450772 1 1 0.011526105352703313 1 1 0.0099991348487601765 0.0097041497920516417 1 1 1 1 1 1 1 0.019406627523316469 1 1 1 0.013754389124824764 0.004626221261558025 0.012014071576317164 1 1 1 1 1 1 1 1 1 0.019212703315576927 1 1 1 1 1 0.018606958898580057 1 1 1 1 1 1 1 0.012242972434041032 1 1 1 0.010797739841501139 1 1 1 1 1 1 1 1 1 1 1 1 1 1 0.016704176797945013 1 1 1 1 1 1 1 1 0.01706040110019633 1 1 0.016591387638886641 1 1 0.010079289194143189 1 1 1 1 1 1 0.011352253938634663 1 1 0.017575957220051057 1 1 1 1 1 1 1 1 1 1 1 1 0.0079222256620073012 1 1 0.010005152769374637 1 1 1 1 1 0.011462840140035551 0.014634602890468064 1 1 1 0.0091411908048837261 1 1 1 1 0.0099605191961096313 1 1 0.01247752257364744 1 1 1 1 1 1 1 1 1 1 1 1 0.015251188246728286 1 1 1 1 1 1 0.010146133029305417 1 1 0.010025285475875979 1 0.0097901104101530204 0.017819490808963907 1 1 1 1 1 1 1 1 1 1 1 1 1 1 1 0.012094851672779598 1 0.010779592542379677 1 1 1 1 1 0.010024358002742968 1 1 1 1 0.012602968941854711 1 0.010341036979314926 1 1 1 1 1 1 1 1 1 1 1 1 1 1 1 1 0.019351076800156027 1 1 0.018792721368586136 1 1 1 1 1 1 1 1 1 1 1 1 0.010085161368994476 1 1 1 1 1 1 0.010294935579955127 1 1 1 1 0.01827981352355906 1 1 1 1 1 0.018893326436748265 1 1 0.019288948365646874 1 1 1 1 1 1 1 1 0.010227930491445719 1 1 0.010568967470760643 1 1 1 1 1 1 1 1 1 1 1 1 1 1 1 1 0.010703399421521743 1 1 1 1 1 1 1 1 1 0.010254534921056886 1 0.011550317001686593 1 1 1 1 1 1 1 0.010690536170021405 1 0.010027197772755132 1 1 1 0.010972801287411826 0.01076942709841331 1 1 1 1 1 1 0.010326014596915324 1 1 1 0.010322426514692453 0.0099342080087873787 1 1 1 1 1 1 1 1 1 1 1 1 1 1 1 0.017206491965393728 1 1 1 1 0.011655228053165882 1 1 0.011733265362123968 1 1 1 1 1 1 1 1 0.010428825937214496 1 1 1 1 1 0.014191913558661416 1 1 0.013986395604213209 1 1 1 1 1 0.011991171013769663 1 1 1 1 1 1 1 1 1 1 1 1 1 0.010008682969696266 1 1 1 1 0.011529533949140962 1 1 0.012017293818137266 0.01363202964717153 1 1 1 1 1 0.016179487250438676 1 1 0.011883187198269111 1 1 0.014455318443277005 1 1 0.010251531836732605 1 1 1 1 1 1 1 1 1 1 1 1 1 1 1 0.01258819715540874 1 1 1 1 1 1 0.019445843461291031 1 1 1 1 1 0.022586664507969187 1 1 1 1 1 1 1 0.010823671609440545 1 0.011053999327112046 1 1 1 0.010815670816511854 1 1 1 1 0.012836138002038868 1 1 1 1 1 1 1 1 0.011262588869134844 1 1 1 1 0.011858755056322848 1 1 1 1 1 1 1 0.011899647390014562 1 1 1 1 1 1 1 1 1 1 1 1 1 1 0.010874655265612047 1 1 1 1 1 1 0.011399484349628421 1 1 1 1 1 1 1 0.010669621572651207 1 1 1 1 1 1 0.01148106424722454 1 1 1 0.011745173551859309 1 1 0.010665393430712695 1 1 1 1 0.025112269279749196 1 1 1 1 0.026798781635084177 1 1 1 1 1 1 1 0.014363702669186559 0.014959560092358234 1 1 1 1 1 0.019907535456525301 1 1 1 1 1 1 1 1 0.011900240366814778 1 1 1 1 1 1 1 1 0.010561026403806791 1 1 1 1 1 1 1 1 1 1 1 1 1 1 1 1 1 1 1 1 1 1 1 0.010270313096265821 1 0.0099934969080316752 1 1 1 1 0.0085048296106354157 0.01290998092616211 1 1 1 1 1 1 1 1 1 1 0.01912350864204055 1 1 0.0156954652112966 1 0.015883413247379297 1 0.017455132524235282 1 1 0.013705281646335596 1 1 0.0092314558631109191 1 0.017200471168604861 1 0.0080375939997058936 0.013380863686548842 1 0.0097928408187210794 0.0074083187871202341 1 0.013838734115907145 1 1 1 1 0.0099518599639840735 1 1 0.011297637686356492 1 1 0.010822830061585437 1 0.025408108665733085 1 1 1 0.016032157382305623 1 1 1 0.028344061138597554 1 1 1 1 1 1 1 1 1 1 1 1 1 1 1 1 1 1 1 1 1 1 1 1 1 1 1 1 1 1 1 1 1 1 1 1 1 1 1 1 1 1 0.011504095512698509 1 1 1 1 0.010665637566876864 1 1 1 1 1 1 1 1 1 0.0092492569479159861 1 1 1 1 1 1 1 1 1 1 1 1 1 1 1 1 1 1 1 1 1 1 1 1 1 1 1 1 1 1 1 1 1 1 1 1 1 1 1 1 1 1 1 1 1 1 1 1 1 1 1 1 0.010819637823299103 1 1 1 1 1 1 1 1 1 1 1 0.01194231390380545 1 1 1 1 1 0.011295119030130663 0.010091996797647027 1 1 1 0.010003947596147153 1 0.011507216160343029 1 1 0.010039699874900925 1 1 1 1 1 1 1 1 1 1 1 0.010429040141143637 1 0.011150955899447632 1 1 1 1 1 1 0.011011322986132995 1 1 1 1 1 1 1 1 1 1 1 1 0.012102436798390556 1 1 1 1 0.010028070386179545 1 1 1 1 1 1 1 1 1 0.01002798726025037 1 1 0.011811799898009637 1 1 1 0.010720686085752079 1 1 1 1 1 0.01466872367255238 1 1 1 1 1 1 1 1 1 1 1 1 0.011147460336422936 1 1 1 1 1 1 1 1 1 1 1 1 0.01314958979146761 1 1 1 1 1 1 1 1 1 1 1 1 1 1 1 1 1 1 0.016927949349542733 1 1 1 0.017512309593586718 1 1 1 1 1 1 1 1 1 1 1 0.016332506452184824 1 1 0.015706317946415839 1 1 1 1 1 1 1 1 1 1 1 1 1 1 1 1 1 1 1 1 1 1 1 1 1 1 1 1 1 1 1 1 1 1 1 0.010137139992184281 1 1 1 1 1 0.010298639848912867 1 0.011691136490569076 1 1 1 1 1 1 1 0.0099396338444502907 0.014148014290132981 1 1 1 1 1 1 0.017780603314861282 1 0.009686825757512129 1 1 1 1 1 1 1 1 1 1 1 1 1 1 1 0.010363507599057993 1 1 0.011018264366345485 1 1 1 0.0095861224875982004 1 1 1 1 0.010455575165279469 0.011395015608608013 1 1 1 1 1 1 0.016457666526520656 1 1 1 1 0.016306767350310055 1 1 1 1 1 1 1 1 1 1 1 1 1 1 1 1 1 1 1 1 1 1 1 1 1 1 1 0.016059183963263342 1 1 1 1 0.0096180463216190958 1 0.021743125832351995 1 1 1 1 1 1 1 1 1 1 1 1 1 0.010391196327413948 1 1 0.011099393966728764 1 1 1 1 1 1 1 1 1 1 1 1 1 0.010027805923408836 1 1 1 0.014578463877374629 1 0.017302609742421992 1 1 1 1 1 1 0.017423276180776694 1 0.010058256051868294 1 1 1 1 1 1 1 0.01149191175070154 1 1 1 1 1 0.0082792662005034476 1 1 1 1 1 1 1 1 1 0.016003157238170508 1 1 1 0.0094654855223923473 1 0.018713332962878929 1 1 1 1 0.011192641534832013 1 1 1 1 0.011023529315213946 0.014970906916603117 1 1 1 1 0.010715685214164938 1 1 0.014306047893154204 1 1 1 1 1 1 1 0.010233211173335869 1 1 1 0.014610659590738127 1 1 1 1 1 1 1 1 1 0.010002181620498561 1 1 0.0086615031712757203 1 1 0.010069294543178408 1 1 1 0.009994673855932109 1 0.0097497412672733208 0.01583998076376248 1 1 0.016134159575862454 0.017017323833935814 1 1 1 0.0099913061516796846 1 1 1 0.014136650482462182 1 0.0092985676833715284 0.0062774484787472013 0.01007212905106061 1 1 1 1 1 1 1 0.015790581082791785 1 1 1 0.014925933516538991 1 1 1 1 0.010291956800083903 1 1 1 1 0.0097498549253610262 1 1 1 0.012070383108022243 0.0094288696606533891 1 1 1 1 0.0092659301688487565 1 1 1 1 1 1 1 1 1 1 1 1 1 0.010197073760960865 1 1 1 1 0.0108258758846072 1 1 0.013780895781610502 1 1 1 1 1 1 1 0.0099698213727740653 1 0.0078485718505589275 1 1 1 1 1 1 1 0.030841155464157631 1 1 0.0072070747900571247 1 1 1 1 0.019146698006772885 0.01195829865761628 0.01119530328569877 1 1 1 1 1 1 1 1 1 1 1 0.019590992385690766 1 1 1 1 0.011354325812230214 1 1 1 1 1 1 1 1 1 1 1 1 1 1 1 1 1 1 1 1 1 1 1 1 1 1 1 1 1 1 1 1 1 1 1 1 1 0.010115331250958242 0.011345482423245149 1 0.014378434658136978 1 1 1 1 1 1 1 1 0.01143507062130353 0.010002744420323137 1 1 1 1 1 1 1 1 1 1 1 0.010956922607388384 0.010016343344580214 0.013154342537780859 1 0.011688670885303004 1 1 1 0.014556106118490007 0.011198693999099752 1 1 0.016477874883294892 0.013677313097879347 1 1 1 1 0.0095419043717673725 1 1 1 1 0.011449963510938207 1 1 1 1 1 0.013228693846611872 1 1 1 0.014158399887312744 1 0.0099486489576803127 1 1 1 1 0.010320901677015014 1 1 1 1 1 0.01059543683774437 1 0.011031016008982946 1 1 1 1 1 0.0098924395859097628 1 0.010124102644405032 1 1 1 1 1 1 1 0.010575480253794591 1 0.011624916324837038 1 1 1 1 1 1 1 1 1 1 1 1 1 1 1 1 1 1 1 1 1 1 1 1 0.010394512678021904 1 1 1 1 1 0.010451863898505274 0.012301579623242598 1 1 1 1 1 0.010122446567076691 1 1 1 1 1 1 0.011995681280811377 1 1 1 1 1 1 1 1 1 1 1 1 1 1 1 1 1 1 1 1 1 1 1 0.011025157480485015 1 1 1 0.0099143296384643365 1 0.012560352077204413 1 1 1 1 0.010636607055618299 0.010598910880389533 1 0.012522625385067553 1 0.010016739013975763 1 1 1 1 1 1 1 1 1 1 1 1 1 1 1 1 1 1 1 1 1 1 0.010023599155490004 1 1 1 1 0.010047576324399971 1 1 1 1 1 1 1 1 1 0.0099725986814051711 1 1 1 1 1 1 1 1 1 1 1 1 1 1 1 1 1 1 1 1 1 1 0.010362670949315242 1 1 1 1 1 0.0098128465934780636 1 1 1 1 0.016424205093452514 1 1 1 0.0099116617908875191 1 1 0.01211652871248714 1 1 1 1 1 0.0094216178075247868 1 0.011242149585220823 0.010159003534289827 1 1 1 1 1 1 0.010214224842944361 1 1 0.010134112532515607 1 0.0091773144258360789 1 1 0.010354107869089234 1 1 1 0.01032663462150067 1 1 1 1 1 0.0095191260681384213 1 1 0.010000736654560598 1 1 0.0082287191669151508 1 1 1 1 1 0.010326448105360668 1 1 1 1 1 1 1 1 1 1 1 0.016530097905221336 0.011521471192829045 1 0.014613629444492867 1 1 0.016427476002918898 1 1 1 0.011038799665686614 1 0.0078108645005239823 1 1 0.010489958352734828 1 1 1 0.010470506879502895 1 1 1 1 0.010444804914232194 0.010198106408983554 1 1 1 1 1 1 1 0.0099874130114194683 1 1 1 1 1 1 0.010794800171131593 1 1 1 1 1 1 1 1 1 1 1 1 1 1 1 1 1 1 1 1 1 1 1 1 1 1 1 1 1 1 1 0.0099048841235152927 0.010696885397596443 1 1 1 1 1 1 1 1 1 1 1 1 1 1 1 1 1 1 1 1 1 1 1 1 1 1 1 1 1 1 1 1 1 1 1 1 1 1 1 1 1 1 1 1 1 0.010716893127599332 1 1 1 1 1 1 1 1 1 1 1 1 1 1 1 0.016401558379192556 1 1 1 1 1 1 0.011066547795988077 0.016329037437391461 1 1 1 1 1 1 0.017874952319673721 0.0099992755600839464 0.012141953446858882 1 1 1 0.016217215663427181 1 0.010074615275859886 1 1 1 1 1 1 1 1 1 1 1 1 1 1 0.010048271650931454 1 1 1 1 1 0.010145433618783246 1 0.015672594267223748 1 0.020760564684807858 1 1 1 1 1 1 1 1 1 1 1 1 1 1 0.019832384999774862 1 1 0.011876369141965774 1 1 1 1 1 1 1 1 1 1 1 0.0085050974231504761 1 1 0.010009298896612083 1 1 0.010186287231993021 1 1 1 1 1 1 1 1 1 1 1 1 1 1 1 1 1 1 1 1 1 1 0.010027479487613632 1 1 0.015589847763293235 0.0087860964636755877 1 0.0078764181799131951 1 0.0076533024803632048 1 1 1 0.014068711502273828 0.0090445781760398122 1 1 0.0054311006587568697 1 0.016465870038663791 1 1 0.0065258140531121852 0.009698487603245206 1 1 1 1 1 1 0.014966223561074731 1 1 1 1 1 1 0.010686725741270211 1 1 0.0099880394837835937 1 0.0096130234330850557 1 1 1 1 1 1 1 1 0.010203628120478985 1 1 1 0.01309393566980609 1 1 1 1 0.0099897459708504152 1 1 1 1 1 1 1 1 1 1 0.011318441627342883 1 1 1 1 0.010809053670365828 1 1 0.0086991911424074506 1 1 0.010034273455631033 1 1 0.010003612773453572 1 1 1 1 1 1 1 1 0.0097107707501382593 1 1 0.010390570865227079 1 1 1 1 1 1 1 1 1 1 0.011002937831272302 1 0.010038906732211432 1 1 1 1 0.010054270028070609 1 1 1 1 1 1 1 1 1 1 1 1 1 1 1 1 1 1 1 1 0.011441630974615433 1 0.012151742112541272 1 1 1 1 1 1 1 1 1 1 1 0.010001588905781081 1 0.010253060578366967 0.012128645172692756 1 1 1 1 1 1 1 1 1 1 1 0.0091089367840887121 1 1 1 1 1 1 0.010062581524635864 1 0.016006737610350222 1 0.0094879896001639954 1 1 1 0.0099909432106805932 0.012491967947813359 1 0.009790286926329661 1 0.0097180900818247505 1 1 0.013105554546144302 1 1 1 0.0093423142848623533 1 1 1 1 0.0090147782259754079 1 1 1 1 0.010047410755255712 0.013848348929839919 1 1 1 1 1 0.0099828552638919956 1 1 1 1 1 1 1 1 1 1 1 1 0.0099814716883998254 1 1 1 1 1 1 1 1 1 1 1 0.0098998857839671627 1 1 1 1 1 0.01441476266336557 1 1 1 1 1 0.009592377468313755 1 1 1 1 1 0.0098695675615179321 1 1 0.015521258070720389 1 1 1 0.009849082185065916 1 0.012596365002894485 1 0.0092945109280621503 1 1 1 0.0097220108506494117 1 1 0.012303457404599157 0.0099933419710268138 1 1 1 1 1 1 0.014136837130269159 1 1 1 1 0.010079039206153637 1 1 1 1 1 1 1 1 1 1 1 1 1 1 1 1 0.0079123147169007681 1 1 0.01004899286912495 1 1 1 1 1 0.010399469766045411 1 1 1 1 0.0069635583143828304 1 0.011201461304138561 1 1 1 1 1 1 1 1 1 1 0.020384469386036486 0.010002226120028114 0.0081746906357213038 1 0.014606340196631392 1 1 1 1 1 1 1 1 1 1 1 1 1 0.011981504446142887 1 1 1 1 1 1 1 1 1 1 1 1 0.011722423025187173 0.012649406729269255 1 1 1 0.017279016956105408 1 0.0098543029840026455 1 1 1 1 1 1 1 1 1 1 1 1 1 0.012253841869120761 1 0.018265465404546908 1 1 1 1 1 1 1 0.013331872867981615 1 1 1 1 1 1 1 0.015107162740509689 1 1 1 1 1 1 1 1 1 1 1 1 1 1 1 1 1 1 1 1 1 1 1 1 1 0.014071194110662814 0.010022240145788374 1 1 1 1 1 1 1 1 1 1 1 1 1 1 0.01265196477726928 1 1 0.013307370216655736 1 1 1 1 1 1 1 1 1 1 1 1 1 1 1 1 1 1 1 1 1 1 1 0.011831884997864214 1 0.010687766158421094 1 1 1 1 1 0.010721678901470457 1 1 1 1 1 1 1 1 1 1 1 1 1 1 1 1 1 1 1 1 1 1 1 0.0097437004271359214 1 1 1 1 1 1 0.025210537165462715 1 1 1 1 1 1 1 0.023373550999783634 1 1 1 0.012996416843940914 1 1 1 1 1 1 0.012302401678511612 1 1 1 1 1 0.010889413923352529 1 1 1 1 1 1 1 1 1 0.010577772266893833 1 1 1 0.011811743710298365 1 1 1 1 1 1 0.010408263707995837 1 1 1 0.011235439980160125 1 1 1 1 1 1 1 1 1 1 1 0.015718642545096952 1 0.017504625184629335 1 1 1 0.014154383393787516 1 1 0.010529348051350949 0.010166457219043192 1 1 1 1 1 1 1 0.020879544737850558 1 1 1 0.020148955423924378 1 1 0.0099488262762301508 0.013402430642682067 1 0.010016375172227015 1 1 1 0.0092203262138639344 1 1 1 1 1 1 1 1 0.025786751887169737 0.0091479933823637033 1 1 1 1 0.0077503048814661843 1 1 1 1 1 1 1 1 1 1 1 1 1 1 1 1 1 1 1 1 1 1 1 1 1 1 1 1 1 1 1 1 0.010213704971223111 1 1 1 1 1 1 0.012451037475655714 1 1 1 1 1 1 1 1 1 0.010589501394125473 1 1 1 1 1 1 1 1 1 1 1 1 1 1 1 1 1 1 1 1 1 1 1 1 1 0.0099990025513808992 1 1 1 1 1 1 1 1 1 1 1 1 0.018805947695793371 1 1 1 0.014084401300925583 1 1 1 1 1 1 1 1 1 1 1 1 1 1 1 1 1 1 1 1 1 1 0.0099434904708544103 1 1 0.0099314777015483621 1 0.019710649995763604 1 1 1 1 1 1 0.015714512116598016 1 1 1 1 1 1 1 1 1 1 1 1 1 1 1 1 1 1 1 1 0.015300955983600312 1 1 1 0.010559962603379849 1 1 1 1 1 0.011440142164002621 1 1 1 1 0.013835525244019951 1 1 0.019878448764655977 1 1 1 1 1 1 1 1 1 1 1 1 1 1 1 1 1 0.01096020135894559 0.02092236426294011 1 1 1 1 1 1 1 1 1 1 1 1 1 0.011598311603306296 1 0.013047742393261223 1 1 1 1 1 1 1 1 1 1 1 1 1 1 1 1 1 1 1 1 1 1 1 1 1 1 1 0.012306409267237544 1 1 1 1 1 1 0.011449430789954926 1 1 1 1 1 1 1 1 1 0.011738959639192782 1 1 1 1 0.011296027326178383 1 1 1 1 1 1 1 1 1 1 1 1 1 1 1 1 1 1 1 1 1 1 1 1 0.015627660027578143 1 1 0.01101038194105915 0.019496131650751591 1 1 1 1 1 1 1 1 1 0.011445053423996559 1 1 1 1 0.012857873894515957 1 1 1 1 1 0.02225202242661016 1 1 1 0.012488253776554034 1 1 0.017017140285642794 0.012170008895682203 0.017272773610723387 1 1 1 1 0.015278854818366223 1 1 0.010080188390827124 0.010028336494177618 1 0.0095128912478116417 1 1 1 0.010689196611154417 1 1 0.0099001122809284914 0.017329560456275813 1 1 1 1 1 1 1 1 1 1 1 1 1 0.016770570442987385 1 1 1 1 1 1 1 0.017908958725278874 1 1 1 1 1 1 1 1 0.010260282721827883 1 1 1 1 1 1 1 1 1 1 1 1 1 1 1 1 1 1 1 1 1 1 1 1 1 1 0.012957025641647574 1 1 1 1 1 1 1 1 1 1 1 1 0.0095715963650968485 1 1 1 1 1 1 1 1 1 1 1 1 0.010871579241981609 1 1 1 1 1 1 1 1 1 1 1 1 1 1 1 1 1 1 1 1 1 1 1 1 1 1 1 1 1 1 1 1 1 1 1 1 0.010646699917973394 1 1 1 1 1 0.011282448233193468 1 0.010254059802374701 1 0.010542150909220342 0.01496372304269351 1 1 1 1 1 1 1 0.015357405351661836 1 1 1 1 1 1 1 1 1 1 1 1 1 1 1 1 1 1 1 1 0.010594530970860135 1 1 1 1 0.011638982336227285 1 0.013714546894442178 1 1 1 1 1 1 1 1 1 0.010125546571104357 1 1 1 1 1 1 0.010228231007630671 1 1 0.0098807781082625307 1 1 1 1 1 1 0.011221152216096712 1 1 1 1 1 1 1 1 1 1 1 1 1 1 1 1 1 1 1 1 1 1 1 1 1 1 1 1 1 1 1 1 1 1 1 1 0.0091109610176365388 1 1 1 1 0.010002017435633139 1 1 1 1 1 0.016346819691451436 1 0.012759711732602113 1 1 1 1 1 1 1 1 1 1 1 1 1 1 1 1 1 1 1 1 1 1 1 1 1 1 1 1 0.010102684436526321 0.011792751474176688 1 1 1 1 1 1 1 1 1 1 1 1 0.010281125931265855 1 1 1 1 1 1 1 1 1 1 1 1 1 1 0.014989442151072533 1 1 0.017767432605353919 1 1 1 1 1 1 0.015146865256086283 1 1 1 1 1 0.0099015638886638911 1 1 1 1 0.023610697592828668 1 0.011554826383115247 1 1 1 1 1 1 1 1 1 1 0.0096304428654141773 1 0.015835643134191779 0.011094200884667171 1 1 1 1 0.012736436027899464 1 1 0.012443511797305518 1 1 1 0.01488893078087364 1 1 1 1 1 1 1 1 1 0.015032154725703413 1 0.010308117075418916 1 1 1 1 1 1 0.012143103507856221 1 0.01218663334357104 1 1 1 0.01010109609511602 1 1 1 1 1 1 1 1 0.0089752413840867573 1 1 1 1 1 0.017499622506275236 0.01023550489495708 1 1 1 1 0.0126500961792136 0.01446646259794309 0.0098554202101227457 1 1 0.0099394937819090329 1 1 1 1 1 1 1 1 1 0.010448552800964146 1 1 1 1 0.010796644521150402 0.014317655008521049 0.016993768625105307 1 1 1 1 1 1 0.01272703012130532 1 1 0.010610111665793912 1 1 1 1 1 1 1 1 1 0.010000063584751379 1 0.011512337318001522 1 0.010394068957245785 1 1 1 1 1 1 0.014144400927546803 1 1 1 0.0099724863342311176 0.0099312214887597901 1 1 1 1 1 1 1 1 1 1 1 1 1 1 1 1 1 1 1 1 0.0099336516256260821 1 1 1 1 1 1 1 1 0.0089229784113459987 1 0.021233698468072121 1 0.0089613268003125978 1 1 1 0.0098401296861499333 1 1 1 1 1 1 0.012251509770142324 1 1 1 0.010382844832579678 1 1 1 1 1 0.010379584468259446 1 1 1 1 0.0084490886015097556 1 1 1 0.015927335117668813 1 1 0.0071797206773487349 1 1 0.0089009733975596601 1 1 1 1 1 0.0093828648736421754 1 0.0098438696773731141 1 1 1 1 1 1 1 1 1 1 1 1 1 1 0.017642748532135516 1 1 0.010375909307992301 0.010625144960052119 1 1 1 1 1 1 1 1 1 1 1 1 1 1 1 0.017919937384265172 1 1 1 1 1 1 1 1 1 1 1 1 1 1 1 1 1 1 1 1 1 1 1 1 1 1 1 1 1 0.011731407532208853 1 1 1 1 1 1 1 0.014920414456630917 1 1 1 1 1 0.015887798890443096 1 1 1 1 1 0.0093619782012906022 1 1 1 1 1 1 1 1 1 1 0.010620272924693903 1 0.0091479133026958169 1 1 1 1 1 1 1 1 1 1 1 1 1 0.0099459713326389646 1 1 1 1 1 1 0.0099457882089989992 1 1 1 1 1 1 1 1 1 1 1 1 1 1 1 1 1 1 1 1 1 1 1 1 0.016633070328897191 0.018678805998348286 1 1 0.010067863399399564 1 1 0.019807573169278059 1 1 1 1 1 1 0.014761059417314678 1 1 1 1 1 1 1 0.013125318701527229 0.010785235437615432 1 1 1 1 1 1 1 1 1 1 1 1 1 1 1 1 1 1 1 1 1 1 1 1 1 1 1 1 1 1 1 1 1 1 1 1 1 1 1 1 1 1 1 1 0.012649150172180317 1 1 1 1 1 1 1 1 1 1 1 0.011999991527703886 1 1 1 1 1 1 1 1 1 1 1 1 1 1 1 1 1 1 1 1 1 1 1 1 1 1 1 1 1 1 1 1 1 1 1 0.011454653508277981 1 0.013883143576892991 1 1 1 1 1 1 1 0.01336797278420547 1 0.0096726264091265279 1 1 1 1 0.010335418604621756 1 1 1 1 1 1 1 1 1 1 1 1 1 1 1 1 1 1 1 1 1 1 1 1 0.011252956902530932 1 1 1 1 1 1 1 1 1 1 1 1 1 1 1 1 1 1 1 1 1 1 1 1 1 1 1 1 1 1 1 1 1 1 1 1 1 1 1 1 1 1 1 1 1 1 1 1 1 1 1 1 1 0.011629565364031098 1 1 1 1 1 1 1 1 1 1 1 0.011946705561393914 0.012384720299312823 1 1 1 1 1 1 1 1 1 1 1 1 1 1 1 1 1 1 1 1 0.0097999100481694218 1 1 1 0.013472531553085176 1 0.013695131653923023 0.0099593507739061116 1 1 1 1 1 1 1 1 1 1 0.01065975941054053 1 1 1 1 1 1 1 1 1 1 1 1 1 1 1 1 1 1 1 1 1 1 1 1 1 1 1 1 1 1 1 1 1 1 1 1 1 1 1 1 1 1 1 0.012534336639212138 1 1 1 1 1 0.013030935550455668 1 1 0.01231545127791114 1 1 1 1 1 1 1 1 1 1 1 1 1 0.01091751793185735 1 1 1 1 1 1 1 1 1 1 1 1 0.012840407518172364 1 1 1 1 1 1 1 1 1 0.0099638047080956027 1 0.0082499706568068959 1 1 1 0.020631075624900554 1 1 0.017801076086725799 1 1 1 1 1 1 1 1 1 1 1 1 1 1 1 1 1 1 1 1 1 1 1 1 1 1 1 1 1 1 1 1 1 1 1 1 0.013077396158533244 1 0.023642388911396178 1 1 1 1 0.01631938163084912 1 0.0097313875896637529 1 1 1 1 0.025314256958286485 1 1 1 1 0.0097059149084289167 1 1 1 0.010786005518886872 1 1 1 1 0.0080156885925571041 1 1 1 1 1 1 0.0068573371262399801 1 1 0.014335209247579906 1 0.0088908091109025644 0.014773933137994976 1 1 0.016003359298561663 1 1 0.0082392506756850462 1 1 0.0099955399720901665 1 0.015768152718821465 1 1 1 1 1 0.013273414833080859 0.0083837755054388327 0.010001550330995496 1 1 1 0.0095954721055197222 1 1 1 1 0.0082535494107335676 0.026250597624061983 1 1 1 1 1 1 1 1 1 1 1 1 1 1 1 0.0098721093262651056 1 0.010091324259030858 1 0.0077105352423887299 1 0.0095407204261866614 0.012258584808923351 1 0.013807970462783691 1 1 1 1 0.008785653093050072 1 1 1 1 0.011820416059282343 0.010000967532736514 1 1 1 1 1 1 1 1 1 1 1 1 1 1 1 1 1 1 1 1 1 1 0.0099750017153148237 0.010133350365753253 1 1 1 1 1 0.010108352081068079 1 1 1 1 1 0.010664069621789856 1 1 1 1 1 1 1 1 1 1 1 1 1 1 0.0072861488796116848 1 1 1 0.0086456338109594313 1 0.010657311422788428 0.0061088055627891141 0.014125134023438402 1 1 1 1 0.011208435281236424 0.014341318180450393 1 1 1 1 0.0097712752729051978 0.0095410554166463837 0.0099991867725680323 1 1 1 1 0.012618065125512489 1 1 1 1 1 1 1 1 1 1 1 1 1 0.012747114170823411 1 1 0.010112440554848133 1 0.010259857984589223 1 1 0.010393471244654612 1 1 1 1 1 1 0.0088070650853444375 1 1 1 1 1 1 1 1 1 1 1 1 0.011112800448552871 1 1 1 1 1 1 1 1 1 0.016602202898512147 1 1 1 0.018946772158186166 1 1 1 0.0080750963701091642 1 1 1 0.019579423958837182 0.0076722936319414689 1 1 0.0094600035499030257 1 0.0092099267163344104 1 1 0.010446112729533658 1 1 1 1 1 1 1 1 0.011264532652581129 1 1 1 1 1 1 0.010352633578822823 1 1 1 1 1 0.0098342022198054917 1 1 1 1 1 1 1 1 1 1 1 1 1 1 1 0.0099259683578440498 1 1 0.011441957433734962 1 1 1 0.011981338360086642 1 1 1 0.010059627302597397 1 1 1 1 1 1 1 0.0099446982677879724 1 0.011610308338234936 1 1 1 1 1 1 1 1 1 1 1 1 1 1 1 1 1 1 1 1 0.011550911498565792 1 1 1 1 1 1 1 1 1 1 0.016579874223243796 1 0.01130030005400802 1 1 1 1 1 0.026790260907535317 1 0.016187902698384965 1 1 1 1 1 1 0.011751344085522348 1 1 1 1 1 1 0.010933354910305511 1 1 1 1 1 1 1 1 1 0.010035686825650748 0.015274820775567417 1 1 1 1 1 1 1 0.0099086719429549008 1 1 0.01409678507028676 1 1 1 1 1 1 1 0.014375669407832827 1 1 1 1 1 1 1 1 0.0094866351129900012 1 0.0085570292093295995 1 1 1 1 1 1 1 1 1 1 1 1 1 1 1 1 1 1 1 1 1 1 1 1 1 1 1 1 1 1 1 1 1 1 1 1 1 1 1 1 1 1 1 1 1 1 1 1 1 1 1 1 1 1 1 1 0.018634053636554536 1 1 1 1 1 1 1 1 0.014063311708096465 1 1 1 1 1 1 1 1 0.010227304097831378 1 1 1 1 1 0.014618428699158068 1 0.0087106197954600686 1 1 1 1 1 0.013757030612074237 1 1 1 1 0.017035567463200937 1 1 1 1 1 1 1 1 0.012900097603751326 1 1 1 0.016021495202612878 0.0076387808636309232 1 1 0.0092740689401245475 1 1 1 1 1 1 0.015070480093364206 1 0.01205928165125798 1 1 1 1 1 1 1 1 1 1 1 1 1 1 1 1 1 1 1 1 1 1 1 1 1 1 1 1 1 1 1 1 1 1 1 1 1 1 1 0.011805201422724881 1 1 1 1 1 
</DataArray>
</CellData>
</Piece>
</UnstructuredGrid>
</VTKFile>
